<?xml version="1.0"?>
<VTKFile type="UnstructuredGrid" version="0.1" byte_order="LittleEndian">
<UnstructuredGrid>
<Piece NumberOfPoints="31361" NumberOfCells="11023">
<Points>
<DataArray type="Float64" NumberOfComponents="3" format="ascii">
-0.5 -0.5 0 -0.47521452460427849 -0.48515781892810922 0 -0.43912941635954139 -0.5 0 -0.5 -0.5 0 -0.50000000000000089 -0.47389045292974269 0 -0.47521452460427849 -0.48515781892810922 0 -0.50000000000000089 -0.47389045292974269 0 -0.48157779780473042 -0.47383940176747169 0 -0.48113186975170552 -0.46243621618703579 0 -0.50000000000000089 -0.47389045292974269 0 -0.48157779780473042 -0.47383940176747169 0 -0.47521452460427849 -0.48515781892810922 0 -0.48157779780473042 -0.47383940176747169 0 -0.46996479686293652 -0.47387311902499951 0 -0.48113186975170552 -0.46243621618703579 0 -0.48157779780473042 -0.47383940176747169 0 -0.46996479686293652 -0.47387311902499951 0 -0.47521452460427849 -0.48515781892810922 0 -0.47521452460427849 -0.48515781892810922 0 -0.43912941635954139 -0.5 0 -0.4495003445636675 -0.48407740969294832 0 -0.46996479686293652 -0.47387311902499951 0 -0.47521452460427849 -0.48515781892810922 0 -0.45936480761025311 -0.47610621924459279 0 -0.47521452460427849 -0.48515781892810922 0 -0.45936480761025311 -0.47610621924459279 0 -0.4495003445636675 -0.48407740969294832 0 -0.46996479686293652 -0.47387311902499951 0 -0.45936480761025311 -0.47610621924459279 0 -0.45594212854773958 -0.46620037266205561 0 -0.45936480761025311 -0.47610621924459279 0 -0.44825892125798278 -0.46511576677685429 0 -0.45594212854773958 -0.46620037266205561 0 -0.45936480761025311 -0.47610621924459279 0 -0.4495003445636675 -0.48407740969294832 0 -0.44825892125798278 -0.46511576677685429 0 -0.4495003445636675 -0.48407740969294832 0 -0.44825892125798278 -0.46511576677685429 0 -0.42322840437491832 -0.4680726840383056 0 -0.45859007097605298 -0.44875181310177958 0 -0.43604827220040038 -0.43506741001652371 0 -0.44291965954134288 -0.44946692152953072 0 -0.45092619634596981 -0.45608459976135712 0 -0.45859007097605298 -0.44875181310177958 0 -0.44291965954134288 -0.44946692152953072 0 -0.45859007097605298 -0.44875181310177958 0 -0.43604827220040038 -0.43506741001652371 0 -0.45859007097605298 -0.44875181310177958 0 -0.44939339550943158 -0.43290908517399318 0 -0.43604827220040038 -0.43506741001652371 0 -0.44291965954134288 -0.44946692152953072 0 -0.43981356015856349 -0.45872663026195409 0 -0.45092619634596981 -0.45608459976135712 0 -0.44291965954134288 -0.44946692152953072 0 -0.43981356015856349 -0.45872663026195409 0 -0.43324852315443491 -0.45438293807959429 0 -0.44825892125798278 -0.46511576677685429 0 -0.45092619634596981 -0.45608459976135712 0 -0.45776615668026321 -0.45802775728884848 0 -0.43981356015856349 -0.45872663026195409 0 -0.44825892125798278 -0.46511576677685429 0 -0.45092619634596981 -0.45608459976135712 0 -0.45092619634596981 -0.45608459976135712 0 -0.45776615668026321 -0.45802775728884848 0 -0.45859007097605298 -0.44875181310177958 0 -0.44825892125798278 -0.46511576677685429 0 -0.45776615668026321 -0.45802775728884848 0 -0.47328943814104729 -0.46215884951540309 0 -0.45594212854773958 -0.46620037266205561 0 -0.48113186975170552 -0.46243621618703579 0 -0.44825892125798278 -0.46511576677685429 0 -0.47328943814104729 -0.46215884951540309 0 -0.44825892125798278 -0.46511576677685429 0 -0.45594212854773958 -0.46620037266205561 0 -0.47328943814104729 -0.46215884951540309 0 -0.45776615668026321 -0.45802775728884848 0 -0.45859007097605298 -0.44875181310177958 0 -0.47328943814104729 -0.46215884951540309 0 -0.45859007097605298 -0.44875181310177958 0 -0.46828194543481633 -0.43212401577094911 0 -0.44939339550943158 -0.43290908517399318 0 -0.45859007097605298 -0.44875181310177958 0 -0.47630662923339617 -0.44614377159533181 0 -0.46828194543481633 -0.43212401577094911 0 -0.47630662923339617 -0.44614377159533181 0 -0.48332779502205409 -0.43603858399470302 0 -0.46828194543481633 -0.43212401577094911 0 -0.47630662923339617 -0.44614377159533181 0 -0.48113186975170552 -0.46243621618703579 0 -0.48856301174181488 -0.4482502984959742 0 -0.45859007097605298 -0.44875181310177958 0 -0.47630662923339617 -0.44614377159533181 0 -0.48113186975170552 -0.46243621618703579 0 -0.47630662923339617 -0.44614377159533181 0 -0.48856301174181488 -0.4482502984959742 0 -0.48332779502205409 -0.43603858399470302 0 -0.45859007097605298 -0.44875181310177958 0 -0.47328943814104729 -0.46215884951540309 0 -0.48113186975170552 -0.46243621618703579 0 -0.46996479686293652 -0.47387311902499951 0 -0.45594212854773958 -0.46620037266205561 0 -0.48113186975170552 -0.46243621618703579 0 -0.45594212854773958 -0.46620037266205561 0 -0.47328943814104729 -0.46215884951540309 0 -0.48113186975170552 -0.46243621618703579 0 -0.45859007097605298 -0.44875181310177958 0 -0.48113186975170552 -0.46243621618703579 0 -0.48113186975170552 -0.46243621618703579 0 -0.50000000000000133 -0.45961671145014499 0 -0.48856301174181488 -0.4482502984959742 0 -0.50000000000000089 -0.47389045292974269 0 -0.48113186975170552 -0.46243621618703579 0 -0.50000000000000089 -0.47389045292974269 0 -0.48113186975170552 -0.46243621618703579 0 -0.50000000000000133 -0.45961671145014499 0 -0.48113186975170552 -0.46243621618703579 0 -0.50000000000000133 -0.45961671145014499 0 -0.48856301174181488 -0.4482502984959742 0 -0.5 -0.43177987338679019 0 -0.48332779502205409 -0.43603858399470302 0 -0.50000000000000133 -0.45961671145014499 0 -0.48856301174181488 -0.4482502984959742 0 -0.5 -0.43177987338679019 0 -0.5 -0.43177987338679019 0 -0.48332779502205409 -0.43603858399470302 0 -0.48348738870024333 -0.42189496072446941 0 -0.48348738870024333 -0.42189496072446941 0 -0.5 -0.40394303532343562 0 -0.4772095537368517 -0.40540681951553897 0 -0.5 -0.43177987338679019 0 -0.48348738870024333 -0.42189496072446941 0 -0.5 -0.40394303532343562 0 -0.48348738870024333 -0.42189496072446941 0 -0.4772095537368517 -0.40540681951553897 0 -0.46864673260664008 -0.41644210554817929 0 -0.48348738870024333 -0.42189496072446941 0 -0.46828194543481633 -0.43212401577094911 0 -0.46864673260664008 -0.41644210554817929 0 -0.48332779502205409 -0.43603858399470302 0 -0.48348738870024333 -0.42189496072446941 0 -0.46828194543481633 -0.43212401577094911 0 -0.5 -0.37610619726008082 0 -0.48539745866165152 -0.38995309238822567 0 -0.48249782853879469 -0.37031042665884711 0 -0.5 -0.37610619726008082 0 -0.48539745866165152 -0.38995309238822567 0 -0.5 -0.40394303532343562 0 -0.48539745866165152 -0.38995309238822567 0 -0.5 -0.40394303532343562 0 -0.4772095537368517 -0.40540681951553897 0 -0.48539745866165152 -0.38995309238822567 0 -0.4772095537368517 -0.40540681951553897 0 -0.46753341795117631 -0.38509595464214252 0 -0.48539745866165152 -0.38995309238822567 0 -0.46753341795117631 -0.38509595464214252 0 -0.48249782853879469 -0.37031042665884711 0 -0.46753341795117631 -0.38509595464214252 0 -0.45093868521821628 -0.39222125200518532 0 -0.45237398123561301 -0.37353220191343328 0 -0.46753341795117631 -0.38509595464214252 0 -0.46660492403224851 -0.36914438154824403 0 -0.45237398123561301 -0.37353220191343328 0 -0.46753341795117631 -0.38509595464214252 0 -0.45093868521821628 -0.39222125200518532 0 -0.4772095537368517 -0.40540681951553897 0 -0.46753341795117631 -0.38509595464214252 0 -0.46016088467119898 -0.40413024041890411 0 -0.46753341795117631 -0.38509595464214252 0 -0.46016088467119898 -0.40413024041890411 0 -0.45093868521821628 -0.39222125200518532 0 -0.46016088467119898 -0.40413024041890411 0 -0.45093868521821628 -0.39222125200518532 0 -0.43434395248525531 -0.39934654936822539 0 -0.45093868521821628 -0.39222125200518532 0 -0.43434395248525531 -0.39934654936822539 0 -0.45093868521821628 -0.39222125200518532 0 -0.43656920102039848 -0.37914598798575172 0 -0.45237398123561301 -0.37353220191343328 0 -0.45093868521821628 -0.39222125200518532 0 -0.43656920102039848 -0.37914598798575172 0 -0.43434395248525531 -0.39934654936822539 0 -0.46828194543481633 -0.43212401577094911 0 -0.46864673260664008 -0.41644210554817929 0 -0.45409389049009019 -0.41865449131103449 0 -0.46828194543481633 -0.43212401577094911 0 -0.45409389049009019 -0.41865449131103449 0 -0.44939339550943158 -0.43290908517399318 0 -0.4772095537368517 -0.40540681951553897 0 -0.46016088467119898 -0.40413024041890411 0 -0.46864673260664008 -0.41644210554817929 0 -0.46016088467119898 -0.40413024041890411 0 -0.46864673260664008 -0.41644210554817929 0 -0.45409389049009019 -0.41865449131103449 0 -0.45409389049009019 -0.41865449131103449 0 -0.43434395248525531 -0.39934654936822539 0 -0.45409389049009019 -0.41865449131103449 0 -0.438074710361404 -0.4204484695153512 0 -0.43434395248525531 -0.39934654936822539 0 -0.46016088467119898 -0.40413024041890411 0 -0.45409389049009019 -0.41865449131103449 0 -0.43434395248525531 -0.39934654936822539 0 -0.45409389049009019 -0.41865449131103449 0 -0.438074710361404 -0.4204484695153512 0 -0.44939339550943158 -0.43290908517399318 0 -0.43604827220040038 -0.43506741001652371 0 -0.42502195058459152 -0.4300320338877438 0 -0.41933381965428562 -0.44012814716793469 0 -0.44939339550943158 -0.43290908517399318 0 -0.42502195058459152 -0.4300320338877438 0 -0.438074710361404 -0.4204484695153512 0 -0.44939339550943158 -0.43290908517399318 0 -0.42502195058459152 -0.4300320338877438 0 -0.44939339550943158 -0.43290908517399318 0 -0.43604827220040038 -0.43506741001652371 0 -0.42502195058459152 -0.4300320338877438 0 -0.438074710361404 -0.4204484695153512 0 -0.42502195058459152 -0.4300320338877438 0 -0.42546065058922722 -0.41609799623502147 0 -0.42546065058922722 -0.41609799623502147 0 -0.41498898856847483 -0.40765701001723398 0 -0.43434395248525531 -0.39934654936822539 0 -0.438074710361404 -0.4204484695153512 0 -0.42546065058922722 -0.41609799623502147 0 -0.43434395248525531 -0.39934654936822539 0 -0.41498898856847483 -0.40765701001723398 0 -0.41245212108817397 -0.41952685946974699 0 -0.39563402465169317 -0.41596747066624001 0 -0.42546065058922722 -0.41609799623502147 0 -0.41498898856847483 -0.40765701001723398 0 -0.41245212108817397 -0.41952685946974699 0 -0.42502195058459152 -0.4300320338877438 0 -0.40065050565975141 -0.42715498260149432 0 -0.41933381965428562 -0.44012814716793469 0 -0.40065050565975141 -0.42715498260149432 0 -0.40202603123697311 -0.44171499384130652 0 -0.41933381965428562 -0.44012814716793469 0 -0.42502195058459152 -0.4300320338877438 0 -0.41245212108817397 -0.41952685946974699 0 -0.40065050565975141 -0.42715498260149432 0 -0.42502195058459152 -0.4300320338877438 0 -0.40065050565975141 -0.42715498260149432 0 -0.42502195058459152 -0.4300320338877438 0 -0.42546065058922722 -0.41609799623502147 0 -0.41245212108817397 -0.41952685946974699 0 -0.43656920102039848 -0.37914598798575172 0 -0.43434395248525531 -0.39934654936822539 0 -0.41973536003007028 -0.38506489162723062 0 -0.41498898856847483 -0.40765701001723398 0 -0.43434395248525531 -0.39934654936822539 0 -0.41498898856847483 -0.40765701001723398 0 -0.43434395248525531 -0.39934654936822539 0 -0.41973536003007028 -0.38506489162723062 0 -0.43434395248525531 -0.39934654936822539 0 -0.41973536003007028 -0.38506489162723062 0 -0.41498898856847483 -0.40765701001723398 0 -0.41973536003007028 -0.38506489162723062 0 -0.39974232982377378 -0.39884169390661461 0 -0.41973536003007028 -0.38506489162723062 0 -0.39974232982377378 -0.39884169390661461 0 -0.40512676757488442 -0.37078323388623668 0 -0.41973536003007028 -0.38506489162723062 0 -0.40512676757488442 -0.37078323388623668 0 -0.39974232982377378 -0.39884169390661461 0 -0.38324901345491352 -0.38271664601739308 0 -0.40512676757488442 -0.37078323388623668 0 -0.38324901345491352 -0.38271664601739308 0 -0.40512676757488442 -0.37078323388623668 0 -0.39974232982377378 -0.39884169390661461 0 -0.38592514321210158 -0.39647691971899202 0 -0.38652602217137749 -0.41048212401227208 0 -0.38592514321210158 -0.39647691971899202 0 -0.38324901345491352 -0.38271664601739308 0 -0.36136622123227291 -0.39464082169796583 0 -0.39974232982377378 -0.39884169390661461 0 -0.38592514321210158 -0.39647691971899202 0 -0.38324901345491352 -0.38271664601739308 0 -0.38592514321210158 -0.39647691971899202 0 -0.38652602217137749 -0.41048212401227208 0 -0.36136622123227291 -0.39464082169796583 0 -0.40065050565975141 -0.42715498260149432 0 -0.39563402465169317 -0.41596747066624001 0 -0.37627906073491119 -0.42427793131524533 0 -0.40065050565975141 -0.42715498260149432 0 -0.38864623045242941 -0.43392034347175451 0 -0.40202603123697311 -0.44171499384130652 0 -0.41498898856847483 -0.40765701001723398 0 -0.39974232982377378 -0.39884169390661461 0 -0.39563402465169317 -0.41596747066624001 0 -0.41498898856847483 -0.40765701001723398 0 -0.39563402465169317 -0.41596747066624001 0 -0.41245212108817397 -0.41952685946974699 0 -0.40065050565975141 -0.42715498260149432 0 -0.39563402465169317 -0.41596747066624001 0 -0.39974232982377378 -0.39884169390661461 0 -0.39563402465169317 -0.41596747066624001 0 -0.38652602217137749 -0.41048212401227208 0 -0.39563402465169317 -0.41596747066624001 0 -0.37627906073491119 -0.42427793131524533 0 -0.39563402465169317 -0.41596747066624001 0 -0.38652602217137749 -0.41048212401227208 0 -0.37627906073491119 -0.42427793131524533 0 -0.38652602217137749 -0.41048212401227208 0 -0.37627906073491119 -0.42427793131524533 0 -0.37144691229837229 -0.41298912878136718 0 -0.40065050565975141 -0.42715498260149432 0 -0.37627906073491119 -0.42427793131524533 0 -0.38864623045242941 -0.43392034347175451 0 -0.37627906073491119 -0.42427793131524533 0 -0.37571984476653952 -0.43520038182404869 0 -0.37376847139124569 -0.42535590562902159 0 -0.40065050565975141 -0.42715498260149432 0 -0.37627906073491119 -0.42427793131524533 0 -0.37627906073491119 -0.42427793131524533 0 -0.37376847139124569 -0.42535590562902159 0 -0.37627906073491119 -0.42427793131524533 0 -0.38864623045242941 -0.43392034347175451 0 -0.37571984476653952 -0.43520038182404869 0 -0.37571984476653952 -0.43520038182404869 0 -0.38979171480535169 -0.44384515973514788 0 -0.37571984476653952 -0.43520038182404869 0 -0.3767963593357716 -0.45178105362933019 0 -0.38979171480535169 -0.44384515973514788 0 -0.3767963593357716 -0.45178105362933019 0 -0.38979171480535169 -0.44384515973514788 0 -0.38601119419733237 -0.46158671769342718 0 -0.38864623045242941 -0.43392034347175451 0 -0.37571984476653952 -0.43520038182404869 0 -0.38979171480535169 -0.44384515973514788 0 -0.38864623045242941 -0.43392034347175451 0 -0.38979171480535169 -0.44384515973514788 0 -0.40202603123697311 -0.44171499384130652 0 -0.38979171480535169 -0.44384515973514788 0 -0.40202603123697311 -0.44171499384130652 0 -0.40036009579568282 -0.45592764575964512 0 -0.40202603123697311 -0.44171499384130652 0 -0.40036009579568282 -0.45592764575964512 0 -0.41394874188224418 -0.45008038028038577 0 -0.38979171480535169 -0.44384515973514788 0 -0.40036009579568282 -0.45592764575964512 0 -0.38601119419733237 -0.46158671769342718 0 -0.40036009579568282 -0.45592764575964512 0 -0.38601119419733237 -0.46158671769342718 0 -0.3981978874918537 -0.47102960129975691 0 -0.3767963593357716 -0.45178105362933019 0 -0.38601119419733237 -0.46158671769342718 0 -0.37316737060878918 -0.47398651856120799 0 -0.39262896797371383 -0.5 0 -0.3981978874918537 -0.47102960129975691 0 -0.37316737060878918 -0.47398651856120799 0 -0.3981978874918537 -0.47102960129975691 0 -0.37316737060878918 -0.47398651856120799 0 -0.38601119419733237 -0.46158671769342718 0 -0.3981978874918537 -0.47102960129975691 0 -0.37316737060878918 -0.47398651856120799 0 -0.39262896797371383 -0.5 0 -0.3981978874918537 -0.47102960129975691 0 -0.42322840437491832 -0.4680726840383056 0 -0.3981978874918537 -0.47102960129975691 0 -0.42322840437491832 -0.4680726840383056 0 -0.43912941635954139 -0.5 0 -0.4495003445636675 -0.48407740969294832 0 -0.42322840437491832 -0.4680726840383056 0 -0.43912941635954139 -0.5 0 -0.39262896797371383 -0.5 0 -0.42322840437491832 -0.4680726840383056 0 -0.43981356015856349 -0.45872663026195409 0 -0.42322840437491832 -0.4680726840383056 0 -0.43324852315443491 -0.45438293807959429 0 -0.44825892125798278 -0.46511576677685429 0 -0.42322840437491832 -0.4680726840383056 0 -0.42322840437491832 -0.4680726840383056 0 -0.43324852315443491 -0.45438293807959429 0 -0.42515858092070957 -0.45136759384710112 0 -0.43981356015856349 -0.45872663026195409 0 -0.44825892125798278 -0.46511576677685429 0 -0.42322840437491832 -0.4680726840383056 0 -0.43604827220040038 -0.43506741001652371 0 -0.43248265509532979 -0.44547963570098881 0 -0.41933381965428562 -0.44012814716793469 0 -0.44291965954134288 -0.44946692152953072 0 -0.43324852315443491 -0.45438293807959429 0 -0.43248265509532979 -0.44547963570098881 0 -0.43324852315443491 -0.45438293807959429 0 -0.43248265509532979 -0.44547963570098881 0 -0.42515858092070957 -0.45136759384710112 0 -0.44291965954134288 -0.44946692152953072 0 -0.43604827220040038 -0.43506741001652371 0 -0.43248265509532979 -0.44547963570098881 0 -0.43248265509532979 -0.44547963570098881 0 -0.42515858092070957 -0.45136759384710112 0 -0.41933381965428562 -0.44012814716793469 0 -0.42515858092070957 -0.45136759384710112 0 -0.41933381965428562 -0.44012814716793469 0 -0.41394874188224418 -0.45008038028038577 0 -0.40202603123697311 -0.44171499384130652 0 -0.41933381965428562 -0.44012814716793469 0 -0.41394874188224418 -0.45008038028038577 0 -0.42322840437491832 -0.4680726840383056 0 -0.42515858092070957 -0.45136759384710112 0 -0.41394874188224418 -0.45008038028038577 0 -0.40036009579568282 -0.45592764575964512 0 -0.3981978874918537 -0.47102960129975691 0 -0.42322840437491832 -0.4680726840383056 0 -0.40036009579568282 -0.45592764575964512 0 -0.42322840437491832 -0.4680726840383056 0 -0.41394874188224418 -0.45008038028038577 0 -0.43864729857200108 -0.26304110196591568 0 -0.45801144875205019 -0.25334539799888911 0 -0.43864729857200108 -0.26304110196591568 0 -0.45801144875205019 -0.25334539799888911 0 -0.44834333113090741 -0.24016017746343199 0 -0.43864729857200108 -0.26304110196591568 0 -0.45422554906558688 -0.27265696016408492 0 -0.45801144875205019 -0.25334539799888911 0 -0.43864729857200108 -0.26304110196591568 0 -0.45422554906558688 -0.27265696016408492 0 -0.43485130373746728 -0.27797278217749732 0 -0.45422554906558688 -0.27265696016408492 0 -0.44555472883588237 -0.29106514519610432 0 -0.43485130373746728 -0.27797278217749732 0 -0.45422554906558688 -0.27265696016408492 0 -0.47627799275171478 -0.27313704048338311 0 -0.46268500197250689 -0.2868820269751855 0 -0.45422554906558688 -0.27265696016408492 0 -0.45801144875205019 -0.25334539799888911 0 -0.47627799275171478 -0.27313704048338311 0 -0.45801144875205019 -0.25334539799888911 0 -0.47627799275171478 -0.27313704048338311 0 -0.47737559893209919 -0.2436496940318624 0 -0.5 -0.26475884500666191 0 -0.47627799275171478 -0.27313704048338311 0 -0.47737559893209919 -0.2436496940318624 0 -0.5 -0.26475884500666191 0 -0.47627799275171478 -0.27313704048338311 0 -0.5 -0.2925956830700166 0 -0.47627799275171478 -0.27313704048338311 0 -0.48075715025574822 -0.29897871644780472 0 -0.46268500197250689 -0.2868820269751855 0 -0.47627799275171478 -0.27313704048338311 0 -0.5 -0.2925956830700166 0 -0.48075715025574822 -0.29897871644780472 0 -0.5 -0.2925956830700166 0 -0.48075715025574822 -0.29897871644780472 0 -0.5 -0.3204325211333714 0 -0.48075715025574822 -0.29897871644780472 0 -0.47094779294450162 -0.31672151471983923 0 -0.5 -0.3204325211333714 0 -0.48075715025574822 -0.29897871644780472 0 -0.45511150018809232 -0.30576293245406372 0 -0.47094779294450162 -0.31672151471983923 0 -0.48075715025574822 -0.29897871644780472 0 -0.45511150018809232 -0.30576293245406372 0 -0.46268500197250689 -0.2868820269751855 0 -0.45422554906558688 -0.27265696016408492 0 -0.46268500197250689 -0.2868820269751855 0 -0.44555472883588237 -0.29106514519610432 0 -0.45511150018809232 -0.30576293245406372 0 -0.46268500197250689 -0.2868820269751855 0 -0.44555472883588237 -0.29106514519610432 0 -0.45511150018809232 -0.30576293245406372 0 -0.44555472883588237 -0.29106514519610432 0 -0.43685160839385367 -0.31188298516667601 0 -0.45511150018809232 -0.30576293245406372 0 -0.44563583839480447 -0.33145607478354278 0 -0.43685160839385367 -0.31188298516667601 0 -0.44563583839480447 -0.33145607478354278 0 -0.43685160839385367 -0.31188298516667601 0 -0.44563583839480447 -0.33145607478354278 0 -0.44271440568990922 -0.35028072827238182 0 -0.43100411173962527 -0.33966602215898628 0 -0.44563583839480447 -0.33145607478354278 0 -0.4625610724096636 -0.33966035403055722 0 -0.44271440568990922 -0.35028072827238182 0 -0.44563583839480447 -0.33145607478354278 0 -0.4625610724096636 -0.33966035403055722 0 -0.47094779294450162 -0.31672151471983923 0 -0.45511150018809232 -0.30576293245406372 0 -0.44563583839480447 -0.33145607478354278 0 -0.47094779294450162 -0.31672151471983923 0 -0.47094779294450162 -0.31672151471983923 0 -0.5 -0.3204325211333714 0 -0.48241857536448057 -0.33418519635411492 0 -0.5 -0.3204325211333714 0 -0.48241857536448057 -0.33418519635411492 0 -0.5 -0.34826935919672608 0 -0.4625610724096636 -0.33966035403055722 0 -0.48241857536448057 -0.33418519635411492 0 -0.47562927389527809 -0.35235208545786539 0 -0.4625610724096636 -0.33966035403055722 0 -0.47094779294450162 -0.31672151471983923 0 -0.48241857536448057 -0.33418519635411492 0 -0.47562927389527809 -0.35235208545786539 0 -0.5 -0.34826935919672608 0 -0.48249782853879469 -0.37031042665884711 0 -0.48241857536448057 -0.33418519635411492 0 -0.47562927389527809 -0.35235208545786539 0 -0.5 -0.34826935919672608 0 -0.5 -0.37610619726008082 0 -0.5 -0.34826935919672608 0 -0.48249782853879469 -0.37031042665884711 0 -0.47562927389527809 -0.35235208545786539 0 -0.48249782853879469 -0.37031042665884711 0 -0.46660492403224851 -0.36914438154824403 0 -0.46753341795117631 -0.38509595464214252 0 -0.48249782853879469 -0.37031042665884711 0 -0.46660492403224851 -0.36914438154824403 0 -0.47562927389527809 -0.35235208545786539 0 -0.46660492403224851 -0.36914438154824403 0 -0.45633104963059168 -0.35819146719060141 0 -0.46660492403224851 -0.36914438154824403 0 -0.45633104963059168 -0.35819146719060141 0 -0.45237398123561301 -0.37353220191343328 0 -0.4625610724096636 -0.33966035403055722 0 -0.45633104963059168 -0.35819146719060141 0 -0.44271440568990922 -0.35028072827238182 0 -0.4625610724096636 -0.33966035403055722 0 -0.47562927389527809 -0.35235208545786539 0 -0.45633104963059168 -0.35819146719060141 0 -0.45633104963059168 -0.35819146719060141 0 -0.44271440568990922 -0.35028072827238182 0 -0.43921655251608621 -0.36422002999462971 0 -0.43656920102039848 -0.37914598798575172 0 -0.43921655251608621 -0.36422002999462971 0 -0.45237398123561301 -0.37353220191343328 0 -0.45633104963059168 -0.35819146719060141 0 -0.43921655251608621 -0.36422002999462971 0 -0.45237398123561301 -0.37353220191343328 0 -0.43656920102039848 -0.37914598798575172 0 -0.41973536003007028 -0.38506489162723062 0 -0.42392058663239712 -0.36053198107930989 0 -0.43656920102039848 -0.37914598798575172 0 -0.43921655251608621 -0.36422002999462971 0 -0.42392058663239712 -0.36053198107930989 0 -0.44271440568990922 -0.35028072827238182 0 -0.42392058663239712 -0.36053198107930989 0 -0.43100411173962527 -0.33966602215898628 0 -0.44271440568990922 -0.35028072827238182 0 -0.43921655251608621 -0.36422002999462971 0 -0.42392058663239712 -0.36053198107930989 0 -0.42392058663239712 -0.36053198107930989 0 -0.41765646129750272 -0.34639300176274262 0 -0.43100411173962527 -0.33966602215898628 0 -0.44271440568990922 -0.35028072827238182 0 -0.42392058663239712 -0.36053198107930989 0 -0.42392058663239712 -0.36053198107930989 0 -0.41765646129750272 -0.34639300176274262 0 -0.40486513261840662 -0.35203203754053197 0 -0.41765646129750272 -0.34639300176274262 0 -0.40486513261840662 -0.35203203754053197 0 -0.40410843976154931 -0.33977284382099732 0 -0.41973536003007028 -0.38506489162723062 0 -0.42392058663239712 -0.36053198107930989 0 -0.40512676757488442 -0.37078323388623668 0 -0.42392058663239712 -0.36053198107930989 0 -0.40512676757488442 -0.37078323388623668 0 -0.40486513261840662 -0.35203203754053197 0 -0.42392058663239712 -0.36053198107930989 0 -0.40512676757488442 -0.37078323388623668 0 -0.40512676757488442 -0.37078323388623668 0 -0.38289933449622882 -0.36706162463226039 0 -0.38678924953539678 -0.35285610248992538 0 -0.40512676757488442 -0.37078323388623668 0 -0.38678924953539678 -0.35285610248992538 0 -0.38324901345491352 -0.38271664601739308 0 -0.38289933449622882 -0.36706162463226039 0 -0.36111079901020948 -0.3678215772434793 0 -0.38324901345491352 -0.38271664601739308 0 -0.40512676757488442 -0.37078323388623668 0 -0.38289933449622882 -0.36706162463226039 0 -0.38258931505135391 -0.34526803736454609 0 -0.37618106421035569 -0.3541622556315619 0 -0.38678924953539678 -0.35285610248992538 0 -0.38258931505135391 -0.34526803736454609 0 -0.37618106421035569 -0.3541622556315619 0 -0.37453493921678999 -0.3435311040469905 0 -0.38289933449622882 -0.36706162463226039 0 -0.37618106421035569 -0.3541622556315619 0 -0.38678924953539678 -0.35285610248992538 0 -0.38258931505135391 -0.34526803736454609 0 -0.38678924953539678 -0.35285610248992538 0 -0.39106946697883782 -0.34126737328628232 0 -0.38678924953539678 -0.35285610248992538 0 -0.40486513261840662 -0.35203203754053197 0 -0.39106946697883782 -0.34126737328628232 0 -0.40512676757488442 -0.37078323388623668 0 -0.38678924953539678 -0.35285610248992538 0 -0.40486513261840662 -0.35203203754053197 0 -0.40486513261840662 -0.35203203754053197 0 -0.40410843976154931 -0.33977284382099732 0 -0.39106946697883782 -0.34126737328628232 0 -0.39106946697883782 -0.34126737328628232 0 -0.38589693083430932 -0.31845031892117398 0 -0.40178088589109168 -0.32604828532778718 0 -0.40410843976154931 -0.33977284382099732 0 -0.39106946697883782 -0.34126737328628232 0 -0.40178088589109168 -0.32604828532778718 0 -0.39106946697883782 -0.34126737328628232 0 -0.38589693083430932 -0.31845031892117398 0 -0.38258931505135391 -0.34526803736454609 0 -0.39106946697883782 -0.34126737328628232 0 -0.37886020790562053 -0.33511782632073911 0 -0.39106946697883782 -0.34126737328628232 0 -0.37886020790562053 -0.33511782632073911 0 -0.38589693083430932 -0.31845031892117398 0 -0.38258931505135391 -0.34526803736454609 0 -0.37886020790562053 -0.33511782632073911 0 -0.37453493921678999 -0.3435311040469905 0 -0.37886020790562053 -0.33511782632073911 0 -0.38589693083430932 -0.31845031892117398 0 -0.36910675235549628 -0.32548515458290977 0 -0.38589693083430932 -0.31845031892117398 0 -0.3717456676952649 -0.30976169983815638 0 -0.36910675235549628 -0.32548515458290977 0 -0.38589693083430932 -0.31845031892117398 0 -0.40178088589109168 -0.32604828532778718 0 -0.401849027095671 -0.30398298194835333 0 -0.40178088589109168 -0.32604828532778718 0 -0.41699837733991429 -0.3316122400712278 0 -0.41854036520011217 -0.31111123938641999 0 -0.40178088589109168 -0.32604828532778718 0 -0.41854036520011217 -0.31111123938641999 0 -0.401849027095671 -0.30398298194835333 0 -0.41699837733991429 -0.3316122400712278 0 -0.42983371812616628 -0.32498836379829538 0 -0.41854036520011217 -0.31111123938641999 0 -0.40410843976154931 -0.33977284382099732 0 -0.40178088589109168 -0.32604828532778718 0 -0.41699837733991429 -0.3316122400712278 0 -0.41765646129750272 -0.34639300176274262 0 -0.40410843976154931 -0.33977284382099732 0 -0.41699837733991429 -0.3316122400712278 0 -0.44563583839480447 -0.33145607478354278 0 -0.43100411173962527 -0.33966602215898628 0 -0.42983371812616628 -0.32498836379829538 0 -0.41699837733991429 -0.3316122400712278 0 -0.43100411173962527 -0.33966602215898628 0 -0.42983371812616628 -0.32498836379829538 0 -0.41765646129750272 -0.34639300176274262 0 -0.41699837733991429 -0.3316122400712278 0 -0.43100411173962527 -0.33966602215898628 0 -0.42983371812616628 -0.32498836379829538 0 -0.43685160839385367 -0.31188298516667601 0 -0.41854036520011217 -0.31111123938641999 0 -0.44563583839480447 -0.33145607478354278 0 -0.42983371812616628 -0.32498836379829538 0 -0.43685160839385367 -0.31188298516667601 0 -0.44555472883588237 -0.29106514519610432 0 -0.43685160839385367 -0.31188298516667601 0 -0.42806737839290299 -0.29230989554980918 0 -0.43685160839385367 -0.31188298516667601 0 -0.42806737839290299 -0.29230989554980918 0 -0.41854036520011217 -0.31111123938641999 0 -0.43685160839385367 -0.31188298516667601 0 -0.42806737839290299 -0.29230989554980918 0 -0.42806737839290299 -0.29230989554980918 0 -0.41928314839195208 -0.27273680593294242 0 -0.44555472883588237 -0.29106514519610432 0 -0.42806737839290299 -0.29230989554980918 0 -0.43485130373746728 -0.27797278217749732 0 -0.41387377758200877 -0.29234344877943003 0 -0.40162896882940557 -0.2815763210796251 0 -0.41928314839195208 -0.27273680593294242 0 -0.42806737839290299 -0.29230989554980918 0 -0.41387377758200877 -0.29234344877943003 0 -0.41928314839195208 -0.27273680593294242 0 -0.41387377758200877 -0.29234344877943003 0 -0.41854036520011217 -0.31111123938641999 0 -0.401849027095671 -0.30398298194835333 0 -0.42806737839290299 -0.29230989554980918 0 -0.41387377758200877 -0.29234344877943003 0 -0.41854036520011217 -0.31111123938641999 0 -0.38589693083430932 -0.31845031892117398 0 -0.401849027095671 -0.30398298194835333 0 -0.39081482214320512 -0.29801174454630519 0 -0.38589693083430932 -0.31845031892117398 0 -0.3807243946897807 -0.29563326455606559 0 -0.38589693083430932 -0.31845031892117398 0 -0.3807243946897807 -0.29563326455606559 0 -0.3717456676952649 -0.30976169983815638 0 -0.38589693083430932 -0.31845031892117398 0 -0.39081482214320512 -0.29801174454630519 0 -0.3807243946897807 -0.29563326455606559 0 -0.3807243946897807 -0.29563326455606559 0 -0.38397478926685907 -0.29041583622630779 0 -0.37555185854525208 -0.27281621019095731 0 -0.3807243946897807 -0.29563326455606559 0 -0.37555185854525208 -0.27281621019095731 0 -0.39081482214320512 -0.29801174454630519 0 -0.3807243946897807 -0.29563326455606559 0 -0.38397478926685907 -0.29041583622630779 0 -0.39081482214320512 -0.29801174454630519 0 -0.38397478926685907 -0.29041583622630779 0 -0.40162896882940557 -0.2815763210796251 0 -0.41387377758200877 -0.29234344877943003 0 -0.401849027095671 -0.30398298194835333 0 -0.40162896882940557 -0.2815763210796251 0 -0.401849027095671 -0.30398298194835333 0 -0.39081482214320512 -0.29801174454630519 0 -0.40162896882940557 -0.2815763210796251 0 -0.38397478926685907 -0.29041583622630779 0 -0.40162896882940557 -0.2815763210796251 0 -0.38851226273015987 -0.2774289055133482 0 -0.38397478926685907 -0.29041583622630779 0 -0.40162896882940557 -0.2815763210796251 0 -0.40162896882940557 -0.2815763210796251 0 -0.3993479864411178 -0.26764883226494568 0 -0.40780446164203138 -0.27322820558701438 0 -0.40162896882940557 -0.2815763210796251 0 -0.3993479864411178 -0.26764883226494568 0 -0.38851226273015987 -0.2774289055133482 0 -0.3993479864411178 -0.26764883226494568 0 -0.38851226273015987 -0.2774289055133482 0 -0.38213681964367452 -0.25932860156274218 0 -0.37555185854525208 -0.27281621019095731 0 -0.38851226273015987 -0.2774289055133482 0 -0.38213681964367452 -0.25932860156274218 0 -0.38397478926685907 -0.29041583622630779 0 -0.37555185854525208 -0.27281621019095731 0 -0.38851226273015987 -0.2774289055133482 0 -0.37555185854525208 -0.27281621019095731 0 -0.38213681964367452 -0.25932860156274218 0 -0.37037932240072358 -0.24999915582584881 0 -0.39578149186241629 -0.25307558475333419 0 -0.41408065587910442 -0.27020081987373618 0 -0.3993479864411178 -0.26764883226494568 0 -0.38213681964367452 -0.25932860156274218 0 -0.39578149186241629 -0.25307558475333419 0 -0.3993479864411178 -0.26764883226494568 0 -0.39578149186241629 -0.25307558475333419 0 -0.41408065587910442 -0.27020081987373618 0 -0.39578149186241629 -0.25307558475333419 0 -0.4093805058146377 -0.2506716607137715 0 -0.41408065587910442 -0.27020081987373618 0 -0.4093805058146377 -0.2506716607137715 0 -0.41928314839195208 -0.27273680593294242 0 -0.41408065587910442 -0.27020081987373618 0 -0.4093805058146377 -0.2506716607137715 0 -0.41928314839195208 -0.27273680593294242 0 -0.4093805058146377 -0.2506716607137715 0 -0.41928314839195208 -0.27273680593294242 0 -0.42375174642720059 -0.25747665660699209 0 -0.3993479864411178 -0.26764883226494568 0 -0.40780446164203138 -0.27322820558701438 0 -0.41408065587910442 -0.27020081987373618 0 -0.40780446164203138 -0.27322820558701438 0 -0.41928314839195208 -0.27273680593294242 0 -0.41408065587910442 -0.27020081987373618 0 -0.40162896882940557 -0.2815763210796251 0 -0.40780446164203138 -0.27322820558701438 0 -0.41928314839195208 -0.27273680593294242 0 -0.40162896882940557 -0.2815763210796251 0 -0.41928314839195208 -0.27273680593294242 0 -0.43864729857200108 -0.26304110196591568 0 -0.41928314839195208 -0.27273680593294242 0 -0.42806737839290299 -0.29230989554980918 0 -0.41928314839195208 -0.27273680593294242 0 -0.43485130373746728 -0.27797278217749732 0 -0.43864729857200108 -0.26304110196591568 0 -0.41928314839195208 -0.27273680593294242 0 -0.43485130373746728 -0.27797278217749732 0 -0.43864729857200108 -0.26304110196591568 0 -0.41928314839195208 -0.27273680593294242 0 -0.42375174642720059 -0.25747665660699209 0 -0.43864729857200108 -0.26304110196591568 0 -0.42375174642720059 -0.25747665660699209 0 -0.43023046646914581 -0.23985392379185319 0 -0.32281716316625958 -0.25524718493382248 0 -0.30774128731216333 -0.26659399705402798 0 -0.3080344920095332 -0.2394981872891698 0 -0.32281716316625958 -0.25524718493382248 0 -0.31968795241876508 -0.27293506951701829 0 -0.30774128731216333 -0.26659399705402798 0 -0.32281716316625958 -0.25524718493382248 0 -0.31968795241876508 -0.27293506951701829 0 -0.33291297385563862 -0.27138029458191387 0 -0.31968795241876508 -0.27293506951701829 0 -0.31647526405534437 -0.28336087700302459 0 -0.30758205481970841 -0.27760343961479889 0 -0.31968795241876508 -0.27293506951701829 0 -0.33027340933504828 -0.28512882554879049 0 -0.31647526405534437 -0.28336087700302459 0 -0.31968795241876508 -0.27293506951701829 0 -0.33291297385563862 -0.27138029458191387 0 -0.33027340933504828 -0.28512882554879049 0 -0.33291297385563862 -0.27138029458191387 0 -0.3420568595076029 -0.25747954770235609 0 -0.34972948485051708 -0.28611084520758201 0 -0.33291297385563862 -0.27138029458191387 0 -0.34972948485051708 -0.28611084520758201 0 -0.33027340933504828 -0.28512882554879049 0 -0.32281716316625958 -0.25524718493382248 0 -0.33291297385563862 -0.27138029458191387 0 -0.3420568595076029 -0.25747954770235609 0 -0.3420568595076029 -0.25747954770235609 0 -0.35907509136517218 -0.26455660431748251 0 -0.3555286812485845 -0.2501349896800531 0 -0.37555185854525208 -0.27281621019095731 0 -0.35907509136517218 -0.26455660431748251 0 -0.37037932240072358 -0.24999915582584881 0 -0.35907509136517218 -0.26455660431748251 0 -0.3555286812485845 -0.2501349896800531 0 -0.37037932240072358 -0.24999915582584881 0 -0.37555185854525208 -0.27281621019095731 0 -0.37037932240072358 -0.24999915582584881 0 -0.37555185854525208 -0.27281621019095731 0 -0.35907509136517218 -0.26455660431748251 0 -0.34972948485051708 -0.28611084520758201 0 -0.3420568595076029 -0.25747954770235609 0 -0.34972948485051708 -0.28611084520758201 0 -0.3420568595076029 -0.25747954770235609 0 -0.35907509136517218 -0.26455660431748251 0 -0.34972948485051708 -0.28611084520758201 0 -0.3807243946897807 -0.29563326455606559 0 -0.37555185854525208 -0.27281621019095731 0 -0.36551545216317172 -0.29544925014296469 0 -0.37555185854525208 -0.27281621019095731 0 -0.34972948485051708 -0.28611084520758201 0 -0.36551545216317172 -0.29544925014296469 0 -0.36551545216317172 -0.29544925014296469 0 -0.3717456676952649 -0.30976169983815638 0 -0.35740211019343138 -0.31474214271280793 0 -0.3807243946897807 -0.29563326455606559 0 -0.36551545216317172 -0.29544925014296469 0 -0.3717456676952649 -0.30976169983815638 0 -0.34972948485051708 -0.28611084520758201 0 -0.33702349927436381 -0.300582628930744 0 -0.35740211019343138 -0.31474214271280793 0 -0.33702349927436381 -0.300582628930744 0 -0.33889402101412891 -0.31958942347707031 0 -0.35740211019343138 -0.31474214271280793 0 -0.34972948485051708 -0.28611084520758201 0 -0.35740211019343138 -0.31474214271280793 0 -0.34972948485051708 -0.28611084520758201 0 -0.36551545216317172 -0.29544925014296469 0 -0.35740211019343138 -0.31474214271280793 0 -0.32235158767073602 -0.30435531609299749 0 -0.33889402101412891 -0.31958942347707031 0 -0.33702349927436381 -0.300582628930744 0 -0.32235158767073602 -0.30435531609299749 0 -0.33889402101412891 -0.31958942347707031 0 -0.34972948485051708 -0.28611084520758201 0 -0.33702349927436381 -0.300582628930744 0 -0.33027340933504828 -0.28512882554879049 0 -0.33702349927436381 -0.300582628930744 0 -0.33027340933504828 -0.28512882554879049 0 -0.32366327233116993 -0.29239023152730409 0 -0.32235158767073602 -0.30435531609299749 0 -0.3058091543273419 -0.28912120870892599 0 -0.32235158767073602 -0.30435531609299749 0 -0.3058091543273419 -0.28912120870892599 0 -0.31219260132035681 -0.28852351006096411 0 -0.32366327233116993 -0.29239023152730409 0 -0.32235158767073602 -0.30435531609299749 0 -0.31219260132035681 -0.28852351006096411 0 -0.33027340933504828 -0.28512882554879049 0 -0.32366327233116993 -0.29239023152730409 0 -0.31647526405534437 -0.28336087700302459 0 -0.32366327233116993 -0.29239023152730409 0 -0.31647526405534437 -0.28336087700302459 0 -0.31219260132035681 -0.28852351006096411 0 -0.31647526405534437 -0.28336087700302459 0 -0.31040079335434712 -0.284172900928088 0 -0.31219260132035681 -0.28852351006096411 0 -0.32235158767073602 -0.30435531609299749 0 -0.3123814033924841 -0.31676281428449399 0 -0.3058091543273419 -0.28912120870892599 0 -0.33702349927436381 -0.300582628930744 0 -0.32366327233116993 -0.29239023152730409 0 -0.32235158767073602 -0.30435531609299749 0 -0.32660753827541078 -0.32664663666428062 0 -0.32505863758818998 -0.31683854762971059 0 -0.3123814033924841 -0.31676281428449399 0 -0.32235158767073602 -0.30435531609299749 0 -0.32505863758818998 -0.31683854762971059 0 -0.3123814033924841 -0.31676281428449399 0 -0.31895365245762769 -0.34440441986006187 0 -0.3123814033924841 -0.31676281428449399 0 -0.32660753827541078 -0.32664663666428062 0 -0.3386465269912452 -0.33645678637882548 0 -0.31895365245762769 -0.34440441986006187 0 -0.32660753827541078 -0.32664663666428062 0 -0.31895365245762769 -0.34440441986006187 0 -0.3123814033924841 -0.31676281428449399 0 -0.32235158767073602 -0.30435531609299749 0 -0.32505863758818998 -0.31683854762971059 0 -0.33889402101412891 -0.31958942347707031 0 -0.32660753827541078 -0.32664663666428062 0 -0.3386465269912452 -0.33645678637882548 0 -0.33889402101412891 -0.31958942347707031 0 -0.32660753827541078 -0.32664663666428062 0 -0.32505863758818998 -0.31683854762971059 0 -0.33889402101412891 -0.31958942347707031 0 -0.33889402101412891 -0.31958942347707031 0 -0.35805106257132768 -0.3249425627201511 0 -0.3554364543575218 -0.33482353086114308 0 -0.33889402101412891 -0.31958942347707031 0 -0.35805106257132768 -0.3249425627201511 0 -0.35740211019343138 -0.31474214271280793 0 -0.33889402101412891 -0.31958942347707031 0 -0.3554364543575218 -0.33482353086114308 0 -0.3717456676952649 -0.30976169983815638 0 -0.35740211019343138 -0.31474214271280793 0 -0.36910675235549628 -0.32548515458290977 0 -0.35805106257132768 -0.3249425627201511 0 -0.36910675235549628 -0.32548515458290977 0 -0.36245507287105078 -0.33261646138580092 0 -0.35805106257132768 -0.3249425627201511 0 -0.35740211019343138 -0.31474214271280793 0 -0.36910675235549628 -0.32548515458290977 0 -0.37886020790562053 -0.33511782632073911 0 -0.37453493921678999 -0.3435311040469905 0 -0.36881558311990098 -0.3368288186710256 0 -0.37453493921678999 -0.3435311040469905 0 -0.36881558311990098 -0.3368288186710256 0 -0.36830157950165271 -0.34866919913736649 0 -0.37886020790562053 -0.33511782632073911 0 -0.36910675235549628 -0.32548515458290977 0 -0.36881558311990098 -0.3368288186710256 0 -0.36910675235549628 -0.32548515458290977 0 -0.36881558311990098 -0.3368288186710256 0 -0.36245507287105078 -0.33261646138580092 0 -0.36881558311990098 -0.3368288186710256 0 -0.36245507287105078 -0.33261646138580092 0 -0.36086551195100719 -0.34100224009377522 0 -0.36881558311990098 -0.3368288186710256 0 -0.36086551195100719 -0.34100224009377522 0 -0.36830157950165271 -0.34866919913736649 0 -0.36245507287105078 -0.33261646138580092 0 -0.36086551195100719 -0.34100224009377522 0 -0.3554364543575218 -0.33482353086114308 0 -0.3386465269912452 -0.33645678637882548 0 -0.3554364543575218 -0.33482353086114308 0 -0.34949647440178838 -0.34514336779208449 0 -0.3386465269912452 -0.33645678637882548 0 -0.33889402101412891 -0.31958942347707031 0 -0.3554364543575218 -0.33482353086114308 0 -0.36086551195100719 -0.34100224009377522 0 -0.3554364543575218 -0.33482353086114308 0 -0.34949647440178838 -0.34514336779208449 0 -0.35805106257132768 -0.3249425627201511 0 -0.36245507287105078 -0.33261646138580092 0 -0.3554364543575218 -0.33482353086114308 0 -0.36086551195100719 -0.34100224009377522 0 -0.35100744150185498 -0.35593242527038371 0 -0.36111079901020948 -0.3678215772434793 0 -0.34949647440178838 -0.34514336779208449 0 -0.35100744150185498 -0.35593242527038371 0 -0.33766818805156468 -0.35408704283487669 0 -0.36086551195100719 -0.34100224009377522 0 -0.34949647440178838 -0.34514336779208449 0 -0.35100744150185498 -0.35593242527038371 0 -0.37618106421035569 -0.3541622556315619 0 -0.36830157950165271 -0.34866919913736649 0 -0.36111079901020948 -0.3678215772434793 0 -0.36086551195100719 -0.34100224009377522 0 -0.36830157950165271 -0.34866919913736649 0 -0.36111079901020948 -0.3678215772434793 0 -0.36086551195100719 -0.34100224009377522 0 -0.36111079901020948 -0.3678215772434793 0 -0.37618106421035569 -0.3541622556315619 0 -0.37453493921678999 -0.3435311040469905 0 -0.36830157950165271 -0.34866919913736649 0 -0.38289933449622882 -0.36706162463226039 0 -0.37618106421035569 -0.3541622556315619 0 -0.36111079901020948 -0.3678215772434793 0 -0.36111079901020948 -0.3678215772434793 0 -0.34226012756088647 -0.36771534065861738 0 -0.34344873514941099 -0.38333918014944329 0 -0.35100744150185498 -0.35593242527038371 0 -0.36111079901020948 -0.3678215772434793 0 -0.34226012756088647 -0.36771534065861738 0 -0.34226012756088647 -0.36771534065861738 0 -0.32552590152277389 -0.37204602543562909 0 -0.34344873514941099 -0.38333918014944329 0 -0.34226012756088647 -0.36771534065861738 0 -0.33766818805156468 -0.35408704283487669 0 -0.32552590152277389 -0.37204602543562909 0 -0.3386465269912452 -0.33645678637882548 0 -0.33766818805156468 -0.35408704283487669 0 -0.31895365245762769 -0.34440441986006187 0 -0.3386465269912452 -0.33645678637882548 0 -0.34949647440178838 -0.34514336779208449 0 -0.33766818805156468 -0.35408704283487669 0 -0.35100744150185498 -0.35593242527038371 0 -0.34226012756088647 -0.36771534065861738 0 -0.33766818805156468 -0.35408704283487669 0 -0.31895365245762769 -0.34440441986006187 0 -0.32552590152277389 -0.37204602543562909 0 -0.30669035659900667 -0.36017777249223731 0 -0.31895365245762769 -0.34440441986006187 0 -0.32552590152277389 -0.37204602543562909 0 -0.33766818805156468 -0.35408704283487669 0 -0.31895365245762769 -0.34440441986006187 0 -0.32552590152277389 -0.37204602543562909 0 -0.32552590152277389 -0.37204602543562909 0 -0.30669035659900667 -0.36017777249223731 0 -0.32552590152277389 -0.37204602543562909 0 -0.30669035659900667 -0.36017777249223731 0 -0.31611433047672788 -0.37717608648822698 0 -0.30669035659900667 -0.36017777249223731 0 -0.30194155417777629 -0.37392205155428759 0 -0.28789978781715181 -0.36446866299910202 0 -0.30669035659900667 -0.36017777249223731 0 -0.30194155417777629 -0.37392205155428759 0 -0.31611433047672788 -0.37717608648822698 0 -0.30669035659900667 -0.36017777249223731 0 -0.28785481167523741 -0.34830951954884848 0 -0.30669035659900667 -0.36017777249223731 0 -0.28785481167523741 -0.34830951954884848 0 -0.30283829802434048 -0.3421284155290179 0 -0.31895365245762769 -0.34440441986006187 0 -0.30669035659900667 -0.36017777249223731 0 -0.30283829802434048 -0.3421284155290179 0 -0.28785481167523741 -0.34830951954884848 0 -0.28789978781715181 -0.36446866299910202 0 -0.27186963496444488 -0.35219739827565549 0 -0.30669035659900667 -0.36017777249223731 0 -0.28785481167523741 -0.34830951954884848 0 -0.28789978781715181 -0.36446866299910202 0 -0.30194155417777629 -0.37392205155428759 0 -0.28789978781715181 -0.36446866299910202 0 -0.29042609866698199 -0.38280183847461108 0 -0.28789978781715181 -0.36446866299910202 0 -0.26861627081946332 -0.36940339764897229 0 -0.29042609866698199 -0.38280183847461108 0 -0.28789978781715181 -0.36446866299910202 0 -0.26861627081946332 -0.36940339764897229 0 -0.27186963496444488 -0.35219739827565549 0 -0.26861627081946332 -0.36940339764897229 0 -0.25484622695810349 -0.36383199102327768 0 -0.27186963496444488 -0.35219739827565549 0 -0.26861627081946332 -0.36940339764897229 0 -0.25484622695810349 -0.36383199102327768 0 -0.25928065482974011 -0.38004136036377573 0 -0.25484622695810349 -0.36383199102327768 0 -0.25928065482974011 -0.38004136036377573 0 -0.2454823888708253 -0.37909176805193517 0 -0.2553864931377417 -0.34889888660174267 0 -0.27186963496444488 -0.35219739827565549 0 -0.26901926675146981 -0.33644126660545731 0 -0.25484622695810349 -0.36383199102327768 0 -0.2553864931377417 -0.34889888660174267 0 -0.27186963496444488 -0.35219739827565549 0 -0.27186963496444488 -0.35219739827565549 0 -0.26901926675146981 -0.33644126660545731 0 -0.28785481167523741 -0.34830951954884848 0 -0.27186963496444488 -0.35219739827565549 0 -0.26901926675146981 -0.33644126660545731 0 -0.26901926675146981 -0.33644126660545731 0 -0.27842008128780649 -0.32016473260112399 0 -0.2926900145040906 -0.32816667175282582 0 -0.28785481167523741 -0.34830951954884848 0 -0.26901926675146981 -0.33644126660545731 0 -0.2553864931377417 -0.34889888660174267 0 -0.26901926675146981 -0.33644126660545731 0 -0.24679438050505931 -0.33865435206494832 0 -0.26901926675146981 -0.33644126660545731 0 -0.24773623205215151 -0.32303085346176258 0 -0.26901926675146981 -0.33644126660545731 0 -0.24679438050505931 -0.33865435206494832 0 -0.24773623205215151 -0.32303085346176258 0 -0.26901926675146981 -0.33644126660545731 0 -0.2644578470673965 -0.3112268648947214 0 -0.24773623205215151 -0.32303085346176258 0 -0.26901926675146981 -0.33644126660545731 0 -0.27842008128780649 -0.32016473260112399 0 -0.2644578470673965 -0.3112268648947214 0 -0.26901926675146981 -0.33644126660545731 0 -0.2644578470673965 -0.3112268648947214 0 -0.27842008128780649 -0.32016473260112399 0 -0.2926900145040906 -0.32816667175282582 0 -0.2891485516583498 -0.30768467591411269 0 -0.2926900145040906 -0.32816667175282582 0 -0.30106918175311032 -0.31144522295846983 0 -0.2891485516583498 -0.30768467591411269 0 -0.28785481167523741 -0.34830951954884848 0 -0.2926900145040906 -0.32816667175282582 0 -0.30283829802434048 -0.3421284155290179 0 -0.28785481167523741 -0.34830951954884848 0 -0.26901926675146981 -0.33644126660545731 0 -0.2926900145040906 -0.32816667175282582 0 -0.2926900145040906 -0.32816667175282582 0 -0.30283829802434048 -0.3421284155290179 0 -0.30558651002633058 -0.3285815088769739 0 -0.31895365245762769 -0.34440441986006187 0 -0.30558651002633058 -0.3285815088769739 0 -0.3123814033924841 -0.31676281428449399 0 -0.31895365245762769 -0.34440441986006187 0 -0.30283829802434048 -0.3421284155290179 0 -0.30558651002633058 -0.3285815088769739 0 -0.30558651002633058 -0.3285815088769739 0 -0.3123814033924841 -0.31676281428449399 0 -0.30106918175311032 -0.31144522295846983 0 -0.2926900145040906 -0.32816667175282582 0 -0.30558651002633058 -0.3285815088769739 0 -0.30106918175311032 -0.31144522295846983 0 -0.3123814033924841 -0.31676281428449399 0 -0.3058091543273419 -0.28912120870892599 0 -0.3123814033924841 -0.31676281428449399 0 -0.30219959978373079 -0.30115392816655479 0 -0.3058091543273419 -0.28912120870892599 0 -0.30219959978373079 -0.30115392816655479 0 -0.30106918175311032 -0.31144522295846983 0 -0.29556312415859659 -0.29899943435493531 0 -0.3123814033924841 -0.31676281428449399 0 -0.30219959978373079 -0.30115392816655479 0 -0.30106918175311032 -0.31144522295846983 0 -0.3058091543273419 -0.28912120870892599 0 -0.28943479674954442 -0.27404188413150249 0 -0.3058091543273419 -0.28912120870892599 0 -0.3053532532219787 -0.28720377703356448 0 -0.28943479674954442 -0.27404188413150249 0 -0.3058091543273419 -0.28912120870892599 0 -0.29617513528712119 -0.28944096052594898 0 -0.28943479674954442 -0.27404188413150249 0 -0.31040079335434712 -0.284172900928088 0 -0.3053532532219787 -0.28720377703356448 0 -0.30758205481970841 -0.27760343961479889 0 -0.31647526405534437 -0.28336087700302459 0 -0.31040079335434712 -0.284172900928088 0 -0.30758205481970841 -0.27760343961479889 0 -0.31040079335434712 -0.284172900928088 0 -0.31219260132035681 -0.28852351006096411 0 -0.3053532532219787 -0.28720377703356448 0 -0.3058091543273419 -0.28912120870892599 0 -0.31219260132035681 -0.28852351006096411 0 -0.3053532532219787 -0.28720377703356448 0 -0.3058091543273419 -0.28912120870892599 0 -0.3053532532219787 -0.28720377703356448 0 -0.30219959978373079 -0.30115392816655479 0 -0.3058091543273419 -0.28912120870892599 0 -0.29617513528712119 -0.28944096052594898 0 -0.30219959978373079 -0.30115392816655479 0 -0.29617513528712119 -0.28944096052594898 0 -0.29556312415859659 -0.29899943435493531 0 -0.29617513528712119 -0.28944096052594898 0 -0.28745838253310591 -0.29049622118526119 0 -0.28943479674954442 -0.27404188413150249 0 -0.29617513528712119 -0.28944096052594898 0 -0.28745838253310591 -0.29049622118526119 0 -0.29556312415859659 -0.29899943435493531 0 -0.28745838253310591 -0.29049622118526119 0 -0.2891485516583498 -0.30768467591411269 0 -0.27506367380648061 -0.29776146597599579 0 -0.28745838253310591 -0.29049622118526119 0 -0.29556312415859659 -0.29899943435493531 0 -0.2891485516583498 -0.30768467591411269 0 -0.30106918175311032 -0.31144522295846983 0 -0.29556312415859659 -0.29899943435493531 0 -0.2891485516583498 -0.30768467591411269 0 -0.27506367380648061 -0.29776146597599579 0 -0.2644578470673965 -0.3112268648947214 0 -0.25989642738331908 -0.28601246318398621 0 -0.27842008128780649 -0.32016473260112399 0 -0.27506367380648061 -0.29776146597599579 0 -0.2644578470673965 -0.3112268648947214 0 -0.27842008128780649 -0.32016473260112399 0 -0.2891485516583498 -0.30768467591411269 0 -0.27506367380648061 -0.29776146597599579 0 -0.2644578470673965 -0.3112268648947214 0 -0.25989642738331908 -0.28601246318398621 0 -0.24657676615906499 -0.29636819494863198 0 -0.2644578470673965 -0.3112268648947214 0 -0.24773623205215151 -0.32303085346176258 0 -0.24657676615906499 -0.29636819494863198 0 -0.2644578470673965 -0.3112268648947214 0 -0.25989642738331908 -0.28601246318398621 0 -0.25989642738331908 -0.28601246318398621 0 -0.2455812677149937 -0.27901044640179051 0 -0.24657676615906499 -0.29636819494863198 0 -0.28745838253310591 -0.29049622118526119 0 -0.27506367380648061 -0.29776146597599579 0 -0.27294535499841399 -0.27382016391610542 0 -0.27506367380648061 -0.29776146597599579 0 -0.25989642738331908 -0.28601246318398621 0 -0.27294535499841399 -0.27382016391610542 0 -0.25989642738331908 -0.28601246318398621 0 -0.27294535499841399 -0.27382016391610542 0 -0.25533500769922501 -0.26079806147325402 0 -0.25989642738331908 -0.28601246318398621 0 -0.25533500769922501 -0.26079806147325402 0 -0.2455812677149937 -0.27901044640179051 0 -0.25989642738331908 -0.28601246318398621 0 -0.25533500769922501 -0.26079806147325402 0 -0.25533500769922501 -0.26079806147325402 0 -0.27347376693297959 -0.25205870770091199 0 -0.26038277371618063 -0.2477199445964943 0 -0.25533500769922501 -0.26079806147325402 0 -0.25217385243102691 -0.24332397570100661 0 -0.25533500769922501 -0.26079806147325402 0 -0.25217385243102691 -0.24332397570100661 0 -0.26038277371618063 -0.2477199445964943 0 -0.25533500769922501 -0.26079806147325402 0 -0.27347376693297959 -0.25205870770091199 0 -0.28168474985437852 -0.25014812438121031 0 -0.27294535499841399 -0.27382016391610542 0 -0.25533500769922501 -0.26079806147325402 0 -0.28168474985437852 -0.25014812438121031 0 -0.25533500769922501 -0.26079806147325402 0 -0.28168474985437852 -0.25014812438121031 0 -0.29475034209373052 -0.25911400252729272 0 -0.28168474985437852 -0.25014812438121031 0 -0.28943479674954442 -0.27404188413150249 0 -0.28745838253310591 -0.29049622118526119 0 -0.27294535499841399 -0.27382016391610542 0 -0.28943479674954442 -0.27404188413150249 0 -0.27294535499841399 -0.27382016391610542 0 -0.28168474985437852 -0.25014812438121031 0 -0.28943479674954442 -0.27404188413150249 0 -0.3053532532219787 -0.28720377703356448 0 -0.28943479674954442 -0.27404188413150249 0 -0.30758205481970841 -0.27760343961479889 0 -0.29475034209373052 -0.25911400252729272 0 -0.28943479674954442 -0.27404188413150249 0 -0.30774128731216333 -0.26659399705402798 0 -0.28943479674954442 -0.27404188413150249 0 -0.30758205481970841 -0.27760343961479889 0 -0.30774128731216333 -0.26659399705402798 0 -0.31968795241876508 -0.27293506951701829 0 -0.30758205481970841 -0.27760343961479889 0 -0.30774128731216333 -0.26659399705402798 0 -0.29475034209373052 -0.25911400252729272 0 -0.30774128731216333 -0.26659399705402798 0 -0.3080344920095332 -0.2394981872891698 0 -0.39262896797371383 -0.5 0 -0.32996919821949727 -0.500000000000003 0 -0.37316737060878918 -0.47398651856120799 0 -0.34058957200865753 -0.45543385085020638 0 -0.32377239314134493 -0.45141895556109951 0 -0.32687079568042088 -0.47570947778055128 0 -0.34058957200865753 -0.45543385085020638 0 -0.32687079568042088 -0.47570947778055128 0 -0.34662456052760132 -0.47173753532305618 0 -0.34058957200865753 -0.45543385085020638 0 -0.32377239314134493 -0.45141895556109951 0 -0.33386893043444149 -0.4344635271999181 0 -0.34058957200865753 -0.45543385085020638 0 -0.34682506027071103 -0.44062156430868887 0 -0.33386893043444149 -0.4344635271999181 0 -0.32377239314134493 -0.45141895556109951 0 -0.33386893043444149 -0.4344635271999181 0 -0.32067399060226892 -0.42712843334164757 0 -0.32377239314134493 -0.45141895556109951 0 -0.31413243383823891 -0.44030571941188201 0 -0.30165526083216609 -0.44810013965012718 0 -0.32377239314134493 -0.45141895556109951 0 -0.32067399060226892 -0.42712843334164757 0 -0.32377239314134493 -0.45141895556109951 0 -0.31413243383823891 -0.44030571941188201 0 -0.32067399060226892 -0.42712843334164757 0 -0.32377239314134493 -0.45141895556109951 0 -0.32687079568042088 -0.47570947778055128 0 -0.32377239314134493 -0.45141895556109951 0 -0.32687079568042088 -0.47570947778055128 0 -0.31065948331508042 -0.46345002999867368 0 -0.32687079568042088 -0.47570947778055128 0 -0.31065948331508042 -0.46345002999867368 0 -0.31111493494490827 -0.48351231245007692 0 -0.32996919821949727 -0.500000000000003 0 -0.3105218966846669 -0.5 0 -0.31111493494490827 -0.48351231245007692 0 -0.32687079568042088 -0.47570947778055128 0 -0.32996919821949727 -0.500000000000003 0 -0.31111493494490827 -0.48351231245007692 0 -0.32687079568042088 -0.47570947778055128 0 -0.32996919821949727 -0.500000000000003 0 -0.32687079568042088 -0.47570947778055128 0 -0.32996919821949727 -0.500000000000003 0 -0.34662456052760132 -0.47173753532305618 0 -0.32996919821949727 -0.500000000000003 0 -0.34662456052760132 -0.47173753532305618 0 -0.37316737060878918 -0.47398651856120799 0 -0.34662456052760132 -0.47173753532305618 0 -0.37316737060878918 -0.47398651856120799 0 -0.36188514639862868 -0.45248761608201049 0 -0.3767963593357716 -0.45178105362933019 0 -0.37316737060878918 -0.47398651856120799 0 -0.36188514639862868 -0.45248761608201049 0 -0.34058957200865753 -0.45543385085020638 0 -0.34662456052760132 -0.47173753532305618 0 -0.36188514639862868 -0.45248761608201049 0 -0.34682506027071103 -0.44062156430868887 0 -0.36188514639862868 -0.45248761608201049 0 -0.35373240082966773 -0.43415260240892928 0 -0.34058957200865753 -0.45543385085020638 0 -0.34682506027071103 -0.44062156430868887 0 -0.36188514639862868 -0.45248761608201049 0 -0.36188514639862868 -0.45248761608201049 0 -0.36164797472772831 -0.42655560391294811 0 -0.35373240082966773 -0.43415260240892928 0 -0.36188514639862868 -0.45248761608201049 0 -0.36164797472772831 -0.42655560391294811 0 -0.37571984476653952 -0.43520038182404869 0 -0.36188514639862868 -0.45248761608201049 0 -0.36164797472772831 -0.42655560391294811 0 -0.37571984476653952 -0.43520038182404869 0 -0.3767963593357716 -0.45178105362933019 0 -0.36188514639862868 -0.45248761608201049 0 -0.37571984476653952 -0.43520038182404869 0 -0.36164797472772831 -0.42655560391294811 0 -0.3616113069522584 -0.42254640164940399 0 -0.36164797472772831 -0.42655560391294811 0 -0.37376847139124569 -0.42535590562902159 0 -0.3616113069522584 -0.42254640164940399 0 -0.36164797472772831 -0.42655560391294811 0 -0.37627906073491119 -0.42427793131524533 0 -0.3616113069522584 -0.42254640164940399 0 -0.37376847139124569 -0.42535590562902159 0 -0.37627906073491119 -0.42427793131524533 0 -0.3616113069522584 -0.42254640164940399 0 -0.37571984476653952 -0.43520038182404869 0 -0.36164797472772831 -0.42655560391294811 0 -0.37376847139124569 -0.42535590562902159 0 -0.3616113069522584 -0.42254640164940399 0 -0.37144691229837229 -0.41298912878136718 0 -0.36136622123227291 -0.39464082169796583 0 -0.37627906073491119 -0.42427793131524533 0 -0.3616113069522584 -0.42254640164940399 0 -0.37144691229837229 -0.41298912878136718 0 -0.3616113069522584 -0.42254640164940399 0 -0.36136622123227291 -0.39464082169796583 0 -0.35357819370315913 -0.42159809190095859 0 -0.3361649447297268 -0.41954245627856179 0 -0.3616113069522584 -0.42254640164940399 0 -0.35388861144201778 -0.40863227136364871 0 -0.36136622123227291 -0.39464082169796583 0 -0.3616113069522584 -0.42254640164940399 0 -0.35357819370315913 -0.42159809190095859 0 -0.35388861144201778 -0.40863227136364871 0 -0.35357819370315913 -0.42159809190095859 0 -0.35388861144201778 -0.40863227136364871 0 -0.33931287935660842 -0.40668199423227852 0 -0.35357819370315913 -0.42159809190095859 0 -0.34472562904811238 -0.42950013584003938 0 -0.35373240082966773 -0.43415260240892928 0 -0.35357819370315913 -0.42159809190095859 0 -0.34472562904811238 -0.42950013584003938 0 -0.3361649447297268 -0.41954245627856179 0 -0.34682506027071103 -0.44062156430868887 0 -0.34472562904811238 -0.42950013584003938 0 -0.35373240082966773 -0.43415260240892928 0 -0.3616113069522584 -0.42254640164940399 0 -0.36164797472772831 -0.42655560391294811 0 -0.35357819370315913 -0.42159809190095859 0 -0.3616113069522584 -0.42254640164940399 0 -0.35357819370315913 -0.42159809190095859 0 -0.36164797472772831 -0.42655560391294811 0 -0.35357819370315913 -0.42159809190095859 0 -0.36164797472772831 -0.42655560391294811 0 -0.35357819370315913 -0.42159809190095859 0 -0.35373240082966773 -0.43415260240892928 0 -0.36111079901020948 -0.3678215772434793 0 -0.36136622123227291 -0.39464082169796583 0 -0.38324901345491352 -0.38271664601739308 0 -0.36111079901020948 -0.3678215772434793 0 -0.36136622123227291 -0.39464082169796583 0 -0.38324901345491352 -0.38271664601739308 0 -0.36136622123227291 -0.39464082169796583 0 -0.38652602217137749 -0.41048212401227208 0 -0.37144691229837229 -0.41298912878136718 0 -0.36136622123227291 -0.39464082169796583 0 -0.38652602217137749 -0.41048212401227208 0 -0.36136622123227291 -0.39464082169796583 0 -0.35388861144201778 -0.40863227136364871 0 -0.36136622123227291 -0.39464082169796583 0 -0.33931287935660842 -0.40668199423227852 0 -0.36136622123227291 -0.39464082169796583 0 -0.34344873514941099 -0.38333918014944329 0 -0.34217223305231809 -0.39499219621133203 0 -0.36136622123227291 -0.39464082169796583 0 -0.34217223305231809 -0.39499219621133203 0 -0.33931287935660842 -0.40668199423227852 0 -0.36136622123227291 -0.39464082169796583 0 -0.33931287935660842 -0.40668199423227852 0 -0.36111079901020948 -0.3678215772434793 0 -0.36136622123227291 -0.39464082169796583 0 -0.34344873514941099 -0.38333918014944329 0 -0.36136622123227291 -0.39464082169796583 0 -0.34344873514941099 -0.38333918014944329 0 -0.32552590152277389 -0.37204602543562909 0 -0.34344873514941099 -0.38333918014944329 0 -0.32953477132016978 -0.38890655470728891 0 -0.32552590152277389 -0.37204602543562909 0 -0.34344873514941099 -0.38333918014944329 0 -0.34344873514941099 -0.38333918014944329 0 -0.32953477132016978 -0.38890655470728891 0 -0.34217223305231809 -0.39499219621133203 0 -0.32953477132016978 -0.38890655470728891 0 -0.33614088121166608 -0.39908695728246191 0 -0.33354364111756812 -0.40576708397894817 0 -0.32953477132016978 -0.38890655470728891 0 -0.33354364111756812 -0.40576708397894817 0 -0.32953477132016978 -0.38890655470728891 0 -0.34217223305231809 -0.39499219621133203 0 -0.33614088121166608 -0.39908695728246191 0 -0.34217223305231809 -0.39499219621133203 0 -0.33614088121166608 -0.39908695728246191 0 -0.33931287935660842 -0.40668199423227852 0 -0.33614088121166608 -0.39908695728246191 0 -0.33354364111756812 -0.40576708397894817 0 -0.33931287935660842 -0.40668199423227852 0 -0.33290706010883009 -0.40889918560060412 0 -0.31223592651449772 -0.39620027930025509 0 -0.31757558806319292 -0.40283791112219558 0 -0.33290706010883009 -0.40889918560060412 0 -0.31223592651449772 -0.39620027930025509 0 -0.32953477132016978 -0.38890655470728891 0 -0.33354364111756812 -0.40576708397894817 0 -0.31223592651449772 -0.39620027930025509 0 -0.33354364111756812 -0.40576708397894817 0 -0.33290706010883009 -0.40889918560060412 0 -0.31223592651449772 -0.39620027930025509 0 -0.32552590152277389 -0.37204602543562909 0 -0.32953477132016978 -0.38890655470728891 0 -0.31611433047672788 -0.37717608648822698 0 -0.32552590152277389 -0.37204602543562909 0 -0.32953477132016978 -0.38890655470728891 0 -0.32953477132016978 -0.38890655470728891 0 -0.31611433047672788 -0.37717608648822698 0 -0.31223592651449772 -0.39620027930025509 0 -0.31611433047672788 -0.37717608648822698 0 -0.31223592651449772 -0.39620027930025509 0 -0.33386893043444149 -0.4344635271999181 0 -0.3361649447297268 -0.41954245627856179 0 -0.32067399060226892 -0.42712843334164757 0 -0.34682506027071103 -0.44062156430868887 0 -0.34472562904811238 -0.42950013584003938 0 -0.33386893043444149 -0.4344635271999181 0 -0.34472562904811238 -0.42950013584003938 0 -0.33386893043444149 -0.4344635271999181 0 -0.3361649447297268 -0.41954245627856179 0 -0.35357819370315913 -0.42159809190095859 0 -0.3361649447297268 -0.41954245627856179 0 -0.33290706010883009 -0.40889918560060412 0 -0.35357819370315913 -0.42159809190095859 0 -0.33290706010883009 -0.40889918560060412 0 -0.35357819370315913 -0.42159809190095859 0 -0.33931287935660842 -0.40668199423227852 0 -0.33290706010883009 -0.40889918560060412 0 -0.33354364111756812 -0.40576708397894817 0 -0.33931287935660842 -0.40668199423227852 0 -0.33290706010883009 -0.40889918560060412 0 -0.3361649447297268 -0.41954245627856179 0 -0.33290706010883009 -0.40889918560060412 0 -0.3268303958760046 -0.41460199658575231 0 -0.31757558806319292 -0.40283791112219558 0 -0.3268303958760046 -0.41460199658575231 0 -0.32067399060226892 -0.42712843334164757 0 -0.3361649447297268 -0.41954245627856179 0 -0.3268303958760046 -0.41460199658575231 0 -0.32067399060226892 -0.42712843334164757 0 -0.31757558806319292 -0.40283791112219558 0 -0.32067399060226892 -0.42712843334164757 0 -0.31757558806319292 -0.40283791112219558 0 -0.32067399060226892 -0.42712843334164757 0 -0.30694559367333102 -0.422150209475191 0 -0.31757558806319292 -0.40283791112219558 0 -0.33290706010883009 -0.40889918560060412 0 -0.3268303958760046 -0.41460199658575231 0 -0.31413243383823891 -0.44030571941188201 0 -0.32067399060226892 -0.42712843334164757 0 -0.30694559367333102 -0.422150209475191 0 -0.31413243383823891 -0.44030571941188201 0 -0.30694559367333102 -0.422150209475191 0 -0.30165526083216609 -0.44810013965012718 0 -0.30694559367333102 -0.422150209475191 0 -0.29456408497342113 -0.43215226568668252 0 -0.30165526083216609 -0.44810013965012718 0 -0.30694559367333102 -0.422150209475191 0 -0.30165526083216609 -0.44810013965012718 0 -0.30694559367333102 -0.422150209475191 0 -0.29602889332566201 -0.40937589874214658 0 -0.31223592651449772 -0.39620027930025509 0 -0.31757558806319292 -0.40283791112219558 0 -0.30694559367333102 -0.422150209475191 0 -0.31223592651449772 -0.39620027930025509 0 -0.30694559367333102 -0.422150209475191 0 -0.29602889332566201 -0.40937589874214658 0 -0.29456408497342113 -0.43215226568668252 0 -0.30694559367333102 -0.422150209475191 0 -0.31223592651449772 -0.39620027930025509 0 -0.29602889332566201 -0.40937589874214658 0 -0.28133940190808809 -0.42535109200739779 0 -0.27581780772960812 -0.4063835444263002 0 -0.29602889332566201 -0.40937589874214658 0 -0.28133940190808809 -0.42535109200739779 0 -0.29456408497342113 -0.43215226568668252 0 -0.28133940190808809 -0.42535109200739779 0 -0.28314652653910782 -0.45028635804266448 0 -0.29602889332566201 -0.40937589874214658 0 -0.29456408497342113 -0.43215226568668252 0 -0.28133940190808809 -0.42535109200739779 0 -0.30194155417777629 -0.37392205155428759 0 -0.31611433047672788 -0.37717608648822698 0 -0.31223592651449772 -0.39620027930025509 0 -0.31223592651449772 -0.39620027930025509 0 -0.29042609866698199 -0.38280183847461108 0 -0.30194155417777629 -0.37392205155428759 0 -0.31223592651449772 -0.39620027930025509 0 -0.29042609866698199 -0.38280183847461108 0 -0.29602889332566201 -0.40937589874214658 0 -0.31223592651449772 -0.39620027930025509 0 -0.28796109575077089 -0.39719922054064638 0 -0.29602889332566201 -0.40937589874214658 0 -0.28796109575077089 -0.39719922054064638 0 -0.27581780772960812 -0.4063835444263002 0 -0.31223592651449772 -0.39620027930025509 0 -0.28796109575077089 -0.39719922054064638 0 -0.29042609866698199 -0.38280183847461108 0 -0.28796109575077089 -0.39719922054064638 0 -0.29042609866698199 -0.38280183847461108 0 -0.27150476335109669 -0.38864718175083213 0 -0.26861627081946332 -0.36940339764897229 0 -0.29042609866698199 -0.38280183847461108 0 -0.27150476335109669 -0.38864718175083213 0 -0.26861627081946332 -0.36940339764897229 0 -0.27150476335109669 -0.38864718175083213 0 -0.25928065482974011 -0.38004136036377573 0 -0.26861627081946332 -0.36940339764897229 0 -0.29042609866698199 -0.38280183847461108 0 -0.28796109575077089 -0.39719922054064638 0 -0.27150476335109669 -0.38864718175083213 0 -0.27581780772960812 -0.4063835444263002 0 -0.27150476335109669 -0.38864718175083213 0 -0.25595362414921119 -0.39923246334386131 0 -0.27581780772960812 -0.4063835444263002 0 -0.27150476335109669 -0.38864718175083213 0 -0.25595362414921119 -0.39923246334386131 0 -0.25928065482974011 -0.38004136036377573 0 -0.25595362414921119 -0.39923246334386131 0 -0.25928065482974011 -0.38004136036377573 0 -0.2454823888708253 -0.37909176805193517 0 -0.28133940190808809 -0.42535109200739779 0 -0.26113998907290981 -0.42178989237586639 0 -0.26664991049051417 -0.44132628527264889 0 -0.28133940190808809 -0.42535109200739779 0 -0.26664991049051417 -0.44132628527264889 0 -0.28133940190808809 -0.42535109200739779 0 -0.27581780772960812 -0.4063835444263002 0 -0.26113998907290981 -0.42178989237586639 0 -0.25595362414921119 -0.39923246334386131 0 -0.26113998907290981 -0.42178989237586639 0 -0.23751553825458149 -0.41808959206439827 0 -0.25595362414921119 -0.39923246334386131 0 -0.27581780772960812 -0.4063835444263002 0 -0.26113998907290981 -0.42178989237586639 0 -0.26113998907290981 -0.42178989237586639 0 -0.26664991049051417 -0.44132628527264889 0 -0.24998188965477949 -0.43628624260027887 0 -0.25196041907293909 -0.45730147853789899 0 -0.26882743934626219 -0.45557172092804687 0 -0.26664991049051417 -0.44132628527264889 0 -0.25196041907293909 -0.45730147853789899 0 -0.26664991049051417 -0.44132628527264889 0 -0.25196041907293909 -0.45730147853789899 0 -0.26664991049051417 -0.44132628527264889 0 -0.24998188965477949 -0.43628624260027887 0 -0.25196041907293909 -0.45730147853789899 0 -0.27355290128248783 -0.47337276185897509 0 -0.25196041907293909 -0.45730147853789899 0 -0.27355290128248783 -0.47337276185897509 0 -0.25644967940051838 -0.47405052853383101 0 -0.25196041907293909 -0.45730147853789899 0 -0.26882743934626219 -0.45557172092804687 0 -0.27355290128248783 -0.47337276185897509 0 -0.26882743934626219 -0.45557172092804687 0 -0.28314652653910782 -0.45028635804266448 0 -0.27355290128248783 -0.47337276185897509 0 -0.28133940190808809 -0.42535109200739779 0 -0.26664991049051417 -0.44132628527264889 0 -0.28314652653910782 -0.45028635804266448 0 -0.26882743934626219 -0.45557172092804687 0 -0.26664991049051417 -0.44132628527264889 0 -0.28314652653910782 -0.45028635804266448 0 -0.29456408497342113 -0.43215226568668252 0 -0.28314652653910782 -0.45028635804266448 0 -0.30165526083216609 -0.44810013965012718 0 -0.28314652653910782 -0.45028635804266448 0 -0.29636492799100128 -0.47405006982506348 0 -0.27355290128248783 -0.47337276185897509 0 -0.28314652653910782 -0.45028635804266448 0 -0.30165526083216609 -0.44810013965012718 0 -0.29636492799100128 -0.47405006982506348 0 -0.30165526083216609 -0.44810013965012718 0 -0.29636492799100128 -0.47405006982506348 0 -0.32377239314134493 -0.45141895556109951 0 -0.31065948331508042 -0.46345002999867368 0 -0.30165526083216609 -0.44810013965012718 0 -0.31065948331508042 -0.46345002999867368 0 -0.30165526083216609 -0.44810013965012718 0 -0.29636492799100128 -0.47405006982506348 0 -0.3105218966846669 -0.5 0 -0.31111493494490827 -0.48351231245007692 0 -0.29107459514983658 -0.49999999999999978 0 -0.31111493494490827 -0.48351231245007692 0 -0.29636492799100128 -0.47405006982506348 0 -0.29107459514983658 -0.49999999999999978 0 -0.31065948331508042 -0.46345002999867368 0 -0.31111493494490827 -0.48351231245007692 0 -0.29636492799100128 -0.47405006982506348 0 -0.29636492799100128 -0.47405006982506348 0 -0.29107459514983658 -0.49999999999999978 0 -0.27355290128248783 -0.47337276185897509 0 -0.29636492799100128 -0.47405006982506348 0 -0.29107459514983658 -0.49999999999999978 0 -0.29107459514983658 -0.49999999999999978 0 -0.27355290128248783 -0.47337276185897509 0 -0.26264604395385999 -0.5 0 -0.27355290128248783 -0.47337276185897509 0 -0.25644967940051838 -0.47405052853383101 0 -0.26264604395385999 -0.5 0 -0.25644967940051838 -0.47405052853383101 0 -0.26264604395385999 -0.5 0 -0.2449425132167001 -0.48472672347822432 0 -0.2449425132167001 -0.48472672347822432 0 -0.22989375539866691 -0.48129953312637108 0 -0.23421749275788331 -0.5 0 -0.26264604395385999 -0.5 0 -0.2449425132167001 -0.48472672347822432 0 -0.23421749275788331 -0.5 0 -0.25644967940051838 -0.47405052853383101 0 -0.2449425132167001 -0.48472672347822432 0 -0.24092708723580361 -0.46930050583213562 0 -0.24092708723580361 -0.46930050583213562 0 -0.22989375539866691 -0.48129953312637108 0 -0.2449425132167001 -0.48472672347822432 0 -0.24092708723580361 -0.46930050583213562 0 -0.22989375539866691 -0.48129953312637108 0 -0.24092708723580361 -0.46930050583213562 0 -0.22989375539866691 -0.48129953312637108 0 -0.22315808615992211 -0.46403376628593052 0 -0.22989375539866691 -0.48129953312637108 0 -0.22315808615992211 -0.46403376628593052 0 -0.2122245864637084 -0.47536125973174298 0 -0.22989375539866691 -0.48129953312637108 0 -0.23421749275788331 -0.5 0 -0.20578894156190669 -0.5 0 -0.25196041907293909 -0.45730147853789899 0 -0.23264359138295271 -0.44292396475058199 0 -0.25196041907293909 -0.45730147853789899 0 -0.23264359138295271 -0.44292396475058199 0 -0.24998188965477949 -0.43628624260027887 0 -0.25196041907293909 -0.45730147853789899 0 -0.23655317655992941 -0.457898871547193 0 -0.23264359138295271 -0.44292396475058199 0 -0.25196041907293909 -0.45730147853789899 0 -0.25644967940051838 -0.47405052853383101 0 -0.24092708723580361 -0.46930050583213562 0 -0.25196041907293909 -0.45730147853789899 0 -0.24092708723580361 -0.46930050583213562 0 -0.25196041907293909 -0.45730147853789899 0 -0.24092708723580361 -0.46930050583213562 0 -0.23655317655992941 -0.457898871547193 0 -0.23655317655992941 -0.457898871547193 0 -0.22315808615992211 -0.46403376628593052 0 -0.23264359138295271 -0.44292396475058199 0 -0.22315808615992211 -0.46403376628593052 0 -0.23264359138295271 -0.44292396475058199 0 -0.20723074551764381 -0.45455770356204273 0 -0.24092708723580361 -0.46930050583213562 0 -0.23655317655992941 -0.457898871547193 0 -0.22315808615992211 -0.46403376628593052 0 -0.23264359138295271 -0.44292396475058199 0 -0.20723074551764381 -0.45455770356204273 0 -0.2133267636929661 -0.4285464509632651 0 -0.20723074551764381 -0.45455770356204273 0 -0.19588565821301801 -0.43181408559185591 0 -0.2133267636929661 -0.4285464509632651 0 -0.22315808615992211 -0.46403376628593052 0 -0.20723074551764381 -0.45455770356204273 0 -0.2122245864637084 -0.47536125973174298 0 -0.20723074551764381 -0.45455770356204273 0 -0.1878426087761785 -0.44763113184535053 0 -0.1854564530676277 -0.46374789029431401 0 -0.20723074551764381 -0.45455770356204273 0 -0.19505140368040241 -0.47691529568437069 0 -0.1854564530676277 -0.46374789029431401 0 -0.20723074551764381 -0.45455770356204273 0 -0.1878426087761785 -0.44763113184535053 0 -0.20723074551764381 -0.45455770356204273 0 -0.1878426087761785 -0.44763113184535053 0 -0.19588565821301801 -0.43181408559185591 0 -0.22989375539866691 -0.48129953312637108 0 -0.20578894156190669 -0.5 0 -0.2122245864637084 -0.47536125973174298 0 -0.20578894156190669 -0.5 0 -0.2122245864637084 -0.47536125973174298 0 -0.19505140368040241 -0.47691529568437069 0 -0.20723074551764381 -0.45455770356204273 0 -0.2122245864637084 -0.47536125973174298 0 -0.19505140368040241 -0.47691529568437069 0 -0.20578894156190669 -0.5 0 -0.19505140368040241 -0.47691529568437069 0 -0.17736039036593021 -0.5 0 -0.17736039036593021 -0.5 0 -0.1598456608548294 -0.48625367410470982 0 -0.1704964727325613 -0.47184761967093541 0 -0.17736039036593021 -0.5 0 -0.1598456608548294 -0.48625367410470982 0 -0.14893183916995351 -0.5 0 -0.1598456608548294 -0.48625367410470982 0 -0.1704964727325613 -0.47184761967093541 0 -0.14299079983292429 -0.47752360372703062 0 -0.19505140368040241 -0.47691529568437069 0 -0.17736039036593021 -0.5 0 -0.1704964727325613 -0.47184761967093541 0 -0.19505140368040241 -0.47691529568437069 0 -0.1704964727325613 -0.47184761967093541 0 -0.1854564530676277 -0.46374789029431401 0 -0.1878426087761785 -0.44763113184535053 0 -0.1854564530676277 -0.46374789029431401 0 -0.1631135825648615 -0.45590288555944908 0 -0.1704964727325613 -0.47184761967093541 0 -0.1854564530676277 -0.46374789029431401 0 -0.1631135825648615 -0.45590288555944908 0 -0.1878426087761785 -0.44763113184535053 0 -0.16845447203471309 -0.44070456012865827 0 -0.1878426087761785 -0.44763113184535053 0 -0.16845447203471309 -0.44070456012865827 0 -0.1631135825648615 -0.45590288555944908 0 -0.1878426087761785 -0.44763113184535053 0 -0.16845447203471309 -0.44070456012865827 0 -0.19588565821301801 -0.43181408559185591 0 -0.16845447203471309 -0.44070456012865827 0 -0.1631135825648615 -0.45590288555944908 0 -0.14906633529324759 -0.43377798841196658 0 -0.1704964727325613 -0.47184761967093541 0 -0.1631135825648615 -0.45590288555944908 0 -0.14299079983292429 -0.47752360372703062 0 -0.1631135825648615 -0.45590288555944908 0 -0.14602856756308591 -0.45565079606949871 0 -0.14299079983292429 -0.47752360372703062 0 -0.14602856756308591 -0.45565079606949871 0 -0.14299079983292429 -0.47752360372703062 0 -0.1631135825648615 -0.45590288555944908 0 -0.14602856756308591 -0.45565079606949871 0 -0.14906633529324759 -0.43377798841196658 0 -0.14602856756308591 -0.45565079606949871 0 -0.1312064970229409 -0.44244490655103669 0 -0.14906633529324759 -0.43377798841196658 0 -0.14602856756308591 -0.45565079606949871 0 -0.14906633529324759 -0.43377798841196658 0 -0.14602856756308591 -0.45565079606949871 0 -0.1312064970229409 -0.44244490655103669 0 -0.1201536232768925 -0.46295462635476942 0 -0.14602856756308591 -0.45565079606949871 0 -0.14299079983292429 -0.47752360372703062 0 -0.1201536232768925 -0.46295462635476942 0 -0.1267921368491573 -0.48314498010293672 0 -0.14299079983292429 -0.47752360372703062 0 -0.1201536232768925 -0.46295462635476942 0 -0.1267921368491573 -0.48314498010293672 0 -0.14893183916995351 -0.5 0 -0.1205032879739769 -0.5 0 -0.1267921368491573 -0.48314498010293672 0 -0.14893183916995351 -0.5 0 -0.14299079983292429 -0.47752360372703062 0 -0.1598456608548294 -0.48625367410470982 0 -0.14893183916995351 -0.5 0 -0.14299079983292429 -0.47752360372703062 0 -0.15591442000642311 -0.38446979467925863 0 -0.13487115793912099 -0.40423317639942541 0 -0.15249037764983531 -0.40912389154561257 0 -0.15591442000642311 -0.38446979467925863 0 -0.15249037764983531 -0.40912389154561257 0 -0.15591442000642311 -0.38446979467925863 0 -0.13858748212914249 -0.37966399945509088 0 -0.13487115793912099 -0.40423317639942541 0 -0.15591442000642311 -0.38446979467925863 0 -0.13858748212914249 -0.37966399945509088 0 -0.14109409366258319 -0.36210913378975113 0 -0.13858748212914249 -0.37966399945509088 0 -0.12556807921864879 -0.38849123483631842 0 -0.1188146674808004 -0.36725312872772381 0 -0.12556807921864879 -0.38849123483631842 0 -0.13487115793912099 -0.40423317639942541 0 -0.1168934569830135 -0.40477599869467451 0 -0.13858748212914249 -0.37966399945509088 0 -0.12556807921864879 -0.38849123483631842 0 -0.13487115793912099 -0.40423317639942541 0 -0.13487115793912099 -0.40423317639942541 0 -0.14906633529324759 -0.43377798841196658 0 -0.12288138973471591 -0.42442320070196671 0 -0.1312064970229409 -0.44244490655103669 0 -0.14906633529324759 -0.43377798841196658 0 -0.12288138973471591 -0.42442320070196671 0 -0.14906633529324759 -0.43377798841196658 0 -0.12288138973471591 -0.42442320070196671 0 -0.13487115793912099 -0.40423317639942541 0 -0.14906633529324759 -0.43377798841196658 0 -0.15249037764983531 -0.40912389154561257 0 -0.14906633529324759 -0.43377798841196658 0 -0.15249037764983531 -0.40912389154561257 0 -0.14906633529324759 -0.43377798841196658 0 -0.15249037764983531 -0.40912389154561257 0 -0.17363753628250961 -0.42012260878708169 0 -0.15249037764983531 -0.40912389154561257 0 -0.17363753628250961 -0.42012260878708169 0 -0.17493410001234411 -0.39944512428373791 0 -0.16845447203471309 -0.44070456012865827 0 -0.14906633529324759 -0.43377798841196658 0 -0.17363753628250961 -0.42012260878708169 0 -0.16845447203471309 -0.44070456012865827 0 -0.14906633529324759 -0.43377798841196658 0 -0.16845447203471309 -0.44070456012865827 0 -0.17363753628250961 -0.42012260878708169 0 -0.19588565821301801 -0.43181408559185591 0 -0.17363753628250961 -0.42012260878708169 0 -0.17493410001234411 -0.39944512428373791 0 -0.19400993600297961 -0.4141689371759481 0 -0.15591442000642311 -0.38446979467925863 0 -0.15249037764983531 -0.40912389154561257 0 -0.17493410001234411 -0.39944512428373791 0 -0.15591442000642311 -0.38446979467925863 0 -0.17493410001234411 -0.39944512428373791 0 -0.1784172695229739 -0.3751873823337224 0 -0.17493410001234411 -0.39944512428373791 0 -0.1784172695229739 -0.3751873823337224 0 -0.19675538450294869 -0.39478585750946121 0 -0.1784172695229739 -0.3751873823337224 0 -0.19675538450294869 -0.39478585750946121 0 -0.20860367324763429 -0.3780090183686724 0 -0.17493410001234411 -0.39944512428373791 0 -0.19675538450294869 -0.39478585750946121 0 -0.19400993600297961 -0.4141689371759481 0 -0.19675538450294869 -0.39478585750946121 0 -0.2117038590184333 -0.41098163749375177 0 -0.22259666068860001 -0.39764676874648303 0 -0.20860367324763429 -0.3780090183686724 0 -0.22259666068860001 -0.39764676874648303 0 -0.19675538450294869 -0.39478585750946121 0 -0.20860367324763429 -0.3780090183686724 0 -0.22259666068860001 -0.39764676874648303 0 -0.19588565821301801 -0.43181408559185591 0 -0.19400993600297961 -0.4141689371759481 0 -0.2133267636929661 -0.4285464509632651 0 -0.17363753628250961 -0.42012260878708169 0 -0.19588565821301801 -0.43181408559185591 0 -0.19400993600297961 -0.4141689371759481 0 -0.19675538450294869 -0.39478585750946121 0 -0.19400993600297961 -0.4141689371759481 0 -0.2117038590184333 -0.41098163749375177 0 -0.19400993600297961 -0.4141689371759481 0 -0.2133267636929661 -0.4285464509632651 0 -0.19400993600297961 -0.4141689371759481 0 -0.2117038590184333 -0.41098163749375177 0 -0.2133267636929661 -0.4285464509632651 0 -0.23264359138295271 -0.44292396475058199 0 -0.2133267636929661 -0.4285464509632651 0 -0.23751553825458149 -0.41808959206439827 0 -0.23264359138295271 -0.44292396475058199 0 -0.2133267636929661 -0.4285464509632651 0 -0.2117038590184333 -0.41098163749375177 0 -0.2133267636929661 -0.4285464509632651 0 -0.23751553825458149 -0.41808959206439827 0 -0.2117038590184333 -0.41098163749375177 0 -0.23751553825458149 -0.41808959206439827 0 -0.22259666068860001 -0.39764676874648303 0 -0.23264359138295271 -0.44292396475058199 0 -0.23751553825458149 -0.41808959206439827 0 -0.24998188965477949 -0.43628624260027887 0 -0.26113998907290981 -0.42178989237586639 0 -0.23751553825458149 -0.41808959206439827 0 -0.24998188965477949 -0.43628624260027887 0 -0.20860367324763429 -0.3780090183686724 0 -0.22259666068860001 -0.39764676874648303 0 -0.2281118318391806 -0.37489177057206668 0 -0.22259666068860001 -0.39764676874648303 0 -0.23928712332081301 -0.39506768010468341 0 -0.2281118318391806 -0.37489177057206668 0 -0.23751553825458149 -0.41808959206439827 0 -0.22259666068860001 -0.39764676874648303 0 -0.23928712332081301 -0.39506768010468341 0 -0.25595362414921119 -0.39923246334386131 0 -0.23928712332081301 -0.39506768010468341 0 -0.2454823888708253 -0.37909176805193517 0 -0.25595362414921119 -0.39923246334386131 0 -0.23751553825458149 -0.41808959206439827 0 -0.23928712332081301 -0.39506768010468341 0 -0.23928712332081301 -0.39506768010468341 0 -0.2454823888708253 -0.37909176805193517 0 -0.2281118318391806 -0.37489177057206668 0 -0.2454823888708253 -0.37909176805193517 0 -0.2281118318391806 -0.37489177057206668 0 -0.23885470575911161 -0.35501125442708548 0 -0.25484622695810349 -0.36383199102327768 0 -0.2454823888708253 -0.37909176805193517 0 -0.23885470575911161 -0.35501125442708548 0 -0.2281118318391806 -0.37489177057206668 0 -0.23885470575911161 -0.35501125442708548 0 -0.21510446032512159 -0.35306593455222068 0 -0.23885470575911161 -0.35501125442708548 0 -0.22827353167773651 -0.3327860327689986 0 -0.21510446032512159 -0.35306593455222068 0 -0.25484622695810349 -0.36383199102327768 0 -0.2553864931377417 -0.34889888660174267 0 -0.23885470575911161 -0.35501125442708548 0 -0.2553864931377417 -0.34889888660174267 0 -0.23885470575911161 -0.35501125442708548 0 -0.24679438050505931 -0.33865435206494832 0 -0.24679438050505931 -0.33865435206494832 0 -0.24773623205215151 -0.32303085346176258 0 -0.22827353167773651 -0.3327860327689986 0 -0.23885470575911161 -0.35501125442708548 0 -0.24679438050505931 -0.33865435206494832 0 -0.22827353167773651 -0.3327860327689986 0 -0.24773623205215151 -0.32303085346176258 0 -0.2264531973528349 -0.30962044031806552 0 -0.24773623205215151 -0.32303085346176258 0 -0.22827353167773651 -0.3327860327689986 0 -0.2264531973528349 -0.30962044031806552 0 -0.22827353167773651 -0.3327860327689986 0 -0.21366112645807059 -0.31748217219014352 0 -0.2264531973528349 -0.30962044031806552 0 -0.22827353167773651 -0.3327860327689986 0 -0.20909417618512471 -0.33251306078651222 0 -0.21510446032512159 -0.35306593455222068 0 -0.20909417618512471 -0.33251306078651222 0 -0.19876606332284691 -0.34285522388554412 0 -0.21510446032512159 -0.35306593455222068 0 -0.22827353167773651 -0.3327860327689986 0 -0.20909417618512471 -0.33251306078651222 0 -0.21366112645807059 -0.31748217219014352 0 -0.20909417618512471 -0.33251306078651222 0 -0.21366112645807059 -0.31748217219014352 0 -0.19931456442113901 -0.31628129990277237 0 -0.19931456442113901 -0.31628129990277237 0 -0.19387432338437771 -0.32981605852285062 0 -0.18308307645498351 -0.31802746849409469 0 -0.20909417618512471 -0.33251306078651222 0 -0.19931456442113901 -0.31628129990277237 0 -0.19387432338437771 -0.32981605852285062 0 -0.19876606332284691 -0.34285522388554412 0 -0.19387432338437771 -0.32981605852285062 0 -0.18061769836570271 -0.33873351761305132 0 -0.20909417618512471 -0.33251306078651222 0 -0.19876606332284691 -0.34285522388554412 0 -0.19387432338437771 -0.32981605852285062 0 -0.19461068580666849 -0.35837126799086177 0 -0.18061769836570271 -0.33873351761305132 0 -0.19876606332284691 -0.34285522388554412 0 -0.19461068580666849 -0.35837126799086177 0 -0.18061769836570271 -0.33873351761305132 0 -0.19876606332284691 -0.34285522388554412 0 -0.19461068580666849 -0.35837126799086177 0 -0.21510446032512159 -0.35306593455222068 0 -0.1784172695229739 -0.3751873823337224 0 -0.20860367324763429 -0.3780090183686724 0 -0.19461068580666849 -0.35837126799086177 0 -0.20860367324763429 -0.3780090183686724 0 -0.19461068580666849 -0.35837126799086177 0 -0.20860367324763429 -0.3780090183686724 0 -0.19461068580666849 -0.35837126799086177 0 -0.21510446032512159 -0.35306593455222068 0 -0.20860367324763429 -0.3780090183686724 0 -0.2281118318391806 -0.37489177057206668 0 -0.21510446032512159 -0.35306593455222068 0 -0.22116070127396589 -0.26164340906538019 0 -0.23907402377079429 -0.25352901113119691 0 -0.23411187434914149 -0.26937594560370881 0 -0.22116070127396589 -0.26164340906538019 0 -0.23907402377079429 -0.25352901113119691 0 -0.22930264905426681 -0.24807207366278219 0 -0.25533500769922501 -0.26079806147325402 0 -0.23411187434914149 -0.26937594560370881 0 -0.25533500769922501 -0.26079806147325402 0 -0.23907402377079429 -0.25352901113119691 0 -0.25217385243102691 -0.24332397570100661 0 -0.25533500769922501 -0.26079806147325402 0 -0.23907402377079429 -0.25352901113119691 0 -0.23411187434914149 -0.26937594560370881 0 -0.25533500769922501 -0.26079806147325402 0 -0.2455812677149937 -0.27901044640179051 0 -0.23411187434914149 -0.26937594560370881 0 -0.2455812677149937 -0.27901044640179051 0 -0.23411187434914149 -0.26937594560370881 0 -0.2319862629842192 -0.28249756679937438 0 -0.23411187434914149 -0.26937594560370881 0 -0.21288874099905941 -0.27795382973416682 0 -0.22116070127396589 -0.26164340906538019 0 -0.23411187434914149 -0.26937594560370881 0 -0.21288874099905941 -0.27795382973416682 0 -0.23411187434914149 -0.26937594560370881 0 -0.2319862629842192 -0.28249756679937438 0 -0.21288874099905941 -0.27795382973416682 0 -0.21912118690402119 -0.2914499544066278 0 -0.2319862629842192 -0.28249756679937438 0 -0.24657676615906499 -0.29636819494863198 0 -0.21912118690402119 -0.2914499544066278 0 -0.24657676615906499 -0.29636819494863198 0 -0.21912118690402119 -0.2914499544066278 0 -0.2319862629842192 -0.28249756679937438 0 -0.21288874099905941 -0.27795382973416682 0 -0.2455812677149937 -0.27901044640179051 0 -0.2319862629842192 -0.28249756679937438 0 -0.24657676615906499 -0.29636819494863198 0 -0.24773623205215151 -0.32303085346176258 0 -0.24657676615906499 -0.29636819494863198 0 -0.2264531973528349 -0.30962044031806552 0 -0.21912118690402119 -0.2914499544066278 0 -0.24657676615906499 -0.29636819494863198 0 -0.2264531973528349 -0.30962044031806552 0 -0.21366112645807059 -0.31748217219014352 0 -0.19931456442113901 -0.31628129990277237 0 -0.20517016265351831 -0.29621002717436851 0 -0.21366112645807059 -0.31748217219014352 0 -0.2264531973528349 -0.30962044031806552 0 -0.20517016265351831 -0.29621002717436851 0 -0.21912118690402119 -0.2914499544066278 0 -0.2264531973528349 -0.30962044031806552 0 -0.20517016265351831 -0.29621002717436851 0 -0.2264531973528349 -0.30962044031806552 0 -0.20517016265351831 -0.29621002717436851 0 -0.19931456442113901 -0.31628129990277237 0 -0.18771991409094599 -0.30314226032845187 0 -0.18308307645498351 -0.31802746849409469 0 -0.19931456442113901 -0.31628129990277237 0 -0.18771991409094599 -0.30314226032845187 0 -0.20517016265351831 -0.29621002717436851 0 -0.19166560764897711 -0.28653171386462423 0 -0.21288874099905941 -0.27795382973416682 0 -0.18771991409094599 -0.30314226032845187 0 -0.19166560764897711 -0.28653171386462423 0 -0.20517016265351831 -0.29621002717436851 0 -0.19166560764897711 -0.28653171386462423 0 -0.19360577092267209 -0.276766275036265 0 -0.179072468078742 -0.28427584852628429 0 -0.21912118690402119 -0.2914499544066278 0 -0.19166560764897711 -0.28653171386462423 0 -0.21912118690402119 -0.2914499544066278 0 -0.19166560764897711 -0.28653171386462423 0 -0.21288874099905941 -0.27795382973416682 0 -0.21912118690402119 -0.2914499544066278 0 -0.19166560764897711 -0.28653171386462423 0 -0.20517016265351831 -0.29621002717436851 0 -0.22116070127396589 -0.26164340906538019 0 -0.21288874099905941 -0.27795382973416682 0 -0.20813907376660279 -0.26925670154624692 0 -0.21288874099905941 -0.27795382973416682 0 -0.20813907376660279 -0.26925670154624692 0 -0.19360577092267209 -0.276766275036265 0 -0.19166560764897711 -0.28653171386462423 0 -0.21288874099905941 -0.27795382973416682 0 -0.19360577092267209 -0.276766275036265 0 -0.19360577092267209 -0.276766275036265 0 -0.1886624879535547 -0.26615957780216998 0 -0.1980508005778559 -0.26710642769771792 0 -0.19360577092267209 -0.276766275036265 0 -0.1886624879535547 -0.26615957780216998 0 -0.18289603588232689 -0.27363257617501352 0 -0.20813907376660279 -0.26925670154624692 0 -0.19360577092267209 -0.276766275036265 0 -0.20813907376660279 -0.26925670154624692 0 -0.19360577092267209 -0.276766275036265 0 -0.1980508005778559 -0.26710642769771792 0 -0.1980508005778559 -0.26710642769771792 0 -0.1945874570183698 -0.26000172834144691 0 -0.204816844582595 -0.25918229574460461 0 -0.1886624879535547 -0.26615957780216998 0 -0.1945874570183698 -0.26000172834144691 0 -0.18464901292521291 -0.25666926474868951 0 -0.1886624879535547 -0.26615957780216998 0 -0.1980508005778559 -0.26710642769771792 0 -0.1945874570183698 -0.26000172834144691 0 -0.1945874570183698 -0.26000172834144691 0 -0.18464901292521291 -0.25666926474868951 0 -0.19488141057802469 -0.24805167948801479 0 -0.1945874570183698 -0.26000172834144691 0 -0.204816844582595 -0.25918229574460461 0 -0.19488141057802469 -0.24805167948801479 0 -0.204816844582595 -0.25918229574460461 0 -0.20964649182153711 -0.24952010593262849 0 -0.19488141057802469 -0.24805167948801479 0 -0.22116070127396589 -0.26164340906538019 0 -0.204816844582595 -0.25918229574460461 0 -0.20964649182153711 -0.24952010593262849 0 -0.22116070127396589 -0.26164340906538019 0 -0.20964649182153711 -0.24952010593262849 0 -0.22012117889351029 -0.2400435588235918 0 -0.22116070127396589 -0.26164340906538019 0 -0.20813907376660279 -0.26925670154624692 0 -0.204816844582595 -0.25918229574460461 0 -0.20813907376660279 -0.26925670154624692 0 -0.1980508005778559 -0.26710642769771792 0 -0.204816844582595 -0.25918229574460461 0 -0.15591577968968659 -0.26925488355999339 0 -0.1577074823109649 -0.24321700958376799 0 -0.16542516462752349 -0.25635557756913258 0 -0.15591577968968659 -0.26925488355999339 0 -0.1577074823109649 -0.24321700958376799 0 -0.16542516462752349 -0.25635557756913258 0 -0.16864101730650571 -0.26593251103410959 0 -0.15591577968968659 -0.26925488355999339 0 -0.16542516462752349 -0.25635557756913258 0 -0.17483252001653871 -0.2578874856230759 0 -0.16864101730650571 -0.26593251103410959 0 -0.16542516462752349 -0.25635557756913258 0 -0.17483252001653871 -0.2578874856230759 0 -0.17659671807339011 -0.24537187428510521 0 -0.18464901292521291 -0.25666926474868951 0 -0.17659671807339011 -0.24537187428510521 0 -0.19488141057802469 -0.24805167948801479 0 -0.18464901292521291 -0.25666926474868951 0 -0.17483252001653871 -0.2578874856230759 0 -0.17659671807339011 -0.24537187428510521 0 -0.1886624879535547 -0.26615957780216998 0 -0.18464901292521291 -0.25666926474868951 0 -0.17885068715006139 -0.2651082004783426 0 -0.18464901292521291 -0.25666926474868951 0 -0.17483252001653871 -0.2578874856230759 0 -0.17885068715006139 -0.2651082004783426 0 -0.17483252001653871 -0.2578874856230759 0 -0.17885068715006139 -0.2651082004783426 0 -0.16864101730650571 -0.26593251103410959 0 -0.17885068715006139 -0.2651082004783426 0 -0.17334369549168099 -0.27352933034694582 0 -0.16864101730650571 -0.26593251103410959 0 -0.17885068715006139 -0.2651082004783426 0 -0.18289603588232689 -0.27363257617501352 0 -0.17334369549168099 -0.27352933034694582 0 -0.1886624879535547 -0.26615957780216998 0 -0.17885068715006139 -0.2651082004783426 0 -0.18289603588232689 -0.27363257617501352 0 -0.19360577092267209 -0.276766275036265 0 -0.179072468078742 -0.28427584852628429 0 -0.19360577092267209 -0.276766275036265 0 -0.18289603588232689 -0.27363257617501352 0 -0.179072468078742 -0.28427584852628429 0 -0.18289603588232689 -0.27363257617501352 0 -0.17334369549168099 -0.27352933034694582 0 -0.179072468078742 -0.28427584852628429 0 -0.17334369549168099 -0.27352933034694582 0 -0.17001398906515641 -0.28265316272098318 0 -0.179072468078742 -0.28427584852628429 0 -0.17334369549168099 -0.27352933034694582 0 -0.1639954601022047 -0.27602454615318639 0 -0.17001398906515641 -0.28265316272098318 0 -0.1639954601022047 -0.27602454615318639 0 -0.1620315774452781 -0.2844194281800409 0 -0.17001398906515641 -0.28265316272098318 0 -0.17334369549168099 -0.27352933034694582 0 -0.16864101730650571 -0.26593251103410959 0 -0.1639954601022047 -0.27602454615318639 0 -0.16864101730650571 -0.26593251103410959 0 -0.1639954601022047 -0.27602454615318639 0 -0.15591577968968659 -0.26925488355999339 0 -0.1639954601022047 -0.27602454615318639 0 -0.1538120392357237 -0.28137300884153921 0 -0.15591577968968659 -0.26925488355999339 0 -0.1639954601022047 -0.27602454615318639 0 -0.1620315774452781 -0.2844194281800409 0 -0.1538120392357237 -0.28137300884153921 0 -0.16545632694300191 -0.29131151093608382 0 -0.1729370867355226 -0.29410133516796788 0 -0.15420856582206749 -0.30167095647130993 0 -0.1620315774452781 -0.2844194281800409 0 -0.15689521971306489 -0.29124507296051222 0 -0.1538120392357237 -0.28137300884153921 0 -0.1620315774452781 -0.2844194281800409 0 -0.15689521971306489 -0.29124507296051222 0 -0.16545632694300191 -0.29131151093608382 0 -0.15689521971306489 -0.29124507296051222 0 -0.16545632694300191 -0.29131151093608382 0 -0.1518401858072643 -0.29834717334588812 0 -0.16545632694300191 -0.29131151093608382 0 -0.1518401858072643 -0.29834717334588812 0 -0.1620315774452781 -0.2844194281800409 0 -0.16545632694300191 -0.29131151093608382 0 -0.17001398906515641 -0.28265316272098318 0 -0.16545632694300191 -0.29131151093608382 0 -0.17001398906515641 -0.28265316272098318 0 -0.179072468078742 -0.28427584852628429 0 -0.17001398906515641 -0.28265316272098318 0 -0.179072468078742 -0.28427584852628429 0 -0.19166560764897711 -0.28653171386462423 0 -0.179072468078742 -0.28427584852628429 0 -0.1729370867355226 -0.29410133516796788 0 -0.19166560764897711 -0.28653171386462423 0 -0.1729370867355226 -0.29410133516796788 0 -0.16545632694300191 -0.29131151093608382 0 -0.179072468078742 -0.28427584852628429 0 -0.18771991409094599 -0.30314226032845187 0 -0.19166560764897711 -0.28653171386462423 0 -0.1729370867355226 -0.29410133516796788 0 -0.19166560764897711 -0.28653171386462423 0 -0.179072468078742 -0.28427584852628429 0 -0.16545632694300191 -0.29131151093608382 0 -0.179072468078742 -0.28427584852628429 0 -0.1729370867355226 -0.29410133516796788 0 -0.18771991409094599 -0.30314226032845187 0 -0.1729370867355226 -0.29410133516796788 0 -0.1729146708056514 -0.30720755753941309 0 -0.18771991409094599 -0.30314226032845187 0 -0.1729146708056514 -0.30720755753941309 0 -0.18308307645498351 -0.31802746849409469 0 -0.1729146708056514 -0.30720755753941309 0 -0.15420856582206749 -0.30167095647130993 0 -0.16662471092473721 -0.31909576723524069 0 -0.1729370867355226 -0.29410133516796788 0 -0.15420856582206749 -0.30167095647130993 0 -0.1729370867355226 -0.29410133516796788 0 -0.1729146708056514 -0.30720755753941309 0 -0.15420856582206749 -0.30167095647130993 0 -0.15420856582206749 -0.30167095647130993 0 -0.16662471092473721 -0.31909576723524069 0 -0.16545632694300191 -0.29131151093608382 0 -0.15420856582206749 -0.30167095647130993 0 -0.1518401858072643 -0.29834717334588812 0 -0.1518401858072643 -0.29834717334588812 0 -0.13292808823488961 -0.30811933512461231 0 -0.14460134497621371 -0.29612042321232301 0 -0.15420856582206749 -0.30167095647130993 0 -0.13421562954652971 -0.30975162429590952 0 -0.1518401858072643 -0.29834717334588812 0 -0.13292808823488961 -0.30811933512461231 0 -0.15420856582206749 -0.30167095647130993 0 -0.13421562954652971 -0.30975162429590952 0 -0.14280577153537569 -0.32064183466935481 0 -0.15420856582206749 -0.30167095647130993 0 -0.1518401858072643 -0.29834717334588812 0 -0.13421562954652971 -0.30975162429590952 0 -0.15420856582206749 -0.30167095647130993 0 -0.1518401858072643 -0.29834717334588812 0 -0.13292808823488961 -0.30811933512461231 0 -0.13258957237245009 -0.28963875778779702 0 -0.14460134497621371 -0.29612042321232301 0 -0.1518401858072643 -0.29834717334588812 0 -0.13292808823488961 -0.30811933512461231 0 -0.13421562954652971 -0.30975162429590952 0 -0.13292808823488961 -0.30811933512461231 0 -0.13421562954652971 -0.30975162429590952 0 -0.11784571222364761 -0.31591262287735439 0 -0.13292808823488961 -0.30811933512461231 0 -0.13421562954652971 -0.30975162429590952 0 -0.13292808823488961 -0.30811933512461231 0 -0.11784571222364761 -0.31591262287735439 0 -0.13292808823488961 -0.30811933512461231 0 -0.13258957237245009 -0.28963875778779702 0 -0.1142907471291915 -0.28449172038829912 0 -0.13258957237245009 -0.28963875778779702 0 -0.14225251115054591 -0.28912004777749561 0 -0.14460134497621371 -0.29612042321232301 0 -0.13258957237245009 -0.28963875778779702 0 -0.1366045181383076 -0.28097453228033831 0 -0.12535691762986459 -0.2777997028043519 0 -0.13258957237245009 -0.28963875778779702 0 -0.14225251115054591 -0.28912004777749561 0 -0.1366045181383076 -0.28097453228033831 0 -0.14504847044771621 -0.2813564437741744 0 -0.14225251115054591 -0.28912004777749561 0 -0.14920203790046371 -0.28945287008857379 0 -0.14504847044771621 -0.2813564437741744 0 -0.14225251115054591 -0.28912004777749561 0 -0.1366045181383076 -0.28097453228033831 0 -0.14225251115054591 -0.28912004777749561 0 -0.14460134497621371 -0.29612042321232301 0 -0.14920203790046371 -0.28945287008857379 0 -0.1518401858072643 -0.29834717334588812 0 -0.14460134497621371 -0.29612042321232301 0 -0.14920203790046371 -0.28945287008857379 0 -0.15689521971306489 -0.29124507296051222 0 -0.1518401858072643 -0.29834717334588812 0 -0.14920203790046371 -0.28945287008857379 0 -0.15689521971306489 -0.29124507296051222 0 -0.14920203790046371 -0.28945287008857379 0 -0.1538120392357237 -0.28137300884153921 0 -0.14504847044771621 -0.2813564437741744 0 -0.14920203790046371 -0.28945287008857379 0 -0.1538120392357237 -0.28137300884153921 0 -0.1538120392357237 -0.28137300884153921 0 -0.15591577968968659 -0.26925488355999339 0 -0.14493267498435031 -0.27308583061685388 0 -0.14493267498435031 -0.27308583061685388 0 -0.13397848070720761 -0.26785305533595982 0 -0.1442367616874598 -0.25770305990911868 0 -0.15591577968968659 -0.26925488355999339 0 -0.14493267498435031 -0.27308583061685388 0 -0.1442367616874598 -0.25770305990911868 0 -0.14504847044771621 -0.2813564437741744 0 -0.14493267498435031 -0.27308583061685388 0 -0.1366045181383076 -0.28097453228033831 0 -0.14504847044771621 -0.2813564437741744 0 -0.1538120392357237 -0.28137300884153921 0 -0.14493267498435031 -0.27308583061685388 0 -0.14493267498435031 -0.27308583061685388 0 -0.1366045181383076 -0.28097453228033831 0 -0.13397848070720761 -0.26785305533595982 0 -0.1366045181383076 -0.28097453228033831 0 -0.12535691762986459 -0.2777997028043519 0 -0.13397848070720761 -0.26785305533595982 0 -0.12535691762986459 -0.2777997028043519 0 -0.13397848070720761 -0.26785305533595982 0 -0.1219527798711658 -0.26621415792232728 0 -0.13397848070720761 -0.26785305533595982 0 -0.1298643864382503 -0.25385480936049493 0 -0.1442367616874598 -0.25770305990911868 0 -0.1298643864382503 -0.25385480936049493 0 -0.1442367616874598 -0.25770305990911868 0 -0.14236717382110289 -0.24205843142330161 0 -0.13397848070720761 -0.26785305533595982 0 -0.1298643864382503 -0.25385480936049493 0 -0.1219527798711658 -0.26621415792232728 0 -0.15591577968968659 -0.26925488355999339 0 -0.1442367616874598 -0.25770305990911868 0 -0.1577074823109649 -0.24321700958376799 0 -0.16369928187148339 -0.34712972314610019 0 -0.15933846236301091 -0.35981569781290468 0 -0.1758807261899189 -0.35840961561000317 0 -0.16369928187148339 -0.34712972314610019 0 -0.15933846236301091 -0.35981569781290468 0 -0.1487217886475016 -0.34907369718236603 0 -0.15591442000642311 -0.38446979467925863 0 -0.1784172695229739 -0.3751873823337224 0 -0.15933846236301091 -0.35981569781290468 0 -0.15591442000642311 -0.38446979467925863 0 -0.15933846236301091 -0.35981569781290468 0 -0.1784172695229739 -0.3751873823337224 0 -0.15933846236301091 -0.35981569781290468 0 -0.1758807261899189 -0.35840961561000317 0 -0.1784172695229739 -0.3751873823337224 0 -0.19461068580666849 -0.35837126799086177 0 -0.1758807261899189 -0.35840961561000317 0 -0.19461068580666849 -0.35837126799086177 0 -0.1758807261899189 -0.35840961561000317 0 -0.18061769836570271 -0.33873351761305132 0 -0.16369928187148339 -0.34712972314610019 0 -0.1758807261899189 -0.35840961561000317 0 -0.18061769836570271 -0.33873351761305132 0 -0.18061769836570271 -0.33873351761305132 0 -0.16662471092473721 -0.31909576723524069 0 -0.19387432338437771 -0.32981605852285062 0 -0.18061769836570271 -0.33873351761305132 0 -0.18308307645498351 -0.31802746849409469 0 -0.18308307645498351 -0.31802746849409469 0 -0.16662471092473721 -0.31909576723524069 0 -0.18061769836570271 -0.33873351761305132 0 -0.18308307645498351 -0.31802746849409469 0 -0.16662471092473721 -0.31909576723524069 0 -0.1729146708056514 -0.30720755753941309 0 -0.18308307645498351 -0.31802746849409469 0 -0.16662471092473721 -0.31909576723524069 0 -0.18061769836570271 -0.33873351761305132 0 -0.16662471092473721 -0.31909576723524069 0 -0.16604855446633821 -0.33471119672553001 0 -0.16369928187148339 -0.34712972314610019 0 -0.18061769836570271 -0.33873351761305132 0 -0.16604855446633821 -0.33471119672553001 0 -0.16662471092473721 -0.31909576723524069 0 -0.16604855446633821 -0.33471119672553001 0 -0.1532525267034297 -0.33388577890772742 0 -0.16369928187148339 -0.34712972314610019 0 -0.16604855446633821 -0.33471119672553001 0 -0.1532525267034297 -0.33388577890772742 0 -0.16369928187148339 -0.34712972314610019 0 -0.1532525267034297 -0.33388577890772742 0 -0.1532525267034297 -0.33388577890772742 0 -0.14280577153537569 -0.32064183466935481 0 -0.1310170194898379 -0.34208513047541472 0 -0.16369928187148339 -0.34712972314610019 0 -0.1532525267034297 -0.33388577890772742 0 -0.1487217886475016 -0.34907369718236603 0 -0.1532525267034297 -0.33388577890772742 0 -0.1310170194898379 -0.34208513047541472 0 -0.1487217886475016 -0.34907369718236603 0 -0.16662471092473721 -0.31909576723524069 0 -0.1532525267034297 -0.33388577890772742 0 -0.14280577153537569 -0.32064183466935481 0 -0.16662471092473721 -0.31909576723524069 0 -0.14280577153537569 -0.32064183466935481 0 -0.15420856582206749 -0.30167095647130993 0 -0.16662471092473721 -0.31909576723524069 0 -0.14280577153537569 -0.32064183466935481 0 -0.1532525267034297 -0.33388577890772742 0 -0.14280577153537569 -0.32064183466935481 0 -0.13421562954652971 -0.30975162429590952 0 -0.14280577153537569 -0.32064183466935481 0 -0.1209399453170928 -0.3220611271610781 0 -0.14280577153537569 -0.32064183466935481 0 -0.1209399453170928 -0.3220611271610781 0 -0.13421562954652971 -0.30975162429590952 0 -0.11784571222364761 -0.31591262287735439 0 -0.13421562954652971 -0.30975162429590952 0 -0.14280577153537569 -0.32064183466935481 0 -0.1310170194898379 -0.34208513047541472 0 -0.1209399453170928 -0.3220611271610781 0 -0.14280577153537569 -0.32064183466935481 0 -0.1310170194898379 -0.34208513047541472 0 -0.1209399453170928 -0.3220611271610781 0 -0.1310170194898379 -0.34208513047541472 0 -0.14109409366258319 -0.36210913378975113 0 -0.1310170194898379 -0.34208513047541472 0 -0.1487217886475016 -0.34907369718236603 0 -0.14109409366258319 -0.36210913378975113 0 -0.1310170194898379 -0.34208513047541472 0 -0.14109409366258319 -0.36210913378975113 0 -0.1188146674808004 -0.36725312872772381 0 -0.15933846236301091 -0.35981569781290468 0 -0.1487217886475016 -0.34907369718236603 0 -0.14109409366258319 -0.36210913378975113 0 -0.15591442000642311 -0.38446979467925863 0 -0.15933846236301091 -0.35981569781290468 0 -0.14109409366258319 -0.36210913378975113 0 -0.13858748212914249 -0.37966399945509088 0 -0.14109409366258319 -0.36210913378975113 0 -0.1188146674808004 -0.36725312872772381 0 -0.1188146674808004 -0.36725312872772381 0 -0.099948652785021949 -0.37173661250824058 0 -0.098580366776199052 -0.35837054934997631 0 -0.099948652785021949 -0.37173661250824058 0 -0.098580366776199052 -0.35837054934997631 0 -0.085209311930335069 -0.36325183225734181 0 -0.1188146674808004 -0.36725312872772381 0 -0.098580366776199052 -0.35837054934997631 0 -0.1075265504116656 -0.34726187419532639 0 -0.094457699453262767 -0.34405710550726332 0 -0.098580366776199052 -0.35837054934997631 0 -0.1075265504116656 -0.34726187419532639 0 -0.1310170194898379 -0.34208513047541472 0 -0.1188146674808004 -0.36725312872772381 0 -0.1075265504116656 -0.34726187419532639 0 -0.1310170194898379 -0.34208513047541472 0 -0.1075265504116656 -0.34726187419532639 0 -0.11291644432606129 -0.33339254332440738 0 -0.1310170194898379 -0.34208513047541472 0 -0.11291644432606129 -0.33339254332440738 0 -0.1209399453170928 -0.3220611271610781 0 -0.13421562954652971 -0.30975162429590952 0 -0.11784571222364761 -0.31591262287735439 0 -0.1209399453170928 -0.3220611271610781 0 -0.1209399453170928 -0.3220611271610781 0 -0.10379244005534199 -0.32317415738581451 0 -0.11291644432606129 -0.33339254332440738 0 -0.1209399453170928 -0.3220611271610781 0 -0.10379244005534199 -0.32317415738581451 0 -0.1209399453170928 -0.3220611271610781 0 -0.1110900881399564 -0.32065284377098108 0 -0.10379244005534199 -0.32317415738581451 0 -0.11784571222364761 -0.31591262287735439 0 -0.1209399453170928 -0.3220611271610781 0 -0.11379971416064991 -0.31800325018491399 0 -0.11784571222364761 -0.31591262287735439 0 -0.1209399453170928 -0.3220611271610781 0 -0.1110900881399564 -0.32065284377098108 0 -0.1090886863320958 -0.32043750825219242 0 -0.11784571222364761 -0.31591262287735439 0 -0.11379971416064991 -0.31800325018491399 0 -0.10725663384570901 -0.31008547541885589 0 -0.1209399453170928 -0.3220611271610781 0 -0.1110900881399564 -0.32065284377098108 0 -0.11379971416064991 -0.31800325018491399 0 -0.11379971416064991 -0.31800325018491399 0 -0.1090886863320958 -0.32043750825219242 0 -0.10725663384570901 -0.31008547541885589 0 -0.11784571222364761 -0.31591262287735439 0 -0.11379971416064991 -0.31800325018491399 0 -0.1110900881399564 -0.32065284377098108 0 -0.11379971416064991 -0.31800325018491399 0 -0.1090886863320958 -0.32043750825219242 0 -0.11379971416064991 -0.31800325018491399 0 -0.1090886863320958 -0.32043750825219242 0 -0.1090886863320958 -0.32043750825219242 0 -0.1004729133978203 -0.32338962508477309 0 -0.084327026091876006 -0.31777334309906241 0 -0.1090886863320958 -0.32043750825219242 0 -0.084327026091876006 -0.31777334309906241 0 -0.1090886863320958 -0.32043750825219242 0 -0.084327026091876006 -0.31777334309906241 0 -0.10725663384570901 -0.31008547541885589 0 -0.10379244005534199 -0.32317415738581451 0 -0.1090886863320958 -0.32043750825219242 0 -0.1004729133978203 -0.32338962508477309 0 -0.1090886863320958 -0.32043750825219242 0 -0.1004729133978203 -0.32338962508477309 0 -0.10379244005534199 -0.32317415738581451 0 -0.1004729133978203 -0.32338962508477309 0 -0.10379244005534199 -0.32317415738581451 0 -0.1090886863320958 -0.32043750825219242 0 -0.1110900881399564 -0.32065284377098108 0 -0.10379244005534199 -0.32317415738581451 0 -0.1090886863320958 -0.32043750825219242 0 -0.10379244005534199 -0.32317415738581451 0 -0.088566520150402034 -0.33104161640095769 0 -0.10379244005534199 -0.32317415738581451 0 -0.1004729133978203 -0.32338962508477309 0 -0.088566520150402034 -0.33104161640095769 0 -0.1075265504116656 -0.34726187419532639 0 -0.11291644432606129 -0.33339254332440738 0 -0.1011764182147719 -0.33497525685472368 0 -0.11291644432606129 -0.33339254332440738 0 -0.10379244005534199 -0.32317415738581451 0 -0.1011764182147719 -0.33497525685472368 0 -0.10379244005534199 -0.32317415738581451 0 -0.1011764182147719 -0.33497525685472368 0 -0.088566520150402034 -0.33104161640095769 0 -0.094457699453262767 -0.34405710550726332 0 -0.1075265504116656 -0.34726187419532639 0 -0.1011764182147719 -0.33497525685472368 0 -0.094457699453262767 -0.34405710550726332 0 -0.1011764182147719 -0.33497525685472368 0 -0.088566520150402034 -0.33104161640095769 0 -0.094457699453262767 -0.34405710550726332 0 -0.088566520150402034 -0.33104161640095769 0 -0.083840496551839672 -0.34223507322661773 0 -0.1004729133978203 -0.32338962508477309 0 -0.088566520150402034 -0.33104161640095769 0 -0.077115634890609852 -0.332830079768479 0 -0.088566520150402034 -0.33104161640095769 0 -0.073340600245461643 -0.33890907541610032 0 -0.088566520150402034 -0.33104161640095769 0 -0.073340600245461643 -0.33890907541610032 0 -0.077115634890609852 -0.332830079768479 0 -0.088566520150402034 -0.33104161640095769 0 -0.083840496551839672 -0.34223507322661773 0 -0.073340600245461643 -0.33890907541610032 0 -0.1004729133978203 -0.32338962508477309 0 -0.084327026091876006 -0.31777334309906241 0 -0.080589677371995766 -0.32208705465005988 0 -0.1004729133978203 -0.32338962508477309 0 -0.080589677371995766 -0.32208705465005988 0 -0.07681683550149529 -0.32492512131558898 0 -0.1004729133978203 -0.32338962508477309 0 -0.07681683550149529 -0.32492512131558898 0 -0.077115634890609852 -0.332830079768479 0 -0.1004729133978203 -0.32338962508477309 0 -0.077115634890609852 -0.332830079768479 0 -0.1004729133978203 -0.32338962508477309 0 -0.07681683550149529 -0.32492512131558898 0 -0.080589677371995766 -0.32208705465005988 0 -0.07681683550149529 -0.32492512131558898 0 -0.07681683550149529 -0.32492512131558898 0 -0.05485003603542217 -0.32635096789637308 0 -0.060601328465961113 -0.31522063959552349 0 -0.084327026091876006 -0.31777334309906241 0 -0.080589677371995766 -0.32208705465005988 0 -0.060601328465961113 -0.31522063959552349 0 -0.080589677371995766 -0.32208705465005988 0 -0.07681683550149529 -0.32492512131558898 0 -0.060601328465961113 -0.31522063959552349 0 -0.07681683550149529 -0.32492512131558898 0 -0.05485003603542217 -0.32635096789637308 0 -0.084327026091876006 -0.31777334309906241 0 -0.060601328465961113 -0.31522063959552349 0 -0.077115634890609852 -0.332830079768479 0 -0.053758356383399347 -0.34227053445218492 0 -0.07681683550149529 -0.32492512131558898 0 -0.053758356383399347 -0.34227053445218492 0 -0.073340600245461643 -0.33890907541610032 0 -0.077115634890609852 -0.332830079768479 0 -0.053758356383399347 -0.34227053445218492 0 -0.07681683550149529 -0.32492512131558898 0 -0.077115634890609852 -0.332830079768479 0 -0.053758356383399347 -0.34227053445218492 0 -0.073340600245461643 -0.33890907541610032 0 -0.064791725340389572 -0.35098034394771882 0 -0.053758356383399347 -0.34227053445218492 0 -0.083840496551839672 -0.34223507322661773 0 -0.073340600245461643 -0.33890907541610032 0 -0.076621551420905737 -0.35109905674055131 0 -0.073340600245461643 -0.33890907541610032 0 -0.064791725340389572 -0.35098034394771882 0 -0.076621551420905737 -0.35109905674055131 0 -0.064791725340389572 -0.35098034394771882 0 -0.076621551420905737 -0.35109905674055131 0 -0.067888138964050285 -0.36406054247855352 0 -0.067888138964050285 -0.36406054247855352 0 -0.085209311930335069 -0.36325183225734181 0 -0.081161317021135077 -0.38378596945075177 0 -0.076621551420905737 -0.35109905674055131 0 -0.067888138964050285 -0.36406054247855352 0 -0.085209311930335069 -0.36325183225734181 0 -0.099948652785021949 -0.37173661250824058 0 -0.085209311930335069 -0.36325183225734181 0 -0.081161317021135077 -0.38378596945075177 0 -0.098580366776199052 -0.35837054934997631 0 -0.085209311930335069 -0.36325183225734181 0 -0.087055844614698355 -0.35045826301597799 0 -0.094457699453262767 -0.34405710550726332 0 -0.083840496551839672 -0.34223507322661773 0 -0.087055844614698355 -0.35045826301597799 0 -0.094457699453262767 -0.34405710550726332 0 -0.098580366776199052 -0.35837054934997631 0 -0.087055844614698355 -0.35045826301597799 0 -0.083840496551839672 -0.34223507322661773 0 -0.076621551420905737 -0.35109905674055131 0 -0.087055844614698355 -0.35045826301597799 0 -0.076621551420905737 -0.35109905674055131 0 -0.085209311930335069 -0.36325183225734181 0 -0.087055844614698355 -0.35045826301597799 0 -0.1051668604971054 -0.25908334977756231 0 -0.085006490694977677 -0.25639204894748607 0 -0.1051668604971054 -0.25908334977756231 0 -0.085006490694977677 -0.25639204894748607 0 -0.1005841607031852 -0.23817822102090749 0 -0.095653406023495161 -0.26086410565198459 0 -0.1051668604971054 -0.25908334977756231 0 -0.085006490694977677 -0.25639204894748607 0 -0.095653406023495161 -0.26086410565198459 0 -0.1051668604971054 -0.25908334977756231 0 -0.11155811883593959 -0.26462019652490698 0 -0.1051668604971054 -0.25908334977756231 0 -0.1168717794164203 -0.25765883523437438 0 -0.116061991631914 -0.24504142951452931 0 -0.1298643864382503 -0.25385480936049493 0 -0.1168717794164203 -0.25765883523437438 0 -0.116061991631914 -0.24504142951452931 0 -0.1298643864382503 -0.25385480936049493 0 -0.1168717794164203 -0.25765883523437438 0 -0.1219527798711658 -0.26621415792232728 0 -0.1168717794164203 -0.25765883523437438 0 -0.11155811883593959 -0.26462019652490698 0 -0.1219527798711658 -0.26621415792232728 0 -0.1051668604971054 -0.25908334977756231 0 -0.1168717794164203 -0.25765883523437438 0 -0.11155811883593959 -0.26462019652490698 0 -0.11155811883593959 -0.26462019652490698 0 -0.1138383499410084 -0.27272372300215209 0 -0.1219527798711658 -0.26621415792232728 0 -0.12535691762986459 -0.2777997028043519 0 -0.1138383499410084 -0.27272372300215209 0 -0.1219527798711658 -0.26621415792232728 0 -0.12535691762986459 -0.2777997028043519 0 -0.1138383499410084 -0.27272372300215209 0 -0.1142907471291915 -0.28449172038829912 0 -0.099511672424075048 -0.2764070031329191 0 -0.10199633433074939 -0.28441856120656939 0 -0.086106202212864219 -0.27585362528482332 0 -0.095653406023495161 -0.26086410565198459 0 -0.1142907471291915 -0.28449172038829912 0 -0.095653406023495161 -0.26086410565198459 0 -0.099511672424075048 -0.2764070031329191 0 -0.1142907471291915 -0.28449172038829912 0 -0.095653406023495161 -0.26086410565198459 0 -0.1138383499410084 -0.27272372300215209 0 -0.1142907471291915 -0.28449172038829912 0 -0.095653406023495161 -0.26086410565198459 0 -0.11155811883593959 -0.26462019652490698 0 -0.1138383499410084 -0.27272372300215209 0 -0.095653406023495161 -0.26086410565198459 0 -0.099511672424075048 -0.2764070031329191 0 -0.086106202212864219 -0.27585362528482332 0 -0.10199633433074939 -0.28441856120656939 0 -0.10992102327719749 -0.30016559204196253 0 -0.10199633433074939 -0.28441856120656939 0 -0.10992102327719749 -0.30016559204196253 0 -0.098141386255256924 -0.30155163467772211 0 -0.10199633433074939 -0.28441856120656939 0 -0.1142907471291915 -0.28449172038829912 0 -0.10992102327719749 -0.30016559204196253 0 -0.10199633433074939 -0.28441856120656939 0 -0.098141386255256924 -0.30155163467772211 0 -0.087205913730752746 -0.29531520162216041 0 -0.099511672424075048 -0.2764070031329191 0 -0.10199633433074939 -0.28441856120656939 0 -0.1142907471291915 -0.28449172038829912 0 -0.13292808823488961 -0.30811933512461231 0 -0.1142907471291915 -0.28449172038829912 0 -0.1142907471291915 -0.28449172038829912 0 -0.10992102327719749 -0.30016559204196253 0 -0.1187463927162315 -0.30217231760805702 0 -0.13258957237245009 -0.28963875778779702 0 -0.12535691762986459 -0.2777997028043519 0 -0.1142907471291915 -0.28449172038829912 0 -0.13292808823488961 -0.30811933512461231 0 -0.1142907471291915 -0.28449172038829912 0 -0.1187463927162315 -0.30217231760805702 0 -0.11784571222364761 -0.31591262287735439 0 -0.10992102327719749 -0.30016559204196253 0 -0.10725663384570901 -0.31008547541885589 0 -0.11784571222364761 -0.31591262287735439 0 -0.10992102327719749 -0.30016559204196253 0 -0.1187463927162315 -0.30217231760805702 0 -0.11784571222364761 -0.31591262287735439 0 -0.10992102327719749 -0.30016559204196253 0 -0.13292808823488961 -0.30811933512461231 0 -0.11784571222364761 -0.31591262287735439 0 -0.1187463927162315 -0.30217231760805702 0 -0.084327026091876006 -0.31777334309906241 0 -0.10725663384570901 -0.31008547541885589 0 -0.098141386255256924 -0.30155163467772211 0 -0.10992102327719749 -0.30016559204196253 0 -0.10725663384570901 -0.31008547541885589 0 -0.098141386255256924 -0.30155163467772211 0 -0.084327026091876006 -0.31777334309906241 0 -0.098141386255256924 -0.30155163467772211 0 -0.087205913730752746 -0.29531520162216041 0 -0.084327026091876006 -0.31777334309906241 0 -0.073249976464848141 -0.30366343895909842 0 -0.087205913730752746 -0.29531520162216041 0 -0.084327026091876006 -0.31777334309906241 0 -0.073249976464848141 -0.30366343895909842 0 -0.060601328465961113 -0.31522063959552349 0 -0.073249976464848141 -0.30366343895909842 0 -0.060096926951340182 -0.30043833070188491 0 -0.060601328465961113 -0.31522063959552349 0 -0.073249976464848141 -0.30366343895909842 0 -0.07096805112016695 -0.28924908797309418 0 -0.060096926951340182 -0.30043833070188491 0 -0.070232867733732718 -0.27366576358687428 0 -0.05545924477248499 -0.2909394782262601 0 -0.07096805112016695 -0.28924908797309418 0 -0.070232867733732718 -0.27366576358687428 0 -0.05545924477248499 -0.2909394782262601 0 -0.073249976464848141 -0.30366343895909842 0 -0.07096805112016695 -0.28924908797309418 0 -0.087205913730752746 -0.29531520162216041 0 -0.10199633433074939 -0.28441856120656939 0 -0.087205913730752746 -0.29531520162216041 0 -0.086106202212864219 -0.27585362528482332 0 -0.07096805112016695 -0.28924908797309418 0 -0.087205913730752746 -0.29531520162216041 0 -0.086106202212864219 -0.27585362528482332 0 -0.087205913730752746 -0.29531520162216041 0 -0.086106202212864219 -0.27585362528482332 0 -0.086106202212864219 -0.27585362528482332 0 -0.085006490694977677 -0.25639204894748607 0 -0.086106202212864219 -0.27585362528482332 0 -0.070232867733732718 -0.27366576358687428 0 -0.085006490694977677 -0.25639204894748607 0 -0.07096805112016695 -0.28924908797309418 0 -0.086106202212864219 -0.27585362528482332 0 -0.070232867733732718 -0.27366576358687428 0 -0.070232867733732718 -0.27366576358687428 0 -0.085006490694977677 -0.25639204894748607 0 -0.085006490694977677 -0.25639204894748607 0 -0.05892050568749304 -0.249911469569086 0 -0.070232867733732718 -0.27366576358687428 0 -0.085006490694977677 -0.25639204894748607 0 -0.05892050568749304 -0.249911469569086 0 -0.095653406023495161 -0.26086410565198459 0 -0.086106202212864219 -0.27585362528482332 0 -0.085006490694977677 -0.25639204894748607 0 -0.044184229474387882 -0.26784610898566569 0 -0.05892050568749304 -0.249911469569086 0 -0.032909214176296157 -0.24475273974506859 0 -0.044184229474387882 -0.26784610898566569 0 -0.026687509297684299 -0.2663063955052386 0 -0.032909214176296157 -0.24475273974506859 0 -0.044184229474387882 -0.26784610898566569 0 -0.032909214176296157 -0.24475273974506859 0 -0.070232867733732718 -0.27366576358687428 0 -0.044184229474387882 -0.26784610898566569 0 -0.05892050568749304 -0.249911469569086 0 -0.044184229474387882 -0.26784610898566569 0 -0.05545924477248499 -0.2909394782262601 0 -0.070232867733732718 -0.27366576358687428 0 -0.044184229474387882 -0.26784610898566569 0 -0.05545924477248499 -0.2909394782262601 0 -0.044184229474387882 -0.26784610898566569 0 -0.037264132817611872 -0.28203963717320357 0 -0.05545924477248499 -0.2909394782262601 0 -0.044184229474387882 -0.26784610898566569 0 -0.037264132817611872 -0.28203963717320357 0 -0.026687509297684299 -0.2663063955052386 0 -0.037264132817611872 -0.28203963717320357 0 -0.035009319193041587 -0.29635079536205938 0 -0.05545924477248499 -0.2909394782262601 0 -0.037264132817611872 -0.28203963717320357 0 -0.035009319193041587 -0.29635079536205938 0 -0.024980361350458821 -0.28875540778679282 0 -0.07096805112016695 -0.28924908797309418 0 -0.05545924477248499 -0.2909394782262601 0 -0.060096926951340182 -0.30043833070188491 0 -0.05545924477248499 -0.2909394782262601 0 -0.060096926951340182 -0.30043833070188491 0 -0.05545924477248499 -0.2909394782262601 0 -0.060096926951340182 -0.30043833070188491 0 -0.036875630840046088 -0.31266793609198501 0 -0.060096926951340182 -0.30043833070188491 0 -0.060601328465961113 -0.31522063959552349 0 -0.036875630840046088 -0.31266793609198501 0 -0.035009319193041587 -0.29635079536205938 0 -0.023273213403233409 -0.31120442006834698 0 -0.036875630840046088 -0.31266793609198501 0 -0.05545924477248499 -0.2909394782262601 0 -0.036875630840046088 -0.31266793609198501 0 -0.035009319193041587 -0.29635079536205938 0 -0.05545924477248499 -0.2909394782262601 0 -0.036875630840046088 -0.31266793609198501 0 -0.035009319193041587 -0.29635079536205938 0 -0.023273213403233409 -0.31120442006834698 0 -0.024980361350458821 -0.28875540778679282 0 -0.023273213403233409 -0.31120442006834698 0 -0.0085119016488805193 -0.29377413922613499 0 -0.024980361350458821 -0.28875540778679282 0 -0.023273213403233409 -0.31120442006834698 0 -0.024980361350458821 -0.28875540778679282 0 -0.023273213403233409 -0.31120442006834698 0 -0.036875630840046088 -0.31266793609198501 0 -0.023273213403233409 -0.31120442006834698 0 -0.0085119016488805193 -0.29377413922613499 0 0.0040743483248141601 -0.30826203170374838 0 -0.023273213403233409 -0.31120442006834698 0 0.0040743483248141601 -0.30826203170374838 0 -0.0085119016488805193 -0.29377413922613499 0 -0.024980361350458821 -0.28875540778679282 0 -0.0068501675742808736 -0.27356972209169111 0 -0.0085119016488805193 -0.29377413922613499 0 -0.0068501675742808736 -0.27356972209169111 0 0.0084698857587562834 -0.28707911448009588 0 -0.037264132817611872 -0.28203963717320357 0 -0.024980361350458821 -0.28875540778679282 0 -0.026687509297684299 -0.2663063955052386 0 -0.024980361350458821 -0.28875540778679282 0 -0.026687509297684299 -0.2663063955052386 0 -0.0068501675742808736 -0.27356972209169111 0 -0.024980361350458821 -0.28875540778679282 0 -0.026687509297684299 -0.2663063955052386 0 -0.0068501675742808736 -0.27356972209169111 0 -0.012355192092672371 -0.2544562184924033 0 0.0019676702201415958 -0.25752768517786101 0 -0.012355192092672371 -0.2544562184924033 0 -0.001425766107822968 -0.2385087359652546 0 0.0019676702201415958 -0.25752768517786101 0 -0.026687509297684299 -0.2663063955052386 0 -0.0068501675742808736 -0.27356972209169111 0 -0.012355192092672371 -0.2544562184924033 0 -0.026687509297684299 -0.2663063955052386 0 -0.028394657244909801 -0.24385738322368439 0 -0.032909214176296157 -0.24475273974506859 0 -0.026687509297684299 -0.2663063955052386 0 -0.012355192092672371 -0.2544562184924033 0 -0.028394657244909801 -0.24385738322368439 0 -0.026687509297684299 -0.2663063955052386 0 -0.028394657244909801 -0.24385738322368439 0 -0.036813758847377143 -0.34911913648957782 0 -0.036338050016985098 -0.35537471228386192 0 -0.053758356383399347 -0.34227053445218492 0 -0.036813758847377143 -0.34911913648957782 0 -0.053758356383399347 -0.34227053445218492 0 -0.036338050016985098 -0.35537471228386192 0 -0.053758356383399347 -0.34227053445218492 0 -0.036338050016985098 -0.35537471228386192 0 -0.038011333006478992 -0.3693672940245763 0 -0.051215713161934552 -0.36016375715592241 0 -0.038011333006478992 -0.3693672940245763 0 -0.051215713161934552 -0.36016375715592241 0 -0.051713096776128328 -0.37948743843322491 0 -0.067888138964050285 -0.36406054247855352 0 -0.051215713161934552 -0.36016375715592241 0 -0.051713096776128328 -0.37948743843322491 0 -0.064791725340389572 -0.35098034394771882 0 -0.051215713161934552 -0.36016375715592241 0 -0.053758356383399347 -0.34227053445218492 0 -0.064791725340389572 -0.35098034394771882 0 -0.067888138964050285 -0.36406054247855352 0 -0.051215713161934552 -0.36016375715592241 0 -0.036338050016985098 -0.35537471228386192 0 -0.051215713161934552 -0.36016375715592241 0 -0.053758356383399347 -0.34227053445218492 0 -0.07681683550149529 -0.32492512131558898 0 -0.053758356383399347 -0.34227053445218492 0 -0.05485003603542217 -0.32635096789637308 0 -0.053758356383399347 -0.34227053445218492 0 -0.05485003603542217 -0.32635096789637308 0 -0.040433990698784408 -0.33303390474206801 0 -0.060601328465961113 -0.31522063959552349 0 -0.036875630840046088 -0.31266793609198501 0 -0.05485003603542217 -0.32635096789637308 0 -0.060601328465961113 -0.31522063959552349 0 -0.036875630840046088 -0.31266793609198501 0 -0.05485003603542217 -0.32635096789637308 0 -0.036875630840046088 -0.31266793609198501 0 -0.040433990698784408 -0.33303390474206801 0 -0.036875630840046088 -0.31266793609198501 0 -0.040433990698784408 -0.33303390474206801 0 -0.021823573115687989 -0.33026720409470478 0 -0.036813758847377143 -0.34911913648957782 0 -0.040433990698784408 -0.33303390474206801 0 -0.021823573115687989 -0.33026720409470478 0 -0.036813758847377143 -0.34911913648957782 0 -0.053758356383399347 -0.34227053445218492 0 -0.040433990698784408 -0.33303390474206801 0 -0.021823573115687989 -0.33026720409470478 0 -0.019869161311354799 -0.35596773852697039 0 -0.023273213403233409 -0.31120442006834698 0 -0.021823573115687989 -0.33026720409470478 0 -0.036875630840046088 -0.31266793609198501 0 -0.021823573115687989 -0.33026720409470478 0 -0.023273213403233409 -0.31120442006834698 0 -0.021823573115687989 -0.33026720409470478 0 -0.010691527248981619 -0.32000539535807482 0 -0.023273213403233409 -0.31120442006834698 0 -0.036875630840046088 -0.31266793609198501 0 -0.021823573115687989 -0.33026720409470478 0 -0.010691527248981619 -0.32000539535807482 0 -0.001743670801821866 -0.33028792556549919 0 0.0040743483248141601 -0.30826203170374838 0 -0.021823573115687989 -0.33026720409470478 0 -0.010691527248981619 -0.32000539535807482 0 -0.001743670801821866 -0.33028792556549919 0 -0.023273213403233409 -0.31120442006834698 0 -0.010691527248981619 -0.32000539535807482 0 0.0040743483248141601 -0.30826203170374838 0 -0.021823573115687989 -0.33026720409470478 0 -0.001743670801821866 -0.33028792556549919 0 -0.0049525976164628283 -0.34999319935167172 0 -0.021823573115687989 -0.33026720409470478 0 -0.0049525976164628283 -0.34999319935167172 0 -0.021823573115687989 -0.33026720409470478 0 -0.0049525976164628283 -0.34999319935167172 0 -0.019869161311354799 -0.35596773852697039 0 -0.0049525976164628283 -0.34999319935167172 0 -0.019869161311354799 -0.35596773852697039 0 -0.00033184129408025948 -0.36386425713067733 0 -0.036813758847377143 -0.34911913648957782 0 -0.021823573115687989 -0.33026720409470478 0 -0.019869161311354799 -0.35596773852697039 0 -0.036813758847377143 -0.34911913648957782 0 -0.019869161311354799 -0.35596773852697039 0 -0.036813758847377143 -0.34911913648957782 0 -0.036338050016985098 -0.35537471228386192 0 -0.019869161311354799 -0.35596773852697039 0 -0.038011333006478992 -0.3693672940245763 0 -0.01891774365057004 -0.36847889011553792 0 -0.03187206142677744 -0.38333167213433428 0 -0.036338050016985098 -0.35537471228386192 0 -0.019869161311354799 -0.35596773852697039 0 -0.01891774365057004 -0.36847889011553792 0 -0.036338050016985098 -0.35537471228386192 0 -0.038011333006478992 -0.3693672940245763 0 -0.01891774365057004 -0.36847889011553792 0 -0.036338050016985098 -0.35537471228386192 0 -0.01891774365057004 -0.36847889011553792 0 -0.019869161311354799 -0.35596773852697039 0 -0.01891774365057004 -0.36847889011553792 0 -0.019869161311354799 -0.35596773852697039 0 -0.00033184129408025948 -0.36386425713067733 0 -0.019869161311354799 -0.35596773852697039 0 -0.01891774365057004 -0.36847889011553792 0 -0.00033184129408025948 -0.36386425713067733 0 -0.01891774365057004 -0.36847889011553792 0 -0.00033184129408025948 -0.36386425713067733 0 0.0043911497260468446 -0.38601267381842841 0 -0.01891774365057004 -0.36847889011553792 0 0.0043911497260468446 -0.38601267381842841 0 0.001646805659493981 -0.38483714105840322 0 -0.01891774365057004 -0.36847889011553792 0 0.0043911497260468446 -0.38601267381842841 0 -0.01891774365057004 -0.36847889011553792 0 -0.0067782353210113586 -0.39139035025588531 0 -0.01692313518510407 -0.3947080110367201 0 -0.01891774365057004 -0.36847889011553792 0 -0.0067782353210113586 -0.39139035025588531 0 0.001646805659493981 -0.38483714105840322 0 -0.0041048790184469277 -0.39962520101249083 0 -0.01692313518510407 -0.3947080110367201 0 -0.0081533824311354405 -0.41472136405803001 0 -0.0041048790184469277 -0.39962520101249083 0 -0.0067782353210113586 -0.39139035025588531 0 0.001646805659493981 -0.38483714105840322 0 -0.0041048790184469277 -0.39962520101249083 0 -0.0067782353210113586 -0.39139035025588531 0 -0.01692313518510407 -0.3947080110367201 0 -0.01692313518510407 -0.3947080110367201 0 -0.039001420031430818 -0.40517504974619822 0 -0.024134051640877782 -0.41451760942150578 0 -0.01692313518510407 -0.3947080110367201 0 -0.03187206142677744 -0.38333167213433428 0 -0.039001420031430818 -0.40517504974619822 0 -0.01891774365057004 -0.36847889011553792 0 -0.01692313518510407 -0.3947080110367201 0 -0.03187206142677744 -0.38333167213433428 0 -0.01891774365057004 -0.36847889011553792 0 -0.01692313518510407 -0.3947080110367201 0 -0.038011333006478992 -0.3693672940245763 0 -0.03187206142677744 -0.38333167213433428 0 -0.051713096776128328 -0.37948743843322491 0 -0.03187206142677744 -0.38333167213433428 0 -0.039001420031430818 -0.40517504974619822 0 -0.051713096776128328 -0.37948743843322491 0 -0.051713096776128328 -0.37948743843322491 0 -0.063540476194177645 -0.40694207645262209 0 -0.039001420031430818 -0.40517504974619822 0 -0.051713096776128328 -0.37948743843322491 0 -0.063540476194177645 -0.40694207645262209 0 -0.052339896804340688 -0.42422477411552428 0 -0.052458018101313723 -0.44481920696847083 0 -0.075367855612227072 -0.43439671447201977 0 -0.039001420031430818 -0.40517504974619822 0 -0.052339896804340688 -0.42422477411552428 0 -0.063540476194177645 -0.40694207645262209 0 -0.039001420031430818 -0.40517504974619822 0 -0.032446550368702989 -0.42955388142979628 0 -0.024134051640877782 -0.41451760942150578 0 -0.039001420031430818 -0.40517504974619822 0 -0.052339896804340688 -0.42422477411552428 0 -0.032446550368702989 -0.42955388142979628 0 -0.052339896804340688 -0.42422477411552428 0 -0.032446550368702989 -0.42955388142979628 0 -0.052458018101313723 -0.44481920696847083 0 -0.032446550368702989 -0.42955388142979628 0 -0.01428641607733315 -0.43244134323017758 0 -0.023291935020321512 -0.44792409455967303 0 -0.032446550368702989 -0.42955388142979628 0 -0.024134051640877782 -0.41451760942150578 0 -0.01428641607733315 -0.43244134323017758 0 -0.01692313518510407 -0.3947080110367201 0 -0.024134051640877782 -0.41451760942150578 0 -0.0081533824311354405 -0.41472136405803001 0 -0.0041048790184469277 -0.39962520101249083 0 -0.0081533824311354405 -0.41472136405803001 0 0.0096835521855221027 -0.41246913865341522 0 -0.0081533824311354405 -0.41472136405803001 0 -0.0022572301893488398 -0.42507109376321661 0 0.0096835521855221027 -0.41246913865341522 0 -0.024134051640877782 -0.41451760942150578 0 -0.0081533824311354405 -0.41472136405803001 0 -0.01428641607733315 -0.43244134323017758 0 -0.0081533824311354405 -0.41472136405803001 0 -0.01428641607733315 -0.43244134323017758 0 -0.0022572301893488398 -0.42507109376321661 0 -0.01428641607733315 -0.43244134323017758 0 -0.0022572301893488398 -0.42507109376321661 0 -0.0042305411252634593 -0.43622662998366918 0 -0.0022572301893488398 -0.42507109376321661 0 -0.0042305411252634593 -0.43622662998366918 0 0.0057006365014656019 -0.4294969928907908 0 -0.0042305411252634593 -0.43622662998366918 0 -0.009987602282749853 -0.44650255935807809 0 0.00171772081740895 -0.44652484712816631 0 -0.01428641607733315 -0.43244134323017758 0 -0.0042305411252634593 -0.43622662998366918 0 -0.009987602282749853 -0.44650255935807809 0 -0.009987602282749853 -0.44650255935807809 0 -0.0025303026137990241 -0.45648319955166389 0 0.00171772081740895 -0.44652484712816631 0 -0.0025303026137990241 -0.45648319955166389 0 -0.014141957984552421 -0.46257676966001932 0 0.0040988649333950026 -0.46829310919736061 0 -0.009987602282749853 -0.44650255935807809 0 -0.0025303026137990241 -0.45648319955166389 0 -0.014141957984552421 -0.46257676966001932 0 -0.014141957984552421 -0.46257676966001932 0 -0.01766581032834166 -0.47859704629937222 0 -0.035549123410839302 -0.46225817563562888 0 -0.014141957984552421 -0.46257676966001932 0 -0.023291935020321512 -0.44792409455967303 0 -0.035549123410839302 -0.46225817563562888 0 -0.009987602282749853 -0.44650255935807809 0 -0.014141957984552421 -0.46257676966001932 0 -0.023291935020321512 -0.44792409455967303 0 -0.032446550368702989 -0.42955388142979628 0 -0.023291935020321512 -0.44792409455967303 0 -0.036153286118416887 -0.44565343647237032 0 -0.01428641607733315 -0.43244134323017758 0 -0.009987602282749853 -0.44650255935807809 0 -0.023291935020321512 -0.44792409455967303 0 -0.0067890831900702109 -0.5 0 -0.01766581032834166 -0.47859704629937222 0 0.0051058715143244091 -0.48400014151992721 0 -0.014141957984552421 -0.46257676966001932 0 -0.01766581032834166 -0.47859704629937222 0 0.0040988649333950026 -0.46829310919736061 0 -0.01766581032834166 -0.47859704629937222 0 0.0040988649333950026 -0.46829310919736061 0 0.0051058715143244091 -0.48400014151992721 0 -0.0067890831900702109 -0.5 0 -0.01766581032834166 -0.47859704629937222 0 -0.03521763438604697 -0.5 0 -0.01766581032834166 -0.47859704629937222 0 -0.03521763438604697 -0.5 0 -0.045245997813358758 -0.48277910258142959 0 -0.01766581032834166 -0.47859704629937222 0 -0.045245997813358758 -0.48277910258142959 0 -0.035549123410839302 -0.46225817563562888 0 -0.045245997813358758 -0.48277910258142959 0 -0.062008960325510468 -0.47275410329431811 0 -0.035549123410839302 -0.46225817563562888 0 -0.03521763438604697 -0.5 0 -0.045245997813358758 -0.48277910258142959 0 -0.063646185582023729 -0.5 0 -0.045245997813358758 -0.48277910258142959 0 -0.062008960325510468 -0.47275410329431811 0 -0.063646185582023729 -0.5 0 -0.023291935020321512 -0.44792409455967303 0 -0.036153286118416887 -0.44565343647237032 0 -0.035549123410839302 -0.46225817563562888 0 -0.036153286118416887 -0.44565343647237032 0 -0.035549123410839302 -0.46225817563562888 0 -0.052458018101313723 -0.44481920696847083 0 -0.032446550368702989 -0.42955388142979628 0 -0.036153286118416887 -0.44565343647237032 0 -0.052458018101313723 -0.44481920696847083 0 -0.062008960325510468 -0.47275410329431811 0 -0.035549123410839302 -0.46225817563562888 0 -0.052458018101313723 -0.44481920696847083 0 -0.062008960325510468 -0.47275410329431811 0 -0.052458018101313723 -0.44481920696847083 0 -0.087195235030276499 -0.46185135249141718 0 -0.052458018101313723 -0.44481920696847083 0 -0.087195235030276499 -0.46185135249141718 0 -0.075367855612227072 -0.43439671447201977 0 -0.087195235030276499 -0.46185135249141718 0 -0.10534083360900889 -0.4397602892879352 0 -0.075367855612227072 -0.43439671447201977 0 -0.087195235030276499 -0.46185135249141718 0 -0.075367855612227072 -0.43439671447201977 0 -0.062008960325510468 -0.47275410329431811 0 -0.063646185582023729 -0.5 0 -0.081516359442699651 -0.48196411022947688 0 -0.062008960325510468 -0.47275410329431811 0 -0.087195235030276499 -0.46185135249141718 0 -0.081516359442699651 -0.48196411022947688 0 -0.087195235030276499 -0.46185135249141718 0 -0.081516359442699651 -0.48196411022947688 0 -0.10578146090603149 -0.48216500881827329 0 -0.081516359442699651 -0.48196411022947688 0 -0.092074736778000321 -0.5 0 -0.10578146090603149 -0.48216500881827329 0 -0.063646185582023729 -0.5 0 -0.081516359442699651 -0.48196411022947688 0 -0.092074736778000321 -0.5 0 -0.087195235030276499 -0.46185135249141718 0 -0.10578146090603149 -0.48216500881827329 0 -0.1201536232768925 -0.46295462635476942 0 -0.092074736778000321 -0.5 0 -0.10578146090603149 -0.48216500881827329 0 -0.1205032879739769 -0.5 0 -0.1267921368491573 -0.48314498010293672 0 -0.10578146090603149 -0.48216500881827329 0 -0.1201536232768925 -0.46295462635476942 0 -0.1267921368491573 -0.48314498010293672 0 -0.10578146090603149 -0.48216500881827329 0 -0.1205032879739769 -0.5 0 -0.087195235030276499 -0.46185135249141718 0 -0.10534083360900889 -0.4397602892879352 0 -0.1201536232768925 -0.46295462635476942 0 -0.1312064970229409 -0.44244490655103669 0 -0.10534083360900889 -0.4397602892879352 0 -0.1201536232768925 -0.46295462635476942 0 -0.1312064970229409 -0.44244490655103669 0 -0.10534083360900889 -0.4397602892879352 0 -0.12288138973471591 -0.42442320070196671 0 -0.10534083360900889 -0.4397602892879352 0 -0.12288138973471591 -0.42442320070196671 0 -0.095240400977000678 -0.41249093515640178 0 -0.13487115793912099 -0.40423317639942541 0 -0.12288138973471591 -0.42442320070196671 0 -0.1168934569830135 -0.40477599869467451 0 -0.12288138973471591 -0.42442320070196671 0 -0.095240400977000678 -0.41249093515640178 0 -0.1168934569830135 -0.40477599869467451 0 -0.12556807921864879 -0.38849123483631842 0 -0.1168934569830135 -0.40477599869467451 0 -0.1070214613404958 -0.38888620179648509 0 -0.12556807921864879 -0.38849123483631842 0 -0.1188146674808004 -0.36725312872772381 0 -0.1070214613404958 -0.38888620179648509 0 -0.099948652785021949 -0.37173661250824058 0 -0.1070214613404958 -0.38888620179648509 0 -0.081161317021135077 -0.38378596945075177 0 -0.1188146674808004 -0.36725312872772381 0 -0.099948652785021949 -0.37173661250824058 0 -0.1070214613404958 -0.38888620179648509 0 -0.095240400977000678 -0.41249093515640178 0 -0.1070214613404958 -0.38888620179648509 0 -0.081161317021135077 -0.38378596945075177 0 -0.095240400977000678 -0.41249093515640178 0 -0.1168934569830135 -0.40477599869467451 0 -0.1070214613404958 -0.38888620179648509 0 -0.095240400977000678 -0.41249093515640178 0 -0.081161317021135077 -0.38378596945075177 0 -0.063540476194177645 -0.40694207645262209 0 -0.051713096776128328 -0.37948743843322491 0 -0.081161317021135077 -0.38378596945075177 0 -0.063540476194177645 -0.40694207645262209 0 -0.067888138964050285 -0.36406054247855352 0 -0.051713096776128328 -0.37948743843322491 0 -0.081161317021135077 -0.38378596945075177 0 -0.052339896804340688 -0.42422477411552428 0 -0.063540476194177645 -0.40694207645262209 0 -0.075367855612227072 -0.43439671447201977 0 -0.063540476194177645 -0.40694207645262209 0 -0.075367855612227072 -0.43439671447201977 0 -0.095240400977000678 -0.41249093515640178 0 -0.063540476194177645 -0.40694207645262209 0 -0.075367855612227072 -0.43439671447201977 0 -0.10534083360900889 -0.4397602892879352 0 -0.095240400977000678 -0.41249093515640178 0 -0.075367855612227072 -0.43439671447201977 0 -0.077304353764093017 -0.082782875984134863 0 -0.087864607209527837 -0.097286919407215941 0 -0.1004859620604284 -0.079829639934848318 0 -0.083875109567612377 -0.06608822424709776 0 -0.1004859620604284 -0.079829639934848318 0 -0.083875109567612377 -0.06608822424709776 0 -0.077304353764093017 -0.082782875984134863 0 -0.1004859620604284 -0.079829639934848318 0 -0.083875109567612377 -0.06608822424709776 0 -0.1004859620604284 -0.079829639934848318 0 -0.093479092836095568 -0.055503649681363461 0 -0.083875109567612377 -0.06608822424709776 0 -0.067097097811131143 -0.069402046372447346 0 -0.077304353764093017 -0.082782875984134863 0 -0.067097097811131143 -0.069402046372447346 0 -0.077304353764093017 -0.082782875984134863 0 -0.06186389792156459 -0.092558521849410047 0 -0.077304353764093017 -0.082782875984134863 0 -0.087864607209527837 -0.097286919407215941 0 -0.06186389792156459 -0.092558521849410047 0 -0.075243252358631496 -0.11474419887958651 0 -0.06186389792156459 -0.092558521849410047 0 -0.075243252358631496 -0.11474419887958651 0 -0.087864607209527837 -0.097286919407215941 0 -0.06186389792156459 -0.092558521849410047 0 -0.075243252358631496 -0.11474419887958651 0 -0.06186389792156459 -0.092558521849410047 0 -0.057649232348529179 -0.098388054071584824 0 -0.075243252358631496 -0.11474419887958651 0 -0.075068152520711987 -0.13071587010171121 0 -0.06681392121257887 -0.12640326332392959 0 -0.075243252358631496 -0.11474419887958651 0 -0.057649232348529179 -0.098388054071584824 0 -0.06681392121257887 -0.12640326332392959 0 -0.075243252358631496 -0.11474419887958651 0 -0.06681392121257887 -0.12640326332392959 0 -0.075243252358631496 -0.11474419887958651 0 -0.087864607209527837 -0.097286919407215941 0 -0.09550610472206314 -0.1172707871788625 0 -0.075243252358631496 -0.11474419887958651 0 -0.09550610472206314 -0.1172707871788625 0 -0.088608208428010968 -0.13690600050254809 0 -0.075243252358631496 -0.11474419887958651 0 -0.087864607209527837 -0.097286919407215941 0 -0.087864607209527837 -0.097286919407215941 0 -0.104026665673675 -0.102626836085976 0 -0.09550610472206314 -0.1172707871788625 0 -0.104026665673675 -0.102626836085976 0 -0.09550610472206314 -0.1172707871788625 0 -0.1150295462803429 -0.1217424259751462 0 -0.09550610472206314 -0.1172707871788625 0 -0.1150295462803429 -0.1217424259751462 0 -0.1027772718311543 -0.12941499187885949 0 -0.104026665673675 -0.102626836085976 0 -0.1150295462803429 -0.1217424259751462 0 -0.1212471080960127 -0.097004407933807407 0 -0.1212471080960127 -0.097004407933807407 0 -0.1004859620604284 -0.079829639934848318 0 -0.1212471080960127 -0.097004407933807407 0 -0.1183536417828548 -0.078020180016959456 0 -0.13377871334743241 -0.077936100334677433 0 -0.1212471080960127 -0.097004407933807407 0 -0.1004859620604284 -0.079829639934848318 0 -0.1183536417828548 -0.078020180016959456 0 -0.087864607209527837 -0.097286919407215941 0 -0.1004859620604284 -0.079829639934848318 0 -0.087864607209527837 -0.097286919407215941 0 -0.104026665673675 -0.102626836085976 0 -0.1004859620604284 -0.079829639934848318 0 -0.104026665673675 -0.102626836085976 0 -0.1212471080960127 -0.097004407933807407 0 -0.1004859620604284 -0.079829639934848318 0 -0.1004859620604284 -0.079829639934848318 0 -0.1135786858043141 -0.06172038461703501 0 -0.093479092836095568 -0.055503649681363461 0 -0.1004859620604284 -0.079829639934848318 0 -0.1135786858043141 -0.06172038461703501 0 -0.1183536417828548 -0.078020180016959456 0 -0.1135786858043141 -0.06172038461703501 0 -0.12885258059726659 -0.064719484041567951 0 -0.1004859620604284 -0.079829639934848318 0 -0.1183536417828548 -0.078020180016959456 0 -0.1135786858043141 -0.06172038461703501 0 -0.1135786858043141 -0.06172038461703501 0 -0.1266714095482025 -0.043611129299223519 0 -0.1135786858043141 -0.06172038461703501 0 -0.12885258059726659 -0.064719484041567951 0 -0.1266714095482025 -0.043611129299223519 0 -0.1135786858043141 -0.06172038461703501 0 -0.10390361955847879 -0.045389108357233081 0 -0.1266714095482025 -0.043611129299223519 0 -0.10390361955847879 -0.045389108357233081 0 -0.10587981894977889 -0.027932612822133059 0 -0.1266714095482025 -0.043611129299223519 0 -0.1210568347698693 -0.027924388199292691 0 -0.10587981894977889 -0.027932612822133059 0 -0.1266714095482025 -0.043611129299223519 0 -0.10587981894977889 -0.027932612822133059 0 -0.1266714095482025 -0.043611129299223519 0 -0.10390361955847879 -0.045389108357233081 0 -0.092727373063927809 -0.02951073109186609 0 -0.085603864677806396 -0.04226533314515319 0 -0.10390361955847879 -0.045389108357233081 0 -0.10587981894977889 -0.027932612822133059 0 -0.092727373063927809 -0.02951073109186609 0 -0.10390361955847879 -0.045389108357233081 0 -0.093479092836095568 -0.055503649681363461 0 -0.085603864677806396 -0.04226533314515319 0 -0.1135786858043141 -0.06172038461703501 0 -0.10390361955847879 -0.045389108357233081 0 -0.093479092836095568 -0.055503649681363461 0 -0.1222840736381321 -0.0043715844633764982 0 -0.12257544939466419 -0.01515918467811004 0 -0.109530651746324 0.00091513813098781371 0 -0.12257544939466419 -0.01515918467811004 0 -0.10584894508048361 -0.013555477798158419 0 -0.109530651746324 0.00091513813098781371 0 -0.12257544939466419 -0.01515918467811004 0 -0.109530651746324 0.00091513813098781371 0 -0.12257544939466419 -0.01515918467811004 0 -0.113840262048699 -0.021142915874423549 0 -0.10584894508048361 -0.013555477798158419 0 -0.12257544939466419 -0.01515918467811004 0 -0.113840262048699 -0.021142915874423549 0 -0.1210568347698693 -0.027924388199292691 0 -0.113840262048699 -0.021142915874423549 0 -0.1210568347698693 -0.027924388199292691 0 -0.10587981894977889 -0.027932612822133059 0 -0.10587981894977889 -0.027932612822133059 0 -0.085088228351355183 -0.01225409634504256 0 -0.10587981894977889 -0.027932612822133059 0 -0.085088228351355183 -0.01225409634504256 0 -0.092727373063927809 -0.02951073109186609 0 -0.10587981894977889 -0.027932612822133059 0 -0.10584894508048361 -0.013555477798158419 0 -0.085088228351355183 -0.01225409634504256 0 -0.113840262048699 -0.021142915874423549 0 -0.10587981894977889 -0.027932612822133059 0 -0.10584894508048361 -0.013555477798158419 0 -0.10584894508048361 -0.013555477798158419 0 -0.097804271532689085 -0.0045970153036278358 0 -0.085088228351355183 -0.01225409634504256 0 -0.10584894508048361 -0.013555477798158419 0 -0.097804271532689085 -0.0045970153036278358 0 -0.109530651746324 0.00091513813098781371 0 -0.085088228351355183 -0.01225409634504256 0 -0.090749260952593599 0.0065063747977018227 0 -0.06429663775293179 0.0034244201320481082 0 -0.097804271532689085 -0.0045970153036278358 0 -0.085088228351355183 -0.01225409634504256 0 -0.090749260952593599 0.0065063747977018227 0 -0.083142123280423016 -0.02036741240326469 0 -0.073719380516677521 -0.0084714961356081846 0 -0.085088228351355183 -0.01225409634504256 0 -0.083142123280423016 -0.02036741240326469 0 -0.073719380516677521 -0.0084714961356081846 0 -0.085088228351355183 -0.01225409634504256 0 -0.083142123280423016 -0.02036741240326469 0 -0.092727373063927809 -0.02951073109186609 0 -0.083142123280423016 -0.02036741240326469 0 -0.076640934029432797 -0.024876905228624731 0 -0.080043387052895085 -0.03191309667677434 0 -0.083142123280423016 -0.02036741240326469 0 -0.092727373063927809 -0.02951073109186609 0 -0.080043387052895085 -0.03191309667677434 0 -0.076640934029432797 -0.024876905228624731 0 -0.080043387052895085 -0.03191309667677434 0 -0.07084035887150042 -0.032062387241534519 0 -0.076640934029432797 -0.024876905228624731 0 -0.069979010068711212 -0.0246790216852311 0 -0.07084035887150042 -0.032062387241534519 0 -0.069979010068711212 -0.0246790216852311 0 -0.07084035887150042 -0.032062387241534519 0 -0.060570478402932483 -0.028099736336767999 0 -0.069979010068711212 -0.0246790216852311 0 -0.064040792110119843 -0.021569303366042791 0 -0.060570478402932483 -0.028099736336767999 0 -0.067487519166832308 -0.016034548496951059 0 -0.064040792110119843 -0.021569303366042791 0 -0.058126160802003397 -0.01746390694522101 0 -0.069979010068711212 -0.0246790216852311 0 -0.067487519166832308 -0.016034548496951059 0 -0.064040792110119843 -0.021569303366042791 0 -0.069979010068711212 -0.0246790216852311 0 -0.067487519166832308 -0.016034548496951059 0 -0.074306035507958376 -0.018806879734922122 0 -0.083142123280423016 -0.02036741240326469 0 -0.076640934029432797 -0.024876905228624731 0 -0.074306035507958376 -0.018806879734922122 0 -0.083142123280423016 -0.02036741240326469 0 -0.074306035507958376 -0.018806879734922122 0 -0.073719380516677521 -0.0084714961356081846 0 -0.076640934029432797 -0.024876905228624731 0 -0.069979010068711212 -0.0246790216852311 0 -0.074306035507958376 -0.018806879734922122 0 -0.085088228351355183 -0.01225409634504256 0 -0.06429663775293179 0.0034244201320481082 0 -0.085088228351355183 -0.01225409634504256 0 -0.073719380516677521 -0.0084714961356081846 0 -0.06429663775293179 0.0034244201320481082 0 -0.067487519166832308 -0.016034548496951059 0 -0.074306035507958376 -0.018806879734922122 0 -0.073719380516677521 -0.0084714961356081846 0 -0.067487519166832308 -0.016034548496951059 0 -0.073719380516677521 -0.0084714961356081846 0 -0.063513459446068524 -0.0090165539297122621 0 -0.067487519166832308 -0.016034548496951059 0 -0.063513459446068524 -0.0090165539297122621 0 -0.058126160802003397 -0.01746390694522101 0 -0.073719380516677521 -0.0084714961356081846 0 -0.063513459446068524 -0.0090165539297122621 0 -0.06429663775293179 0.0034244201320481082 0 -0.073719380516677521 -0.0084714961356081846 0 -0.06429663775293179 0.0034244201320481082 0 -0.093479092836095568 -0.055503649681363461 0 -0.085603864677806396 -0.04226533314515319 0 -0.073642358463065855 -0.051346642372020038 0 -0.083875109567612377 -0.06608822424709776 0 -0.093479092836095568 -0.055503649681363461 0 -0.073642358463065855 -0.051346642372020038 0 -0.092727373063927809 -0.02951073109186609 0 -0.080043387052895085 -0.03191309667677434 0 -0.085603864677806396 -0.04226533314515319 0 -0.080043387052895085 -0.03191309667677434 0 -0.085603864677806396 -0.04226533314515319 0 -0.073055534627006896 -0.039988116649505197 0 -0.073055534627006896 -0.039988116649505197 0 -0.064792609814278201 -0.045234644096475547 0 -0.073642358463065855 -0.051346642372020038 0 -0.085603864677806396 -0.04226533314515319 0 -0.073055534627006896 -0.039988116649505197 0 -0.073642358463065855 -0.051346642372020038 0 -0.080043387052895085 -0.03191309667677434 0 -0.073055534627006896 -0.039988116649505197 0 -0.07084035887150042 -0.032062387241534519 0 -0.073055534627006896 -0.039988116649505197 0 -0.07084035887150042 -0.032062387241534519 0 -0.06341062888249549 -0.03710659636507363 0 -0.07084035887150042 -0.032062387241534519 0 -0.06341062888249549 -0.03710659636507363 0 -0.060570478402932483 -0.028099736336767999 0 -0.073055534627006896 -0.039988116649505197 0 -0.06341062888249549 -0.03710659636507363 0 -0.064792609814278201 -0.045234644096475547 0 -0.064792609814278201 -0.045234644096475547 0 -0.073642358463065855 -0.051346642372020038 0 -0.05741232366595643 -0.053263168962786177 0 -0.067097097811131143 -0.069402046372447346 0 -0.073642358463065855 -0.051346642372020038 0 -0.05741232366595643 -0.053263168962786177 0 -0.083875109567612377 -0.06608822424709776 0 -0.067097097811131143 -0.069402046372447346 0 -0.073642358463065855 -0.051346642372020038 0 -0.05741232366595643 -0.053263168962786177 0 -0.041567260673632048 -0.049227650663808062 0 -0.048484543484495421 -0.070372844819234823 0 -0.05741232366595643 -0.053263168962786177 0 -0.050253069888237328 -0.045157109061775877 0 -0.041567260673632048 -0.049227650663808062 0 -0.064792609814278201 -0.045234644096475547 0 -0.05741232366595643 -0.053263168962786177 0 -0.057305337231762149 -0.042229721406022228 0 -0.05741232366595643 -0.053263168962786177 0 -0.057305337231762149 -0.042229721406022228 0 -0.050253069888237328 -0.045157109061775877 0 -0.06341062888249549 -0.03710659636507363 0 -0.064792609814278201 -0.045234644096475547 0 -0.057305337231762149 -0.042229721406022228 0 -0.06341062888249549 -0.03710659636507363 0 -0.057305337231762149 -0.042229721406022228 0 -0.055084076744833239 -0.034005238212484412 0 -0.06341062888249549 -0.03710659636507363 0 -0.055084076744833239 -0.034005238212484412 0 -0.060570478402932483 -0.028099736336767999 0 -0.057305337231762149 -0.042229721406022228 0 -0.055084076744833239 -0.034005238212484412 0 -0.050023444986879627 -0.038057225284062357 0 -0.055084076744833239 -0.034005238212484412 0 -0.050023444986879627 -0.038057225284062357 0 -0.046816112919905027 -0.032289589403370227 0 -0.055084076744833239 -0.034005238212484412 0 -0.046816112919905027 -0.032289589403370227 0 -0.051738492923786621 -0.02833609696993479 0 -0.050023444986879627 -0.038057225284062357 0 -0.046816112919905027 -0.032289589403370227 0 -0.045500027393125093 -0.036803531306487461 0 -0.057305337231762149 -0.042229721406022228 0 -0.050023444986879627 -0.038057225284062357 0 -0.050253069888237328 -0.045157109061775877 0 -0.050023444986879627 -0.038057225284062357 0 -0.050253069888237328 -0.045157109061775877 0 -0.044956982882956367 -0.043007778992200582 0 -0.050253069888237328 -0.045157109061775877 0 -0.044956982882956367 -0.043007778992200582 0 -0.041567260673632048 -0.049227650663808062 0 -0.04228706549090526 -0.036241261645687868 0 -0.041567260673632048 -0.049227650663808062 0 -0.034649977862767758 -0.028082456508381599 0 -0.041567260673632048 -0.049227650663808062 0 -0.034649977862767758 -0.028082456508381599 0 -0.035720276519934938 -0.044697214786521867 0 -0.041567260673632048 -0.049227650663808062 0 -0.034649977862767758 -0.028082456508381599 0 -0.044956982882956367 -0.043007778992200582 0 -0.04228706549090526 -0.036241261645687868 0 -0.041567260673632048 -0.049227650663808062 0 -0.050023444986879627 -0.038057225284062357 0 -0.044956982882956367 -0.043007778992200582 0 -0.045500027393125093 -0.036803531306487461 0 -0.046816112919905027 -0.032289589403370227 0 -0.04228706549090526 -0.036241261645687868 0 -0.040232031213045298 -0.028036562999879291 0 -0.046816112919905027 -0.032289589403370227 0 -0.045500027393125093 -0.036803531306487461 0 -0.04228706549090526 -0.036241261645687868 0 -0.044956982882956367 -0.043007778992200582 0 -0.045500027393125093 -0.036803531306487461 0 -0.04228706549090526 -0.036241261645687868 0 -0.035720276519934938 -0.044697214786521867 0 -0.03483069748015382 -0.047732005225900542 0 -0.03483069748015382 -0.047732005225900542 0 -0.048484543484495421 -0.070372844819234823 0 -0.03483069748015382 -0.047732005225900542 0 -0.027671456074471711 -0.072155689237760195 0 -0.041567260673632048 -0.049227650663808062 0 -0.048484543484495421 -0.070372844819234823 0 -0.03483069748015382 -0.047732005225900542 0 -0.041567260673632048 -0.049227650663808062 0 -0.048484543484495421 -0.070372844819234823 0 -0.035720276519934938 -0.044697214786521867 0 -0.03483069748015382 -0.047732005225900542 0 -0.041567260673632048 -0.049227650663808062 0 -0.053937598991897748 -0.0065372382028289176 0 -0.06429663775293179 0.0034244201320481082 0 -0.042331935630484048 0.002039555730186072 0 -0.063513459446068524 -0.0090165539297122621 0 -0.053937598991897748 -0.0065372382028289176 0 -0.06429663775293179 0.0034244201320481082 0 -0.063513459446068524 -0.0090165539297122621 0 -0.053937598991897748 -0.0065372382028289176 0 -0.058126160802003397 -0.01746390694522101 0 -0.053937598991897748 -0.0065372382028289176 0 -0.050463467020892952 -0.01500959425819927 0 -0.058126160802003397 -0.01746390694522101 0 -0.053937598991897748 -0.0065372382028289176 0 -0.050463467020892952 -0.01500959425819927 0 -0.042519271216591548 -0.011649386613891409 0 -0.050463467020892952 -0.01500959425819927 0 -0.051423540449548631 -0.021105503730232979 0 -0.046056561501089117 -0.020350262485940261 0 -0.051423540449548631 -0.021105503730232979 0 -0.046403085956034179 -0.026491762327595241 0 -0.046056561501089117 -0.020350262485940261 0 -0.050463467020892952 -0.01500959425819927 0 -0.051423540449548631 -0.021105503730232979 0 -0.058126160802003397 -0.01746390694522101 0 -0.051423540449548631 -0.021105503730232979 0 -0.058126160802003397 -0.01746390694522101 0 -0.060570478402932483 -0.028099736336767999 0 -0.064040792110119843 -0.021569303366042791 0 -0.058126160802003397 -0.01746390694522101 0 -0.060570478402932483 -0.028099736336767999 0 -0.055084076744833239 -0.034005238212484412 0 -0.060570478402932483 -0.028099736336767999 0 -0.051738492923786621 -0.02833609696993479 0 -0.051423540449548631 -0.021105503730232979 0 -0.060570478402932483 -0.028099736336767999 0 -0.051738492923786621 -0.02833609696993479 0 -0.051423540449548631 -0.021105503730232979 0 -0.051738492923786621 -0.02833609696993479 0 -0.046403085956034179 -0.026491762327595241 0 -0.046816112919905027 -0.032289589403370227 0 -0.051738492923786621 -0.02833609696993479 0 -0.046403085956034179 -0.026491762327595241 0 -0.040232031213045298 -0.028036562999879291 0 -0.042519271216591548 -0.011649386613891409 0 -0.026366295026715381 -0.0080643654216814211 0 -0.040232031213045298 -0.028036562999879291 0 -0.034649977862767758 -0.028082456508381599 0 -0.026366295026715381 -0.0080643654216814211 0 -0.040232031213045298 -0.028036562999879291 0 -0.046056561501089117 -0.020350262485940261 0 -0.042519271216591548 -0.011649386613891409 0 -0.040232031213045298 -0.028036562999879291 0 -0.026366295026715381 -0.0080643654216814211 0 -0.046816112919905027 -0.032289589403370227 0 -0.046403085956034179 -0.026491762327595241 0 -0.040232031213045298 -0.028036562999879291 0 -0.046403085956034179 -0.026491762327595241 0 -0.040232031213045298 -0.028036562999879291 0 -0.046056561501089117 -0.020350262485940261 0 -0.04228706549090526 -0.036241261645687868 0 -0.040232031213045298 -0.028036562999879291 0 -0.034649977862767758 -0.028082456508381599 0 -0.050463467020892952 -0.01500959425819927 0 -0.046056561501089117 -0.020350262485940261 0 -0.042519271216591548 -0.011649386613891409 0 -0.042519271216591548 -0.011649386613891409 0 -0.026366295026715381 -0.0080643654216814211 0 -0.042331935630484048 0.002039555730186072 0 -0.053937598991897748 -0.0065372382028289176 0 -0.042519271216591548 -0.011649386613891409 0 -0.042331935630484048 0.002039555730186072 0 -0.026366295026715381 -0.0080643654216814211 0 -0.020464940397846281 -0.023910673006840879 0 -0.0060991833155395643 -8.9340787780604891e-05 0 -0.034649977862767758 -0.028082456508381599 0 -0.026366295026715381 -0.0080643654216814211 0 -0.020464940397846281 -0.023910673006840879 0 -0.020464940397846281 -0.023910673006840879 0 -0.0060991833155395643 -8.9340787780604891e-05 0 0.002201472470244434 -0.02866876371560861 0 -0.020464940397846281 -0.023910673006840879 0 -0.0060991833155395643 -8.9340787780604891e-05 0 -0.03483069748015382 -0.047732005225900542 0 -0.01576040923141377 -0.059871490652215878 0 -0.016786339832905499 -0.043882678359220273 0 -0.03483069748015382 -0.047732005225900542 0 -0.01576040923141377 -0.059871490652215878 0 -0.027671456074471711 -0.072155689237760195 0 -0.03483069748015382 -0.047732005225900542 0 -0.020464940397846281 -0.023910673006840879 0 -0.035720276519934938 -0.044697214786521867 0 -0.034649977862767758 -0.028082456508381599 0 -0.020464940397846281 -0.023910673006840879 0 -0.035720276519934938 -0.044697214786521867 0 -0.03483069748015382 -0.047732005225900542 0 -0.020464940397846281 -0.023910673006840879 0 -0.03483069748015382 -0.047732005225900542 0 -0.020464940397846281 -0.023910673006840879 0 -0.016786339832905499 -0.043882678359220273 0 -0.020464940397846281 -0.023910673006840879 0 -0.016786339832905499 -0.043882678359220273 0 0.002201472470244434 -0.02866876371560861 0 -0.016786339832905499 -0.043882678359220273 0 -0.0016479949996232549 -0.050446966672088263 0 0.002201472470244434 -0.02866876371560861 0 -0.01576040923141377 -0.059871490652215878 0 -0.016786339832905499 -0.043882678359220273 0 -0.0016479949996232549 -0.050446966672088263 0 -0.01576040923141377 -0.059871490652215878 0 -0.0016479949996232549 -0.050446966672088263 0 -0.0039602916157648153 -0.062265683657639848 0 -0.0039602916157648153 -0.062265683657639848 0 -0.0080005306177633496 -0.07258112693547758 0 0.0019642167837423809 -0.068240051189366921 0 -0.0080005306177633496 -0.07258112693547758 0 -0.0057797454750161533 -0.088245702054726247 0 -0.027671456074471711 -0.072155689237760195 0 -0.0080005306177633496 -0.07258112693547758 0 0.002424066089086858 -0.079267165279983537 0 0.0019642167837423809 -0.068240051189366921 0 -0.01576040923141377 -0.059871490652215878 0 -0.0039602916157648153 -0.062265683657639848 0 -0.0080005306177633496 -0.07258112693547758 0 -0.0080005306177633496 -0.07258112693547758 0 -0.0057797454750161533 -0.088245702054726247 0 0.002424066089086858 -0.079267165279983537 0 -0.0057797454750161533 -0.088245702054726247 0 -0.0052467944873015203 -0.096165306797296429 0 0.001469916082576286 -0.092579802972193065 0 -0.0057797454750161533 -0.088245702054726247 0 0.001469916082576286 -0.092579802972193065 0 0.0014602778350073331 -0.087593538843067337 0 -0.0057797454750161533 -0.088245702054726247 0 0.0014602778350073331 -0.087593538843067337 0 0.002424066089086858 -0.079267165279983537 0 -0.0057797454750161533 -0.088245702054726247 0 -0.020512214668788921 -0.096579373249619752 0 -0.0052467944873015203 -0.096165306797296429 0 -0.0057797454750161533 -0.088245702054726247 0 -0.027671456074471711 -0.072155689237760195 0 -0.020512214668788921 -0.096579373249619752 0 -0.027671456074471711 -0.072155689237760195 0 -0.020512214668788921 -0.096579373249619752 0 -0.027671456074471711 -0.072155689237760195 0 -0.040584195814180893 -0.093147902248180731 0 -0.020512214668788921 -0.096579373249619752 0 -0.01576040923141377 -0.059871490652215878 0 -0.0080005306177633496 -0.07258112693547758 0 -0.027671456074471711 -0.072155689237760195 0 -0.03483069748015382 -0.047732005225900542 0 -0.027671456074471711 -0.072155689237760195 0 -0.048484543484495421 -0.070372844819234823 0 -0.027671456074471711 -0.072155689237760195 0 -0.040584195814180893 -0.093147902248180731 0 -0.048484543484495421 -0.070372844819234823 0 -0.06186389792156459 -0.092558521849410047 0 -0.048484543484495421 -0.070372844819234823 0 -0.040584195814180893 -0.093147902248180731 0 -0.048484543484495421 -0.070372844819234823 0 -0.057649232348529179 -0.098388054071584824 0 -0.06186389792156459 -0.092558521849410047 0 -0.048484543484495421 -0.070372844819234823 0 -0.057649232348529179 -0.098388054071584824 0 -0.048484543484495421 -0.070372844819234823 0 -0.057649232348529179 -0.098388054071584824 0 -0.067097097811131143 -0.069402046372447346 0 -0.06186389792156459 -0.092558521849410047 0 -0.048484543484495421 -0.070372844819234823 0 -0.067097097811131143 -0.069402046372447346 0 -0.05741232366595643 -0.053263168962786177 0 -0.048484543484495421 -0.070372844819234823 0 -0.057649232348529179 -0.098388054071584824 0 -0.06681392121257887 -0.12640326332392959 0 -0.052438807980705618 -0.1111987662290085 0 -0.057649232348529179 -0.098388054071584824 0 -0.06681392121257887 -0.12640326332392959 0 -0.052438807980705618 -0.1111987662290085 0 -0.056892416264249887 -0.12362733855905279 0 -0.046397425986292942 -0.1205391281819983 0 -0.052438807980705618 -0.1111987662290085 0 -0.056892416264249887 -0.12362733855905279 0 -0.06681392121257887 -0.12640326332392959 0 -0.040584195814180893 -0.093147902248180731 0 -0.052438807980705618 -0.1111987662290085 0 -0.057649232348529179 -0.098388054071584824 0 -0.040584195814180893 -0.093147902248180731 0 -0.036154093296250397 -0.1105108106259553 0 -0.020512214668788921 -0.096579373249619752 0 -0.040584195814180893 -0.093147902248180731 0 -0.052438807980705618 -0.1111987662290085 0 -0.036154093296250397 -0.1105108106259553 0 -0.052438807980705618 -0.1111987662290085 0 -0.036154093296250397 -0.1105108106259553 0 -0.046397425986292942 -0.1205391281819983 0 -0.036154093296250397 -0.1105108106259553 0 -0.046397425986292942 -0.1205391281819983 0 -0.035783013721102118 -0.12602412215471751 0 -0.036154093296250397 -0.1105108106259553 0 -0.025703438144007971 -0.1173096726813647 0 -0.035783013721102118 -0.12602412215471751 0 -0.025703438144007971 -0.1173096726813647 0 -0.020512214668788921 -0.096579373249619752 0 -0.013352973263106121 -0.12100305726147929 0 -0.025703438144007971 -0.1173096726813647 0 -0.013352973263106121 -0.12100305726147929 0 -0.02271489577079229 -0.13243100011505179 0 -0.036154093296250397 -0.1105108106259553 0 -0.025703438144007971 -0.1173096726813647 0 -0.020512214668788921 -0.096579373249619752 0 -0.020512214668788921 -0.096579373249619752 0 -0.013352973263106121 -0.12100305726147929 0 -0.020512214668788921 -0.096579373249619752 0 -0.00333287263979966 -0.1047378732862483 0 -0.0055628076297433351 -0.1138071827427924 0 -0.020512214668788921 -0.096579373249619752 0 -0.00333287263979966 -0.1047378732862483 0 -0.0052467944873015203 -0.096165306797296429 0 -0.00333287263979966 -0.1047378732862483 0 -0.0052467944873015203 -0.096165306797296429 0 0.001920944264520855 -0.098683782423694716 0 -0.0052467944873015203 -0.096165306797296429 0 0.001920944264520855 -0.098683782423694716 0 0.001469916082576286 -0.092579802972193065 0 -0.020512214668788921 -0.096579373249619752 0 -0.013352973263106121 -0.12100305726147929 0 -0.0055628076297433351 -0.1138071827427924 0 -0.0055628076297433351 -0.1138071827427924 0 -0.0018458120868778921 -0.12033927360542369 0 0.0023032816237074918 -0.11206378985153879 0 -0.00333287263979966 -0.1047378732862483 0 -0.0055628076297433351 -0.1138071827427924 0 0.0023032816237074918 -0.11206378985153879 0 -0.013352973263106121 -0.12100305726147929 0 -0.0055628076297433351 -0.1138071827427924 0 -0.0018458120868778921 -0.12033927360542369 0 -0.013352973263106121 -0.12100305726147929 0 -0.0018458120868778921 -0.12033927360542369 0 -0.0019404310547477179 -0.13265418859280839 0 -0.0019404310547477179 -0.13265418859280839 0 -0.02271489577079229 -0.13243100011505179 0 -0.01501769808675628 -0.146530565222703 0 -0.013352973263106121 -0.12100305726147929 0 -0.0019404310547477179 -0.13265418859280839 0 -0.02271489577079229 -0.13243100011505179 0 -0.0019404310547477179 -0.13265418859280839 0 -0.01501769808675628 -0.146530565222703 0 -0.02271489577079229 -0.13243100011505179 0 -0.01501769808675628 -0.146530565222703 0 -0.03716008162535573 -0.1416616651156081 0 -0.025703438144007971 -0.1173096726813647 0 -0.02271489577079229 -0.13243100011505179 0 -0.035783013721102118 -0.12602412215471751 0 -0.01501769808675628 -0.146530565222703 0 -0.02555561956886291 -0.1577124250886891 0 -0.03716008162535573 -0.1416616651156081 0 -0.01501769808675628 -0.146530565222703 0 -0.03716008162535573 -0.1416616651156081 0 -0.01501769808675628 -0.146530565222703 0 -0.012454478671098329 -0.15900608628290699 0 -0.02555561956886291 -0.1577124250886891 0 -0.01501769808675628 -0.146530565222703 0 -0.02555561956886291 -0.1577124250886891 0 -0.01501769808675628 -0.146530565222703 0 0.01252646365084472 -0.15258726511682991 0 -0.01501769808675628 -0.146530565222703 0 -0.0021876112663072578 -0.15798446653076381 0 0.01252646365084472 -0.15258726511682991 0 -0.0019404310547477179 -0.13265418859280839 0 -0.01501769808675628 -0.146530565222703 0 0.0041305717972906809 -0.1454459938073209 0 -0.01501769808675628 -0.146530565222703 0 -0.0021876112663072578 -0.15798446653076381 0 -0.012454478671098329 -0.15900608628290699 0 -0.0021876112663072578 -0.15798446653076381 0 -0.0043931643207690656 -0.1666921578166749 0 -0.012454478671098329 -0.15900608628290699 0 -0.0043931643207690656 -0.1666921578166749 0 -0.011254588778495179 -0.17920295530366559 0 -0.018999924385077568 -0.16843124628953651 0 -0.0043931643207690656 -0.1666921578166749 0 -0.012454478671098329 -0.15900608628290699 0 -0.018999924385077568 -0.16843124628953651 0 -0.011254588778495179 -0.17920295530366559 0 -0.0036465812241667779 -0.18931108225399881 0 0.002600368018374051 -0.1781835494704333 0 -0.0043931643207690656 -0.1666921578166749 0 -0.011254588778495179 -0.17920295530366559 0 0.002600368018374051 -0.1781835494704333 0 -0.011254588778495179 -0.17920295530366559 0 -0.0036465812241667779 -0.18931108225399881 0 -0.018312768209507429 -0.19348783488613319 0 -0.011254588778495179 -0.17920295530366559 0 -0.02720315463024061 -0.18119105992040491 0 -0.018312768209507429 -0.19348783488613319 0 -0.02720315463024061 -0.18119105992040491 0 -0.018999924385077568 -0.16843124628953651 0 -0.036093541050970721 -0.16889428495467421 0 -0.011254588778495179 -0.17920295530366559 0 -0.02720315463024061 -0.18119105992040491 0 -0.018999924385077568 -0.16843124628953651 0 -0.02720315463024061 -0.18119105992040491 0 -0.036639210109528711 -0.18719995919000701 0 -0.018312768209507429 -0.19348783488613319 0 -0.02720315463024061 -0.18119105992040491 0 -0.018312768209507429 -0.19348783488613319 0 -0.018999924385077568 -0.16843124628953651 0 -0.02555561956886291 -0.1577124250886891 0 -0.036093541050970721 -0.16889428495467421 0 -0.012454478671098329 -0.15900608628290699 0 -0.018999924385077568 -0.16843124628953651 0 -0.02555561956886291 -0.1577124250886891 0 -0.02555561956886291 -0.1577124250886891 0 -0.036093541050970721 -0.16889428495467421 0 -0.036093541050970721 -0.16889428495467421 0 -0.047698003107468537 -0.1528435249816025 0 -0.036093541050970721 -0.16889428495467421 0 -0.051704409575608852 -0.1698939236328178 0 -0.047698003107468537 -0.1528435249816025 0 -0.02555561956886291 -0.1577124250886891 0 -0.036093541050970721 -0.16889428495467421 0 -0.047698003107468537 -0.1528435249816025 0 -0.036093541050970721 -0.16889428495467421 0 -0.051777457260847197 -0.18553659468401529 0 -0.051704409575608852 -0.1698939236328178 0 -0.036093541050970721 -0.16889428495467421 0 -0.051777457260847197 -0.18553659468401529 0 -0.036093541050970721 -0.16889428495467421 0 -0.036639210109528711 -0.18719995919000701 0 -0.051777457260847197 -0.18553659468401529 0 -0.02720315463024061 -0.18119105992040491 0 -0.036093541050970721 -0.16889428495467421 0 -0.036639210109528711 -0.18719995919000701 0 -0.02720315463024061 -0.18119105992040491 0 -0.036093541050970721 -0.16889428495467421 0 -0.051777457260847197 -0.18553659468401529 0 -0.051704409575608852 -0.1698939236328178 0 -0.069543417105455071 -0.18524103437198569 0 -0.051704409575608852 -0.1698939236328178 0 -0.064563197772354392 -0.16098605858604451 0 -0.069543417105455071 -0.18524103437198569 0 -0.051704409575608852 -0.1698939236328178 0 -0.047698003107468537 -0.1528435249816025 0 -0.064563197772354392 -0.16098605858604451 0 -0.047698003107468537 -0.1528435249816025 0 -0.059582978439253753 -0.13673108280010349 0 -0.064563197772354392 -0.16098605858604451 0 -0.047698003107468537 -0.1528435249816025 0 -0.059582978439253753 -0.13673108280010349 0 -0.059582978439253753 -0.13673108280010349 0 -0.064563197772354392 -0.16098605858604451 0 -0.047698003107468537 -0.1528435249816025 0 -0.059582978439253753 -0.13673108280010349 0 -0.03716008162535573 -0.1416616651156081 0 -0.059582978439253753 -0.13673108280010349 0 -0.03716008162535573 -0.1416616651156081 0 -0.059582978439253753 -0.13673108280010349 0 -0.05205904969531628 -0.1313154331921885 0 -0.03716008162535573 -0.1416616651156081 0 -0.056892416264249887 -0.12362733855905279 0 -0.059582978439253753 -0.13673108280010349 0 -0.05205904969531628 -0.1313154331921885 0 -0.056892416264249887 -0.12362733855905279 0 -0.059582978439253753 -0.13673108280010349 0 -0.06681392121257887 -0.12640326332392959 0 -0.056892416264249887 -0.12362733855905279 0 -0.059582978439253753 -0.13673108280010349 0 -0.056892416264249887 -0.12362733855905279 0 -0.046397425986292942 -0.1205391281819983 0 -0.05205904969531628 -0.1313154331921885 0 -0.046397425986292942 -0.1205391281819983 0 -0.05205904969531628 -0.1313154331921885 0 -0.035783013721102118 -0.12602412215471751 0 -0.05205904969531628 -0.1313154331921885 0 -0.035783013721102118 -0.12602412215471751 0 -0.03716008162535573 -0.1416616651156081 0 -0.02271489577079229 -0.13243100011505179 0 -0.035783013721102118 -0.12602412215471751 0 -0.03716008162535573 -0.1416616651156081 0 -0.02555561956886291 -0.1577124250886891 0 -0.047698003107468537 -0.1528435249816025 0 -0.03716008162535573 -0.1416616651156081 0 -0.028394657244909801 -0.24385738322368439 0 -0.032909214176296157 -0.24475273974506859 0 -0.028394657244909801 -0.24385738322368439 0 -0.024584330696107229 -0.23561543231475951 0 -0.028944150764401381 -0.23663153804268389 0 -0.028394657244909801 -0.24385738322368439 0 -0.028944150764401381 -0.23663153804268389 0 -0.032909214176296157 -0.24475273974506859 0 -0.028394657244909801 -0.24385738322368439 0 -0.028944150764401381 -0.23663153804268389 0 -0.028944150764401381 -0.23663153804268389 0 -0.032909214176296157 -0.24475273974506859 0 -0.028394657244909801 -0.24385738322368439 0 -0.024584330696107229 -0.23561543231475951 0 -0.016291194110752218 -0.23401910136067619 0 -0.012355192092672371 -0.2544562184924033 0 -0.028394657244909801 -0.24385738322368439 0 -0.001425766107822968 -0.2385087359652546 0 -0.028394657244909801 -0.24385738322368439 0 -0.001425766107822968 -0.2385087359652546 0 -0.028394657244909801 -0.24385738322368439 0 -0.001425766107822968 -0.2385087359652546 0 -0.016291194110752218 -0.23401910136067619 0 -0.001425766107822968 -0.2385087359652546 0 -0.01154047867219443 -0.22513367210260751 0 -0.016291194110752218 -0.23401910136067619 0 -0.001425766107822968 -0.2385087359652546 0 -0.01154047867219443 -0.22513367210260751 0 -0.0022972425086637831 -0.21563977589084049 0 -0.019159764374336051 -0.2239903741336384 0 -0.024512163324110811 -0.21933372756885841 0 -0.01874766510025784 -0.2135116630040565 0 -0.019159764374336051 -0.2239903741336384 0 -0.024707320664364971 -0.2279537066319933 0 -0.024512163324110811 -0.21933372756885841 0 -0.01154047867219443 -0.22513367210260751 0 -0.019159764374336051 -0.2239903741336384 0 -0.01874766510025784 -0.2135116630040565 0 -0.019159764374336051 -0.2239903741336384 0 -0.016291194110752218 -0.23401910136067619 0 -0.024707320664364971 -0.2279537066319933 0 -0.01154047867219443 -0.22513367210260751 0 -0.019159764374336051 -0.2239903741336384 0 -0.016291194110752218 -0.23401910136067619 0 -0.024584330696107229 -0.23561543231475951 0 -0.016291194110752218 -0.23401910136067619 0 -0.024707320664364971 -0.2279537066319933 0 -0.028944150764401381 -0.23663153804268389 0 -0.0297666940377363 -0.22581508591549521 0 -0.028944150764401381 -0.23663153804268389 0 -0.024707320664364971 -0.2279537066319933 0 -0.024584330696107229 -0.23561543231475951 0 -0.028944150764401381 -0.23663153804268389 0 -0.024707320664364971 -0.2279537066319933 0 -0.028944150764401381 -0.23663153804268389 0 -0.024707320664364971 -0.2279537066319933 0 -0.0297666940377363 -0.22581508591549521 0 -0.024512163324110811 -0.21933372756885841 0 -0.0297666940377363 -0.22581508591549521 0 -0.032913213536692312 -0.21925909102049529 0 -0.024707320664364971 -0.2279537066319933 0 -0.024512163324110811 -0.21933372756885841 0 -0.0297666940377363 -0.22581508591549521 0 -0.01874766510025784 -0.2135116630040565 0 -0.018312768209507429 -0.19348783488613319 0 -0.031988399454843712 -0.2105287144450253 0 -0.024512163324110811 -0.21933372756885841 0 -0.031988399454843712 -0.2105287144450253 0 -0.032913213536692312 -0.21925909102049529 0 -0.024512163324110811 -0.21933372756885841 0 -0.01874766510025784 -0.2135116630040565 0 -0.031988399454843712 -0.2105287144450253 0 -0.0022972425086637831 -0.21563977589084049 0 -0.018312768209507429 -0.19348783488613319 0 -0.01874766510025784 -0.2135116630040565 0 -0.0022972425086637831 -0.21563977589084049 0 -0.018312768209507429 -0.19348783488613319 0 -0.01154047867219443 -0.22513367210260751 0 -0.01874766510025784 -0.2135116630040565 0 -0.0022972425086637831 -0.21563977589084049 0 -0.0022972425086637831 -0.21563977589084049 0 -0.0036465812241667779 -0.18931108225399881 0 -0.018312768209507429 -0.19348783488613319 0 -0.0036465812241667779 -0.18931108225399881 0 -0.018312768209507429 -0.19348783488613319 0 -0.018312768209507429 -0.19348783488613319 0 -0.04641820232403164 -0.20149192252202999 0 -0.031988399454843712 -0.2105287144450253 0 -0.036639210109528711 -0.18719995919000701 0 -0.051777457260847197 -0.18553659468401529 0 -0.04641820232403164 -0.20149192252202999 0 -0.036639210109528711 -0.18719995919000701 0 -0.018312768209507429 -0.19348783488613319 0 -0.04641820232403164 -0.20149192252202999 0 -0.018312768209507429 -0.19348783488613319 0 -0.04641820232403164 -0.20149192252202999 0 -0.051777457260847197 -0.18553659468401529 0 -0.04641820232403164 -0.20149192252202999 0 -0.069543417105455071 -0.18524103437198569 0 -0.04641820232403164 -0.20149192252202999 0 -0.059146128576676109 -0.2192356625480115 0 -0.074523636438555724 -0.20949601015792679 0 -0.04641820232403164 -0.20149192252202999 0 -0.043183719181953677 -0.21731773117989339 0 -0.059146128576676109 -0.2192356625480115 0 -0.04641820232403164 -0.20149192252202999 0 -0.074523636438555724 -0.20949601015792679 0 -0.04641820232403164 -0.20149192252202999 0 -0.043183719181953677 -0.21731773117989339 0 -0.031988399454843712 -0.2105287144450253 0 -0.043183719181953677 -0.21731773117989339 0 -0.031988399454843712 -0.2105287144450253 0 -0.032913213536692312 -0.21925909102049529 0 -0.043183719181953677 -0.21731773117989339 0 -0.037506885413519667 -0.22533063561343969 0 -0.032913213536692312 -0.21925909102049529 0 -0.0297666940377363 -0.22581508591549521 0 -0.037506885413519667 -0.22533063561343969 0 -0.032913213536692312 -0.21925909102049529 0 -0.0297666940377363 -0.22581508591549521 0 -0.037506885413519667 -0.22533063561343969 0 -0.035371444572737422 -0.23267372404497749 0 -0.028944150764401381 -0.23663153804268389 0 -0.0297666940377363 -0.22581508591549521 0 -0.035371444572737422 -0.23267372404497749 0 -0.037506885413519667 -0.22533063561343969 0 -0.035371444572737422 -0.23267372404497749 0 -0.047495252602829899 -0.232602765716455 0 -0.043183719181953677 -0.21731773117989339 0 -0.037506885413519667 -0.22533063561343969 0 -0.047495252602829899 -0.232602765716455 0 -0.059146128576676109 -0.2192356625480115 0 -0.047495252602829899 -0.232602765716455 0 -0.067361476495189893 -0.23490584505782591 0 -0.043183719181953677 -0.21731773117989339 0 -0.059146128576676109 -0.2192356625480115 0 -0.047495252602829899 -0.232602765716455 0 -0.047495252602829899 -0.232602765716455 0 -0.05892050568749304 -0.249911469569086 0 -0.067361476495189893 -0.23490584505782591 0 -0.05892050568749304 -0.249911469569086 0 -0.032909214176296157 -0.24475273974506859 0 -0.047495252602829899 -0.232602765716455 0 -0.05892050568749304 -0.249911469569086 0 -0.032909214176296157 -0.24475273974506859 0 -0.028944150764401381 -0.23663153804268389 0 -0.035371444572737422 -0.23267372404497749 0 -0.032909214176296157 -0.24475273974506859 0 -0.035371444572737422 -0.23267372404497749 0 -0.047495252602829899 -0.232602765716455 0 -0.032909214176296157 -0.24475273974506859 0 -0.085006490694977677 -0.25639204894748607 0 -0.083708227451886941 -0.23341670605043 0 -0.085006490694977677 -0.25639204894748607 0 -0.083708227451886941 -0.23341670605043 0 -0.1005841607031852 -0.23817822102090749 0 -0.085006490694977677 -0.25639204894748607 0 -0.1005841607031852 -0.23817822102090749 0 -0.085006490694977677 -0.25639204894748607 0 -0.067361476495189893 -0.23490584505782591 0 -0.083708227451886941 -0.23341670605043 0 -0.085006490694977677 -0.25639204894748607 0 -0.05892050568749304 -0.249911469569086 0 -0.067361476495189893 -0.23490584505782591 0 -0.059146128576676109 -0.2192356625480115 0 -0.067361476495189893 -0.23490584505782591 0 -0.076896459704742792 -0.22105228248576669 0 -0.067361476495189893 -0.23490584505782591 0 -0.076896459704742792 -0.22105228248576669 0 -0.083708227451886941 -0.23341670605043 0 -0.076896459704742792 -0.22105228248576669 0 -0.083708227451886941 -0.23341670605043 0 -0.082484657705083092 -0.21176321270775639 0 -0.083708227451886941 -0.23341670605043 0 -0.082484657705083092 -0.21176321270775639 0 -0.083708227451886941 -0.23341670605043 0 -0.082484657705083092 -0.21176321270775639 0 -0.09884537037325257 -0.21642254575517211 0 -0.082484657705083092 -0.21176321270775639 0 -0.09884537037325257 -0.21642254575517211 0 -0.082484657705083092 -0.21176321270775639 0 -0.074523636438555724 -0.20949601015792679 0 -0.081275296063747227 -0.19036115996985839 0 -0.082484657705083092 -0.21176321270775639 0 -0.094580378375186014 -0.2003445272160774 0 -0.09884537037325257 -0.21642254575517211 0 -0.082484657705083092 -0.21176321270775639 0 -0.074523636438555724 -0.20949601015792679 0 -0.059146128576676109 -0.2192356625480115 0 -0.076896459704742792 -0.22105228248576669 0 -0.074523636438555724 -0.20949601015792679 0 -0.076896459704742792 -0.22105228248576669 0 -0.082484657705083092 -0.21176321270775639 0 -0.074523636438555724 -0.20949601015792679 0 -0.076896459704742792 -0.22105228248576669 0 -0.074523636438555724 -0.20949601015792679 0 -0.074523636438555724 -0.20949601015792679 0 -0.069543417105455071 -0.18524103437198569 0 -0.074523636438555724 -0.20949601015792679 0 -0.081275296063747227 -0.19036115996985839 0 -0.069543417105455071 -0.18524103437198569 0 -0.04641820232403164 -0.20149192252202999 0 -0.074523636438555724 -0.20949601015792679 0 -0.069543417105455071 -0.18524103437198569 0 -0.082484657705083092 -0.21176321270775639 0 -0.081275296063747227 -0.19036115996985839 0 -0.094580378375186014 -0.2003445272160774 0 -0.082484657705083092 -0.21176321270775639 0 -0.081275296063747227 -0.19036115996985839 0 -0.081275296063747227 -0.19036115996985839 0 -0.09312662380723738 -0.1894674209227292 0 -0.094580378375186014 -0.2003445272160774 0 -0.094580378375186014 -0.2003445272160774 0 -0.10274835218336879 -0.1905941955979735 0 -0.1112148150005743 -0.20404271003684341 0 -0.09312662380723738 -0.1894674209227292 0 -0.094580378375186014 -0.2003445272160774 0 -0.10274835218336879 -0.1905941955979735 0 -0.1153381205667638 -0.1812296037484748 0 -0.12870307663614031 -0.2033914053714381 0 -0.1112148150005743 -0.20404271003684341 0 -0.1153381205667638 -0.1812296037484748 0 -0.12870307663614031 -0.2033914053714381 0 -0.10274835218336879 -0.1905941955979735 0 -0.1112148150005743 -0.20404271003684341 0 -0.1153381205667638 -0.1812296037484748 0 -0.1112148150005743 -0.20404271003684341 0 -0.1152060830414235 -0.22108187880258259 0 -0.12870307663614031 -0.2033914053714381 0 -0.1152060830414235 -0.22108187880258259 0 -0.13116491875254641 -0.20242238175341759 0 -0.1112148150005743 -0.20404271003684341 0 -0.09884537037325257 -0.21642254575517211 0 -0.1152060830414235 -0.22108187880258259 0 -0.094580378375186014 -0.2003445272160774 0 -0.1112148150005743 -0.20404271003684341 0 -0.09884537037325257 -0.21642254575517211 0 -0.083708227451886941 -0.23341670605043 0 -0.09884537037325257 -0.21642254575517211 0 -0.1005841607031852 -0.23817822102090749 0 -0.09884537037325257 -0.21642254575517211 0 -0.1152060830414235 -0.22108187880258259 0 -0.1005841607031852 -0.23817822102090749 0 -0.1152060830414235 -0.22108187880258259 0 -0.1005841607031852 -0.23817822102090749 0 -0.09884537037325257 -0.21642254575517211 0 -0.1152060830414235 -0.22108187880258259 0 -0.1152060830414235 -0.22108187880258259 0 -0.1345001038955726 -0.22657658253625559 0 -0.1152060830414235 -0.22108187880258259 0 -0.116061991631914 -0.24504142951452931 0 -0.12759994776565231 -0.23772262632743249 0 -0.1298643864382503 -0.25385480936049493 0 -0.116061991631914 -0.24504142951452931 0 -0.12759994776565231 -0.23772262632743249 0 -0.1152060830414235 -0.22108187880258259 0 -0.116061991631914 -0.24504142951452931 0 -0.1005841607031852 -0.23817822102090749 0 -0.1051668604971054 -0.25908334977756231 0 -0.116061991631914 -0.24504142951452931 0 -0.1005841607031852 -0.23817822102090749 0 -0.088608208428010968 -0.13690600050254809 0 -0.088198043600930004 -0.15776439276576071 0 -0.1019731644973874 -0.15906780212551139 0 -0.078856572781073567 -0.14755705449406251 0 -0.088608208428010968 -0.13690600050254809 0 -0.088198043600930004 -0.15776439276576071 0 -0.078856572781073567 -0.14755705449406251 0 -0.088608208428010968 -0.13690600050254809 0 -0.079480350638286013 -0.13866091082712029 0 -0.075243252358631496 -0.11474419887958651 0 -0.088608208428010968 -0.13690600050254809 0 -0.075243252358631496 -0.11474419887958651 0 -0.088608208428010968 -0.13690600050254809 0 -0.075068152520711987 -0.13071587010171121 0 -0.088608208428010968 -0.13690600050254809 0 -0.079480350638286013 -0.13866091082712029 0 -0.075068152520711987 -0.13071587010171121 0 -0.079480350638286013 -0.13866091082712029 0 -0.070958626711632042 -0.13907306516538229 0 -0.075068152520711987 -0.13071587010171121 0 -0.070958626711632042 -0.13907306516538229 0 -0.075068152520711987 -0.13071587010171121 0 -0.06681392121257887 -0.12640326332392959 0 -0.059582978439253753 -0.13673108280010349 0 -0.06681392121257887 -0.12640326332392959 0 -0.070958626711632042 -0.13907306516538229 0 -0.06681392121257887 -0.12640326332392959 0 -0.059582978439253753 -0.13673108280010349 0 -0.070958626711632042 -0.13907306516538229 0 -0.06681392121257887 -0.12640326332392959 0 -0.078856572781073567 -0.14755705449406251 0 -0.070958626711632042 -0.13907306516538229 0 -0.064563197772354392 -0.16098605858604451 0 -0.059582978439253753 -0.13673108280010349 0 -0.070958626711632042 -0.13907306516538229 0 -0.064563197772354392 -0.16098605858604451 0 -0.078856572781073567 -0.14755705449406251 0 -0.079480350638286013 -0.13866091082712029 0 -0.070958626711632042 -0.13907306516538229 0 -0.078856572781073567 -0.14755705449406251 0 -0.064563197772354392 -0.16098605858604451 0 -0.08006593442241039 -0.16895910723196039 0 -0.064563197772354392 -0.16098605858604451 0 -0.069543417105455071 -0.18524103437198569 0 -0.08006593442241039 -0.16895910723196039 0 -0.081275296063747227 -0.19036115996985839 0 -0.069543417105455071 -0.18524103437198569 0 -0.08006593442241039 -0.16895910723196039 0 -0.064563197772354392 -0.16098605858604451 0 -0.069543417105455071 -0.18524103437198569 0 -0.081275296063747227 -0.19036115996985839 0 -0.08006593442241039 -0.16895910723196039 0 -0.094951803925115333 -0.17684033320685821 0 -0.081275296063747227 -0.19036115996985839 0 -0.08006593442241039 -0.16895910723196039 0 -0.081275296063747227 -0.19036115996985839 0 -0.09312662380723738 -0.1894674209227292 0 -0.094951803925115333 -0.17684033320685821 0 -0.088198043600930004 -0.15776439276576071 0 -0.08006593442241039 -0.16895910723196039 0 -0.094951803925115333 -0.17684033320685821 0 -0.078856572781073567 -0.14755705449406251 0 -0.088198043600930004 -0.15776439276576071 0 -0.08006593442241039 -0.16895910723196039 0 -0.078856572781073567 -0.14755705449406251 0 -0.08006593442241039 -0.16895910723196039 0 -0.088198043600930004 -0.15776439276576071 0 -0.1019731644973874 -0.15906780212551139 0 -0.094951803925115333 -0.17684033320685821 0 -0.1019731644973874 -0.15906780212551139 0 -0.1153381205667638 -0.1812296037484748 0 -0.1019731644973874 -0.15906780212551139 0 -0.094951803925115333 -0.17684033320685821 0 -0.1153381205667638 -0.1812296037484748 0 -0.10274835218336879 -0.1905941955979735 0 -0.094951803925115333 -0.17684033320685821 0 -0.1153381205667638 -0.1812296037484748 0 -0.09312662380723738 -0.1894674209227292 0 -0.10274835218336879 -0.1905941955979735 0 -0.094951803925115333 -0.17684033320685821 0 -0.1019731644973874 -0.15906780212551139 0 -0.1153381205667638 -0.1812296037484748 0 -0.1197608403414477 -0.1590431075043415 0 -0.1153381205667638 -0.1812296037484748 0 -0.1197608403414477 -0.1590431075043415 0 -0.13381718573203649 -0.16752140988300379 0 -0.1197608403414477 -0.1590431075043415 0 -0.1119652278942003 -0.1417407538588811 0 -0.13060811480726961 -0.1487322537254582 0 -0.1019731644973874 -0.15906780212551139 0 -0.1197608403414477 -0.1590431075043415 0 -0.1119652278942003 -0.1417407538588811 0 -0.1119652278942003 -0.1417407538588811 0 -0.1277709132176251 -0.1319886983110099 0 -0.13060811480726961 -0.1487322537254582 0 -0.088608208428010968 -0.13690600050254809 0 -0.1019731644973874 -0.15906780212551139 0 -0.1119652278942003 -0.1417407538588811 0 -0.088608208428010968 -0.13690600050254809 0 -0.1019731644973874 -0.15906780212551139 0 -0.088608208428010968 -0.13690600050254809 0 -0.1119652278942003 -0.1417407538588811 0 -0.1027772718311543 -0.12941499187885949 0 -0.09550610472206314 -0.1172707871788625 0 -0.088608208428010968 -0.13690600050254809 0 -0.1027772718311543 -0.12941499187885949 0 -0.1150295462803429 -0.1217424259751462 0 -0.1119652278942003 -0.1417407538588811 0 -0.1277709132176251 -0.1319886983110099 0 -0.1150295462803429 -0.1217424259751462 0 -0.1119652278942003 -0.1417407538588811 0 -0.1027772718311543 -0.12941499187885949 0 -0.1277709132176251 -0.1319886983110099 0 -0.1392434229747162 -0.13354888206279741 0 -0.14200825413159679 -0.11417917593276659 0 -0.1277709132176251 -0.1319886983110099 0 -0.1392434229747162 -0.13354888206279741 0 -0.13060811480726961 -0.1487322537254582 0 -0.1392434229747162 -0.13354888206279741 0 -0.16066979563309411 -0.13302327092000241 0 -0.14200825413159679 -0.11417917593276659 0 -0.1392434229747162 -0.13354888206279741 0 -0.14764662458678049 -0.13920978454428609 0 -0.16066979563309411 -0.13302327092000241 0 -0.16276940016718261 -0.13135394393172359 0 -0.16066979563309411 -0.13302327092000241 0 -0.14200825413159679 -0.11417917593276659 0 -0.1392434229747162 -0.13354888206279741 0 -0.14764662458678049 -0.13920978454428609 0 -0.14150168792645959 -0.14487139594373361 0 -0.14764662458678049 -0.13920978454428609 0 -0.15449306214049291 -0.1405138654068378 0 -0.16066979563309411 -0.13302327092000241 0 -0.14956287573651811 -0.14684627422740501 0 -0.15053262447222929 -0.16046138308477759 0 -0.15629961175847551 -0.1518972974876574 0 -0.14956287573651811 -0.14684627422740501 0 -0.1581328857550135 -0.1457742156575573 0 -0.15629961175847551 -0.1518972974876574 0 -0.15449306214049291 -0.1405138654068378 0 -0.14956287573651811 -0.14684627422740501 0 -0.1581328857550135 -0.1457742156575573 0 -0.14764662458678049 -0.13920978454428609 0 -0.15449306214049291 -0.1405138654068378 0 -0.14956287573651811 -0.14684627422740501 0 -0.14764662458678049 -0.13920978454428609 0 -0.14956287573651811 -0.14684627422740501 0 -0.14150168792645959 -0.14487139594373361 0 -0.14956287573651811 -0.14684627422740501 0 -0.14135517134552911 -0.15375581150127551 0 -0.15053262447222929 -0.16046138308477759 0 -0.14956287573651811 -0.14684627422740501 0 -0.14150168792645959 -0.14487139594373361 0 -0.14135517134552911 -0.15375581150127551 0 -0.14150168792645959 -0.14487139594373361 0 -0.14135517134552911 -0.15375581150127551 0 -0.13060811480726961 -0.1487322537254582 0 -0.1392434229747162 -0.13354888206279741 0 -0.14150168792645959 -0.14487139594373361 0 -0.13060811480726961 -0.1487322537254582 0 -0.1197608403414477 -0.1590431075043415 0 -0.13060811480726961 -0.1487322537254582 0 -0.13381718573203649 -0.16752140988300379 0 -0.14135517134552911 -0.15375581150127551 0 -0.13060811480726961 -0.1487322537254582 0 -0.13381718573203649 -0.16752140988300379 0 -0.13381718573203649 -0.16752140988300379 0 -0.14712375446367079 -0.18376288470425389 0 -0.13122941123023149 -0.18766553709211761 0 -0.1153381205667638 -0.1812296037484748 0 -0.13381718573203649 -0.16752140988300379 0 -0.13122941123023149 -0.18766553709211761 0 -0.14712375446367079 -0.18376288470425389 0 -0.1630825901747969 -0.16510338765509169 0 -0.14712375446367079 -0.18376288470425389 0 -0.15053262447222929 -0.16046138308477759 0 -0.1630825901747969 -0.16510338765509169 0 -0.14135517134552911 -0.15375581150127551 0 -0.13381718573203649 -0.16752140988300379 0 -0.15053262447222929 -0.16046138308477759 0 -0.13381718573203649 -0.16752140988300379 0 -0.14712375446367079 -0.18376288470425389 0 -0.15053262447222929 -0.16046138308477759 0 -0.16367651846648859 -0.15647213946342581 0 -0.1630825901747969 -0.16510338765509169 0 -0.15053262447222929 -0.16046138308477759 0 -0.16367651846648859 -0.15647213946342581 0 -0.15629961175847551 -0.1518972974876574 0 -0.15053262447222929 -0.16046138308477759 0 -0.16367651846648859 -0.15647213946342581 0 -0.1630825901747969 -0.16510338765509169 0 -0.1630825901747969 -0.16510338765509169 0 -0.16129088755352139 -0.19114126163131731 0 -0.1630825901747969 -0.16510338765509169 0 -0.17725775669502949 -0.17915938251426849 0 -0.16129088755352139 -0.19114126163131731 0 -0.14712375446367079 -0.18376288470425389 0 -0.1630825901747969 -0.16510338765509169 0 -0.16129088755352139 -0.19114126163131731 0 -0.1630825901747969 -0.16510338765509169 0 -0.18175205357112539 -0.16402932186493829 0 -0.17985727457437239 -0.14548997852422399 0 -0.1630825901747969 -0.16510338765509169 0 -0.17725775669502949 -0.17915938251426849 0 -0.18175205357112539 -0.16402932186493829 0 -0.17725775669502949 -0.17915938251426849 0 -0.18175205357112539 -0.16402932186493829 0 -0.19561735705448041 -0.1713215631747543 0 -0.18175205357112539 -0.16402932186493829 0 -0.17985727457437239 -0.14548997852422399 0 -0.1914379570148344 -0.1550701593988057 0 -0.17985727457437239 -0.14548997852422399 0 -0.1914379570148344 -0.1550701593988057 0 -0.17985727457437239 -0.14548997852422399 0 -0.17853371006652469 -0.13151769492653631 0 -0.19229672016129801 -0.13094544642777101 0 -0.17985727457437239 -0.14548997852422399 0 -0.19229672016129801 -0.13094544642777101 0 -0.17853371006652469 -0.13151769492653631 0 -0.16276940016718261 -0.13135394393172359 0 -0.1792114453632461 -0.11828141082242689 0 -0.17985727457437239 -0.14548997852422399 0 -0.17853371006652469 -0.13151769492653631 0 -0.16276940016718261 -0.13135394393172359 0 -0.17853371006652469 -0.13151769492653631 0 -0.19229672016129801 -0.13094544642777101 0 -0.1792114453632461 -0.11828141082242689 0 -0.17985727457437239 -0.14548997852422399 0 -0.16276940016718261 -0.13135394393172359 0 -0.17985727457437239 -0.14548997852422399 0 -0.16276940016718261 -0.13135394393172359 0 -0.1618089342428837 -0.1395489787065223 0 -0.16276940016718261 -0.13135394393172359 0 -0.16066979563309411 -0.13302327092000241 0 -0.16276940016718261 -0.13135394393172359 0 -0.1618089342428837 -0.1395489787065223 0 -0.16066979563309411 -0.13302327092000241 0 -0.15449306214049291 -0.1405138654068378 0 -0.1618089342428837 -0.1395489787065223 0 -0.16066979563309411 -0.13302327092000241 0 -0.17985727457437239 -0.14548997852422399 0 -0.1621239148753971 -0.15074067286111101 0 -0.16450891577631391 -0.14509820525581071 0 -0.1630825901747969 -0.16510338765509169 0 -0.17985727457437239 -0.14548997852422399 0 -0.15449306214049291 -0.1405138654068378 0 -0.1618089342428837 -0.1395489787065223 0 -0.1581328857550135 -0.1457742156575573 0 -0.16367651846648859 -0.15647213946342581 0 -0.17985727457437239 -0.14548997852422399 0 -0.1621239148753971 -0.15074067286111101 0 -0.16367651846648859 -0.15647213946342581 0 -0.1630825901747969 -0.16510338765509169 0 -0.17985727457437239 -0.14548997852422399 0 -0.17985727457437239 -0.14548997852422399 0 -0.1618089342428837 -0.1395489787065223 0 -0.16450891577631391 -0.14509820525581071 0 -0.1618089342428837 -0.1395489787065223 0 -0.1581328857550135 -0.1457742156575573 0 -0.16450891577631391 -0.14509820525581071 0 -0.1581328857550135 -0.1457742156575573 0 -0.1621239148753971 -0.15074067286111101 0 -0.16450891577631391 -0.14509820525581071 0 -0.1581328857550135 -0.1457742156575573 0 -0.15629961175847551 -0.1518972974876574 0 -0.1621239148753971 -0.15074067286111101 0 -0.16367651846648859 -0.15647213946342581 0 -0.15629961175847551 -0.1518972974876574 0 -0.1621239148753971 -0.15074067286111101 0 -0.1442367616874598 -0.25770305990911868 0 -0.14236717382110289 -0.24205843142330161 0 -0.1577074823109649 -0.24321700958376799 0 -0.14236717382110289 -0.24205843142330161 0 -0.15379412474972301 -0.23207128626992379 0 -0.1577074823109649 -0.24321700958376799 0 -0.1298643864382503 -0.25385480936049493 0 -0.14236717382110289 -0.24205843142330161 0 -0.12759994776565231 -0.23772262632743249 0 -0.14236717382110289 -0.24205843142330161 0 -0.12759994776565231 -0.23772262632743249 0 -0.1345001038955726 -0.22657658253625559 0 -0.1152060830414235 -0.22108187880258259 0 -0.12759994776565231 -0.23772262632743249 0 -0.1345001038955726 -0.22657658253625559 0 -0.15379412474972301 -0.23207128626992379 0 -0.14552950999904821 -0.2163208181990276 0 -0.1594991849322431 -0.21717913560754271 0 -0.1345001038955726 -0.22657658253625559 0 -0.15379412474972301 -0.23207128626992379 0 -0.14552950999904821 -0.2163208181990276 0 -0.14236717382110289 -0.24205843142330161 0 -0.1345001038955726 -0.22657658253625559 0 -0.15379412474972301 -0.23207128626992379 0 -0.1345001038955726 -0.22657658253625559 0 -0.15379412474972301 -0.23207128626992379 0 -0.14868921766515611 -0.20335470482799861 0 -0.14552950999904821 -0.2163208181990276 0 -0.13116491875254641 -0.20242238175341759 0 -0.14868921766515611 -0.20335470482799861 0 -0.14552950999904821 -0.2163208181990276 0 -0.1594991849322431 -0.21717913560754271 0 -0.1152060830414235 -0.22108187880258259 0 -0.1345001038955726 -0.22657658253625559 0 -0.13116491875254641 -0.20242238175341759 0 -0.1345001038955726 -0.22657658253625559 0 -0.14552950999904821 -0.2163208181990276 0 -0.13116491875254641 -0.20242238175341759 0 -0.1152060830414235 -0.22108187880258259 0 -0.12870307663614031 -0.2033914053714381 0 -0.13116491875254641 -0.20242238175341759 0 -0.14712375446367079 -0.18376288470425389 0 -0.13116491875254641 -0.20242238175341759 0 -0.14712375446367079 -0.18376288470425389 0 -0.13122941123023149 -0.18766553709211761 0 -0.13116491875254641 -0.20242238175341759 0 -0.1153381205667638 -0.1812296037484748 0 -0.12870307663614031 -0.2033914053714381 0 -0.13122941123023149 -0.18766553709211761 0 -0.12870307663614031 -0.2033914053714381 0 -0.13122941123023149 -0.18766553709211761 0 -0.13116491875254641 -0.20242238175341759 0 -0.14712375446367079 -0.18376288470425389 0 -0.14868921766515611 -0.20335470482799861 0 -0.16129088755352139 -0.19114126163131731 0 -0.14712375446367079 -0.18376288470425389 0 -0.14868921766515611 -0.20335470482799861 0 -0.13116491875254641 -0.20242238175341759 0 -0.17725775669502949 -0.17915938251426849 0 -0.16129088755352139 -0.19114126163131731 0 -0.17570513754791101 -0.19372457485433789 0 -0.16129088755352139 -0.19114126163131731 0 -0.17570513754791101 -0.19372457485433789 0 -0.17202643326026859 -0.20386246550942791 0 -0.17725775669502949 -0.17915938251426849 0 -0.17570513754791101 -0.19372457485433789 0 -0.1922454726828243 -0.2007351897623379 0 -0.17570513754791101 -0.19372457485433789 0 -0.17202643326026859 -0.20386246550942791 0 -0.1922454726828243 -0.2007351897623379 0 -0.17202643326026859 -0.20386246550942791 0 -0.17674415983322789 -0.21655320901279321 0 -0.1922454726828243 -0.2007351897623379 0 -0.17674415983322789 -0.21655320901279321 0 -0.18887358831116821 -0.23014881634992149 0 -0.1922454726828243 -0.2007351897623379 0 -0.16129088755352139 -0.19114126163131731 0 -0.1594991849322431 -0.21717913560754271 0 -0.14868921766515611 -0.20335470482799861 0 -0.16129088755352139 -0.19114126163131731 0 -0.1594991849322431 -0.21717913560754271 0 -0.16129088755352139 -0.19114126163131731 0 -0.17202643326026859 -0.20386246550942791 0 -0.1594991849322431 -0.21717913560754271 0 -0.17202643326026859 -0.20386246550942791 0 -0.17674415983322789 -0.21655320901279321 0 -0.1594991849322431 -0.21717913560754271 0 -0.17674415983322789 -0.21655320901279321 0 -0.1594991849322431 -0.21717913560754271 0 -0.1710761199796354 -0.23084043783473579 0 -0.1594991849322431 -0.21717913560754271 0 -0.1710761199796354 -0.23084043783473579 0 -0.1577074823109649 -0.24321700958376799 0 -0.1594991849322431 -0.21717913560754271 0 -0.1577074823109649 -0.24321700958376799 0 -0.15379412474972301 -0.23207128626992379 0 -0.1594991849322431 -0.21717913560754271 0 -0.1577074823109649 -0.24321700958376799 0 -0.17674415983322789 -0.21655320901279321 0 -0.1710761199796354 -0.23084043783473579 0 -0.18887358831116821 -0.23014881634992149 0 -0.1710761199796354 -0.23084043783473579 0 -0.17659671807339011 -0.24537187428510521 0 -0.18887358831116821 -0.23014881634992149 0 -0.17659671807339011 -0.24537187428510521 0 -0.19488141057802469 -0.24805167948801479 0 -0.18887358831116821 -0.23014881634992149 0 -0.1710761199796354 -0.23084043783473579 0 -0.17659671807339011 -0.24537187428510521 0 -0.1577074823109649 -0.24321700958376799 0 -0.16542516462752349 -0.25635557756913258 0 -0.17659671807339011 -0.24537187428510521 0 -0.1577074823109649 -0.24321700958376799 0 -0.205664598069071 -0.23779467667816259 0 -0.20964649182153711 -0.24952010593262849 0 -0.22012117889351029 -0.2400435588235918 0 -0.205664598069071 -0.23779467667816259 0 -0.20964649182153711 -0.24952010593262849 0 -0.19488141057802469 -0.24805167948801479 0 -0.205664598069071 -0.23779467667816259 0 -0.19488141057802469 -0.24805167948801479 0 -0.18887358831116821 -0.23014881634992149 0 -0.205664598069071 -0.23779467667816259 0 -0.18887358831116821 -0.23014881634992149 0 -0.20876536439284091 -0.22267576192387059 0 -0.205664598069071 -0.23779467667816259 0 -0.20876536439284091 -0.22267576192387059 0 -0.22012117889351029 -0.2400435588235918 0 -0.20876536439284091 -0.22267576192387059 0 -0.21805132790657941 -0.204157678948304 0 -0.1922454726828243 -0.2007351897623379 0 -0.20876536439284091 -0.22267576192387059 0 -0.21805132790657941 -0.204157678948304 0 -0.22763602049389201 -0.22317465098090589 0 -0.18887358831116821 -0.23014881634992149 0 -0.20876536439284091 -0.22267576192387059 0 -0.1922454726828243 -0.2007351897623379 0 -0.18887358831116821 -0.23014881634992149 0 -0.1922454726828243 -0.2007351897623379 0 -0.21805132790657941 -0.204157678948304 0 -0.2087668629824308 -0.18641930324715311 0 -0.22878305162887569 -0.1859682450326669 0 -0.21805132790657941 -0.204157678948304 0 -0.1922454726828243 -0.2007351897623379 0 -0.2087668629824308 -0.18641930324715311 0 -0.21805132790657941 -0.204157678948304 0 -0.2436799567302437 -0.20799839925541519 0 -0.22878305162887569 -0.1859682450326669 0 -0.2436799567302437 -0.20799839925541519 0 -0.22878305162887569 -0.1859682450326669 0 -0.2444562172080032 -0.19255798064419799 0 -0.2436799567302437 -0.20799839925541519 0 -0.22878305162887569 -0.1859682450326669 0 -0.2444562172080032 -0.19255798064419799 0 -0.2436799567302437 -0.20799839925541519 0 -0.25843591323808313 -0.19859255576957191 0 -0.21805132790657941 -0.204157678948304 0 -0.2436799567302437 -0.20799839925541519 0 -0.22763602049389201 -0.22317465098090589 0 -0.22763602049389201 -0.22317465098090589 0 -0.23685469227879691 -0.2370723156309599 0 -0.22012117889351029 -0.2400435588235918 0 -0.20876536439284091 -0.22267576192387059 0 -0.22763602049389201 -0.22317465098090589 0 -0.22012117889351029 -0.2400435588235918 0 -0.22763602049389201 -0.22317465098090589 0 -0.23862002467726631 -0.2267878153062716 0 -0.23685469227879691 -0.2370723156309599 0 -0.2436799567302437 -0.20799839925541519 0 -0.24901269716281221 -0.22584988992876209 0 -0.23862002467726631 -0.2267878153062716 0 -0.2436799567302437 -0.20799839925541519 0 -0.22763602049389201 -0.22317465098090589 0 -0.23862002467726631 -0.2267878153062716 0 -0.24901269716281221 -0.22584988992876209 0 -0.23862002467726631 -0.2267878153062716 0 -0.23685469227879691 -0.2370723156309599 0 -0.23907402377079429 -0.25352901113119691 0 -0.23685469227879691 -0.2370723156309599 0 -0.22930264905426681 -0.24807207366278219 0 -0.24901269716281221 -0.22584988992876209 0 -0.23685469227879691 -0.2370723156309599 0 -0.25217385243102691 -0.24332397570100661 0 -0.23907402377079429 -0.25352901113119691 0 -0.23685469227879691 -0.2370723156309599 0 -0.25217385243102691 -0.24332397570100661 0 -0.22116070127396589 -0.26164340906538019 0 -0.22930264905426681 -0.24807207366278219 0 -0.22012117889351029 -0.2400435588235918 0 -0.23685469227879691 -0.2370723156309599 0 -0.22930264905426681 -0.24807207366278219 0 -0.22012117889351029 -0.2400435588235918 0 -0.21452136309678921 -0.1448194233918626 0 -0.1989892414261385 -0.1419079365871711 0 -0.21388614652750779 -0.16393809080991861 0 -0.1989892414261385 -0.1419079365871711 0 -0.21388614652750779 -0.16393809080991861 0 -0.21452136309678921 -0.1448194233918626 0 -0.21388614652750779 -0.16393809080991861 0 -0.22550739124081309 -0.15659643054905989 0 -0.21452136309678921 -0.1448194233918626 0 -0.2152397441970671 -0.12934384493006509 0 -0.20692618774383001 -0.13475201147557109 0 -0.21452136309678921 -0.1448194233918626 0 -0.2152397441970671 -0.12934384493006509 0 -0.2257759102080561 -0.14226032973951661 0 -0.2152397441970671 -0.12934384493006509 0 -0.20692618774383001 -0.13475201147557109 0 -0.20114577313028689 -0.1230960761321193 0 -0.21452136309678921 -0.1448194233918626 0 -0.20692618774383001 -0.13475201147557109 0 -0.1989892414261385 -0.1419079365871711 0 -0.20692618774383001 -0.13475201147557109 0 -0.1989892414261385 -0.1419079365871711 0 -0.20114577313028689 -0.1230960761321193 0 -0.1989892414261385 -0.1419079365871711 0 -0.20114577313028689 -0.1230960761321193 0 -0.194387957864772 -0.13510336974662421 0 -0.1989892414261385 -0.1419079365871711 0 -0.20114577313028689 -0.1230960761321193 0 -0.194387957864772 -0.13510336974662421 0 -0.1989892414261385 -0.1419079365871711 0 -0.19229672016129801 -0.13094544642777101 0 -0.194387957864772 -0.13510336974662421 0 -0.20114577313028689 -0.1230960761321193 0 -0.19229672016129801 -0.13094544642777101 0 -0.194387957864772 -0.13510336974662421 0 -0.1913938302082831 -0.14170337813691919 0 -0.17985727457437239 -0.14548997852422399 0 -0.19229672016129801 -0.13094544642777101 0 -0.1913938302082831 -0.14170337813691919 0 -0.194387957864772 -0.13510336974662421 0 -0.1913938302082831 -0.14170337813691919 0 -0.1989892414261385 -0.1419079365871711 0 -0.17985727457437239 -0.14548997852422399 0 -0.1913938302082831 -0.14170337813691919 0 -0.1914379570148344 -0.1550701593988057 0 -0.1989892414261385 -0.1419079365871711 0 -0.1914379570148344 -0.1550701593988057 0 -0.19561735705448041 -0.1713215631747543 0 -0.1913938302082831 -0.14170337813691919 0 -0.1989892414261385 -0.1419079365871711 0 -0.1914379570148344 -0.1550701593988057 0 -0.18175205357112539 -0.16402932186493829 0 -0.1914379570148344 -0.1550701593988057 0 -0.19561735705448041 -0.1713215631747543 0 -0.1989892414261385 -0.1419079365871711 0 -0.19561735705448041 -0.1713215631747543 0 -0.1989892414261385 -0.1419079365871711 0 -0.19561735705448041 -0.1713215631747543 0 -0.21388614652750779 -0.16393809080991861 0 -0.1922454726828243 -0.2007351897623379 0 -0.19561735705448041 -0.1713215631747543 0 -0.17725775669502949 -0.17915938251426849 0 -0.1922454726828243 -0.2007351897623379 0 -0.19561735705448041 -0.1713215631747543 0 -0.1922454726828243 -0.2007351897623379 0 -0.19561735705448041 -0.1713215631747543 0 -0.2087668629824308 -0.18641930324715311 0 -0.2087668629824308 -0.18641930324715311 0 -0.21388614652750779 -0.16393809080991861 0 -0.22878305162887569 -0.1859682450326669 0 -0.19561735705448041 -0.1713215631747543 0 -0.2087668629824308 -0.18641930324715311 0 -0.21388614652750779 -0.16393809080991861 0 -0.21388614652750779 -0.16393809080991861 0 -0.22550739124081309 -0.15659643054905989 0 -0.23307345651087591 -0.17169815656450321 0 -0.22550739124081309 -0.15659643054905989 0 -0.23307345651087591 -0.17169815656450321 0 -0.2403126674229922 -0.16023970645019731 0 -0.21388614652750779 -0.16393809080991861 0 -0.22878305162887569 -0.1859682450326669 0 -0.21388614652750779 -0.16393809080991861 0 -0.23307345651087591 -0.17169815656450321 0 -0.22878305162887569 -0.1859682450326669 0 -0.23307345651087591 -0.17169815656450321 0 -0.22878305162887569 -0.1859682450326669 0 -0.23944247087763251 -0.1833817579140975 0 -0.23307345651087591 -0.17169815656450321 0 -0.23944247087763251 -0.1833817579140975 0 -0.24937429033053729 -0.1794161311098848 0 -0.2444562172080032 -0.19255798064419799 0 -0.22878305162887569 -0.1859682450326669 0 -0.23944247087763251 -0.1833817579140975 0 -0.24937429033053729 -0.1794161311098848 0 -0.2403126674229922 -0.16023970645019731 0 -0.25847959544788829 -0.18262572372651459 0 -0.2444562172080032 -0.19255798064419799 0 -0.23944247087763251 -0.1833817579140975 0 -0.24937429033053729 -0.1794161311098848 0 -0.2403126674229922 -0.16023970645019731 0 -0.24405810290454921 -0.1456016429592133 0 -0.25780483416841699 -0.16345312024383929 0 -0.2403126674229922 -0.16023970645019731 0 -0.25847959544788829 -0.18262572372651459 0 -0.23307345651087591 -0.17169815656450321 0 -0.24937429033053729 -0.1794161311098848 0 -0.2403126674229922 -0.16023970645019731 0 -0.24937429033053729 -0.1794161311098848 0 -0.2403126674229922 -0.16023970645019731 0 -0.2403126674229922 -0.16023970645019731 0 -0.22895777308177609 -0.13621020554570709 0 -0.2403126674229922 -0.16023970645019731 0 -0.24405810290454921 -0.1456016429592133 0 -0.22895777308177609 -0.13621020554570709 0 -0.22550739124081309 -0.15659643054905989 0 -0.2403126674229922 -0.16023970645019731 0 -0.2257759102080561 -0.14226032973951661 0 -0.2403126674229922 -0.16023970645019731 0 -0.2257759102080561 -0.14226032973951661 0 -0.2403126674229922 -0.16023970645019731 0 -0.2257759102080561 -0.14226032973951661 0 -0.22895777308177609 -0.13621020554570709 0 -0.21452136309678921 -0.1448194233918626 0 -0.22550739124081309 -0.15659643054905989 0 -0.2257759102080561 -0.14226032973951661 0 -0.21655027228172299 -0.12781736871256821 0 -0.22895777308177609 -0.13621020554570709 0 -0.2176028787405615 -0.1121807046412161 0 -0.22895777308177609 -0.13621020554570709 0 -0.23693937286337449 -0.1267619623991792 0 -0.2176028787405615 -0.1121807046412161 0 -0.21655027228172299 -0.12781736871256821 0 -0.2257759102080561 -0.14226032973951661 0 -0.21655027228172299 -0.12781736871256821 0 -0.2257759102080561 -0.14226032973951661 0 -0.22895777308177609 -0.13621020554570709 0 -0.2152397441970671 -0.12934384493006509 0 -0.2257759102080561 -0.14226032973951661 0 -0.2152397441970671 -0.12934384493006509 0 -0.21655027228172299 -0.12781736871256821 0 -0.2257759102080561 -0.14226032973951661 0 -0.23693937286337449 -0.1267619623991792 0 -0.25627586698618687 -0.14134322015714329 0 -0.24405810290454921 -0.1456016429592133 0 -0.22895777308177609 -0.13621020554570709 0 -0.23693937286337449 -0.1267619623991792 0 -0.23693937286337449 -0.1267619623991792 0 -0.25151550799412831 -0.12459638277672851 0 -0.25627586698618687 -0.14134322015714329 0 -0.24405810290454921 -0.1456016429592133 0 -0.23693937286337449 -0.1267619623991792 0 -0.25627586698618687 -0.14134322015714329 0 -0.23693937286337449 -0.1267619623991792 0 -0.2439067314911941 -0.1169419102230787 0 -0.25151550799412831 -0.12459638277672851 0 -0.2439067314911941 -0.1169419102230787 0 -0.25151550799412831 -0.12459638277672851 0 -0.25331740349288923 -0.1111972380002446 0 -0.23693937286337449 -0.1267619623991792 0 -0.2439067314911941 -0.1169419102230787 0 -0.23356499855906801 -0.111800668366017 0 -0.2439067314911941 -0.1169419102230787 0 -0.2427491849825146 -0.1072669056570493 0 -0.23356499855906801 -0.111800668366017 0 -0.2439067314911941 -0.1169419102230787 0 -0.2427491849825146 -0.1072669056570493 0 -0.25331740349288923 -0.1111972380002446 0 -0.2427491849825146 -0.1072669056570493 0 -0.2480226747362333 -0.095484894819556659 0 -0.25331740349288923 -0.1111972380002446 0 -0.2427491849825146 -0.1072669056570493 0 -0.2480226747362333 -0.095484894819556659 0 -0.23392691964065049 -0.1013279942836177 0 -0.2480226747362333 -0.095484894819556659 0 -0.23392691964065049 -0.1013279942836177 0 -0.23388235090032691 -0.089307217586544696 0 -0.2427491849825146 -0.1072669056570493 0 -0.23392691964065049 -0.1013279942836177 0 -0.23356499855906801 -0.111800668366017 0 -0.23392691964065049 -0.1013279942836177 0 -0.22528950960598151 -0.10488588038569061 0 -0.23356499855906801 -0.111800668366017 0 -0.23392691964065049 -0.1013279942836177 0 -0.2209902200991683 -0.095231874868985475 0 -0.22528950960598151 -0.10488588038569061 0 -0.23392691964065049 -0.1013279942836177 0 -0.2209902200991683 -0.095231874868985475 0 -0.23388235090032691 -0.089307217586544696 0 -0.2209902200991683 -0.095231874868985475 0 -0.22528950960598151 -0.10488588038569061 0 -0.2194782511816297 -0.1019507434247839 0 -0.22528950960598151 -0.10488588038569061 0 -0.2194782511816297 -0.1019507434247839 0 -0.2176028787405615 -0.1121807046412161 0 -0.23693937286337449 -0.1267619623991792 0 -0.23356499855906801 -0.111800668366017 0 -0.2176028787405615 -0.1121807046412161 0 -0.23693937286337449 -0.1267619623991792 0 -0.2176028787405615 -0.1121807046412161 0 -0.22528950960598151 -0.10488588038569061 0 -0.23356499855906801 -0.111800668366017 0 -0.2176028787405615 -0.1121807046412161 0 -0.22895777308177609 -0.13621020554570709 0 -0.2176028787405615 -0.1121807046412161 0 -0.24429087302217839 -0.081351402293697431 0 -0.2335812562598566 -0.078054404423050727 0 -0.2463991354039248 -0.054245067532845387 0 -0.2335812562598566 -0.078054404423050727 0 -0.22585368735607289 -0.070203780036278682 0 -0.2463991354039248 -0.054245067532845387 0 -0.24429087302217839 -0.081351402293697431 0 -0.23388235090032691 -0.089307217586544696 0 -0.2335812562598566 -0.078054404423050727 0 -0.2480226747362333 -0.095484894819556659 0 -0.24429087302217839 -0.081351402293697431 0 -0.23388235090032691 -0.089307217586544696 0 -0.2209902200991683 -0.095231874868985475 0 -0.23388235090032691 -0.089307217586544696 0 -0.22286086599177701 -0.083577182147476586 0 -0.23388235090032691 -0.089307217586544696 0 -0.22286086599177701 -0.083577182147476586 0 -0.2335812562598566 -0.078054404423050727 0 -0.22286086599177701 -0.083577182147476586 0 -0.2335812562598566 -0.078054404423050727 0 -0.22585368735607289 -0.070203780036278682 0 -0.22585368735607289 -0.070203780036278682 0 -0.21754098321818141 -0.062641895168441319 0 -0.2241982264164796 -0.05499779522922324 0 -0.22585368735607289 -0.070203780036278682 0 -0.21085012036003059 -0.069144692218533227 0 -0.20530823930822051 -0.086162492539711186 0 -0.21085012036003059 -0.069144692218533227 0 -0.20530823930822051 -0.086162492539711186 0 -0.19784493257702601 -0.070368463070264703 0 -0.21085012036003059 -0.069144692218533227 0 -0.19784493257702601 -0.070368463070264703 0 -0.20926189874014281 -0.056221313189730102 0 -0.22585368735607289 -0.070203780036278682 0 -0.21085012036003059 -0.069144692218533227 0 -0.21754098321818141 -0.062641895168441319 0 -0.21085012036003059 -0.069144692218533227 0 -0.21754098321818141 -0.062641895168441319 0 -0.20926189874014281 -0.056221313189730102 0 -0.22286086599177701 -0.083577182147476586 0 -0.22585368735607289 -0.070203780036278682 0 -0.20530823930822051 -0.086162492539711186 0 -0.22585368735607289 -0.070203780036278682 0 -0.20530823930822051 -0.086162492539711186 0 -0.22286086599177701 -0.083577182147476586 0 -0.20530823930822051 -0.086162492539711186 0 -0.2092137946530393 -0.09442752283157177 0 -0.22286086599177701 -0.083577182147476586 0 -0.2092137946530393 -0.09442752283157177 0 -0.2209902200991683 -0.095231874868985475 0 -0.22286086599177701 -0.083577182147476586 0 -0.2092137946530393 -0.09442752283157177 0 -0.20530823930822051 -0.086162492539711186 0 -0.200887804087866 -0.089596073285062167 0 -0.2032625704704735 -0.09438365846545485 0 -0.20530823930822051 -0.086162492539711186 0 -0.2092137946530393 -0.09442752283157177 0 -0.2032625704704735 -0.09438365846545485 0 -0.20530823930822051 -0.086162492539711186 0 -0.2092137946530393 -0.09442752283157177 0 -0.1963019252708241 -0.096118087961067494 0 -0.18463317888935879 -0.077850381102573335 0 -0.19699521602665901 -0.084019099591735882 0 -0.1963019252708241 -0.096118087961067494 0 -0.18463317888935879 -0.077850381102573335 0 -0.20530823930822051 -0.086162492539711186 0 -0.19784493257702601 -0.070368463070264703 0 -0.20530823930822051 -0.086162492539711186 0 -0.19699521602665901 -0.084019099591735882 0 -0.19784493257702601 -0.070368463070264703 0 -0.200887804087866 -0.089596073285062167 0 -0.19699521602665901 -0.084019099591735882 0 -0.1963019252708241 -0.096118087961067494 0 -0.20530823930822051 -0.086162492539711186 0 -0.200887804087866 -0.089596073285062167 0 -0.19699521602665901 -0.084019099591735882 0 -0.200887804087866 -0.089596073285062167 0 -0.2032625704704735 -0.09438365846545485 0 -0.1963019252708241 -0.096118087961067494 0 -0.20530823930822051 -0.086162492539711186 0 -0.200887804087866 -0.089596073285062167 0 -0.19784493257702601 -0.070368463070264703 0 -0.186499578884223 -0.065223657546711208 0 -0.19055577156261419 -0.053093111769927252 0 -0.19784493257702601 -0.070368463070264703 0 -0.186499578884223 -0.065223657546711208 0 -0.18463317888935879 -0.077850381102573335 0 -0.19699521602665901 -0.084019099591735882 0 -0.19784493257702601 -0.070368463070264703 0 -0.18463317888935879 -0.077850381102573335 0 -0.21655027228172299 -0.12781736871256821 0 -0.20732463435539281 -0.113374407685618 0 -0.2176028787405615 -0.1121807046412161 0 -0.20732463435539281 -0.113374407685618 0 -0.21197512500995941 -0.10793692977577619 0 -0.20732463435539281 -0.113374407685618 0 -0.20473616574822509 -0.1164009143313192 0 -0.2152397441970671 -0.12934384493006509 0 -0.20473616574822509 -0.1164009143313192 0 -0.20114577313028689 -0.1230960761321193 0 -0.21655027228172299 -0.12781736871256821 0 -0.20732463435539281 -0.113374407685618 0 -0.20473616574822509 -0.1164009143313192 0 -0.2152397441970671 -0.12934384493006509 0 -0.20473616574822509 -0.1164009143313192 0 -0.21655027228172299 -0.12781736871256821 0 -0.20732463435539281 -0.113374407685618 0 -0.2152397441970671 -0.12934384493006509 0 -0.21655027228172299 -0.12781736871256821 0 -0.20473616574822509 -0.1164009143313192 0 -0.20732463435539281 -0.113374407685618 0 -0.2176028787405615 -0.1121807046412161 0 -0.21197512500995941 -0.10793692977577619 0 -0.2176028787405615 -0.1121807046412161 0 -0.21197512500995941 -0.10793692977577619 0 -0.2176028787405615 -0.1121807046412161 0 -0.2143083856782701 -0.1052088190699963 0 -0.2194782511816297 -0.1019507434247839 0 -0.2176028787405615 -0.1121807046412161 0 -0.2143083856782701 -0.1052088190699963 0 -0.2194782511816297 -0.1019507434247839 0 -0.2143083856782701 -0.1052088190699963 0 -0.21528600074824211 -0.099330840413248939 0 -0.2143083856782701 -0.1052088190699963 0 -0.21197512500995941 -0.10793692977577619 0 -0.20882738736475751 -0.1014650728228892 0 -0.2176028787405615 -0.1121807046412161 0 -0.2143083856782701 -0.1052088190699963 0 -0.21197512500995941 -0.10793692977577619 0 -0.2143083856782701 -0.1052088190699963 0 -0.21197512500995941 -0.10793692977577619 0 -0.2209902200991683 -0.095231874868985475 0 -0.21528600074824211 -0.099330840413248939 0 -0.2092137946530393 -0.09442752283157177 0 -0.2143083856782701 -0.1052088190699963 0 -0.21528600074824211 -0.099330840413248939 0 -0.2092137946530393 -0.09442752283157177 0 -0.2143083856782701 -0.1052088190699963 0 -0.2092137946530393 -0.09442752283157177 0 -0.2209902200991683 -0.095231874868985475 0 -0.2194782511816297 -0.1019507434247839 0 -0.21528600074824211 -0.099330840413248939 0 -0.2143083856782701 -0.1052088190699963 0 -0.2092137946530393 -0.09442752283157177 0 -0.20882738736475751 -0.1014650728228892 0 -0.2092137946530393 -0.09442752283157177 0 -0.20882738736475751 -0.1014650728228892 0 -0.20183738463007381 -0.1002922655143155 0 -0.2092137946530393 -0.09442752283157177 0 -0.20183738463007381 -0.1002922655143155 0 -0.2092137946530393 -0.09442752283157177 0 -0.2032625704704735 -0.09438365846545485 0 -0.20183738463007381 -0.1002922655143155 0 -0.20732463435539281 -0.113374407685618 0 -0.19993459095052671 -0.10180511462033701 0 -0.21197512500995941 -0.10793692977577619 0 -0.20882738736475751 -0.1014650728228892 0 -0.20183738463007381 -0.1002922655143155 0 -0.21197512500995941 -0.10793692977577619 0 -0.20183738463007381 -0.1002922655143155 0 -0.21197512500995941 -0.10793692977577619 0 -0.19993459095052671 -0.10180511462033701 0 -0.20183738463007381 -0.1002922655143155 0 -0.20732463435539281 -0.113374407685618 0 -0.21197512500995941 -0.10793692977577619 0 -0.19993459095052671 -0.10180511462033701 0 -0.20732463435539281 -0.113374407685618 0 -0.19993459095052671 -0.10180511462033701 0 -0.19565349055930989 -0.1052088777131307 0 -0.19993459095052671 -0.10180511462033701 0 -0.19565349055930989 -0.1052088777131307 0 -0.19993459095052671 -0.10180511462033701 0 -0.19565349055930989 -0.1052088777131307 0 -0.1963019252708241 -0.096118087961067494 0 -0.2032625704704735 -0.09438365846545485 0 -0.20183738463007381 -0.1002922655143155 0 -0.1963019252708241 -0.096118087961067494 0 -0.19993459095052671 -0.10180511462033701 0 -0.20183738463007381 -0.1002922655143155 0 -0.1963019252708241 -0.096118087961067494 0 -0.19993459095052671 -0.10180511462033701 0 -0.20183738463007381 -0.1002922655143155 0 -0.20183738463007381 -0.1002922655143155 0 -0.1963019252708241 -0.096118087961067494 0 -0.19993459095052671 -0.10180511462033701 0 -0.1963019252708241 -0.096118087961067494 0 -0.19565349055930989 -0.1052088777131307 0 -0.18563618130172271 -0.092865147513111063 0 -0.19565349055930989 -0.1052088777131307 0 -0.1963019252708241 -0.096118087961067494 0 -0.18563618130172271 -0.092865147513111063 0 -0.19565349055930989 -0.1052088777131307 0 -0.19297445545801939 -0.1177091623236617 0 -0.1792114453632461 -0.11828141082242689 0 -0.20732463435539281 -0.113374407685618 0 -0.20473616574822509 -0.1164009143313192 0 -0.19565349055930989 -0.1052088777131307 0 -0.20473616574822509 -0.1164009143313192 0 -0.19565349055930989 -0.1052088777131307 0 -0.19297445545801939 -0.1177091623236617 0 -0.20473616574822509 -0.1164009143313192 0 -0.19565349055930989 -0.1052088777131307 0 -0.19229672016129801 -0.13094544642777101 0 -0.20473616574822509 -0.1164009143313192 0 -0.20114577313028689 -0.1230960761321193 0 -0.19229672016129801 -0.13094544642777101 0 -0.20473616574822509 -0.1164009143313192 0 -0.19297445545801939 -0.1177091623236617 0 -0.19229672016129801 -0.13094544642777101 0 -0.20473616574822509 -0.1164009143313192 0 -0.19229672016129801 -0.13094544642777101 0 -0.19297445545801939 -0.1177091623236617 0 -0.1792114453632461 -0.11828141082242689 0 -0.19565349055930989 -0.1052088777131307 0 -0.1792114453632461 -0.11828141082242689 0 -0.1792114453632461 -0.11828141082242689 0 -0.16394203573489691 -0.11492410814500351 0 -0.1758763692545379 -0.10391821293081629 0 -0.16276940016718261 -0.13135394393172359 0 -0.1792114453632461 -0.11828141082242689 0 -0.16276940016718261 -0.13135394393172359 0 -0.1792114453632461 -0.11828141082242689 0 -0.16394203573489691 -0.11492410814500351 0 -0.16394203573489691 -0.11492410814500351 0 -0.1616199497943264 -0.100152752733317 0 -0.1758763692545379 -0.10391821293081629 0 -0.1616199497943264 -0.100152752733317 0 -0.1758763692545379 -0.10391821293081629 0 -0.1701425994894023 -0.091423256590710641 0 -0.19565349055930989 -0.1052088777131307 0 -0.1758763692545379 -0.10391821293081629 0 -0.18563618130172271 -0.092865147513111063 0 -0.19565349055930989 -0.1052088777131307 0 -0.1792114453632461 -0.11828141082242689 0 -0.1758763692545379 -0.10391821293081629 0 -0.1758763692545379 -0.10391821293081629 0 -0.18563618130172271 -0.092865147513111063 0 -0.1701425994894023 -0.091423256590710641 0 -0.1963019252708241 -0.096118087961067494 0 -0.17561887204413659 -0.080521417313090732 0 -0.18463317888935879 -0.077850381102573335 0 -0.18563618130172271 -0.092865147513111063 0 -0.17561887204413659 -0.080521417313090732 0 -0.1963019252708241 -0.096118087961067494 0 -0.17561887204413659 -0.080521417313090732 0 -0.1963019252708241 -0.096118087961067494 0 -0.18563618130172271 -0.092865147513111063 0 -0.17561887204413659 -0.080521417313090732 0 -0.18563618130172271 -0.092865147513111063 0 -0.17561887204413659 -0.080521417313090732 0 -0.1701425994894023 -0.091423256590710641 0 -0.17561887204413659 -0.080521417313090732 0 -0.18463317888935879 -0.077850381102573335 0 -0.1729644325078929 -0.05958267424407955 0 -0.186499578884223 -0.065223657546711208 0 -0.18463317888935879 -0.077850381102573335 0 -0.1729644325078929 -0.05958267424407955 0 -0.18463317888935879 -0.077850381102573335 0 -0.1729644325078929 -0.05958267424407955 0 -0.17561887204413659 -0.080521417313090732 0 -0.16237772949514401 -0.064205150443217035 0 -0.17561887204413659 -0.080521417313090732 0 -0.1633894747677766 -0.071299477038988146 0 -0.16237772949514401 -0.064205150443217035 0 -0.17561887204413659 -0.080521417313090732 0 -0.16237772949514401 -0.064205150443217035 0 -0.1729644325078929 -0.05958267424407955 0 -0.17561887204413659 -0.080521417313090732 0 -0.1633894747677766 -0.071299477038988146 0 -0.17561887204413659 -0.080521417313090732 0 -0.1633894747677766 -0.071299477038988146 0 -0.1652164690096565 -0.081321458482485731 0 -0.15826493609601519 -0.076275922172672428 0 -0.1633894747677766 -0.071299477038988146 0 -0.1652164690096565 -0.081321458482485731 0 -0.1633894747677766 -0.071299477038988146 0 -0.1511600774914181 -0.062077536764883527 0 -0.15826493609601519 -0.076275922172672428 0 -0.1633894747677766 -0.071299477038988146 0 -0.1511600774914181 -0.062077536764883527 0 -0.1633894747677766 -0.071299477038988146 0 -0.16237772949514401 -0.064205150443217035 0 -0.1511600774914181 -0.062077536764883527 0 -0.1701425994894023 -0.091423256590710641 0 -0.1652164690096565 -0.081321458482485731 0 -0.1601123893826456 -0.087601536093022195 0 -0.17561887204413659 -0.080521417313090732 0 -0.1701425994894023 -0.091423256590710641 0 -0.1652164690096565 -0.081321458482485731 0 -0.15826493609601519 -0.076275922172672428 0 -0.1652164690096565 -0.081321458482485731 0 -0.1601123893826456 -0.087601536093022195 0 -0.1616199497943264 -0.100152752733317 0 -0.1601123893826456 -0.087601536093022195 0 -0.14820984598721321 -0.089862924078038406 0 -0.1616199497943264 -0.100152752733317 0 -0.1701425994894023 -0.091423256590710641 0 -0.1601123893826456 -0.087601536093022195 0 -0.14820984598721321 -0.089862924078038406 0 -0.1463002500142199 -0.074035604109631448 0 -0.13377871334743241 -0.077936100334677433 0 -0.15826493609601519 -0.076275922172672428 0 -0.14820984598721321 -0.089862924078038406 0 -0.1463002500142199 -0.074035604109631448 0 -0.15826493609601519 -0.076275922172672428 0 -0.1601123893826456 -0.087601536093022195 0 -0.14820984598721321 -0.089862924078038406 0 -0.15826493609601519 -0.076275922172672428 0 -0.1511600774914181 -0.062077536764883527 0 -0.15826493609601519 -0.076275922172672428 0 -0.1463002500142199 -0.074035604109631448 0 -0.1511600774914181 -0.062077536764883527 0 -0.1463002500142199 -0.074035604109631448 0 -0.14001317585919629 -0.064623484526778421 0 -0.1511600774914181 -0.062077536764883527 0 -0.14001317585919629 -0.064623484526778421 0 -0.13377871334743241 -0.077936100334677433 0 -0.12885258059726659 -0.064719484041567951 0 -0.1463002500142199 -0.074035604109631448 0 -0.14001317585919629 -0.064623484526778421 0 -0.13377871334743241 -0.077936100334677433 0 -0.1183536417828548 -0.078020180016959456 0 -0.13377871334743241 -0.077936100334677433 0 -0.12885258059726659 -0.064719484041567951 0 -0.1212471080960127 -0.097004407933807407 0 -0.14820984598721321 -0.089862924078038406 0 -0.13377871334743241 -0.077936100334677433 0 -0.1212471080960127 -0.097004407933807407 0 -0.14200825413159679 -0.11417917593276659 0 -0.1212471080960127 -0.097004407933807407 0 -0.14820984598721321 -0.089862924078038406 0 -0.14200825413159679 -0.11417917593276659 0 -0.1150295462803429 -0.1217424259751462 0 -0.1277709132176251 -0.1319886983110099 0 -0.14200825413159679 -0.11417917593276659 0 -0.1150295462803429 -0.1217424259751462 0 -0.1212471080960127 -0.097004407933807407 0 -0.14200825413159679 -0.11417917593276659 0 -0.16276940016718261 -0.13135394393172359 0 -0.14200825413159679 -0.11417917593276659 0 -0.16394203573489691 -0.11492410814500351 0 -0.1616199497943264 -0.100152752733317 0 -0.14200825413159679 -0.11417917593276659 0 -0.16276940016718261 -0.13135394393172359 0 -0.16394203573489691 -0.11492410814500351 0 -0.14200825413159679 -0.11417917593276659 0 -0.1616199497943264 -0.100152752733317 0 -0.14820984598721321 -0.089862924078038406 0 -0.14200825413159679 -0.11417917593276659 0 -0.15251229991028711 -0.0078691942855123181 0 -0.1358954443971564 -0.031572616703471758 0 -0.15251229991028711 -0.0078691942855123181 0 -0.1371060560418903 -0.01001551412788081 0 -0.1358954443971564 -0.031572616703471758 0 -0.15251229991028711 -0.0078691942855123181 0 -0.14922781487779679 -0.03145498215623202 0 -0.160308924112954 -0.028199633990935578 0 -0.15251229991028711 -0.0078691942855123181 0 -0.1358954443971564 -0.031572616703471758 0 -0.14922781487779679 -0.03145498215623202 0 -0.15251229991028711 -0.0078691942855123181 0 -0.1371060560418903 -0.01001551412788081 0 -0.14089948435513211 0.0045028521199517741 0 -0.1222840736381321 -0.0043715844633764982 0 -0.1371060560418903 -0.01001551412788081 0 -0.14089948435513211 0.0045028521199517741 0 -0.1222840736381321 -0.0043715844633764982 0 -0.1371060560418903 -0.01001551412788081 0 -0.1358954443971564 -0.031572616703471758 0 -0.12257544939466419 -0.01515918467811004 0 -0.1358954443971564 -0.031572616703471758 0 -0.1222840736381321 -0.0043715844633764982 0 -0.12257544939466419 -0.01515918467811004 0 -0.1358954443971564 -0.031572616703471758 0 -0.1222840736381321 -0.0043715844633764982 0 -0.1358954443971564 -0.031572616703471758 0 -0.12257544939466419 -0.01515918467811004 0 -0.1210568347698693 -0.027924388199292691 0 -0.1358954443971564 -0.031572616703471758 0 -0.1266714095482025 -0.043611129299223519 0 -0.1358954443971564 -0.031572616703471758 0 -0.1210568347698693 -0.027924388199292691 0 -0.1266714095482025 -0.043611129299223519 0 -0.1358954443971564 -0.031572616703471758 0 -0.1266714095482025 -0.043611129299223519 0 -0.13588186443405689 -0.041115244103642229 0 -0.13891574351981001 -0.05284433303205395 0 -0.13588186443405689 -0.041115244103642229 0 -0.1358954443971564 -0.031572616703471758 0 -0.1435277609442876 -0.046825076734177448 0 -0.1358954443971564 -0.031572616703471758 0 -0.1435277609442876 -0.046825076734177448 0 -0.1266714095482025 -0.043611129299223519 0 -0.13588186443405689 -0.041115244103642229 0 -0.1358954443971564 -0.031572616703471758 0 -0.12885258059726659 -0.064719484041567951 0 -0.1266714095482025 -0.043611129299223519 0 -0.13891574351981001 -0.05284433303205395 0 -0.1266714095482025 -0.043611129299223519 0 -0.13891574351981001 -0.05284433303205395 0 -0.13588186443405689 -0.041115244103642229 0 -0.13891574351981001 -0.05284433303205395 0 -0.1435277609442876 -0.046825076734177448 0 -0.14001317585919629 -0.064623484526778421 0 -0.12885258059726659 -0.064719484041567951 0 -0.13891574351981001 -0.05284433303205395 0 -0.16237772949514401 -0.064205150443217035 0 -0.1491365869461502 -0.047888883573344337 0 -0.16237772949514401 -0.064205150443217035 0 -0.1491365869461502 -0.047888883573344337 0 -0.1511600774914181 -0.062077536764883527 0 -0.13891574351981001 -0.05284433303205395 0 -0.1511600774914181 -0.062077536764883527 0 -0.14001317585919629 -0.064623484526778421 0 -0.13891574351981001 -0.05284433303205395 0 -0.1511600774914181 -0.062077536764883527 0 -0.13891574351981001 -0.05284433303205395 0 -0.1511600774914181 -0.062077536764883527 0 -0.1435277609442876 -0.046825076734177448 0 -0.1511600774914181 -0.062077536764883527 0 -0.1435277609442876 -0.046825076734177448 0 -0.1491365869461502 -0.047888883573344337 0 -0.1511600774914181 -0.062077536764883527 0 -0.1435277609442876 -0.046825076734177448 0 -0.1358954443971564 -0.031572616703471758 0 -0.1491365869461502 -0.047888883573344337 0 -0.1435277609442876 -0.046825076734177448 0 -0.1358954443971564 -0.031572616703471758 0 -0.1491365869461502 -0.047888883573344337 0 -0.14922781487779679 -0.03145498215623202 0 -0.1491365869461502 -0.047888883573344337 0 -0.14922781487779679 -0.03145498215623202 0 -0.161295686126427 -0.041314967385585752 0 -0.1358954443971564 -0.031572616703471758 0 -0.1491365869461502 -0.047888883573344337 0 -0.161295686126427 -0.041314967385585752 0 -0.1774559756575414 -0.043472676947356292 0 -0.1723652753123717 -0.024278922908554029 0 -0.14922781487779679 -0.03145498215623202 0 -0.161295686126427 -0.041314967385585752 0 -0.160308924112954 -0.028199633990935578 0 -0.161295686126427 -0.041314967385585752 0 -0.1723652753123717 -0.024278922908554029 0 -0.160308924112954 -0.028199633990935578 0 -0.161295686126427 -0.041314967385585752 0 -0.1729644325078929 -0.05958267424407955 0 -0.16237772949514401 -0.064205150443217035 0 -0.1491365869461502 -0.047888883573344337 0 -0.161295686126427 -0.041314967385585752 0 -0.161295686126427 -0.041314967385585752 0 -0.1729644325078929 -0.05958267424407955 0 -0.1774559756575414 -0.043472676947356292 0 -0.16237772949514401 -0.064205150443217035 0 -0.161295686126427 -0.041314967385585752 0 -0.1729644325078929 -0.05958267424407955 0 -0.186499578884223 -0.065223657546711208 0 -0.1729644325078929 -0.05958267424407955 0 -0.19055577156261419 -0.053093111769927252 0 -0.1729644325078929 -0.05958267424407955 0 -0.1774559756575414 -0.043472676947356292 0 -0.19055577156261419 -0.053093111769927252 0 -0.1774559756575414 -0.043472676947356292 0 -0.19055577156261419 -0.053093111769927252 0 -0.19222735548846739 -0.034417581308306647 0 -0.1774559756575414 -0.043472676947356292 0 -0.1723652753123717 -0.024278922908554029 0 -0.19222735548846739 -0.034417581308306647 0 -0.18631810391595299 -0.019958538114399509 0 -0.1723652753123717 -0.024278922908554029 0 -0.17782312591884469 -0.0047091890594081476 0 -0.18631810391595299 -0.019958538114399509 0 -0.1723652753123717 -0.024278922908554029 0 -0.19222735548846739 -0.034417581308306647 0 -0.15251229991028711 -0.0078691942855123181 0 -0.1723652753123717 -0.024278922908554029 0 -0.160308924112954 -0.028199633990935578 0 -0.15251229991028711 -0.0078691942855123181 0 -0.1723652753123717 -0.024278922908554029 0 -0.17782312591884469 -0.0047091890594081476 0 -0.17782312591884469 -0.0047091890594081476 0 -0.19944529478696479 -0.012571765856828581 0 -0.19614921834684179 0.01383979763140139 0 -0.18631810391595299 -0.019958538114399509 0 -0.17782312591884469 -0.0047091890594081476 0 -0.19944529478696479 -0.012571765856828581 0 -0.19944529478696479 -0.012571765856828581 0 -0.20810122832653799 -0.028762113609045809 0 -0.19222735548846739 -0.034417581308306647 0 -0.18631810391595299 -0.019958538114399509 0 -0.19944529478696479 -0.012571765856828581 0 -0.19222735548846739 -0.034417581308306647 0 -0.20810122832653799 -0.028762113609045809 0 -0.22363591247334441 -0.038641874426612988 0 -0.22228503560871021 -0.01534386608090663 0 -0.19944529478696479 -0.012571765856828581 0 -0.20810122832653799 -0.028762113609045809 0 -0.22228503560871021 -0.01534386608090663 0 -0.19944529478696479 -0.012571765856828581 0 -0.22228503560871021 -0.01534386608090663 0 -0.22093415874407599 0.0079541422647997212 0 -0.19784493257702601 -0.070368463070264703 0 -0.19055577156261419 -0.053093111769927252 0 -0.20926189874014281 -0.056221313189730102 0 -0.19055577156261419 -0.053093111769927252 0 -0.20475643331822141 -0.042227198860724569 0 -0.20926189874014281 -0.056221313189730102 0 -0.19055577156261419 -0.053093111769927252 0 -0.19222735548846739 -0.034417581308306647 0 -0.20475643331822141 -0.042227198860724569 0 -0.20810122832653799 -0.028762113609045809 0 -0.19222735548846739 -0.034417581308306647 0 -0.20475643331822141 -0.042227198860724569 0 -0.20810122832653799 -0.028762113609045809 0 -0.20475643331822141 -0.042227198860724569 0 -0.22363591247334441 -0.038641874426612988 0 -0.20475643331822141 -0.042227198860724569 0 -0.20926189874014281 -0.056221313189730102 0 -0.22363591247334441 -0.038641874426612988 0 -0.21754098321818141 -0.062641895168441319 0 -0.20926189874014281 -0.056221313189730102 0 -0.2241982264164796 -0.05499779522922324 0 -0.22585368735607289 -0.070203780036278682 0 -0.2241982264164796 -0.05499779522922324 0 -0.2463991354039248 -0.054245067532845387 0 -0.20926189874014281 -0.056221313189730102 0 -0.2241982264164796 -0.05499779522922324 0 -0.22363591247334441 -0.038641874426612988 0 -0.2241982264164796 -0.05499779522922324 0 -0.22363591247334441 -0.038641874426612988 0 -0.2463991354039248 -0.054245067532845387 0 -0.22363591247334441 -0.038641874426612988 0 -0.24918379221973039 -0.035778506608754083 0 -0.2463991354039248 -0.054245067532845387 0 -0.22585368735607289 -0.070203780036278682 0 -0.2463991354039248 -0.054245067532845387 0 -0.22228503560871021 -0.01534386608090663 0 -0.22093415874407599 0.0079541422647997212 0 -0.22228503560871021 -0.01534386608090663 0 -0.24163447896342441 -0.01871264830198761 0 -0.23887829093550719 0.0026937934494007118 0 -0.22228503560871021 -0.01534386608090663 0 -0.22093415874407599 0.0079541422647997212 0 -0.23887829093550719 0.0026937934494007118 0 -0.22363591247334441 -0.038641874426612988 0 -0.22228503560871021 -0.01534386608090663 0 -0.22363591247334441 -0.038641874426612988 0 -0.22228503560871021 -0.01534386608090663 0 -0.24163447896342441 -0.01871264830198761 0 -0.22363591247334441 -0.038641874426612988 0 -0.24918379221973039 -0.035778506608754083 0 -0.24163447896342441 -0.01871264830198761 0 -0.24163447896342441 -0.01871264830198761 0 -0.25368046575302122 -0.0060765949484967302 0 -0.23887829093550719 0.0026937934494007118 0 -0.25368046575302122 -0.0060765949484967302 0 -0.26260319579713842 -0.018888150339740041 0 -0.2687292122232216 -0.00039107927712494318 0 -0.24163447896342441 -0.01871264830198761 0 -0.25368046575302122 -0.0060765949484967302 0 -0.26260319579713842 -0.018888150339740041 0 -0.24918379221973039 -0.035778506608754083 0 -0.24163447896342441 -0.01871264830198761 0 -0.26260319579713842 -0.018888150339740041 0 -0.24918379221973039 -0.035778506608754083 0 -0.26260319579713842 -0.018888150339740041 0 -0.26694458345177657 -0.038286355029412071 0 -0.27906786145888812 -0.018121877555533589 0 -0.28749003149962832 -0.02232764252597846 0 -0.26694458345177657 -0.038286355029412071 0 -0.26260319579713842 -0.018888150339740041 0 -0.27906786145888812 -0.018121877555533589 0 -0.26694458345177657 -0.038286355029412071 0 -0.28749003149962832 -0.02232764252597846 0 -0.26694458345177657 -0.038286355029412071 0 -0.26260319579713842 -0.018888150339740041 0 -0.2687292122232216 -0.00039107927712494318 0 -0.2781645443580531 -0.0079291546951160002 0 -0.2687292122232216 -0.00039107927712494318 0 -0.2781645443580531 -0.0079291546951160002 0 -0.28669271409587033 0.00067394175626276775 0 -0.26260319579713842 -0.018888150339740041 0 -0.27906786145888812 -0.018121877555533589 0 -0.2781645443580531 -0.0079291546951160002 0 -0.28798747637047972 -0.010795788221254651 0 -0.30442587094067991 -0.0091726997856424724 0 -0.28669271409587033 0.00067394175626276775 0 -0.28798747637047972 -0.010795788221254651 0 -0.28749003149962832 -0.02232764252597846 0 -0.30442587094067991 -0.0091726997856424724 0 -0.2781645443580531 -0.0079291546951160002 0 -0.28798747637047972 -0.010795788221254651 0 -0.28669271409587033 0.00067394175626276775 0 -0.27906786145888812 -0.018121877555533589 0 -0.2781645443580531 -0.0079291546951160002 0 -0.28798747637047972 -0.010795788221254651 0 -0.27906786145888812 -0.018121877555533589 0 -0.28749003149962832 -0.02232764252597846 0 -0.28749003149962832 -0.02232764252597846 0 -0.30442587094067991 -0.0091726997856424724 0 -0.27906786145888812 -0.018121877555533589 0 -0.28798747637047972 -0.010795788221254651 0 -0.28749003149962832 -0.02232764252597846 0 -0.28749003149962832 -0.02232764252597846 0 -0.3044771387579725 -0.021932105168762709 0 -0.31305957118469552 -0.035096260803409017 0 -0.28749003149962832 -0.02232764252597846 0 -0.31305957118469552 -0.035096260803409017 0 -0.28749003149962832 -0.02232764252597846 0 -0.3044771387579725 -0.021932105168762709 0 -0.30442587094067991 -0.0091726997856424724 0 -0.3044771387579725 -0.021932105168762709 0 -0.31293308140688653 -0.021131817560020891 0 -0.31305957118469552 -0.035096260803409017 0 -0.3044771387579725 -0.021932105168762709 0 -0.30442587094067991 -0.0091726997856424724 0 -0.31293308140688653 -0.021131817560020891 0 -0.30442587094067991 -0.0091726997856424724 0 -0.28669271409587033 0.00067394175626276775 0 -0.30636397558727529 0.0074589686305737476 0 -0.30115091797579452 -0.048663747370743207 0 -0.2987525865777424 -0.062200949590156152 0 -0.31301417961341382 -0.055836524747439123 0 -0.28749003149962832 -0.02232764252597846 0 -0.29444922120781769 -0.038764987909169303 0 -0.31305957118469552 -0.035096260803409017 0 -0.30115091797579452 -0.048663747370743207 0 -0.29444922120781769 -0.038764987909169303 0 -0.31305957118469552 -0.035096260803409017 0 -0.30115091797579452 -0.048663747370743207 0 -0.31305957118469552 -0.035096260803409017 0 -0.31301417961341382 -0.055836524747439123 0 -0.30115091797579452 -0.048663747370743207 0 -0.29444922120781769 -0.038764987909169303 0 -0.28647903129530322 -0.051420013803542428 0 -0.28749003149962832 -0.02232764252597846 0 -0.29444922120781769 -0.038764987909169303 0 -0.28117345016485201 -0.04031271913022233 0 -0.29444922120781769 -0.038764987909169303 0 -0.28647903129530322 -0.051420013803542428 0 -0.28117345016485201 -0.04031271913022233 0 -0.2987525865777424 -0.062200949590156152 0 -0.28647903129530322 -0.051420013803542428 0 -0.28038348839110883 -0.069310788107078664 0 -0.30115091797579452 -0.048663747370743207 0 -0.2987525865777424 -0.062200949590156152 0 -0.28647903129530322 -0.051420013803542428 0 -0.28647903129530322 -0.051420013803542428 0 -0.26877486342999501 -0.055398903369259858 0 -0.28038348839110883 -0.069310788107078664 0 -0.28647903129530322 -0.051420013803542428 0 -0.26877486342999501 -0.055398903369259858 0 -0.28117345016485201 -0.04031271913022233 0 -0.28749003149962832 -0.02232764252597846 0 -0.26694458345177657 -0.038286355029412071 0 -0.28117345016485201 -0.04031271913022233 0 -0.26877486342999501 -0.055398903369259858 0 -0.26694458345177657 -0.038286355029412071 0 -0.28117345016485201 -0.04031271913022233 0 -0.24918379221973039 -0.035778506608754083 0 -0.2463991354039248 -0.054245067532845387 0 -0.26694458345177657 -0.038286355029412071 0 -0.2463991354039248 -0.054245067532845387 0 -0.26694458345177657 -0.038286355029412071 0 -0.2463991354039248 -0.054245067532845387 0 -0.26877486342999501 -0.055398903369259858 0 -0.26127996779737811 -0.076382155525281506 0 -0.2463991354039248 -0.054245067532845387 0 -0.26877486342999501 -0.055398903369259858 0 -0.26694458345177657 -0.038286355029412071 0 -0.24429087302217839 -0.081351402293697431 0 -0.2463991354039248 -0.054245067532845387 0 -0.26127996779737811 -0.076382155525281506 0 -0.2480226747362333 -0.095484894819556659 0 -0.24429087302217839 -0.081351402293697431 0 -0.26127996779737811 -0.076382155525281506 0 -0.2480226747362333 -0.095484894819556659 0 -0.26127996779737811 -0.076382155525281506 0 -0.26482739361412022 -0.09778201459808189 0 -0.26127996779737811 -0.076382155525281506 0 -0.27852055927444008 -0.085869198427154 0 -0.26482739361412022 -0.09778201459808189 0 -0.26877486342999501 -0.055398903369259858 0 -0.26127996779737811 -0.076382155525281506 0 -0.28038348839110883 -0.069310788107078664 0 -0.26127996779737811 -0.076382155525281506 0 -0.27852055927444008 -0.085869198427154 0 -0.28038348839110883 -0.069310788107078664 0 -0.264675904622168 -0.1183076420975329 0 -0.25151550799412831 -0.12459638277672851 0 -0.25331740349288923 -0.1111972380002446 0 -0.264675904622168 -0.1183076420975329 0 -0.25331740349288923 -0.1111972380002446 0 -0.26482739361412022 -0.09778201459808189 0 -0.2480226747362333 -0.095484894819556659 0 -0.25331740349288923 -0.1111972380002446 0 -0.26482739361412022 -0.09778201459808189 0 -0.27852055927444008 -0.085869198427154 0 -0.26482739361412022 -0.09778201459808189 0 -0.27916702414219918 -0.1057322757198714 0 -0.264675904622168 -0.1183076420975329 0 -0.26482739361412022 -0.09778201459808189 0 -0.27916702414219918 -0.1057322757198714 0 -0.264675904622168 -0.1183076420975329 0 -0.27916702414219918 -0.1057322757198714 0 -0.28045548244648721 -0.1240426558428291 0 -0.28045548244648721 -0.1240426558428291 0 -0.29433631348535771 -0.1078895494449022 0 -0.2980187751593063 -0.12565406075212199 0 -0.27916702414219918 -0.1057322757198714 0 -0.28045548244648721 -0.1240426558428291 0 -0.29433631348535771 -0.1078895494449022 0 -0.27852055927444008 -0.085869198427154 0 -0.27916702414219918 -0.1057322757198714 0 -0.29212200263632548 -0.092728480994261189 0 -0.27916702414219918 -0.1057322757198714 0 -0.29433631348535771 -0.1078895494449022 0 -0.29212200263632548 -0.092728480994261189 0 -0.29433631348535771 -0.1078895494449022 0 -0.29212200263632548 -0.092728480994261189 0 -0.31254320302108102 -0.094179350907818801 0 -0.29433631348535771 -0.1078895494449022 0 -0.30841569085692472 -0.1139337451672613 0 -0.31254320302108102 -0.094179350907818801 0 -0.29433631348535771 -0.1078895494449022 0 -0.30841569085692472 -0.1139337451672613 0 -0.2980187751593063 -0.12565406075212199 0 -0.30841569085692472 -0.1139337451672613 0 -0.2980187751593063 -0.12565406075212199 0 -0.31341845216565373 -0.12550313349223591 0 -0.27852055927444008 -0.085869198427154 0 -0.28038348839110883 -0.069310788107078664 0 -0.29703775443158381 -0.079120755172711874 0 -0.2987525865777424 -0.062200949590156152 0 -0.28038348839110883 -0.069310788107078664 0 -0.29703775443158381 -0.079120755172711874 0 -0.27852055927444008 -0.085869198427154 0 -0.29212200263632548 -0.092728480994261189 0 -0.29703775443158381 -0.079120755172711874 0 -0.29703775443158381 -0.079120755172711874 0 -0.31155704384043531 -0.072849312427470558 0 -0.31254320302108102 -0.094179350907818801 0 -0.29212200263632548 -0.092728480994261189 0 -0.29703775443158381 -0.079120755172711874 0 -0.31254320302108102 -0.094179350907818801 0 -0.2987525865777424 -0.062200949590156152 0 -0.29703775443158381 -0.079120755172711874 0 -0.31155704384043531 -0.072849312427470558 0 -0.2987525865777424 -0.062200949590156152 0 -0.31155704384043531 -0.072849312427470558 0 -0.31301417961341382 -0.055836524747439123 0 -0.31155704384043531 -0.072849312427470558 0 -0.32863863121469977 -0.065250175803737362 0 -0.31301417961341382 -0.055836524747439123 0 -0.31155704384043531 -0.072849312427470558 0 -0.3246732346439129 -0.081075367848591595 0 -0.32863863121469977 -0.065250175803737362 0 -0.31155704384043531 -0.072849312427470558 0 -0.3246732346439129 -0.081075367848591595 0 -0.31254320302108102 -0.094179350907818801 0 -0.3246732346439129 -0.081075367848591595 0 -0.31254320302108102 -0.094179350907818801 0 -0.33104364797798319 -0.09801739053255229 0 -0.3246732346439129 -0.081075367848591595 0 -0.33605711437912472 -0.087161765430062682 0 -0.33104364797798319 -0.09801739053255229 0 -0.3246732346439129 -0.081075367848591595 0 -0.33605711437912472 -0.087161765430062682 0 -0.33669710172521489 -0.077175772691618516 0 -0.33605711437912472 -0.087161765430062682 0 -0.33104364797798319 -0.09801739053255229 0 -0.34383104858962249 -0.095183539519734933 0 -0.33605711437912472 -0.087161765430062682 0 -0.34383104858962249 -0.095183539519734933 0 -0.34439970555546912 -0.084578675140067783 0 -0.33605711437912472 -0.087161765430062682 0 -0.33669710172521489 -0.077175772691618516 0 -0.34439970555546912 -0.084578675140067783 0 -0.3246732346439129 -0.081075367848591595 0 -0.33669710172521489 -0.077175772691618516 0 -0.32863863121469977 -0.065250175803737362 0 -0.33669710172521489 -0.077175772691618516 0 -0.32863863121469977 -0.065250175803737362 0 -0.34801412465104892 -0.070412392379920627 0 -0.33669710172521489 -0.077175772691618516 0 -0.34801412465104892 -0.070412392379920627 0 -0.34439970555546912 -0.084578675140067783 0 -0.32719855170750428 -0.12291759668899679 0 -0.32203809378256709 -0.11178708422841931 0 -0.31341845216565373 -0.12550313349223591 0 -0.30841569085692472 -0.1139337451672613 0 -0.32203809378256709 -0.11178708422841931 0 -0.31341845216565373 -0.12550313349223591 0 -0.32719855170750428 -0.12291759668899679 0 -0.32203809378256709 -0.11178708422841931 0 -0.33444281415331051 -0.1118980979121095 0 -0.32203809378256709 -0.11178708422841931 0 -0.31254320302108102 -0.094179350907818801 0 -0.33104364797798319 -0.09801739053255229 0 -0.30841569085692472 -0.1139337451672613 0 -0.32203809378256709 -0.11178708422841931 0 -0.31254320302108102 -0.094179350907818801 0 -0.33104364797798319 -0.09801739053255229 0 -0.34144129267367079 -0.1046012171331611 0 -0.34383104858962249 -0.095183539519734933 0 -0.32203809378256709 -0.11178708422841931 0 -0.33104364797798319 -0.09801739053255229 0 -0.33444281415331051 -0.1118980979121095 0 -0.33104364797798319 -0.09801739053255229 0 -0.34144129267367079 -0.1046012171331611 0 -0.33444281415331051 -0.1118980979121095 0 -0.34144129267367079 -0.1046012171331611 0 -0.33444281415331051 -0.1118980979121095 0 -0.34611413263602581 -0.1127455639500831 0 -0.33444281415331051 -0.1118980979121095 0 -0.33983874289660487 -0.1200698395012714 0 -0.34611413263602581 -0.1127455639500831 0 -0.32719855170750428 -0.12291759668899679 0 -0.33983874289660487 -0.1200698395012714 0 -0.33489623770692178 -0.13130139151947101 0 -0.32719855170750428 -0.12291759668899679 0 -0.33444281415331051 -0.1118980979121095 0 -0.33983874289660487 -0.1200698395012714 0 -0.35781422145107322 -0.1242965498811112 0 -0.3558184444142119 -0.1192620098177108 0 -0.36132971483109788 -0.120209583446948 0 -0.3558184444142119 -0.1192620098177108 0 -0.35800407364407733 -0.11434273280461051 0 -0.36132971483109788 -0.120209583446948 0 -0.3558184444142119 -0.1192620098177108 0 -0.35245997120530398 -0.12379184712105901 0 -0.34959243374603532 -0.11895198966460491 0 -0.35781422145107322 -0.1242965498811112 0 -0.3558184444142119 -0.1192620098177108 0 -0.35245997120530398 -0.12379184712105901 0 -0.35245997120530398 -0.12379184712105901 0 -0.34959243374603532 -0.11895198966460491 0 -0.3448096548514894 -0.1272925732026722 0 -0.33983874289660487 -0.1200698395012714 0 -0.34959243374603532 -0.11895198966460491 0 -0.3448096548514894 -0.1272925732026722 0 -0.33983874289660487 -0.1200698395012714 0 -0.34959243374603532 -0.11895198966460491 0 -0.34611413263602581 -0.1127455639500831 0 -0.34959243374603532 -0.11895198966460491 0 -0.34611413263602581 -0.1127455639500831 0 -0.3540849030961587 -0.1127595043533938 0 -0.34611413263602581 -0.1127455639500831 0 -0.3540849030961587 -0.1127595043533938 0 -0.35177482001141192 -0.10516149375132559 0 -0.3540849030961587 -0.1127595043533938 0 -0.35800407364407733 -0.11434273280461051 0 -0.3607832322348406 -0.1051398336003896 0 -0.3558184444142119 -0.1192620098177108 0 -0.34959243374603532 -0.11895198966460491 0 -0.3540849030961587 -0.1127595043533938 0 -0.3558184444142119 -0.1192620098177108 0 -0.3540849030961587 -0.1127595043533938 0 -0.35800407364407733 -0.11434273280461051 0 -0.3540849030961587 -0.1127595043533938 0 -0.35177482001141192 -0.10516149375132559 0 -0.3607832322348406 -0.1051398336003896 0 -0.34144129267367079 -0.1046012171331611 0 -0.34611413263602581 -0.1127455639500831 0 -0.35177482001141192 -0.10516149375132559 0 -0.34144129267367079 -0.1046012171331611 0 -0.35177482001141192 -0.10516149375132559 0 -0.34383104858962249 -0.095183539519734933 0 -0.35177482001141192 -0.10516149375132559 0 -0.34383104858962249 -0.095183539519734933 0 -0.35739913843233412 -0.092959905679002114 0 -0.35177482001141192 -0.10516149375132559 0 -0.3607832322348406 -0.1051398336003896 0 -0.35739913843233412 -0.092959905679002114 0 -0.3702554986144142 -0.096721424319973118 0 -0.3607832322348406 -0.1051398336003896 0 -0.36256026990520168 -0.1169713834079686 0 -0.3702554986144142 -0.096721424319973118 0 -0.36256026990520168 -0.1169713834079686 0 -0.37524695561068788 -0.11103670725272161 0 -0.3702554986144142 -0.096721424319973118 0 -0.36256026990520168 -0.1169713834079686 0 -0.3702554986144142 -0.096721424319973118 0 -0.3607832322348406 -0.1051398336003896 0 -0.35739913843233412 -0.092959905679002114 0 -0.36256026990520168 -0.1169713834079686 0 -0.37732416674567443 -0.1351576518325032 0 -0.37522264613750661 -0.1204780820721596 0 -0.3607832322348406 -0.1051398336003896 0 -0.36256026990520168 -0.1169713834079686 0 -0.36132971483109788 -0.120209583446948 0 -0.35800407364407733 -0.11434273280461051 0 -0.3607832322348406 -0.1051398336003896 0 -0.36132971483109788 -0.120209583446948 0 -0.36256026990520168 -0.1169713834079686 0 -0.37522264613750661 -0.1204780820721596 0 -0.37524695561068788 -0.11103670725272161 0 -0.36256026990520168 -0.1169713834079686 0 -0.36132971483109788 -0.120209583446948 0 -0.36476093191418357 -0.12990588975340961 0 -0.35781422145107322 -0.1242965498811112 0 -0.36132971483109788 -0.120209583446948 0 -0.36476093191418357 -0.12990588975340961 0 -0.36256026990520168 -0.1169713834079686 0 -0.36132971483109788 -0.120209583446948 0 -0.34801412465104892 -0.070412392379920627 0 -0.36309755803908672 -0.077310273322317186 0 -0.36479289152511979 -0.062874062339952075 0 -0.34801412465104892 -0.070412392379920627 0 -0.35739913843233412 -0.092959905679002114 0 -0.36309755803908672 -0.077310273322317186 0 -0.34801412465104892 -0.070412392379920627 0 -0.34439970555546912 -0.084578675140067783 0 -0.35739913843233412 -0.092959905679002114 0 -0.34801412465104892 -0.070412392379920627 0 -0.35739913843233412 -0.092959905679002114 0 -0.34383104858962249 -0.095183539519734933 0 -0.34439970555546912 -0.084578675140067783 0 -0.35739913843233412 -0.092959905679002114 0 -0.3702554986144142 -0.096721424319973118 0 -0.37918128239773041 -0.073233265192998262 0 -0.35739913843233412 -0.092959905679002114 0 -0.36748336937089132 -0.08505621712857267 0 -0.36309755803908672 -0.077310273322317186 0 -0.3702554986144142 -0.096721424319973118 0 -0.36748336937089132 -0.08505621712857267 0 -0.37918128239773041 -0.073233265192998262 0 -0.36748336937089132 -0.08505621712857267 0 -0.36309755803908672 -0.077310273322317186 0 -0.37918128239773041 -0.073233265192998262 0 -0.3702554986144142 -0.096721424319973118 0 -0.35739913843233412 -0.092959905679002114 0 -0.36748336937089132 -0.08505621712857267 0 -0.36309755803908672 -0.077310273322317186 0 -0.36479289152511979 -0.062874062339952075 0 -0.37918128239773041 -0.073233265192998262 0 -0.36479289152511979 -0.062874062339952075 0 -0.36398573043032001 -0.045122201745531908 0 -0.38810706618104662 -0.049745106066023309 0 -0.36479289152511979 -0.062874062339952075 0 -0.35130885223902958 -0.054196740326480287 0 -0.36398573043032001 -0.045122201745531908 0 -0.35130885223902958 -0.054196740326480287 0 -0.34807321791376311 -0.041416703288293548 0 -0.36398573043032001 -0.045122201745531908 0 -0.34801412465104892 -0.070412392379920627 0 -0.35130885223902958 -0.054196740326480287 0 -0.33862911086976272 -0.047864879080839542 0 -0.34801412465104892 -0.070412392379920627 0 -0.36479289152511979 -0.062874062339952075 0 -0.35130885223902958 -0.054196740326480287 0 -0.35130885223902958 -0.054196740326480287 0 -0.34807321791376311 -0.041416703288293548 0 -0.33862911086976272 -0.047864879080839542 0 -0.35130885223902958 -0.054196740326480287 0 -0.33862911086976272 -0.047864879080839542 0 -0.34807321791376311 -0.041416703288293548 0 -0.36398573043032001 -0.045122201745531908 0 -0.35506693315808902 -0.02946171919552449 0 -0.34807321791376311 -0.041416703288293548 0 -0.35506693315808902 -0.02946171919552449 0 -0.33137546287161412 -0.030437976093091471 0 -0.36398573043032001 -0.045122201745531908 0 -0.35506693315808902 -0.02946171919552449 0 -0.37598279533181522 -0.029628349151500848 0 -0.36257320357981859 -0.012194253395404061 0 -0.35506693315808902 -0.02946171919552449 0 -0.37598279533181522 -0.029628349151500848 0 -0.36257320357981859 -0.012194253395404061 0 -0.38484909517029481 -0.014784741646386121 0 -0.37598279533181522 -0.029628349151500848 0 -0.36257320357981859 -0.012194253395404061 0 -0.3809477351706122 0.0027779631661205301 0 -0.35669899738390448 0.0061599450621230532 0 -0.36257320357981859 -0.012194253395404061 0 -0.34396552384851448 -0.002286048506845227 0 -0.34100458896053509 -0.01515020857335795 0 -0.36257320357981859 -0.012194253395404061 0 -0.34396552384851448 -0.002286048506845227 0 -0.35669899738390448 0.0061599450621230532 0 -0.36257320357981859 -0.012194253395404061 0 -0.35506693315808902 -0.02946171919552449 0 -0.34100458896053509 -0.01515020857335795 0 -0.35506693315808902 -0.02946171919552449 0 -0.33137546287161412 -0.030437976093091471 0 -0.34100458896053509 -0.01515020857335795 0 -0.33137546287161412 -0.030437976093091471 0 -0.34100458896053509 -0.01515020857335795 0 -0.32412181487346448 -0.013011073105343791 0 -0.34100458896053509 -0.01515020857335795 0 -0.33237148267863559 -0.0023354662605286139 0 -0.32412181487346448 -0.013011073105343791 0 -0.34396552384851448 -0.002286048506845227 0 -0.34100458896053509 -0.01515020857335795 0 -0.33237148267863559 -0.0023354662605286139 0 -0.30442587094067991 -0.0091726997856424724 0 -0.32136171038173122 0.0039822429546938244 0 -0.30442587094067991 -0.0091726997856424724 0 -0.32412181487346448 -0.013011073105343791 0 -0.31293308140688653 -0.021131817560020891 0 -0.33237148267863559 -0.0023354662605286139 0 -0.32412181487346448 -0.013011073105343791 0 -0.32136171038173122 0.0039822429546938244 0 -0.30442587094067991 -0.0091726997856424724 0 -0.32412181487346448 -0.013011073105343791 0 -0.32136171038173122 0.0039822429546938244 0 -0.33137546287161412 -0.030437976093091471 0 -0.32412181487346448 -0.013011073105343791 0 -0.33137546287161412 -0.030437976093091471 0 -0.32412181487346448 -0.013011073105343791 0 -0.31293308140688653 -0.021131817560020891 0 -0.33137546287161412 -0.030437976093091471 0 -0.31293308140688653 -0.021131817560020891 0 -0.31305957118469552 -0.035096260803409017 0 -0.31305957118469552 -0.035096260803409017 0 -0.33862911086976272 -0.047864879080839542 0 -0.31305957118469552 -0.035096260803409017 0 -0.32333537322064287 -0.051011960108856259 0 -0.33862911086976272 -0.047864879080839542 0 -0.33137546287161412 -0.030437976093091471 0 -0.31305957118469552 -0.035096260803409017 0 -0.33862911086976272 -0.047864879080839542 0 -0.31305957118469552 -0.035096260803409017 0 -0.31301417961341382 -0.055836524747439123 0 -0.32333537322064287 -0.051011960108856259 0 -0.32863863121469977 -0.065250175803737362 0 -0.31301417961341382 -0.055836524747439123 0 -0.32333537322064287 -0.051011960108856259 0 -0.32863863121469977 -0.065250175803737362 0 -0.34801412465104892 -0.070412392379920627 0 -0.33862911086976272 -0.047864879080839542 0 -0.34801412465104892 -0.070412392379920627 0 -0.33862911086976272 -0.047864879080839542 0 -0.32863863121469977 -0.065250175803737362 0 -0.32333537322064287 -0.051011960108856259 0 -0.33862911086976272 -0.047864879080839542 0 -0.33137546287161412 -0.030437976093091471 0 -0.33862911086976272 -0.047864879080839542 0 -0.34807321791376311 -0.041416703288293548 0 -0.33137546287161412 -0.030437976093091471 0 -0.33862911086976272 -0.047864879080839542 0 -0.3080344920095332 -0.2394981872891698 0 -0.3039917807950242 -0.22484263451184869 0 -0.31704814812596011 -0.22231818335913739 0 -0.3039917807950242 -0.22484263451184869 0 -0.30610443113730712 -0.2143965331084986 0 -0.31704814812596011 -0.22231818335913739 0 -0.3039917807950242 -0.22484263451184869 0 -0.29451347096308711 -0.22980740594663801 0 -0.29425836173923342 -0.21819286285579989 0 -0.3039917807950242 -0.22484263451184869 0 -0.29425836173923342 -0.21819286285579989 0 -0.30610443113730712 -0.2143965331084986 0 -0.3080344920095332 -0.2394981872891698 0 -0.3039917807950242 -0.22484263451184869 0 -0.29451347096308711 -0.22980740594663801 0 -0.29451347096308711 -0.22980740594663801 0 -0.28325760176737891 -0.22604876213234409 0 -0.29425836173923342 -0.21819286285579989 0 -0.28325760176737891 -0.22604876213234409 0 -0.28025048869802988 -0.21312873548146191 0 -0.29425836173923342 -0.21819286285579989 0 -0.29451347096308711 -0.22980740594663801 0 -0.28325760176737891 -0.22604876213234409 0 -0.28620697419901409 -0.23705181503581829 0 -0.28168474985437852 -0.25014812438121031 0 -0.3080344920095332 -0.2394981872891698 0 -0.29475034209373052 -0.25911400252729272 0 -0.28168474985437852 -0.25014812438121031 0 -0.3080344920095332 -0.2394981872891698 0 -0.28168474985437852 -0.25014812438121031 0 -0.3080344920095332 -0.2394981872891698 0 -0.28620697419901409 -0.23705181503581829 0 -0.3080344920095332 -0.2394981872891698 0 -0.29451347096308711 -0.22980740594663801 0 -0.28620697419901409 -0.23705181503581829 0 -0.27347376693297959 -0.25205870770091199 0 -0.28168474985437852 -0.25014812438121031 0 -0.2747568611491189 -0.2404335734730243 0 -0.28168474985437852 -0.25014812438121031 0 -0.28620697419901409 -0.23705181503581829 0 -0.2747568611491189 -0.2404335734730243 0 -0.27347376693297959 -0.25205870770091199 0 -0.2747568611491189 -0.2404335734730243 0 -0.25857686183161172 -0.23002855347816359 0 -0.2747568611491189 -0.2404335734730243 0 -0.25857686183161172 -0.23002855347816359 0 -0.27384195292761049 -0.23288066676901709 0 -0.27347376693297959 -0.25205870770091199 0 -0.25857686183161172 -0.23002855347816359 0 -0.28620697419901409 -0.23705181503581829 0 -0.2747568611491189 -0.2404335734730243 0 -0.27384195292761049 -0.23288066676901709 0 -0.27347376693297959 -0.25205870770091199 0 -0.26038277371618063 -0.2477199445964943 0 -0.25857686183161172 -0.23002855347816359 0 -0.24901269716281221 -0.22584988992876209 0 -0.25217385243102691 -0.24332397570100661 0 -0.25217385243102691 -0.24332397570100661 0 -0.26038277371618063 -0.2477199445964943 0 -0.25857686183161172 -0.23002855347816359 0 -0.24901269716281221 -0.22584988992876209 0 -0.25217385243102691 -0.24332397570100661 0 -0.25857686183161172 -0.23002855347816359 0 -0.2436799567302437 -0.20799839925541519 0 -0.25857686183161172 -0.23002855347816359 0 -0.2436799567302437 -0.20799839925541519 0 -0.24901269716281221 -0.22584988992876209 0 -0.25857686183161172 -0.23002855347816359 0 -0.25857686183161172 -0.23002855347816359 0 -0.27186358310036651 -0.22308906019588989 0 -0.2658271565377528 -0.2133306268404451 0 -0.25857686183161172 -0.23002855347816359 0 -0.27186358310036651 -0.22308906019588989 0 -0.27384195292761049 -0.23288066676901709 0 -0.28325760176737891 -0.22604876213234409 0 -0.27186358310036651 -0.22308906019588989 0 -0.27384195292761049 -0.23288066676901709 0 -0.28325760176737891 -0.22604876213234409 0 -0.28620697419901409 -0.23705181503581829 0 -0.27384195292761049 -0.23288066676901709 0 -0.28325760176737891 -0.22604876213234409 0 -0.27186358310036651 -0.22308906019588989 0 -0.28025048869802988 -0.21312873548146191 0 -0.28025048869802988 -0.21312873548146191 0 -0.27212625567993781 -0.20101985444733861 0 -0.28465210052720408 -0.19916355984493761 0 -0.28025048869802988 -0.21312873548146191 0 -0.2658271565377528 -0.2133306268404451 0 -0.27212625567993781 -0.20101985444733861 0 -0.27186358310036651 -0.22308906019588989 0 -0.28025048869802988 -0.21312873548146191 0 -0.2658271565377528 -0.2133306268404451 0 -0.2436799567302437 -0.20799839925541519 0 -0.25857686183161172 -0.23002855347816359 0 -0.25662997208442279 -0.212487533835899 0 -0.25857686183161172 -0.23002855347816359 0 -0.2658271565377528 -0.2133306268404451 0 -0.25662997208442279 -0.212487533835899 0 -0.2658271565377528 -0.2133306268404451 0 -0.25843591323808313 -0.19859255576957191 0 -0.27212625567993781 -0.20101985444733861 0 -0.2658271565377528 -0.2133306268404451 0 -0.25662997208442279 -0.212487533835899 0 -0.25843591323808313 -0.19859255576957191 0 -0.2436799567302437 -0.20799839925541519 0 -0.25662997208442279 -0.212487533835899 0 -0.25843591323808313 -0.19859255576957191 0 -0.2444562172080032 -0.19255798064419799 0 -0.24937429033053729 -0.1794161311098848 0 -0.25843591323808313 -0.19859255576957191 0 -0.24937429033053729 -0.1794161311098848 0 -0.25843591323808313 -0.19859255576957191 0 -0.25843591323808313 -0.19859255576957191 0 -0.26682298180914737 -0.19043964572189401 0 -0.25847959544788829 -0.18262572372651459 0 -0.26682298180914737 -0.19043964572189401 0 -0.27212625567993781 -0.20101985444733861 0 -0.27761737707342099 -0.19066155682474589 0 -0.25843591323808313 -0.19859255576957191 0 -0.26682298180914737 -0.19043964572189401 0 -0.27212625567993781 -0.20101985444733861 0 -0.27212625567993781 -0.20101985444733861 0 -0.27761737707342099 -0.19066155682474589 0 -0.28465210052720408 -0.19916355984493761 0 -0.27761737707342099 -0.19066155682474589 0 -0.28465210052720408 -0.19916355984493761 0 -0.2888471632894743 -0.18439219998153419 0 -0.28465210052720408 -0.19916355984493761 0 -0.29885830588359458 -0.19359004445491329 0 -0.2888471632894743 -0.18439219998153419 0 -0.28465210052720408 -0.19916355984493761 0 -0.29439658309422839 -0.2057923874281499 0 -0.29885830588359458 -0.19359004445491329 0 -0.28025048869802988 -0.21312873548146191 0 -0.28465210052720408 -0.19916355984493761 0 -0.29439658309422839 -0.2057923874281499 0 -0.28025048869802988 -0.21312873548146191 0 -0.29425836173923342 -0.21819286285579989 0 -0.29439658309422839 -0.2057923874281499 0 -0.29439658309422839 -0.2057923874281499 0 -0.30610443113730712 -0.2143965331084986 0 -0.30613969332292462 -0.20387452098569889 0 -0.29425836173923342 -0.21819286285579989 0 -0.29439658309422839 -0.2057923874281499 0 -0.30610443113730712 -0.2143965331084986 0 -0.30610443113730712 -0.2143965331084986 0 -0.30613969332292462 -0.20387452098569889 0 -0.31866032871303479 -0.20934451070301349 0 -0.30613969332292462 -0.20387452098569889 0 -0.31267881778645779 -0.1962491292339191 0 -0.31866032871303479 -0.20934451070301349 0 -0.30613969332292462 -0.20387452098569889 0 -0.29885830588359458 -0.19359004445491329 0 -0.31267881778645779 -0.1962491292339191 0 -0.29885830588359458 -0.19359004445491329 0 -0.30765683528807891 -0.18154297536319941 0 -0.31267881778645779 -0.1962491292339191 0 -0.29439658309422839 -0.2057923874281499 0 -0.30613969332292462 -0.20387452098569889 0 -0.29885830588359458 -0.19359004445491329 0 -0.30765683528807891 -0.18154297536319941 0 -0.29285567870007562 -0.16947314076005299 0 -0.31261878620483491 -0.16668950472562749 0 -0.29885830588359458 -0.19359004445491329 0 -0.30765683528807891 -0.18154297536319941 0 -0.2888471632894743 -0.18439219998153419 0 -0.29888415398233692 -0.1542524267608173 0 -0.3201444893871328 -0.15163637893595569 0 -0.31261878620483491 -0.16668950472562749 0 -0.29285567870007562 -0.16947314076005299 0 -0.29888415398233692 -0.1542524267608173 0 -0.31261878620483491 -0.16668950472562749 0 -0.29285567870007562 -0.16947314076005299 0 -0.27561236110899923 -0.1559244779151073 0 -0.29888415398233692 -0.1542524267608173 0 -0.30765683528807891 -0.18154297536319941 0 -0.29285567870007562 -0.16947314076005299 0 -0.2888471632894743 -0.18439219998153419 0 -0.29285567870007562 -0.16947314076005299 0 -0.2888471632894743 -0.18439219998153419 0 -0.27383058106986818 -0.1765826474180236 0 -0.27761737707342099 -0.19066155682474589 0 -0.2888471632894743 -0.18439219998153419 0 -0.27383058106986818 -0.1765826474180236 0 -0.26682298180914737 -0.19043964572189401 0 -0.27761737707342099 -0.19066155682474589 0 -0.27383058106986818 -0.1765826474180236 0 -0.26682298180914737 -0.19043964572189401 0 -0.27383058106986818 -0.1765826474180236 0 -0.25847959544788829 -0.18262572372651459 0 -0.27383058106986818 -0.1765826474180236 0 -0.25847959544788829 -0.18262572372651459 0 -0.25780483416841699 -0.16345312024383929 0 -0.24937429033053729 -0.1794161311098848 0 -0.25843591323808313 -0.19859255576957191 0 -0.25847959544788829 -0.18262572372651459 0 -0.2403126674229922 -0.16023970645019731 0 -0.25847959544788829 -0.18262572372651459 0 -0.25780483416841699 -0.16345312024383929 0 -0.27383058106986818 -0.1765826474180236 0 -0.25780483416841699 -0.16345312024383929 0 -0.27561236110899923 -0.1559244779151073 0 -0.29285567870007562 -0.16947314076005299 0 -0.27383058106986818 -0.1765826474180236 0 -0.27561236110899923 -0.1559244779151073 0 -0.27561236110899923 -0.1559244779151073 0 -0.25627586698618687 -0.14134322015714329 0 -0.28683711039502441 -0.14132084649032889 0 -0.27561236110899923 -0.1559244779151073 0 -0.25627586698618687 -0.14134322015714329 0 -0.25780483416841699 -0.16345312024383929 0 -0.27561236110899923 -0.1559244779151073 0 -0.25627586698618687 -0.14134322015714329 0 -0.24405810290454921 -0.1456016429592133 0 -0.25780483416841699 -0.16345312024383929 0 -0.25627586698618687 -0.14134322015714329 0 -0.264675904622168 -0.1183076420975329 0 -0.25151550799412831 -0.12459638277672851 0 -0.25627586698618687 -0.14134322015714329 0 -0.264675904622168 -0.1183076420975329 0 -0.28045548244648721 -0.1240426558428291 0 -0.25627586698618687 -0.14134322015714329 0 -0.28045548244648721 -0.1240426558428291 0 -0.25627586698618687 -0.14134322015714329 0 -0.28683711039502441 -0.14132084649032889 0 -0.28683711039502441 -0.14132084649032889 0 -0.3052364980979545 -0.14047021173783161 0 -0.2980187751593063 -0.12565406075212199 0 -0.28045548244648721 -0.1240426558428291 0 -0.28683711039502441 -0.14132084649032889 0 -0.2980187751593063 -0.12565406075212199 0 -0.27561236110899923 -0.1559244779151073 0 -0.28683711039502441 -0.14132084649032889 0 -0.29888415398233692 -0.1542524267608173 0 -0.29888415398233692 -0.1542524267608173 0 -0.3052364980979545 -0.14047021173783161 0 -0.3201444893871328 -0.15163637893595569 0 -0.28683711039502441 -0.14132084649032889 0 -0.29888415398233692 -0.1542524267608173 0 -0.3052364980979545 -0.14047021173783161 0 -0.3052364980979545 -0.14047021173783161 0 -0.2980187751593063 -0.12565406075212199 0 -0.31341845216565373 -0.12550313349223591 0 -0.3052364980979545 -0.14047021173783161 0 -0.32101165496941902 -0.13642196876916049 0 -0.31341845216565373 -0.12550313349223591 0 -0.32719855170750428 -0.12291759668899679 0 -0.32101165496941902 -0.13642196876916049 0 -0.33489623770692178 -0.13130139151947101 0 -0.32719855170750428 -0.12291759668899679 0 -0.32101165496941902 -0.13642196876916049 0 -0.31341845216565373 -0.12550313349223591 0 -0.3052364980979545 -0.14047021173783161 0 -0.32101165496941902 -0.13642196876916049 0 -0.3201444893871328 -0.15163637893595569 0 -0.3201444893871328 -0.15163637893595569 0 -0.33192147130281069 -0.14195464082195219 0 -0.33213898148900051 -0.15136524699607401 0 -0.32101165496941902 -0.13642196876916049 0 -0.3201444893871328 -0.15163637893595569 0 -0.33192147130281069 -0.14195464082195219 0 -0.33192147130281069 -0.14195464082195219 0 -0.33213898148900051 -0.15136524699607401 0 -0.34213437633210469 -0.15162843961457531 0 -0.3201444893871328 -0.15163637893595569 0 -0.33213898148900051 -0.15136524699607401 0 -0.33234692411979933 -0.1607760694419503 0 -0.33213898148900051 -0.15136524699607401 0 -0.34213437633210469 -0.15162843961457531 0 -0.33234692411979933 -0.1607760694419503 0 -0.33192147130281069 -0.14195464082195219 0 -0.34213437633210469 -0.15162843961457531 0 -0.3445973505137026 -0.13915173013277271 0 -0.33192147130281069 -0.14195464082195219 0 -0.33489623770692178 -0.13130139151947101 0 -0.3445973505137026 -0.13915173013277271 0 -0.32101165496941902 -0.13642196876916049 0 -0.33192147130281069 -0.14195464082195219 0 -0.33489623770692178 -0.13130139151947101 0 -0.33983874289660487 -0.1200698395012714 0 -0.33489623770692178 -0.13130139151947101 0 -0.3448096548514894 -0.1272925732026722 0 -0.33489623770692178 -0.13130139151947101 0 -0.3448096548514894 -0.1272925732026722 0 -0.3445973505137026 -0.13915173013277271 0 -0.3448096548514894 -0.1272925732026722 0 -0.34969379765890207 -0.13329663444477641 0 -0.35426510156371033 -0.12915611303919619 0 -0.35245997120530398 -0.12379184712105901 0 -0.3448096548514894 -0.1272925732026722 0 -0.35426510156371033 -0.12915611303919619 0 -0.3448096548514894 -0.1272925732026722 0 -0.34969379765890207 -0.13329663444477641 0 -0.3445973505137026 -0.13915173013277271 0 -0.34969379765890207 -0.13329663444477641 0 -0.3445973505137026 -0.13915173013277271 0 -0.35663598090091853 -0.1375908028332474 0 -0.34969379765890207 -0.13329663444477641 0 -0.35663598090091853 -0.1375908028332474 0 -0.35426510156371033 -0.12915611303919619 0 -0.35781422145107322 -0.1242965498811112 0 -0.35426510156371033 -0.12915611303919619 0 -0.36476093191418357 -0.12990588975340961 0 -0.35663598090091853 -0.1375908028332474 0 -0.35426510156371033 -0.12915611303919619 0 -0.36476093191418357 -0.12990588975340961 0 -0.35781422145107322 -0.1242965498811112 0 -0.35245997120530398 -0.12379184712105901 0 -0.35426510156371033 -0.12915611303919619 0 -0.36256026990520168 -0.1169713834079686 0 -0.37732416674567443 -0.1351576518325032 0 -0.36256026990520168 -0.1169713834079686 0 -0.36476093191418357 -0.12990588975340961 0 -0.37732416674567443 -0.1351576518325032 0 -0.35663598090091853 -0.1375908028332474 0 -0.36476093191418357 -0.12990588975340961 0 -0.36696995385583192 -0.14044264584422481 0 -0.36476093191418357 -0.12990588975340961 0 -0.36696995385583192 -0.14044264584422481 0 -0.37732416674567443 -0.1351576518325032 0 -0.36696995385583192 -0.14044264584422481 0 -0.37414374842693138 -0.15097620031239059 0 -0.37732416674567443 -0.1351576518325032 0 -0.37414374842693138 -0.15097620031239059 0 -0.36198494129145148 -0.14858268448957329 0 -0.36545404627064493 -0.16050578640834889 0 -0.36696995385583192 -0.14044264584422481 0 -0.37414374842693138 -0.15097620031239059 0 -0.36198494129145148 -0.14858268448957329 0 -0.35663598090091853 -0.1375908028332474 0 -0.36696995385583192 -0.14044264584422481 0 -0.36198494129145148 -0.14858268448957329 0 -0.36198494129145148 -0.14858268448957329 0 -0.35526179173074329 -0.156691908586435 0 -0.36545404627064493 -0.16050578640834889 0 -0.36198494129145148 -0.14858268448957329 0 -0.35239847002040692 -0.14630478447130771 0 -0.35526179173074329 -0.156691908586435 0 -0.35663598090091853 -0.1375908028332474 0 -0.36198494129145148 -0.14858268448957329 0 -0.35239847002040692 -0.14630478447130771 0 -0.34213437633210469 -0.15162843961457531 0 -0.3445973505137026 -0.13915173013277271 0 -0.35239847002040692 -0.14630478447130771 0 -0.3445973505137026 -0.13915173013277271 0 -0.35663598090091853 -0.1375908028332474 0 -0.35239847002040692 -0.14630478447130771 0 -0.34213437633210469 -0.15162843961457531 0 -0.35239847002040692 -0.14630478447130771 0 -0.35526179173074329 -0.156691908586435 0 -0.34213437633210469 -0.15162843961457531 0 -0.34555524608915211 -0.16473127086450429 0 -0.35526179173074329 -0.156691908586435 0 -0.34555524608915211 -0.16473127086450429 0 -0.35846343651874391 -0.1681434867971687 0 -0.35050450360414348 -0.1730365723113661 0 -0.34555524608915211 -0.16473127086450429 0 -0.35050450360414348 -0.1730365723113661 0 -0.34223414367063071 -0.17771913371323411 0 -0.34555524608915211 -0.16473127086450429 0 -0.35846343651874391 -0.1681434867971687 0 -0.35526179173074329 -0.156691908586435 0 -0.35846343651874391 -0.1681434867971687 0 -0.35526179173074329 -0.156691908586435 0 -0.36545404627064493 -0.16050578640834889 0 -0.35846343651874391 -0.1681434867971687 0 -0.36545404627064493 -0.16050578640834889 0 -0.36727734960922198 -0.17240243837353891 0 -0.36545404627064493 -0.16050578640834889 0 -0.36727734960922198 -0.17240243837353891 0 -0.3755930100467777 -0.16623799989098681 0 -0.36727734960922198 -0.17240243837353891 0 -0.37535669443598968 -0.17623405701400921 0 -0.3755930100467777 -0.16623799989098681 0 -0.37414374842693138 -0.15097620031239059 0 -0.36545404627064493 -0.16050578640834889 0 -0.3755930100467777 -0.16623799989098681 0 -0.37412626093821821 -0.18640492796425631 0 -0.36680258108440378 -0.18191659448728059 0 -0.37535669443598968 -0.17623405701400921 0 -0.37412626093821821 -0.18640492796425631 0 -0.36680258108440378 -0.18191659448728059 0 -0.3671411858503113 -0.18893942953436341 0 -0.36727734960922198 -0.17240243837353891 0 -0.36680258108440378 -0.18191659448728059 0 -0.37535669443598968 -0.17623405701400921 0 -0.36727734960922198 -0.17240243837353891 0 -0.35978040771058623 -0.17736079950596911 0 -0.36680258108440378 -0.18191659448728059 0 -0.35846343651874391 -0.1681434867971687 0 -0.36727734960922198 -0.17240243837353891 0 -0.35978040771058623 -0.17736079950596911 0 -0.36680258108440378 -0.18191659448728059 0 -0.35833922982581851 -0.1878599546212755 0 -0.3671411858503113 -0.18893942953436341 0 -0.35978040771058623 -0.17736079950596911 0 -0.36680258108440378 -0.18191659448728059 0 -0.35833922982581851 -0.1878599546212755 0 -0.35215777102460782 -0.18053613693877499 0 -0.34801628649779009 -0.18758487802954871 0 -0.35833922982581851 -0.1878599546212755 0 -0.35978040771058623 -0.17736079950596911 0 -0.35215777102460782 -0.18053613693877499 0 -0.35833922982581851 -0.1878599546212755 0 -0.35846343651874391 -0.1681434867971687 0 -0.35978040771058623 -0.17736079950596911 0 -0.35050450360414348 -0.1730365723113661 0 -0.35978040771058623 -0.17736079950596911 0 -0.35215777102460782 -0.18053613693877499 0 -0.35050450360414348 -0.1730365723113661 0 -0.35215777102460782 -0.18053613693877499 0 -0.35050450360414348 -0.1730365723113661 0 -0.34223414367063071 -0.17771913371323411 0 -0.35215777102460782 -0.18053613693877499 0 -0.34223414367063071 -0.17771913371323411 0 -0.34801628649779009 -0.18758487802954871 0 -0.34223414367063071 -0.17771913371323411 0 -0.33992300674812609 -0.1880073555762731 0 -0.34801628649779009 -0.18758487802954871 0 -0.33196048872554063 -0.1830114204233087 0 -0.34223414367063071 -0.17771913371323411 0 -0.33992300674812609 -0.1880073555762731 0 -0.33196048872554063 -0.1830114204233087 0 -0.3334121694414206 -0.1715398216656539 0 -0.32282098551458938 -0.17699528958184579 0 -0.33196048872554063 -0.1830114204233087 0 -0.34223414367063071 -0.17771913371323411 0 -0.3334121694414206 -0.1715398216656539 0 -0.34555524608915211 -0.16473127086450429 0 -0.33234692411979933 -0.1607760694419503 0 -0.3334121694414206 -0.1715398216656539 0 -0.34555524608915211 -0.16473127086450429 0 -0.34223414367063071 -0.17771913371323411 0 -0.3334121694414206 -0.1715398216656539 0 -0.34213437633210469 -0.15162843961457531 0 -0.34555524608915211 -0.16473127086450429 0 -0.33234692411979933 -0.1607760694419503 0 -0.33234692411979933 -0.1607760694419503 0 -0.3334121694414206 -0.1715398216656539 0 -0.32403268448746181 -0.16610867509664759 0 -0.3334121694414206 -0.1715398216656539 0 -0.32403268448746181 -0.16610867509664759 0 -0.32282098551458938 -0.17699528958184579 0 -0.3201444893871328 -0.15163637893595569 0 -0.33234692411979933 -0.1607760694419503 0 -0.32403268448746181 -0.16610867509664759 0 -0.3201444893871328 -0.15163637893595569 0 -0.32403268448746181 -0.16610867509664759 0 -0.31261878620483491 -0.16668950472562749 0 -0.32403268448746181 -0.16610867509664759 0 -0.31261878620483491 -0.16668950472562749 0 -0.32282098551458938 -0.17699528958184579 0 -0.30765683528807891 -0.18154297536319941 0 -0.31261878620483491 -0.16668950472562749 0 -0.32282098551458938 -0.17699528958184579 0 -0.30765683528807891 -0.18154297536319941 0 -0.32282098551458938 -0.17699528958184579 0 -0.3217792285360912 -0.18884344633988351 0 -0.33196048872554063 -0.1830114204233087 0 -0.32282098551458938 -0.17699528958184579 0 -0.3217792285360912 -0.18884344633988351 0 -0.32347998057841271 -0.19869347841953269 0 -0.3217792285360912 -0.18884344633988351 0 -0.33232323399557012 -0.19421734009433189 0 -0.32347998057841271 -0.19869347841953269 0 -0.3217792285360912 -0.18884344633988351 0 -0.31267881778645779 -0.1962491292339191 0 -0.30765683528807891 -0.18154297536319941 0 -0.3217792285360912 -0.18884344633988351 0 -0.31267881778645779 -0.1962491292339191 0 -0.32347998057841271 -0.19869347841953269 0 -0.31267881778645779 -0.1962491292339191 0 -0.31866032871303479 -0.20934451070301349 0 -0.30610443113730712 -0.2143965331084986 0 -0.31866032871303479 -0.20934451070301349 0 -0.31704814812596011 -0.22231818335913739 0 -0.31866032871303479 -0.20934451070301349 0 -0.33077095576725191 -0.21536487988480871 0 -0.31704814812596011 -0.22231818335913739 0 -0.31866032871303479 -0.20934451070301349 0 -0.33195829386090908 -0.20481296572651519 0 -0.33077095576725191 -0.21536487988480871 0 -0.32347998057841271 -0.19869347841953269 0 -0.31866032871303479 -0.20934451070301349 0 -0.33195829386090908 -0.20481296572651519 0 -0.33195829386090908 -0.20481296572651519 0 -0.33077095576725191 -0.21536487988480871 0 -0.34242579831356329 -0.20877012000792231 0 -0.33077095576725191 -0.21536487988480871 0 -0.34242579831356329 -0.20877012000792231 0 -0.34283180394797652 -0.21899183831950469 0 -0.33195829386090908 -0.20481296572651519 0 -0.34242579831356329 -0.20877012000792231 0 -0.34247664510384968 -0.19706844638813881 0 -0.33195829386090908 -0.20481296572651519 0 -0.34247664510384968 -0.19706844638813881 0 -0.33232323399557012 -0.19421734009433189 0 -0.32347998057841271 -0.19869347841953269 0 -0.33195829386090908 -0.20481296572651519 0 -0.33232323399557012 -0.19421734009433189 0 -0.33196048872554063 -0.1830114204233087 0 -0.33232323399557012 -0.19421734009433189 0 -0.33992300674812609 -0.1880073555762731 0 -0.33196048872554063 -0.1830114204233087 0 -0.3217792285360912 -0.18884344633988351 0 -0.33232323399557012 -0.19421734009433189 0 -0.34247664510384968 -0.19706844638813881 0 -0.33232323399557012 -0.19421734009433189 0 -0.33992300674812609 -0.1880073555762731 0 -0.34247664510384968 -0.19706844638813881 0 -0.33992300674812609 -0.1880073555762731 0 -0.34801628649779009 -0.18758487802954871 0 -0.34247664510384968 -0.19706844638813881 0 -0.34801628649779009 -0.18758487802954871 0 -0.35163013713926311 -0.19434796754619851 0 -0.34247664510384968 -0.19706844638813881 0 -0.35032522400023769 -0.20145769059422949 0 -0.35163013713926311 -0.19434796754619851 0 -0.34242579831356329 -0.20877012000792231 0 -0.34247664510384968 -0.19706844638813881 0 -0.35032522400023769 -0.20145769059422949 0 -0.35032522400023769 -0.20145769059422949 0 -0.35766763389745349 -0.19701927302030059 0 -0.35718784412316362 -0.2041656901878986 0 -0.35032522400023769 -0.20145769059422949 0 -0.35766763389745349 -0.19701927302030059 0 -0.35163013713926311 -0.19434796754619851 0 -0.35766763389745349 -0.19701927302030059 0 -0.35833922982581851 -0.1878599546212755 0 -0.35163013713926311 -0.19434796754619851 0 -0.34801628649779009 -0.18758487802954871 0 -0.35833922982581851 -0.1878599546212755 0 -0.35163013713926311 -0.19434796754619851 0 -0.35833922982581851 -0.1878599546212755 0 -0.3671411858503113 -0.18893942953436341 0 -0.36352572509852682 -0.19429067591632079 0 -0.35766763389745349 -0.19701927302030059 0 -0.35833922982581851 -0.1878599546212755 0 -0.36352572509852682 -0.19429067591632079 0 -0.35766763389745349 -0.19701927302030059 0 -0.36352572509852682 -0.19429067591632079 0 -0.36499764319771189 -0.1999936592558807 0 -0.36352572509852682 -0.19429067591632079 0 -0.36499764319771189 -0.1999936592558807 0 -0.37161229782966809 -0.19488439022634291 0 -0.35766763389745349 -0.19701927302030059 0 -0.36499764319771189 -0.1999936592558807 0 -0.35718784412316362 -0.2041656901878986 0 -0.36499764319771189 -0.1999936592558807 0 -0.37440509936479321 -0.2010034787108366 0 -0.36664311868232152 -0.20772794521279719 0 -0.36499764319771189 -0.1999936592558807 0 -0.37440509936479321 -0.2010034787108366 0 -0.37161229782966809 -0.19488439022634291 0 -0.3671411858503113 -0.18893942953436341 0 -0.36352572509852682 -0.19429067591632079 0 -0.37161229782966809 -0.19488439022634291 0 -0.37412626093821821 -0.18640492796425631 0 -0.3671411858503113 -0.18893942953436341 0 -0.37161229782966809 -0.19488439022634291 0 -0.36499764319771189 -0.1999936592558807 0 -0.36664311868232152 -0.20772794521279719 0 -0.35718784412316362 -0.2041656901878986 0 -0.36664311868232152 -0.20772794521279719 0 -0.35718784412316362 -0.2041656901878986 0 -0.35794408997629928 -0.21084420120436809 0 -0.36664311868232152 -0.20772794521279719 0 -0.35794408997629928 -0.21084420120436809 0 -0.3591831638290397 -0.21882511451253031 0 -0.37437919224452409 -0.21268324239397979 0 -0.3591831638290397 -0.21882511451253031 0 -0.37437919224452409 -0.21268324239397979 0 -0.36664311868232152 -0.20772794521279719 0 -0.3591831638290397 -0.21882511451253031 0 -0.34791107139879263 -0.21461154328118751 0 -0.3591831638290397 -0.21882511451253031 0 -0.34283180394797652 -0.21899183831950469 0 -0.35461797010065388 -0.2145527873232935 0 -0.34791107139879263 -0.21461154328118751 0 -0.3591831638290397 -0.21882511451253031 0 -0.35461797010065388 -0.2145527873232935 0 -0.3591831638290397 -0.21882511451253031 0 -0.35461797010065388 -0.2145527873232935 0 -0.35794408997629928 -0.21084420120436809 0 -0.3591831638290397 -0.21882511451253031 0 -0.35461797010065388 -0.2145527873232935 0 -0.35794408997629928 -0.21084420120436809 0 -0.35208835314631798 -0.20894946878531981 0 -0.35718784412316362 -0.2041656901878986 0 -0.35794408997629928 -0.21084420120436809 0 -0.35208835314631798 -0.20894946878531981 0 -0.35032522400023769 -0.20145769059422949 0 -0.35718784412316362 -0.2041656901878986 0 -0.35208835314631798 -0.20894946878531981 0 -0.34242579831356329 -0.20877012000792231 0 -0.35208835314631798 -0.20894946878531981 0 -0.34791107139879263 -0.21461154328118751 0 -0.34242579831356329 -0.20877012000792231 0 -0.35032522400023769 -0.20145769059422949 0 -0.35208835314631798 -0.20894946878531981 0 -0.34242579831356329 -0.20877012000792231 0 -0.34791107139879263 -0.21461154328118751 0 -0.34283180394797652 -0.21899183831950469 0 -0.35461797010065388 -0.2145527873232935 0 -0.35208835314631798 -0.20894946878531981 0 -0.34791107139879263 -0.21461154328118751 0 -0.3591831638290397 -0.21882511451253031 0 -0.36022887783916319 -0.23604711739657941 0 -0.33438423416468849 -0.22884825019713009 0 -0.3591831638290397 -0.21882511451253031 0 -0.33438423416468849 -0.22884825019713009 0 -0.3591831638290397 -0.21882511451253031 0 -0.34283180394797652 -0.21899183831950469 0 -0.33438423416468849 -0.22884825019713009 0 -0.37437919224452409 -0.21268324239397979 0 -0.3591831638290397 -0.21882511451253031 0 -0.37748232784572811 -0.2359503496329321 0 -0.3591831638290397 -0.21882511451253031 0 -0.36022887783916319 -0.23604711739657941 0 -0.37748232784572811 -0.2359503496329321 0 -0.3591831638290397 -0.21882511451253031 0 -0.37748232784572811 -0.2359503496329321 0 -0.37037932240072358 -0.24999915582584881 0 -0.36022887783916319 -0.23604711739657941 0 -0.37748232784572811 -0.2359503496329321 0 -0.3555286812485845 -0.2501349896800531 0 -0.37037932240072358 -0.24999915582584881 0 -0.36022887783916319 -0.23604711739657941 0 -0.3555286812485845 -0.2501349896800531 0 -0.36022887783916319 -0.23604711739657941 0 -0.33438423416468849 -0.22884825019713009 0 -0.3420568595076029 -0.25747954770235609 0 -0.3555286812485845 -0.2501349896800531 0 -0.33438423416468849 -0.22884825019713009 0 -0.32281716316625958 -0.25524718493382248 0 -0.3420568595076029 -0.25747954770235609 0 -0.33438423416468849 -0.22884825019713009 0 -0.3420568595076029 -0.25747954770235609 0 -0.33438423416468849 -0.22884825019713009 0 -0.33077095576725191 -0.21536487988480871 0 -0.34283180394797652 -0.21899183831950469 0 -0.33438423416468849 -0.22884825019713009 0 -0.33077095576725191 -0.21536487988480871 0 -0.33438423416468849 -0.22884825019713009 0 -0.3080344920095332 -0.2394981872891698 0 -0.33438423416468849 -0.22884825019713009 0 -0.31704814812596011 -0.22231818335913739 0 -0.33077095576725191 -0.21536487988480871 0 -0.33438423416468849 -0.22884825019713009 0 -0.31704814812596011 -0.22231818335913739 0 -0.3080344920095332 -0.2394981872891698 0 -0.33438423416468849 -0.22884825019713009 0 -0.32281716316625958 -0.25524718493382248 0 -0.3080344920095332 -0.2394981872891698 0 -0.33438423416468849 -0.22884825019713009 0 -0.43023046646914581 -0.23985392379185319 0 -0.41744802216696569 -0.21903303238228489 0 -0.44462161006640921 -0.2190110932760814 0 -0.43023046646914581 -0.23985392379185319 0 -0.44462161006640921 -0.2190110932760814 0 -0.41744802216696569 -0.21903303238228489 0 -0.41453464611169838 -0.23510384606665799 0 -0.39947786323732332 -0.22860651549460059 0 -0.43023046646914581 -0.23985392379185319 0 -0.41744802216696569 -0.21903303238228489 0 -0.41453464611169838 -0.23510384606665799 0 -0.41744802216696569 -0.21903303238228489 0 -0.39947786323732332 -0.22860651549460059 0 -0.4029274497153611 -0.2136009029985024 0 -0.4093805058146377 -0.2506716607137715 0 -0.41453464611169838 -0.23510384606665799 0 -0.39947786323732332 -0.22860651549460059 0 -0.4093805058146377 -0.2506716607137715 0 -0.42375174642720059 -0.25747665660699209 0 -0.43023046646914581 -0.23985392379185319 0 -0.4093805058146377 -0.2506716607137715 0 -0.43023046646914581 -0.23985392379185319 0 -0.41453464611169838 -0.23510384606665799 0 -0.4093805058146377 -0.2506716607137715 0 -0.39228016303406871 -0.23903993014678601 0 -0.39947786323732332 -0.22860651549460059 0 -0.39578149186241629 -0.25307558475333419 0 -0.4093805058146377 -0.2506716607137715 0 -0.39228016303406871 -0.23903993014678601 0 -0.4093805058146377 -0.2506716607137715 0 -0.39947786323732332 -0.22860651549460059 0 -0.38213681964367452 -0.25932860156274218 0 -0.39578149186241629 -0.25307558475333419 0 -0.37748232784572811 -0.2359503496329321 0 -0.38213681964367452 -0.25932860156274218 0 -0.37037932240072358 -0.24999915582584881 0 -0.37748232784572811 -0.2359503496329321 0 -0.39578149186241629 -0.25307558475333419 0 -0.39228016303406871 -0.23903993014678601 0 -0.37748232784572811 -0.2359503496329321 0 -0.39578149186241629 -0.25307558475333419 0 -0.37748232784572811 -0.2359503496329321 0 -0.37437919224452409 -0.21268324239397979 0 -0.37748232784572811 -0.2359503496329321 0 -0.38540020837955158 -0.22305385507505149 0 -0.39228016303406871 -0.23903993014678601 0 -0.37748232784572811 -0.2359503496329321 0 -0.38540020837955158 -0.22305385507505149 0 -0.38540020837955158 -0.22305385507505149 0 -0.39947786323732332 -0.22860651549460059 0 -0.38957522066000883 -0.20654137027542971 0 -0.39228016303406871 -0.23903993014678601 0 -0.38540020837955158 -0.22305385507505149 0 -0.39947786323732332 -0.22860651549460059 0 -0.39947786323732332 -0.22860651549460059 0 -0.4029274497153611 -0.2136009029985024 0 -0.38957522066000883 -0.20654137027542971 0 -0.38957522066000883 -0.20654137027542971 0 -0.38822297524924398 -0.2035282865326285 0 -0.405208692797148 -0.20022269384169761 0 -0.4029274497153611 -0.2136009029985024 0 -0.38957522066000883 -0.20654137027542971 0 -0.405208692797148 -0.20022269384169761 0 -0.39947786323732332 -0.22860651549460059 0 -0.38957522066000883 -0.20654137027542971 0 -0.38957522066000883 -0.20654137027542971 0 -0.405208692797148 -0.20022269384169761 0 -0.37437919224452409 -0.21268324239397979 0 -0.38540020837955158 -0.22305385507505149 0 -0.38957522066000883 -0.20654137027542971 0 -0.37440509936479321 -0.2010034787108366 0 -0.36664311868232152 -0.20772794521279719 0 -0.38822297524924398 -0.2035282865326285 0 -0.36664311868232152 -0.20772794521279719 0 -0.38822297524924398 -0.2035282865326285 0 -0.37437919224452409 -0.21268324239397979 0 -0.36664311868232152 -0.20772794521279719 0 -0.38822297524924398 -0.2035282865326285 0 -0.37437919224452409 -0.21268324239397979 0 -0.38957522066000883 -0.20654137027542971 0 -0.38822297524924398 -0.2035282865326285 0 -0.38957522066000883 -0.20654137027542971 0 -0.38822297524924398 -0.2035282865326285 0 -0.37437919224452409 -0.21268324239397979 0 -0.38957522066000883 -0.20654137027542971 0 -0.37161229782966809 -0.19488439022634291 0 -0.38102451516259789 -0.19152308316486569 0 -0.37994467581138641 -0.19805875226922071 0 -0.37412626093821821 -0.18640492796425631 0 -0.37161229782966809 -0.19488439022634291 0 -0.38102451516259789 -0.19152308316486569 0 -0.38102451516259789 -0.19152308316486569 0 -0.37994467581138641 -0.19805875226922071 0 -0.38307280076577571 -0.19563095418573359 0 -0.37440509936479321 -0.2010034787108366 0 -0.38822297524924398 -0.2035282865326285 0 -0.37994467581138641 -0.19805875226922071 0 -0.37440509936479321 -0.2010034787108366 0 -0.37161229782966809 -0.19488439022634291 0 -0.37994467581138641 -0.19805875226922071 0 -0.38822297524924398 -0.2035282865326285 0 -0.37994467581138641 -0.19805875226922071 0 -0.38617773200625949 -0.19897105962954231 0 -0.38617773200625949 -0.19897105962954231 0 -0.38307280076577571 -0.19563095418573359 0 -0.38896539421689619 -0.19153555996744981 0 -0.37994467581138641 -0.19805875226922071 0 -0.38617773200625949 -0.19897105962954231 0 -0.38307280076577571 -0.19563095418573359 0 -0.38822297524924398 -0.2035282865326285 0 -0.38617773200625949 -0.19897105962954231 0 -0.38896539421689619 -0.19153555996744981 0 -0.38822297524924398 -0.2035282865326285 0 -0.38617773200625949 -0.19897105962954231 0 -0.38102451516259789 -0.19152308316486569 0 -0.38896539421689619 -0.19153555996744981 0 -0.38276769207642652 -0.1830953735691094 0 -0.38102451516259789 -0.19152308316486569 0 -0.38307280076577571 -0.19563095418573359 0 -0.38896539421689619 -0.19153555996744981 0 -0.38896539421689619 -0.19153555996744981 0 -0.39820428917594408 -0.19088785020773821 0 -0.391780015281598 -0.1815468823694793 0 -0.38822297524924398 -0.2035282865326285 0 -0.405208692797148 -0.20022269384169761 0 -0.38822297524924398 -0.2035282865326285 0 -0.39820428917594408 -0.19088785020773821 0 -0.405208692797148 -0.20022269384169761 0 -0.38822297524924398 -0.2035282865326285 0 -0.38896539421689619 -0.19153555996744981 0 -0.39820428917594408 -0.19088785020773821 0 -0.39820428917594408 -0.19088785020773821 0 -0.405208692797148 -0.20022269384169761 0 -0.40673842328362109 -0.18718266024673119 0 -0.405208692797148 -0.20022269384169761 0 -0.42625555382956598 -0.19612676149150199 0 -0.405208692797148 -0.20022269384169761 0 -0.42358270348472071 -0.1927963571132755 0 -0.40673842328362109 -0.18718266024673119 0 -0.405208692797148 -0.20022269384169761 0 -0.42358270348472071 -0.1927963571132755 0 -0.42625555382956598 -0.19612676149150199 0 -0.405208692797148 -0.20022269384169761 0 -0.42358270348472071 -0.1927963571132755 0 -0.41744802216696569 -0.21903303238228489 0 -0.405208692797148 -0.20022269384169761 0 -0.42625555382956598 -0.19612676149150199 0 -0.41744802216696569 -0.21903303238228489 0 -0.4029274497153611 -0.2136009029985024 0 -0.405208692797148 -0.20022269384169761 0 -0.42625555382956598 -0.19612676149150199 0 -0.44462161006640921 -0.2190110932760814 0 -0.41744802216696569 -0.21903303238228489 0 -0.42625555382956598 -0.19612676149150199 0 -0.44462161006640921 -0.2190110932760814 0 -0.42358270348472071 -0.1927963571132755 0 -0.44282999077731777 -0.18501706281690261 0 -0.42625555382956598 -0.19612676149150199 0 -0.44599077341184978 -0.19228608785371731 0 -0.42358270348472071 -0.1927963571132755 0 -0.42625555382956598 -0.19612676149150199 0 -0.44282999077731777 -0.18501706281690261 0 -0.42358270348472071 -0.1927963571132755 0 -0.42625555382956598 -0.19612676149150199 0 -0.42358270348472071 -0.1927963571132755 0 -0.43422243861600102 -0.17429194703959949 0 -0.44282999077731777 -0.18501706281690261 0 -0.43422243861600102 -0.17429194703959949 0 -0.42388092841407032 -0.16103602093524191 0 -0.44888482387646289 -0.16145448699070419 0 -0.42388092841407032 -0.16103602093524191 0 -0.40636759916208859 -0.17134612555866849 0 -0.40838513860014819 -0.15289614790076031 0 -0.43422243861600102 -0.17429194703959949 0 -0.42388092841407032 -0.16103602093524191 0 -0.40636759916208859 -0.17134612555866849 0 -0.42358270348472071 -0.1927963571132755 0 -0.40636759916208859 -0.17134612555866849 0 -0.40673842328362109 -0.18718266024673119 0 -0.42358270348472071 -0.1927963571132755 0 -0.43422243861600102 -0.17429194703959949 0 -0.40636759916208859 -0.17134612555866849 0 -0.43422243861600102 -0.17429194703959949 0 -0.40636759916208859 -0.17134612555866849 0 -0.42358270348472071 -0.1927963571132755 0 -0.40636759916208859 -0.17134612555866849 0 -0.39820428917594408 -0.19088785020773821 0 -0.40673842328362109 -0.18718266024673119 0 -0.40032883179820278 -0.18066027451227981 0 -0.40636759916208859 -0.17134612555866849 0 -0.40673842328362109 -0.18718266024673119 0 -0.40032883179820278 -0.18066027451227981 0 -0.40636759916208859 -0.17134612555866849 0 -0.40032883179820278 -0.18066027451227981 0 -0.39372502479038712 -0.17000909515790349 0 -0.40032883179820278 -0.18066027451227981 0 -0.391780015281598 -0.1815468823694793 0 -0.39372502479038712 -0.17000909515790349 0 -0.39820428917594408 -0.19088785020773821 0 -0.40032883179820278 -0.18066027451227981 0 -0.391780015281598 -0.1815468823694793 0 -0.38896539421689619 -0.19153555996744981 0 -0.391780015281598 -0.1815468823694793 0 -0.38276769207642652 -0.1830953735691094 0 -0.391780015281598 -0.1815468823694793 0 -0.3843440371601477 -0.17296361895491619 0 -0.38276769207642652 -0.1830953735691094 0 -0.391780015281598 -0.1815468823694793 0 -0.3843440371601477 -0.17296361895491619 0 -0.39372502479038712 -0.17000909515790349 0 -0.3843440371601477 -0.17296361895491619 0 -0.37535669443598968 -0.17623405701400921 0 -0.38276769207642652 -0.1830953735691094 0 -0.37412626093821821 -0.18640492796425631 0 -0.38102451516259789 -0.19152308316486569 0 -0.38276769207642652 -0.1830953735691094 0 -0.37412626093821821 -0.18640492796425631 0 -0.37535669443598968 -0.17623405701400921 0 -0.38276769207642652 -0.1830953735691094 0 -0.38526736899256497 -0.16254671664751821 0 -0.39372502479038712 -0.17000909515790349 0 -0.39184588295388229 -0.15325188869558529 0 -0.37414374842693138 -0.15097620031239059 0 -0.3755930100467777 -0.16623799989098681 0 -0.38526736899256497 -0.16254671664751821 0 -0.3843440371601477 -0.17296361895491619 0 -0.3755930100467777 -0.16623799989098681 0 -0.38526736899256497 -0.16254671664751821 0 -0.3843440371601477 -0.17296361895491619 0 -0.37535669443598968 -0.17623405701400921 0 -0.3755930100467777 -0.16623799989098681 0 -0.3843440371601477 -0.17296361895491619 0 -0.38526736899256497 -0.16254671664751821 0 -0.39372502479038712 -0.17000909515790349 0 -0.40636759916208859 -0.17134612555866849 0 -0.39184588295388229 -0.15325188869558529 0 -0.40636759916208859 -0.17134612555866849 0 -0.39372502479038712 -0.17000909515790349 0 -0.39184588295388229 -0.15325188869558529 0 -0.40636759916208859 -0.17134612555866849 0 -0.39184588295388229 -0.15325188869558529 0 -0.40838513860014819 -0.15289614790076031 0 -0.40636759916208859 -0.17134612555866849 0 -0.39372502479038712 -0.17000909515790349 0 -0.39184588295388229 -0.15325188869558529 0 -0.40111314751346627 -0.13466118424139989 0 -0.40838513860014819 -0.15289614790076031 0 -0.39184588295388229 -0.15325188869558529 0 -0.37732416674567443 -0.1351576518325032 0 -0.40111314751346627 -0.13466118424139989 0 -0.37414374842693138 -0.15097620031239059 0 -0.38526736899256497 -0.16254671664751821 0 -0.39184588295388229 -0.15325188869558529 0 -0.39184588295388229 -0.15325188869558529 0 -0.37732416674567443 -0.1351576518325032 0 -0.37414374842693138 -0.15097620031239059 0 -0.39184588295388229 -0.15325188869558529 0 -0.37732416674567443 -0.1351576518325032 0 -0.37732416674567443 -0.1351576518325032 0 -0.40111314751346627 -0.13466118424139989 0 -0.38551701165619767 -0.1186545542339927 0 -0.40111314751346627 -0.13466118424139989 0 -0.4200171579975 -0.1428709483248034 0 -0.42163284423163039 -0.1229039083375334 0 -0.42388092841407032 -0.16103602093524191 0 -0.40838513860014819 -0.15289614790076031 0 -0.4200171579975 -0.1428709483248034 0 -0.40111314751346627 -0.13466118424139989 0 -0.40838513860014819 -0.15289614790076031 0 -0.4200171579975 -0.1428709483248034 0 -0.42388092841407032 -0.16103602093524191 0 -0.4200171579975 -0.1428709483248034 0 -0.44755623545957268 -0.14094354732044639 0 -0.4200171579975 -0.1428709483248034 0 -0.44755623545957268 -0.14094354732044639 0 -0.42163284423163039 -0.1229039083375334 0 -0.44755623545957268 -0.14094354732044639 0 -0.46702312222815362 -0.15153135695474279 0 -0.46503749030638131 -0.1201852284944262 0 -0.42388092841407032 -0.16103602093524191 0 -0.44755623545957268 -0.14094354732044639 0 -0.44888482387646289 -0.16145448699070419 0 -0.44755623545957268 -0.14094354732044639 0 -0.46702312222815362 -0.15153135695474279 0 -0.44888482387646289 -0.16145448699070419 0 -0.44755623545957268 -0.14094354732044639 0 -0.46503749030638131 -0.1201852284944262 0 -0.46702312222815362 -0.15153135695474279 0 -0.48094773686457598 -0.1367098916680124 0 -0.46503749030638131 -0.1201852284944262 0 -0.48094773686457598 -0.1367098916680124 0 -0.46503749030638131 -0.1201852284944262 0 -0.4857007944648295 -0.1207730779530433 0 -0.48094773686457598 -0.1367098916680124 0 -0.50000000000000022 -0.13880604300878599 0 -0.4857007944648295 -0.1207730779530433 0 -0.50000000000000022 -0.13880604300878599 0 -0.48893615212081432 -0.15482991940468571 0 -0.48094773686457598 -0.1367098916680124 0 -0.50000000000000022 -0.13880604300878599 0 -0.48893615212081432 -0.15482991940468571 0 -0.50000000000000022 -0.13880604300878599 0 -0.48893615212081432 -0.15482991940468571 0 -0.50000000000001532 -0.1619103091269368 0 -0.46702312222815362 -0.15153135695474279 0 -0.48094773686457598 -0.1367098916680124 0 -0.48893615212081432 -0.15482991940468571 0 -0.48893615212081432 -0.15482991940468571 0 -0.47787230424162958 -0.17085379580058621 0 -0.46702312222815362 -0.15153135695474279 0 -0.47787230424162958 -0.17085379580058621 0 -0.46207727806991372 -0.17723776852052719 0 -0.46702312222815362 -0.15153135695474279 0 -0.48893615212081432 -0.15482991940468571 0 -0.47787230424162958 -0.17085379580058621 0 -0.48893615212081432 -0.15482991940468571 0 -0.47787230424162958 -0.17085379580058621 0 -0.50000000000001532 -0.1619103091269368 0 -0.47787230424162958 -0.17085379580058621 0 -0.50000000000001532 -0.1619103091269368 0 -0.50000000000000488 -0.18124833081659769 0 -0.47787230424162958 -0.17085379580058621 0 -0.50000000000001532 -0.1619103091269368 0 -0.50000000000000488 -0.18124833081659769 0 -0.47268951545127719 -0.17836007823229291 0 -0.49028144196665818 -0.1836666751124971 0 -0.50000000000000488 -0.18124833081659769 0 -0.47268951545127719 -0.17836007823229291 0 -0.49028144196665818 -0.1836666751124971 0 -0.46572599299413281 -0.1884454142159287 0 -0.47787230424162958 -0.17085379580058621 0 -0.50000000000000488 -0.18124833081659769 0 -0.47268951545127719 -0.17836007823229291 0 -0.47787230424162958 -0.17085379580058621 0 -0.47268951545127719 -0.17836007823229291 0 -0.46207727806991372 -0.17723776852052719 0 -0.47787230424162958 -0.17085379580058621 0 -0.46207727806991372 -0.17723776852052719 0 -0.49028144196665818 -0.1836666751124971 0 -0.47268951545127719 -0.17836007823229291 0 -0.46572599299413281 -0.1884454142159287 0 -0.47787230424162958 -0.17085379580058621 0 -0.47268951545127719 -0.17836007823229291 0 -0.47268951545127719 -0.17836007823229291 0 -0.46572599299413281 -0.1884454142159287 0 -0.47268951545127719 -0.17836007823229291 0 -0.46207727806991372 -0.17723776852052719 0 -0.46572599299413281 -0.1884454142159287 0 -0.45496057929012329 -0.1857524047749595 0 -0.46207727806991372 -0.17723776852052719 0 -0.44282999077731777 -0.18501706281690261 0 -0.45496057929012329 -0.1857524047749595 0 -0.46207727806991372 -0.17723776852052719 0 -0.46572599299413281 -0.1884454142159287 0 -0.47268951545127719 -0.17836007823229291 0 -0.46207727806991372 -0.17723776852052719 0 -0.46702312222815362 -0.15153135695474279 0 -0.46207727806991372 -0.17723776852052719 0 -0.44888482387646289 -0.16145448699070419 0 -0.43422243861600102 -0.17429194703959949 0 -0.46207727806991372 -0.17723776852052719 0 -0.44888482387646289 -0.16145448699070419 0 -0.43422243861600102 -0.17429194703959949 0 -0.46207727806991372 -0.17723776852052719 0 -0.44282999077731777 -0.18501706281690261 0 -0.43422243861600102 -0.17429194703959949 0 -0.46207727806991372 -0.17723776852052719 0 -0.46207727806991372 -0.17723776852052719 0 -0.44282999077731777 -0.18501706281690261 0 -0.42625555382956598 -0.19612676149150199 0 -0.44282999077731777 -0.18501706281690261 0 -0.44599077341184978 -0.19228608785371731 0 -0.42625555382956598 -0.19612676149150199 0 -0.44599077341184978 -0.19228608785371731 0 -0.44462161006640921 -0.2190110932760814 0 -0.45496057929012329 -0.1857524047749595 0 -0.44282999077731777 -0.18501706281690261 0 -0.44599077341184978 -0.19228608785371731 0 -0.44599077341184978 -0.19228608785371731 0 -0.4551738015302691 -0.20372825374600381 0 -0.44462161006640921 -0.2190110932760814 0 -0.4551738015302691 -0.20372825374600381 0 -0.45748136804653577 -0.215837986767138 0 -0.44462161006640921 -0.2190110932760814 0 -0.4551738015302691 -0.20372825374600381 0 -0.44462161006640921 -0.2190110932760814 0 -0.45748136804653577 -0.215837986767138 0 -0.4672844036349284 -0.2031670508929008 0 -0.47093415502521058 -0.22131426350988309 0 -0.4551738015302691 -0.20372825374600381 0 -0.45748136804653577 -0.215837986767138 0 -0.4672844036349284 -0.2031670508929008 0 -0.44599077341184978 -0.19228608785371731 0 -0.46572599299413281 -0.1884454142159287 0 -0.4551738015302691 -0.20372825374600381 0 -0.4672844036349284 -0.2031670508929008 0 -0.46572599299413281 -0.1884454142159287 0 -0.45496057929012329 -0.1857524047749595 0 -0.44599077341184978 -0.19228608785371731 0 -0.46572599299413281 -0.1884454142159287 0 -0.44599077341184978 -0.19228608785371731 0 -0.4551738015302691 -0.20372825374600381 0 -0.46572599299413281 -0.1884454142159287 0 -0.4551738015302691 -0.20372825374600381 0 -0.46572599299413281 -0.1884454142159287 0 -0.49028144196665818 -0.1836666751124971 0 -0.46572599299413281 -0.1884454142159287 0 -0.48080246527715192 -0.2027467238985983 0 -0.4672844036349284 -0.2031670508929008 0 -0.46572599299413281 -0.1884454142159287 0 -0.48080246527715192 -0.2027467238985983 0 -0.49028144196665818 -0.1836666751124971 0 -0.48080246527715192 -0.2027467238985983 0 -0.5 -0.2090851688799524 0 -0.49028144196665818 -0.1836666751124971 0 -0.50000000000000488 -0.18124833081659769 0 -0.5 -0.2090851688799524 0 -0.48080246527715192 -0.2027467238985983 0 -0.5 -0.2090851688799524 0 -0.48572414893933258 -0.22467199847371369 0 -0.48080246527715192 -0.2027467238985983 0 -0.47093415502521058 -0.22131426350988309 0 -0.48572414893933258 -0.22467199847371369 0 -0.4672844036349284 -0.2031670508929008 0 -0.48080246527715192 -0.2027467238985983 0 -0.47093415502521058 -0.22131426350988309 0 -0.47093415502521058 -0.22131426350988309 0 -0.48572414893933258 -0.22467199847371369 0 -0.47737559893209919 -0.2436496940318624 0 -0.47093415502521058 -0.22131426350988309 0 -0.47737559893209919 -0.2436496940318624 0 -0.46208531904319461 -0.236770957099911 0 -0.5 -0.2090851688799524 0 -0.48572414893933258 -0.22467199847371369 0 -0.5 -0.23692200694330709 0 -0.48572414893933258 -0.22467199847371369 0 -0.5 -0.23692200694330709 0 -0.47737559893209919 -0.2436496940318624 0 -0.5 -0.26475884500666191 0 -0.5 -0.23692200694330709 0 -0.47737559893209919 -0.2436496940318624 0 -0.45801144875205019 -0.25334539799888911 0 -0.47737559893209919 -0.2436496940318624 0 -0.45801144875205019 -0.25334539799888911 0 -0.46208531904319461 -0.236770957099911 0 -0.44834333113090741 -0.24016017746343199 0 -0.45801144875205019 -0.25334539799888911 0 -0.47737559893209919 -0.2436496940318624 0 -0.46208531904319461 -0.236770957099911 0 -0.46208531904319461 -0.236770957099911 0 -0.45742452564993907 -0.2275301903700099 0 -0.44834333113090741 -0.24016017746343199 0 -0.47093415502521058 -0.22131426350988309 0 -0.46208531904319461 -0.236770957099911 0 -0.45742452564993907 -0.2275301903700099 0 -0.45748136804653577 -0.215837986767138 0 -0.47093415502521058 -0.22131426350988309 0 -0.45742452564993907 -0.2275301903700099 0 -0.45748136804653577 -0.215837986767138 0 -0.45742452564993907 -0.2275301903700099 0 -0.44827845500384689 -0.2235675670096853 0 -0.43023046646914581 -0.23985392379185319 0 -0.44827845500384689 -0.2235675670096853 0 -0.44462161006640921 -0.2190110932760814 0 -0.45742452564993907 -0.2275301903700099 0 -0.44827845500384689 -0.2235675670096853 0 -0.44834333113090741 -0.24016017746343199 0 -0.45748136804653577 -0.215837986767138 0 -0.44827845500384689 -0.2235675670096853 0 -0.44462161006640921 -0.2190110932760814 0 -0.44827845500384689 -0.2235675670096853 0 -0.44462161006640921 -0.2190110932760814 0 -0.43023046646914581 -0.23985392379185319 0 -0.44827845500384689 -0.2235675670096853 0 -0.44834333113090741 -0.24016017746343199 0 -0.43864729857200108 -0.26304110196591568 0 -0.43023046646914581 -0.23985392379185319 0 -0.44834333113090741 -0.24016017746343199 0 -0.40861272440553781 -0.049186011585142013 0 -0.42795871190741591 -0.051220396517092717 0 -0.42235840103521449 -0.034675026478302069 0 -0.40861272440553781 -0.049186011585142013 0 -0.42235840103521449 -0.034675026478302069 0 -0.39703284996436289 -0.026256946939048259 0 -0.40861272440553781 -0.049186011585142013 0 -0.42795871190741591 -0.051220396517092717 0 -0.4209693825399754 -0.064073139365195056 0 -0.40861272440553781 -0.049186011585142013 0 -0.40366856539997292 -0.072621504347480798 0 -0.4209693825399754 -0.064073139365195056 0 -0.42795871190741591 -0.051220396517092717 0 -0.4209693825399754 -0.064073139365195056 0 -0.44028282676244079 -0.064245903855236458 0 -0.42795871190741591 -0.051220396517092717 0 -0.42235840103521449 -0.034675026478302069 0 -0.44757022479391079 -0.043921901301587997 0 -0.42235840103521449 -0.034675026478302069 0 -0.44757022479391079 -0.043921901301587997 0 -0.43960898304192048 -0.023521391493968601 0 -0.42235840103521449 -0.034675026478302069 0 -0.41921392636651439 -0.01638213025511872 0 -0.43960898304192048 -0.023521391493968601 0 -0.43328114868639828 -0.0090595337897695014 0 -0.41921392636651439 -0.01638213025511872 0 -0.43960898304192048 -0.023521391493968601 0 -0.43328114868639828 -0.0090595337897695014 0 -0.41921392636651439 -0.01638213025511872 0 -0.41937054600511359 0.0023375494341298609 0 -0.41921392636651439 -0.01638213025511872 0 -0.40363162946607678 -0.0071174322637537688 0 -0.41937054600511359 0.0023375494341298609 0 -0.41921392636651439 -0.01638213025511872 0 -0.39703284996436289 -0.026256946939048259 0 -0.40363162946607678 -0.0071174322637537688 0 -0.42235840103521449 -0.034675026478302069 0 -0.41921392636651439 -0.01638213025511872 0 -0.39703284996436289 -0.026256946939048259 0 -0.39703284996436289 -0.026256946939048259 0 -0.40363162946607678 -0.0071174322637537688 0 -0.38484909517029481 -0.014784741646386121 0 -0.40363162946607678 -0.0071174322637537688 0 -0.38484909517029481 -0.014784741646386121 0 -0.3809477351706122 0.0027779631661205301 0 -0.36257320357981859 -0.012194253395404061 0 -0.38484909517029481 -0.014784741646386121 0 -0.3809477351706122 0.0027779631661205301 0 -0.39703284996436289 -0.026256946939048259 0 -0.38484909517029481 -0.014784741646386121 0 -0.37598279533181522 -0.029628349151500848 0 -0.39703284996436289 -0.026256946939048259 0 -0.37598279533181522 -0.029628349151500848 0 -0.38810706618104662 -0.049745106066023309 0 -0.36398573043032001 -0.045122201745531908 0 -0.37598279533181522 -0.029628349151500848 0 -0.38810706618104662 -0.049745106066023309 0 -0.39703284996436289 -0.026256946939048259 0 -0.38810706618104662 -0.049745106066023309 0 -0.40861272440553781 -0.049186011585142013 0 -0.39703284996436289 -0.026256946939048259 0 -0.38810706618104662 -0.049745106066023309 0 -0.40861272440553781 -0.049186011585142013 0 -0.38810706618104662 -0.049745106066023309 0 -0.40366856539997292 -0.072621504347480798 0 -0.38810706618104662 -0.049745106066023309 0 -0.37918128239773041 -0.073233265192998262 0 -0.36479289152511979 -0.062874062339952075 0 -0.38810706618104662 -0.049745106066023309 0 -0.37918128239773041 -0.073233265192998262 0 -0.38810706618104662 -0.049745106066023309 0 -0.37918128239773041 -0.073233265192998262 0 -0.40366856539997292 -0.072621504347480798 0 -0.37918128239773041 -0.073233265192998262 0 -0.39619889241447459 -0.09158796185438918 0 -0.38464238827253139 -0.1004914855687177 0 -0.3702554986144142 -0.096721424319973118 0 -0.37918128239773041 -0.073233265192998262 0 -0.38464238827253139 -0.1004914855687177 0 -0.37918128239773041 -0.073233265192998262 0 -0.39619889241447459 -0.09158796185438918 0 -0.40366856539997292 -0.072621504347480798 0 -0.39619889241447459 -0.09158796185438918 0 -0.40366856539997292 -0.072621504347480798 0 -0.41522649143400853 -0.098607886959600988 0 -0.37732416674567443 -0.1351576518325032 0 -0.38551701165619767 -0.1186545542339927 0 -0.37522264613750661 -0.1204780820721596 0 -0.38551701165619767 -0.1186545542339927 0 -0.38464238827253139 -0.1004914855687177 0 -0.40145468894168362 -0.1117150005582314 0 -0.38551701165619767 -0.1186545542339927 0 -0.37524695561068788 -0.11103670725272161 0 -0.38464238827253139 -0.1004914855687177 0 -0.38551701165619767 -0.1186545542339927 0 -0.37522264613750661 -0.1204780820721596 0 -0.37524695561068788 -0.11103670725272161 0 -0.3702554986144142 -0.096721424319973118 0 -0.37524695561068788 -0.11103670725272161 0 -0.38464238827253139 -0.1004914855687177 0 -0.39619889241447459 -0.09158796185438918 0 -0.38464238827253139 -0.1004914855687177 0 -0.40145468894168362 -0.1117150005582314 0 -0.39619889241447459 -0.09158796185438918 0 -0.40145468894168362 -0.1117150005582314 0 -0.41522649143400853 -0.098607886959600988 0 -0.40111314751346627 -0.13466118424139989 0 -0.38551701165619767 -0.1186545542339927 0 -0.40145468894168362 -0.1117150005582314 0 -0.44755623545957268 -0.14094354732044639 0 -0.42163284423163039 -0.1229039083375334 0 -0.44186540301422722 -0.1071829400144996 0 -0.40145468894168362 -0.1117150005582314 0 -0.42163284423163039 -0.1229039083375334 0 -0.41522649143400853 -0.098607886959600988 0 -0.40111314751346627 -0.13466118424139989 0 -0.40145468894168362 -0.1117150005582314 0 -0.42163284423163039 -0.1229039083375334 0 -0.41522649143400853 -0.098607886959600988 0 -0.4285471445958528 -0.08217933981738626 0 -0.44186540301422722 -0.1071829400144996 0 -0.42163284423163039 -0.1229039083375334 0 -0.41522649143400853 -0.098607886959600988 0 -0.44186540301422722 -0.1071829400144996 0 -0.40366856539997292 -0.072621504347480798 0 -0.4209693825399754 -0.064073139365195056 0 -0.4285471445958528 -0.08217933981738626 0 -0.40366856539997292 -0.072621504347480798 0 -0.41522649143400853 -0.098607886959600988 0 -0.4285471445958528 -0.08217933981738626 0 -0.4209693825399754 -0.064073139365195056 0 -0.4285471445958528 -0.08217933981738626 0 -0.44028282676244079 -0.064245903855236458 0 -0.44028282676244079 -0.064245903855236458 0 -0.45149471580549388 -0.082488446232582502 0 -0.47197997055397978 -0.061512118566184298 0 -0.4285471445958528 -0.08217933981738626 0 -0.44028282676244079 -0.064245903855236458 0 -0.45149471580549388 -0.082488446232582502 0 -0.4285471445958528 -0.08217933981738626 0 -0.45149471580549388 -0.082488446232582502 0 -0.44186540301422722 -0.1071829400144996 0 -0.45149471580549388 -0.082488446232582502 0 -0.46266014724958648 -0.10044326484988871 0 -0.47183395125857441 -0.083090051654580041 0 -0.45149471580549388 -0.082488446232582502 0 -0.47183395125857441 -0.083090051654580041 0 -0.47197997055397978 -0.061512118566184298 0 -0.44755623545957268 -0.14094354732044639 0 -0.44186540301422722 -0.1071829400144996 0 -0.46503749030638131 -0.1201852284944262 0 -0.45149471580549388 -0.082488446232582502 0 -0.44186540301422722 -0.1071829400144996 0 -0.46266014724958648 -0.10044326484988871 0 -0.44186540301422722 -0.1071829400144996 0 -0.46266014724958648 -0.10044326484988871 0 -0.46503749030638131 -0.1201852284944262 0 -0.46503749030638131 -0.1201852284944262 0 -0.48251874515318999 -0.099426909668405894 0 -0.4857007944648295 -0.1207730779530433 0 -0.46503749030638131 -0.1201852284944262 0 -0.48251874515318999 -0.099426909668405894 0 -0.46266014724958648 -0.10044326484988871 0 -0.46503749030638131 -0.1201852284944262 0 -0.48251874515318999 -0.099426909668405894 0 -0.46266014724958648 -0.10044326484988871 0 -0.48251874515318999 -0.099426909668405894 0 -0.47183395125857441 -0.083090051654580041 0 -0.48251874515318999 -0.099426909668405894 0 -0.5 -0.1087373169255859 0 -0.49999999999999911 -0.078668590842385977 0 -0.48251874515318999 -0.099426909668405894 0 -0.5 -0.1087373169255859 0 -0.4857007944648295 -0.1207730779530433 0 -0.50000000000000022 -0.13880604300878599 0 -0.5 -0.1087373169255859 0 -0.4857007944648295 -0.1207730779530433 0 -0.47183395125857441 -0.083090051654580041 0 -0.49999999999999911 -0.078668590842385977 0 -0.47197997055397978 -0.061512118566184298 0 -0.48251874515318999 -0.099426909668405894 0 -0.47183395125857441 -0.083090051654580041 0 -0.49999999999999911 -0.078668590842385977 0 -0.48251874515318999 -0.099426909668405894 0 -0.49999999999999911 -0.078668590842385977 0 -0.49999999999999911 -0.078668590842385977 0 -0.5 -0.050849560728652883 0 -0.47197997055397978 -0.061512118566184298 0 -0.5 -0.050849560728652883 0 -0.47819464505182152 -0.03659521624160382 0 -0.5 -0.023030530614919661 0 -0.5 -0.050849560728652883 0 -0.47819464505182152 -0.03659521624160382 0 -0.47197997055397978 -0.061512118566184298 0 -0.44028282676244079 -0.064245903855236458 0 -0.47197997055397978 -0.061512118566184298 0 -0.44757022479391079 -0.043921901301587997 0 -0.47819464505182152 -0.03659521624160382 0 -0.47197997055397978 -0.061512118566184298 0 -0.44757022479391079 -0.043921901301587997 0 -0.47819464505182152 -0.03659521624160382 0 -0.44757022479391079 -0.043921901301587997 0 -0.45907776070717632 -0.02062181678599892 0 -0.42795871190741591 -0.051220396517092717 0 -0.44028282676244079 -0.064245903855236458 0 -0.44757022479391079 -0.043921901301587997 0 -0.43328114868639828 -0.0090595337897695014 0 -0.44970188090056618 -0.0070947829581152174 0 -0.43960898304192048 -0.023521391493968601 0 -0.43328114868639828 -0.0090595337897695014 0 -0.44970188090056618 -0.0070947829581152174 0 -0.4444869924105988 0.0039566657421790099 0 -0.44757022479391079 -0.043921901301587997 0 -0.43960898304192048 -0.023521391493968601 0 -0.45907776070717632 -0.02062181678599892 0 -0.44970188090056618 -0.0070947829581152174 0 -0.43960898304192048 -0.023521391493968601 0 -0.45907776070717632 -0.02062181678599892 0 -0.44970188090056618 -0.0070947829581152174 0 -0.45907776070717632 -0.02062181678599892 0 -0.46712162032275051 -0.003878327750432523 0 -0.44970188090056618 -0.0070947829581152174 0 -0.46712162032275051 -0.003878327750432523 0 -0.45627811214530728 0.007570946722698594 0 -0.45907776070717632 -0.02062181678599892 0 -0.46712162032275051 -0.003878327750432523 0 -0.47581576355292299 -0.019286372884052352 0 -0.46712162032275051 -0.003878327750432523 0 -0.48371714855787601 -0.0039271787647496654 0 -0.47581576355292299 -0.019286372884052352 0 -0.47819464505182152 -0.03659521624160382 0 -0.45907776070717632 -0.02062181678599892 0 -0.47581576355292299 -0.019286372884052352 0 -0.47819464505182152 -0.03659521624160382 0 -0.47581576355292299 -0.019286372884052352 0 -0.5 -0.023030530614919661 0 -0.48371714855787601 -0.0039271787647496654 0 -0.5 -0.023030530614919661 0 -0.5 0.0047884994988136587 0 -0.48371714855787601 -0.0039271787647496654 0 -0.47581576355292299 -0.019286372884052352 0 -0.5 -0.023030530614919661 0 -0.48371714855787601 -0.0039271787647496654 0 -0.5 0.0047884994988136587 0 -0.47813905607265461 0.020089238167622422 0 -0.47813905607265461 0.020089238167622422 0 -0.50000000000000155 0.032607529612546933 0 -0.48164415251432491 0.034216438295157803 0 -0.47813905607265461 0.020089238167622422 0 -0.50000000000000155 0.032607529612546933 0 -0.5 0.0047884994988136587 0 -0.47813905607265461 0.020089238167622422 0 -0.50000000000000155 0.032607529612546933 0 -0.47813905607265461 0.020089238167622422 0 -0.48164415251432491 0.034216438295157803 0 -0.46191098562896221 0.025338726721516221 0 -0.46712162032275051 -0.003878327750432523 0 -0.48371714855787601 -0.0039271787647496654 0 -0.47813905607265461 0.020089238167622422 0 -0.48620672975333729 0.05738452939685789 0 -0.49825151255027311 0.03964082755812999 0 -0.46988526684945331 0.048665473454496608 0 -0.48620672975333729 0.05738452939685789 0 -0.5 0.060709022869582241 0 -0.49825151255027311 0.03964082755812999 0 -0.48620672975333729 0.05738452939685789 0 -0.5 0.060709022869582241 0 -0.4873244939178214 0.069138125624743821 0 -0.5 0.060709022869582241 0 -0.50000000000000155 0.032607529612546933 0 -0.49825151255027311 0.03964082755812999 0 -0.50000000000000155 0.032607529612546933 0 -0.49825151255027311 0.03964082755812999 0 -0.48164415251432491 0.034216438295157803 0 -0.49825151255027311 0.03964082755812999 0 -0.46988526684945331 0.048665473454496608 0 -0.49825151255027311 0.03964082755812999 0 -0.48164415251432491 0.034216438295157803 0 -0.46988526684945331 0.048665473454496608 0 -0.48164415251432491 0.034216438295157803 0 -0.46988526684945331 0.048665473454496608 0 -0.46191098562896221 0.025338726721516221 0 -0.48620672975333729 0.05738452939685789 0 -0.46988526684945331 0.048665473454496608 0 -0.47557237544913838 0.068769197477336771 0 -0.46988526684945331 0.048665473454496608 0 -0.45958872070771523 0.068061906726397794 0 -0.47557237544913838 0.068769197477336771 0 -0.46988526684945331 0.048665473454496608 0 -0.44151902114863339 0.057690119350863253 0 -0.45958872070771523 0.068061906726397794 0 -0.46988526684945331 0.048665473454496608 0 -0.44151902114863339 0.057690119350863253 0 -0.46988526684945331 0.048665473454496608 0 -0.44463951997591838 0.035845953044838681 0 -0.46191098562896221 0.025338726721516221 0 -0.46988526684945331 0.048665473454496608 0 -0.44463951997591838 0.035845953044838681 0 -0.44151902114863339 0.057690119350863253 0 -0.46712162032275051 -0.003878327750432523 0 -0.47813905607265461 0.020089238167622422 0 -0.45627811214530728 0.007570946722698594 0 -0.47813905607265461 0.020089238167622422 0 -0.45627811214530728 0.007570946722698594 0 -0.47813905607265461 0.020089238167622422 0 -0.45627811214530728 0.007570946722698594 0 -0.46191098562896221 0.025338726721516221 0 -0.45627811214530728 0.007570946722698594 0 -0.46191098562896221 0.025338726721516221 0 -0.44611294451988182 0.016067716614950121 0 -0.44463951997591838 0.035845953044838681 0 -0.44611294451988182 0.016067716614950121 0 -0.42529466980475672 0.024055042012006169 0 -0.44463951997591838 0.035845953044838681 0 -0.46191098562896221 0.025338726721516221 0 -0.44611294451988182 0.016067716614950121 0 -0.44611294451988182 0.016067716614950121 0 -0.4444869924105988 0.0039566657421790099 0 -0.43310742331619101 0.0095230691159613554 0 -0.45627811214530728 0.007570946722698594 0 -0.44611294451988182 0.016067716614950121 0 -0.4444869924105988 0.0039566657421790099 0 -0.44970188090056618 -0.0070947829581152174 0 -0.45627811214530728 0.007570946722698594 0 -0.4444869924105988 0.0039566657421790099 0 -0.43310742331619101 0.0095230691159613554 0 -0.41937054600511359 0.0023375494341298609 0 -0.42529466980475672 0.024055042012006169 0 -0.43328114868639828 -0.0090595337897695014 0 -0.4444869924105988 0.0039566657421790099 0 -0.43310742331619101 0.0095230691159613554 0 -0.43328114868639828 -0.0090595337897695014 0 -0.43310742331619101 0.0095230691159613554 0 -0.41937054600511359 0.0023375494341298609 0 -0.40363162946607678 -0.0071174322637537688 0 -0.41937054600511359 0.0023375494341298609 0 -0.40405401227785381 0.012462467572653671 0 -0.41937054600511359 0.0023375494341298609 0 -0.42529466980475672 0.024055042012006169 0 -0.40405401227785381 0.012462467572653671 0 -0.42529466980475672 0.024055042012006169 0 -0.40447639508963118 0.032042367409061037 0 -0.40405401227785381 0.012462467572653671 0 -0.42529466980475672 0.024055042012006169 0 -0.40447639508963118 0.032042367409061037 0 -0.44611294451988182 0.016067716614950121 0 -0.42529466980475672 0.024055042012006169 0 -0.44611294451988182 0.016067716614950121 0 -0.43310742331619101 0.0095230691159613554 0 -0.42529466980475672 0.024055042012006169 0 -0.44463951997591838 0.035845953044838681 0 -0.44151902114863339 0.057690119350863253 0 -0.4231142319038233 0.04325864011519974 0 -0.44463951997591838 0.035845953044838681 0 -0.42529466980475672 0.024055042012006169 0 -0.4231142319038233 0.04325864011519974 0 -0.44151902114863339 0.057690119350863253 0 -0.41752021400487471 0.054882462732277149 0 -0.41315277544781348 0.066714765247229899 0 -0.44151902114863339 0.057690119350863253 0 -0.41315277544781348 0.066714765247229899 0 -0.44151902114863339 0.057690119350863253 0 -0.4231142319038233 0.04325864011519974 0 -0.41752021400487471 0.054882462732277149 0 -0.4231142319038233 0.04325864011519974 0 -0.41752021400487471 0.054882462732277149 0 -0.4049474874911887 0.053880240018951767 0 -0.41752021400487471 0.054882462732277149 0 -0.4049474874911887 0.053880240018951767 0 -0.41315277544781348 0.066714765247229899 0 -0.4231142319038233 0.04325864011519974 0 -0.40447639508963118 0.032042367409061037 0 -0.4049474874911887 0.053880240018951767 0 -0.42529466980475672 0.024055042012006169 0 -0.4231142319038233 0.04325864011519974 0 -0.40447639508963118 0.032042367409061037 0 -0.40447639508963118 0.032042367409061037 0 -0.39327930695316421 0.049160388635972579 0 -0.38485069663672228 0.039572138335468458 0 -0.40447639508963118 0.032042367409061037 0 -0.4049474874911887 0.053880240018951767 0 -0.40447639508963118 0.032042367409061037 0 -0.39327930695316421 0.049160388635972579 0 -0.4049474874911887 0.053880240018951767 0 -0.40447639508963118 0.032042367409061037 0 -0.38485069663672228 0.039572138335468458 0 -0.39327930695316421 0.049160388635972579 0 -0.4049474874911887 0.053880240018951767 0 -0.39244093105273892 0.065046064429682193 0 -0.39327930695316421 0.049160388635972579 0 -0.37968102449553931 0.055261132986699428 0 -0.38485069663672228 0.039572138335468458 0 -0.39327930695316421 0.049160388635972579 0 -0.37968102449553931 0.055261132986699428 0 -0.39244093105273892 0.065046064429682193 0 -0.37968102449553931 0.055261132986699428 0 -0.38485069663672228 0.039572138335468458 0 -0.36522499818381288 0.047101909261874721 0 -0.38485069663672228 0.039572138335468458 0 -0.36522499818381288 0.047101909261874721 0 -0.38485069663672228 0.039572138335468458 0 -0.38590037094696072 0.021936836233300599 0 -0.36858128962725328 0.031388571701146797 0 -0.38590037094696072 0.021936836233300599 0 -0.3809477351706122 0.0027779631661205301 0 -0.36948133179405301 0.016461005873055191 0 -0.38590037094696072 0.021936836233300599 0 -0.3809477351706122 0.0027779631661205301 0 -0.40405401227785381 0.012462467572653671 0 -0.40363162946607678 -0.0071174322637537688 0 -0.3809477351706122 0.0027779631661205301 0 -0.40405401227785381 0.012462467572653671 0 -0.40363162946607678 -0.0071174322637537688 0 -0.40405401227785381 0.012462467572653671 0 -0.40447639508963118 0.032042367409061037 0 -0.40405401227785381 0.012462467572653671 0 -0.40447639508963118 0.032042367409061037 0 -0.38485069663672228 0.039572138335468458 0 -0.38590037094696072 0.021936836233300599 0 -0.40447639508963118 0.032042367409061037 0 -0.38590037094696072 0.021936836233300599 0 -0.40405401227785381 0.012462467572653671 0 -0.40059926179245631 0.1084607832206728 0 -0.39022091381555862 0.096566279987345238 0 -0.40711926436149948 0.097577826434432594 0 -0.39022091381555862 0.096566279987345238 0 -0.41767377622974761 0.093560818110924676 0 -0.40059926179245631 0.1084607832206728 0 -0.39051650696077661 0.1160300865574569 0 -0.39022091381555862 0.096566279987345238 0 -0.39022091381555862 0.096566279987345238 0 -0.41767377622974761 0.093560818110924676 0 -0.40711926436149948 0.097577826434432594 0 -0.40106886709179629 0.1241105061030455 0 -0.39051650696077661 0.1160300865574569 0 -0.38576268352644438 0.13337342041875519 0 -0.40059926179245631 0.1084607832206728 0 -0.40106886709179629 0.1241105061030455 0 -0.39051650696077661 0.1160300865574569 0 -0.40059926179245631 0.1084607832206728 0 -0.40106886709179629 0.1241105061030455 0 -0.40940956246470322 0.11460041155907021 0 -0.39051650696077661 0.1160300865574569 0 -0.39022091381555862 0.096566279987345238 0 -0.37493080857762762 0.117639443057466 0 -0.39051650696077661 0.1160300865574569 0 -0.38576268352644438 0.13337342041875519 0 -0.37493080857762762 0.117639443057466 0 -0.39022091381555862 0.096566279987345238 0 -0.37749545954619118 0.085803985482563253 0 -0.3627680514013697 0.099571741863765773 0 -0.39022091381555862 0.096566279987345238 0 -0.3627680514013697 0.099571741863765773 0 -0.37493080857762762 0.117639443057466 0 -0.39022091381555862 0.096566279987345238 0 -0.3627680514013697 0.099571741863765773 0 -0.39022091381555862 0.096566279987345238 0 -0.37749545954619118 0.085803985482563253 0 -0.39144079095667927 0.080566481510165044 0 -0.37749545954619118 0.085803985482563253 0 -0.37866953800929221 0.072188859818500373 0 -0.39144079095667927 0.080566481510165044 0 -0.37968102449553931 0.055261132986699428 0 -0.37866953800929221 0.072188859818500373 0 -0.39244093105273892 0.065046064429682193 0 -0.37866953800929221 0.072188859818500373 0 -0.39244093105273892 0.065046064429682193 0 -0.39144079095667927 0.080566481510165044 0 -0.4049474874911887 0.053880240018951767 0 -0.40541857989274638 0.075718112628842482 0 -0.4049474874911887 0.053880240018951767 0 -0.39244093105273892 0.065046064429682193 0 -0.40541857989274638 0.075718112628842482 0 -0.39244093105273892 0.065046064429682193 0 -0.40541857989274638 0.075718112628842482 0 -0.39144079095667927 0.080566481510165044 0 -0.39022091381555862 0.096566279987345238 0 -0.39144079095667927 0.080566481510165044 0 -0.40425281656337342 0.085489858644613767 0 -0.39022091381555862 0.096566279987345238 0 -0.40425281656337342 0.085489858644613767 0 -0.41767377622974761 0.093560818110924676 0 -0.40541857989274638 0.075718112628842482 0 -0.39144079095667927 0.080566481510165044 0 -0.40425281656337342 0.085489858644613767 0 -0.40425281656337342 0.085489858644613767 0 -0.41729975828258659 0.080687640052584456 0 -0.41767377622974761 0.093560818110924676 0 -0.40541857989274638 0.075718112628842482 0 -0.40425281656337342 0.085489858644613767 0 -0.41729975828258659 0.080687640052584456 0 -0.41729975828258659 0.080687640052584456 0 -0.41767377622974761 0.093560818110924676 0 -0.42550265974734591 0.084161409318575173 0 -0.4049474874911887 0.053880240018951767 0 -0.40541857989274638 0.075718112628842482 0 -0.41315277544781348 0.066714765247229899 0 -0.40541857989274638 0.075718112628842482 0 -0.41729975828258659 0.080687640052584456 0 -0.41315277544781348 0.066714765247229899 0 -0.41729975828258659 0.080687640052584456 0 -0.41315277544781348 0.066714765247229899 0 -0.42582102052630483 0.07031721275256296 0 -0.44151902114863339 0.057690119350863253 0 -0.41315277544781348 0.066714765247229899 0 -0.42582102052630483 0.07031721275256296 0 -0.44151902114863339 0.057690119350863253 0 -0.42582102052630483 0.07031721275256296 0 -0.43131252722618579 0.076176326359574234 0 -0.41729975828258659 0.080687640052584456 0 -0.42582102052630483 0.07031721275256296 0 -0.43131252722618579 0.076176326359574234 0 -0.41767377622974761 0.093560818110924676 0 -0.42550265974734591 0.084161409318575173 0 -0.43393242556503708 0.084876127861055153 0 -0.41767377622974761 0.093560818110924676 0 -0.43393242556503708 0.084876127861055153 0 -0.43574621341281228 0.092000684707029781 0 -0.41767377622974761 0.093560818110924676 0 -0.43574621341281228 0.092000684707029781 0 -0.41729975828258659 0.080687640052584456 0 -0.43131252722618579 0.076176326359574234 0 -0.42550265974734591 0.084161409318575173 0 -0.43131252722618579 0.076176326359574234 0 -0.42550265974734591 0.084161409318575173 0 -0.43393242556503708 0.084876127861055153 0 -0.43131252722618579 0.076176326359574234 0 -0.43393242556503708 0.084876127861055153 0 -0.44646222260631607 0.077237279501373227 0 -0.43574621341281228 0.092000684707029781 0 -0.42485860770762701 0.099811938259830729 0 -0.40711926436149948 0.097577826434432594 0 -0.43574621341281228 0.092000684707029781 0 -0.43430112069833182 0.1037218314795582 0 -0.44182045411676751 0.1009442434872064 0 -0.43574621341281228 0.092000684707029781 0 -0.43430112069833182 0.1037218314795582 0 -0.42485860770762701 0.099811938259830729 0 -0.43430112069833182 0.1037218314795582 0 -0.42220205484740919 0.1051854499841563 0 -0.43044586471759272 0.11350447464778229 0 -0.43430112069833182 0.1037218314795582 0 -0.42220205484740919 0.1051854499841563 0 -0.42485860770762701 0.099811938259830729 0 -0.41767377622974761 0.093560818110924676 0 -0.43574621341281228 0.092000684707029781 0 -0.40711926436149948 0.097577826434432594 0 -0.43574621341281228 0.092000684707029781 0 -0.40711926436149948 0.097577826434432594 0 -0.42220205484740919 0.1051854499841563 0 -0.42485860770762701 0.099811938259830729 0 -0.40711926436149948 0.097577826434432594 0 -0.42220205484740919 0.1051854499841563 0 -0.41176605862493593 0.1078472848358358 0 -0.41878857275357828 0.11393957888981281 0 -0.40059926179245631 0.1084607832206728 0 -0.41176605862493593 0.1078472848358358 0 -0.40711926436149948 0.097577826434432594 0 -0.42220205484740919 0.1051854499841563 0 -0.41176605862493593 0.1078472848358358 0 -0.40711926436149948 0.097577826434432594 0 -0.40106886709179629 0.1241105061030455 0 -0.40940956246470322 0.11460041155907021 0 -0.41510746280380972 0.1230953258560631 0 -0.41176605862493593 0.1078472848358358 0 -0.40940956246470322 0.11460041155907021 0 -0.41878857275357828 0.11393957888981281 0 -0.40059926179245631 0.1084607832206728 0 -0.41176605862493593 0.1078472848358358 0 -0.40940956246470322 0.11460041155907021 0 -0.41878857275357828 0.11393957888981281 0 -0.41510746280380972 0.1230953258560631 0 -0.42565818041830678 0.1213866645062583 0 -0.40940956246470322 0.11460041155907021 0 -0.41878857275357828 0.11393957888981281 0 -0.41510746280380972 0.1230953258560631 0 -0.42220205484740919 0.1051854499841563 0 -0.41878857275357828 0.11393957888981281 0 -0.43044586471759272 0.11350447464778229 0 -0.41878857275357828 0.11393957888981281 0 -0.42565818041830678 0.1213866645062583 0 -0.43044586471759272 0.11350447464778229 0 -0.43044586471759272 0.11350447464778229 0 -0.43649514367316372 0.1247878400323679 0 -0.4452301159147663 0.1120054829945403 0 -0.43430112069833182 0.1037218314795582 0 -0.43044586471759272 0.11350447464778229 0 -0.4452301159147663 0.1120054829945403 0 -0.42565818041830678 0.1213866645062583 0 -0.43044586471759272 0.11350447464778229 0 -0.43649514367316372 0.1247878400323679 0 -0.43649514367316372 0.1247878400323679 0 -0.4452301159147663 0.1120054829945403 0 -0.45574823379143392 0.13031855558452959 0 -0.43430112069833182 0.1037218314795582 0 -0.4452301159147663 0.1120054829945403 0 -0.44182045411676751 0.1009442434872064 0 -0.43574621341281228 0.092000684707029781 0 -0.44182045411676751 0.1009442434872064 0 -0.45109682679022017 0.098032610988666793 0 -0.4452301159147663 0.1120054829945403 0 -0.44182045411676751 0.1009442434872064 0 -0.45109682679022017 0.098032610988666793 0 -0.4452301159147663 0.1120054829945403 0 -0.45109682679022017 0.098032610988666793 0 -0.46338795773716929 0.1099966646232115 0 -0.45109682679022017 0.098032610988666793 0 -0.46338795773716929 0.1099966646232115 0 -0.46450471748503519 0.087947463847919141 0 -0.4452301159147663 0.1120054829945403 0 -0.46338795773716929 0.1099966646232115 0 -0.45574823379143392 0.13031855558452959 0 -0.46338795773716929 0.1099966646232115 0 -0.47999599493417638 0.1288509746448924 0 -0.45574823379143392 0.13031855558452959 0 -0.44151902114863339 0.057690119350863253 0 -0.43131252722618579 0.076176326359574234 0 -0.44646222260631607 0.077237279501373227 0 -0.44151902114863339 0.057690119350863253 0 -0.44646222260631607 0.077237279501373227 0 -0.45958872070771523 0.068061906726397794 0 -0.44646222260631607 0.077237279501373227 0 -0.44523177242529111 0.091181827940779572 0 -0.46450471748503519 0.087947463847919141 0 -0.43393242556503708 0.084876127861055153 0 -0.44646222260631607 0.077237279501373227 0 -0.44523177242529111 0.091181827940779572 0 -0.43574621341281228 0.092000684707029781 0 -0.45109682679022017 0.098032610988666793 0 -0.44523177242529111 0.091181827940779572 0 -0.43574621341281228 0.092000684707029781 0 -0.44523177242529111 0.091181827940779572 0 -0.43393242556503708 0.084876127861055153 0 -0.43574621341281228 0.092000684707029781 0 -0.44523177242529111 0.091181827940779572 0 -0.45109682679022017 0.098032610988666793 0 -0.44523177242529111 0.091181827940779572 0 -0.46450471748503519 0.087947463847919141 0 -0.44523177242529111 0.091181827940779572 0 -0.46450471748503519 0.087947463847919141 0 -0.46450471748503519 0.087947463847919141 0 -0.45958872070771523 0.068061906726397794 0 -0.47557237544913838 0.068769197477336771 0 -0.44646222260631607 0.077237279501373227 0 -0.46450471748503519 0.087947463847919141 0 -0.45958872070771523 0.068061906726397794 0 -0.46450471748503519 0.087947463847919141 0 -0.47557237544913838 0.068769197477336771 0 -0.48014975772469948 0.077246767376165537 0 -0.48620672975333729 0.05738452939685789 0 -0.47557237544913838 0.068769197477336771 0 -0.4873244939178214 0.069138125624743821 0 -0.47557237544913838 0.068769197477336771 0 -0.48014975772469948 0.077246767376165537 0 -0.4873244939178214 0.069138125624743821 0 -0.46450471748503519 0.087947463847919141 0 -0.49319744404680299 0.083132282554662415 0 -0.48375185750738381 0.1028248996787211 0 -0.46450471748503519 0.087947463847919141 0 -0.48014975772469948 0.077246767376165537 0 -0.49319744404680299 0.083132282554662415 0 -0.46450471748503519 0.087947463847919141 0 -0.49319744404680299 0.083132282554662415 0 -0.5 0.088810516126617611 0 -0.49319744404680299 0.083132282554662415 0 -0.48375185750738381 0.1028248996787211 0 -0.5 0.060709022869582241 0 -0.5 0.088810516126617611 0 -0.49319744404680299 0.083132282554662415 0 -0.5 0.060709022869582241 0 -0.49319744404680299 0.083132282554662415 0 -0.4873244939178214 0.069138125624743821 0 -0.48014975772469948 0.077246767376165537 0 -0.49319744404680299 0.083132282554662415 0 -0.4873244939178214 0.069138125624743821 0 -0.46338795773716929 0.1099966646232115 0 -0.48375185750738381 0.1028248996787211 0 -0.47999599493417638 0.1288509746448924 0 -0.46338795773716929 0.1099966646232115 0 -0.46450471748503519 0.087947463847919141 0 -0.48375185750738381 0.1028248996787211 0 -0.5 0.088810516126617611 0 -0.48375185750738381 0.1028248996787211 0 -0.5 0.1169120093836529 0 -0.48375185750738381 0.1028248996787211 0 -0.5 0.1169120093836529 0 -0.47999599493417638 0.1288509746448924 0 -0.5 0.1169120093836529 0 -0.47999599493417638 0.1288509746448924 0 -0.5 0.14501350264068841 0 -0.4687613927396726 0.14912825107141731 0 -0.48418734322096818 0.14972476051431111 0 -0.46948535572287159 0.16564692285647339 0 -0.47999599493417638 0.1288509746448924 0 -0.4687613927396726 0.14912825107141731 0 -0.48418734322096818 0.14972476051431111 0 -0.48418734322096818 0.14972476051431111 0 -0.5 0.14501350264068841 0 -0.48809164897032398 0.164555162924198 0 -0.47999599493417638 0.1288509746448924 0 -0.48418734322096818 0.14972476051431111 0 -0.5 0.14501350264068841 0 -0.5 0.14501350264068841 0 -0.48809164897032398 0.164555162924198 0 -0.5 0.17311499589772389 0 -0.48809164897032398 0.164555162924198 0 -0.5 0.17311499589772389 0 -0.48926997435867192 0.18629563438748961 0 -0.5 0.17311499589772389 0 -0.48926997435867192 0.18629563438748961 0 -0.5 0.20121648915475959 0 -0.48809164897032398 0.164555162924198 0 -0.47435025931367347 0.185136811636709 0 -0.48809164897032398 0.164555162924198 0 -0.48926997435867192 0.18629563438748961 0 -0.47435025931367347 0.185136811636709 0 -0.48418734322096818 0.14972476051431111 0 -0.48809164897032398 0.164555162924198 0 -0.46948535572287159 0.16564692285647339 0 -0.48809164897032398 0.164555162924198 0 -0.47435025931367347 0.185136811636709 0 -0.46948535572287159 0.16564692285647339 0 -0.46948535572287159 0.16564692285647339 0 -0.45046722197397471 0.1831270350961394 0 -0.45002651447716152 0.1625312368677799 0 -0.4687613927396726 0.14912825107141731 0 -0.46948535572287159 0.16564692285647339 0 -0.45002651447716152 0.1625312368677799 0 -0.47435025931367347 0.185136811636709 0 -0.46948535572287159 0.16564692285647339 0 -0.45046722197397471 0.1831270350961394 0 -0.45046722197397471 0.1831270350961394 0 -0.45002651447716152 0.1625312368677799 0 -0.43001216374160389 0.17142314718493029 0 -0.45002651447716152 0.1625312368677799 0 -0.43468722821500833 0.15520626948619171 0 -0.43001216374160389 0.17142314718493029 0 -0.45002651447716152 0.1625312368677799 0 -0.45246009591553832 0.14653715611072771 0 -0.43468722821500833 0.15520626948619171 0 -0.45246009591553832 0.14653715611072771 0 -0.43811753748125731 0.13959391941304211 0 -0.43468722821500833 0.15520626948619171 0 -0.45246009591553832 0.14653715611072771 0 -0.43811753748125731 0.13959391941304211 0 -0.45574823379143392 0.13031855558452959 0 -0.43649514367316372 0.1247878400323679 0 -0.43811753748125731 0.13959391941304211 0 -0.45574823379143392 0.13031855558452959 0 -0.47999599493417638 0.1288509746448924 0 -0.4687613927396726 0.14912825107141731 0 -0.45574823379143392 0.13031855558452959 0 -0.4687613927396726 0.14912825107141731 0 -0.45002651447716152 0.1625312368677799 0 -0.45246009591553832 0.14653715611072771 0 -0.4687613927396726 0.14912825107141731 0 -0.45246009591553832 0.14653715611072771 0 -0.45574823379143392 0.13031855558452959 0 -0.47776068413743611 0.24602954292504409 0 -0.4754989785274949 0.22501399713464559 0 -0.46520357517897493 0.2340598110114416 0 -0.47776068413743611 0.24602954292504409 0 -0.5 0.22931798241179521 0 -0.5 0.25741947566883072 0 -0.5 0.22931798241179521 0 -0.4754989785274949 0.22501399713464559 0 -0.48056124454819682 0.20571449604655331 0 -0.47776068413743611 0.24602954292504409 0 -0.5 0.22931798241179521 0 -0.4754989785274949 0.22501399713464559 0 -0.4754989785274949 0.22501399713464559 0 -0.48056124454819682 0.20571449604655331 0 -0.46060886965702302 0.20571846034922001 0 -0.5 0.22931798241179521 0 -0.48056124454819682 0.20571449604655331 0 -0.5 0.20121648915475959 0 -0.48926997435867192 0.18629563438748961 0 -0.48056124454819682 0.20571449604655331 0 -0.5 0.20121648915475959 0 -0.47435025931367347 0.185136811636709 0 -0.48056124454819682 0.20571449604655331 0 -0.46060886965702302 0.20571846034922001 0 -0.48926997435867192 0.18629563438748961 0 -0.47435025931367347 0.185136811636709 0 -0.48056124454819682 0.20571449604655331 0 -0.47435025931367347 0.185136811636709 0 -0.45046722197397471 0.1831270350961394 0 -0.46060886965702302 0.20571846034922001 0 -0.47435025931367347 0.185136811636709 0 -0.46060886965702302 0.20571846034922001 0 -0.45046722197397471 0.1831270350961394 0 -0.44272793684600492 0.19884353562264129 0 -0.46060886965702302 0.20571846034922001 0 -0.45046722197397471 0.1831270350961394 0 -0.44272793684600492 0.19884353562264129 0 -0.42513030677536923 0.1906050210784847 0 -0.44372474379645233 0.2118724757740541 0 -0.46060886965702302 0.20571846034922001 0 -0.44686748000037241 0.22630010906173101 0 -0.44272793684600492 0.19884353562264129 0 -0.44372474379645233 0.2118724757740541 0 -0.46060886965702302 0.20571846034922001 0 -0.44272793684600492 0.19884353562264129 0 -0.44372474379645233 0.2118724757740541 0 -0.43165150367974459 0.2079736653861852 0 -0.4754989785274949 0.22501399713464559 0 -0.46060886965702302 0.20571846034922001 0 -0.46106334667291038 0.22298821988389139 0 -0.46060886965702302 0.20571846034922001 0 -0.46106334667291038 0.22298821988389139 0 -0.44686748000037241 0.22630010906173101 0 -0.46060886965702302 0.20571846034922001 0 -0.44686748000037241 0.22630010906173101 0 -0.4754989785274949 0.22501399713464559 0 -0.46106334667291038 0.22298821988389139 0 -0.46520357517897493 0.2340598110114416 0 -0.46106334667291038 0.22298821988389139 0 -0.46520357517897493 0.2340598110114416 0 -0.45346249511827269 0.23542680083812981 0 -0.46106334667291038 0.22298821988389139 0 -0.44686748000037241 0.22630010906173101 0 -0.45346249511827269 0.23542680083812981 0 -0.44686748000037241 0.22630010906173101 0 -0.43031251157748118 0.23082618911171421 0 -0.4356539223539096 0.2195046181957867 0 -0.44372474379645233 0.2118724757740541 0 -0.44686748000037241 0.22630010906173101 0 -0.4356539223539096 0.2195046181957867 0 -0.44686748000037241 0.22630010906173101 0 -0.43974957060265979 0.2477999823634939 0 -0.45346249511827269 0.23542680083812981 0 -0.44686748000037241 0.22630010906173101 0 -0.43974957060265979 0.2477999823634939 0 -0.4331260903437224 0.2468817577742424 0 -0.43974957060265979 0.2477999823634939 0 -0.45346249511827269 0.23542680083812981 0 -0.44686748000037241 0.22630010906173101 0 -0.4331260903437224 0.2468817577742424 0 -0.43974957060265979 0.2477999823634939 0 -0.44938809190214019 0.24913618733658899 0 -0.43974957060265979 0.2477999823634939 0 -0.44938809190214019 0.24913618733658899 0 -0.45346249511827269 0.23542680083812981 0 -0.47776068413743611 0.24602954292504409 0 -0.46520357517897493 0.2340598110114416 0 -0.46141841012159912 0.24507040340567721 0 -0.44938809190214019 0.24913618733658899 0 -0.45346249511827269 0.23542680083812981 0 -0.46141841012159912 0.24507040340567721 0 -0.46520357517897493 0.2340598110114416 0 -0.45346249511827269 0.23542680083812981 0 -0.46141841012159912 0.24507040340567721 0 -0.42532192026792442 0.24579985210197841 0 -0.40599452066631958 0.22623737966620541 0 -0.42532192026792442 0.24579985210197841 0 -0.40599452066631958 0.22623737966620541 0 -0.39635673541156891 0.2417843581429853 0 -0.42532192026792442 0.24579985210197841 0 -0.39635673541156891 0.2417843581429853 0 -0.41246051243446907 0.25499403182025637 0 -0.42532192026792442 0.24579985210197841 0 -0.39635673541156891 0.2417843581429853 0 -0.42532192026792442 0.24579985210197841 0 -0.4331260903437224 0.2468817577742424 0 -0.43031251157748118 0.23082618911171421 0 -0.44686748000037241 0.22630010906173101 0 -0.4331260903437224 0.2468817577742424 0 -0.43031251157748118 0.23082618911171421 0 -0.42532192026792442 0.24579985210197841 0 -0.43316652546530088 0.25373986866429499 0 -0.42532192026792442 0.24579985210197841 0 -0.4331260903437224 0.2468817577742424 0 -0.42532192026792442 0.24579985210197841 0 -0.43169760255248413 0.24902132550676301 0 -0.4331260903437224 0.2468817577742424 0 -0.42532192026792442 0.24579985210197841 0 -0.43169760255248413 0.24902132550676301 0 -0.43316652546530088 0.25373986866429499 0 -0.43169760255248413 0.24902132550676301 0 -0.4331260903437224 0.2468817577742424 0 -0.43316652546530088 0.25373986866429499 0 -0.43169760255248413 0.24902132550676301 0 -0.4331260903437224 0.2468817577742424 0 -0.43974957060265979 0.2477999823634939 0 -0.4331260903437224 0.2468817577742424 0 -0.43974957060265979 0.2477999823634939 0 -0.4331260903437224 0.2468817577742424 0 -0.43316652546530088 0.25373986866429499 0 -0.43031251157748118 0.23082618911171421 0 -0.4356539223539096 0.2195046181957867 0 -0.4234853598250834 0.21850667113583649 0 -0.42532192026792442 0.24579985210197841 0 -0.43031251157748118 0.23082618911171421 0 -0.40599452066631958 0.22623737966620541 0 -0.43031251157748118 0.23082618911171421 0 -0.4234853598250834 0.21850667113583649 0 -0.40599452066631958 0.22623737966620541 0 -0.41270033440275522 0.20696951306458461 0 -0.4234853598250834 0.21850667113583649 0 -0.40599452066631958 0.22623737966620541 0 -0.41270033440275522 0.20696951306458461 0 -0.4234853598250834 0.21850667113583649 0 -0.43165150367974459 0.2079736653861852 0 -0.44372474379645233 0.2118724757740541 0 -0.4356539223539096 0.2195046181957867 0 -0.43165150367974459 0.2079736653861852 0 -0.4356539223539096 0.2195046181957867 0 -0.4234853598250834 0.21850667113583649 0 -0.43165150367974459 0.2079736653861852 0 -0.44272793684600492 0.19884353562264129 0 -0.43165150367974459 0.2079736653861852 0 -0.42513030677536923 0.1906050210784847 0 -0.41270033440275522 0.20696951306458461 0 -0.43165150367974459 0.2079736653861852 0 -0.42513030677536923 0.1906050210784847 0 -0.41270033440275522 0.20696951306458461 0 -0.42513030677536923 0.1906050210784847 0 -0.40406647635431991 0.19119388207041149 0 -0.41270033440275522 0.20696951306458461 0 -0.40406647635431991 0.19119388207041149 0 -0.38666712106471512 0.2066749072304325 0 -0.40406647635431991 0.19119388207041149 0 -0.38666712106471512 0.2066749072304325 0 -0.38656004119525073 0.1797369747467665 0 -0.38666712106471512 0.2066749072304325 0 -0.36733972146311072 0.1871124347946595 0 -0.38666712106471512 0.2066749072304325 0 -0.38656004119525073 0.1797369747467665 0 -0.36733972146311072 0.1871124347946595 0 -0.38666712106471512 0.2066749072304325 0 -0.38437696795969262 0.22557122230981469 0 -0.36676528995403629 0.21377940251421371 0 -0.41270033440275522 0.20696951306458461 0 -0.38666712106471512 0.2066749072304325 0 -0.40599452066631958 0.22623737966620541 0 -0.38666712106471512 0.2066749072304325 0 -0.40599452066631958 0.22623737966620541 0 -0.40599452066631958 0.22623737966620541 0 -0.38437696795969262 0.22557122230981469 0 -0.39635673541156891 0.2417843581429853 0 -0.38666712106471512 0.2066749072304325 0 -0.40599452066631958 0.22623737966620541 0 -0.38437696795969262 0.22557122230981469 0 -0.39635673541156891 0.2417843581429853 0 -0.36739155055521322 0.23776886418399251 0 -0.38034939632101578 0.26165486428978091 0 -0.38437696795969262 0.22557122230981469 0 -0.39635673541156891 0.2417843581429853 0 -0.36739155055521322 0.23776886418399251 0 -0.39635673541156891 0.2417843581429853 0 -0.36739155055521322 0.23776886418399251 0 -0.42004927480552279 0.14761272175705159 0 -0.41974011186336441 0.1607007659976655 0 -0.40692128047049497 0.15710164510192759 0 -0.42004927480552279 0.14761272175705159 0 -0.40949474840705252 0.14433766241543361 0 -0.40692128047049497 0.15710164510192759 0 -0.42004927480552279 0.14761272175705159 0 -0.40949474840705252 0.14433766241543361 0 -0.41252600521628602 0.13396413143314581 0 -0.40949474840705252 0.14433766241543361 0 -0.41252600521628602 0.13396413143314581 0 -0.40029897841687467 0.13722980296904069 0 -0.40106886709179629 0.1241105061030455 0 -0.41510746280380972 0.1230953258560631 0 -0.41252600521628602 0.13396413143314581 0 -0.41510746280380972 0.1230953258560631 0 -0.41252600521628602 0.13396413143314581 0 -0.42513391023187153 0.1327980501806455 0 -0.42004927480552279 0.14761272175705159 0 -0.41252600521628602 0.13396413143314581 0 -0.42513391023187153 0.1327980501806455 0 -0.43811753748125731 0.13959391941304211 0 -0.42004927480552279 0.14761272175705159 0 -0.42513391023187153 0.1327980501806455 0 -0.41510746280380972 0.1230953258560631 0 -0.42565818041830678 0.1213866645062583 0 -0.42513391023187153 0.1327980501806455 0 -0.42565818041830678 0.1213866645062583 0 -0.43649514367316372 0.1247878400323679 0 -0.42513391023187153 0.1327980501806455 0 -0.43649514367316372 0.1247878400323679 0 -0.43811753748125731 0.13959391941304211 0 -0.42513391023187153 0.1327980501806455 0 -0.43811753748125731 0.13959391941304211 0 -0.42004927480552279 0.14761272175705159 0 -0.43468722821500833 0.15520626948619171 0 -0.42004927480552279 0.14761272175705159 0 -0.43468722821500833 0.15520626948619171 0 -0.41974011186336441 0.1607007659976655 0 -0.43468722821500833 0.15520626948619171 0 -0.43001216374160389 0.17142314718493029 0 -0.41974011186336441 0.1607007659976655 0 -0.45046722197397471 0.1831270350961394 0 -0.42513030677536923 0.1906050210784847 0 -0.43001216374160389 0.17142314718493029 0 -0.42513030677536923 0.1906050210784847 0 -0.40406647635431991 0.19119388207041149 0 -0.40703061208419189 0.17216004645822641 0 -0.42513030677536923 0.1906050210784847 0 -0.43001216374160389 0.17142314718493029 0 -0.40703061208419189 0.17216004645822641 0 -0.43001216374160389 0.17142314718493029 0 -0.40703061208419189 0.17216004645822641 0 -0.41974011186336441 0.1607007659976655 0 -0.40703061208419189 0.17216004645822641 0 -0.41974011186336441 0.1607007659976655 0 -0.40692128047049497 0.15710164510192759 0 -0.40703061208419189 0.17216004645822641 0 -0.40692128047049497 0.15710164510192759 0 -0.39421121084222238 0.1642228327889721 0 -0.40692128047049497 0.15710164510192759 0 -0.39421121084222238 0.1642228327889721 0 -0.3926425878427946 0.15036329447482349 0 -0.40703061208419189 0.17216004645822641 0 -0.39421121084222238 0.1642228327889721 0 -0.38656004119525073 0.1797369747467665 0 -0.40406647635431991 0.19119388207041149 0 -0.40703061208419189 0.17216004645822641 0 -0.38656004119525073 0.1797369747467665 0 -0.38656004119525073 0.1797369747467665 0 -0.38002578602110743 0.16240222273931679 0 -0.36955403342997389 0.171800738079259 0 -0.39421121084222238 0.1642228327889721 0 -0.38656004119525073 0.1797369747467665 0 -0.38002578602110743 0.16240222273931679 0 -0.39421121084222238 0.1642228327889721 0 -0.38002578602110743 0.16240222273931679 0 -0.3926425878427946 0.15036329447482349 0 -0.38002578602110743 0.16240222273931679 0 -0.37644029935099732 0.14899669277874611 0 -0.3926425878427946 0.15036329447482349 0 -0.37644029935099732 0.14899669277874611 0 -0.3926425878427946 0.15036329447482349 0 -0.38576268352644438 0.13337342041875519 0 -0.40949474840705252 0.14433766241543361 0 -0.3926425878427946 0.15036329447482349 0 -0.40029897841687467 0.13722980296904069 0 -0.40949474840705252 0.14433766241543361 0 -0.40692128047049497 0.15710164510192759 0 -0.3926425878427946 0.15036329447482349 0 -0.3926425878427946 0.15036329447482349 0 -0.40029897841687467 0.13722980296904069 0 -0.38576268352644438 0.13337342041875519 0 -0.40106886709179629 0.1241105061030455 0 -0.41252600521628602 0.13396413143314581 0 -0.40029897841687467 0.13722980296904069 0 -0.40106886709179629 0.1241105061030455 0 -0.40029897841687467 0.13722980296904069 0 -0.38576268352644438 0.13337342041875519 0 -0.37644029935099732 0.14899669277874611 0 -0.38576268352644438 0.13337342041875519 0 -0.36665526372176771 0.13730429675490469 0 -0.38576268352644438 0.13337342041875519 0 -0.36665526372176771 0.13730429675490469 0 -0.37493080857762762 0.117639443057466 0 -0.36665526372176771 0.13730429675490469 0 -0.37493080857762762 0.117639443057466 0 -0.35742372425334801 0.1206586607232582 0 -0.35263347434092718 0.1362403606906743 0 -0.33967887290048621 0.12754478955736179 0 -0.35742372425334801 0.1206586607232582 0 -0.36665526372176771 0.13730429675490469 0 -0.35263347434092718 0.1362403606906743 0 -0.35742372425334801 0.1206586607232582 0 -0.35263347434092718 0.1362403606906743 0 -0.34390454285092142 0.14511799507198361 0 -0.33967887290048621 0.12754478955736179 0 -0.34390454285092142 0.14511799507198361 0 -0.3555049679781126 0.1505760613458631 0 -0.34435467223445743 0.1638478259368214 0 -0.35263347434092718 0.1362403606906743 0 -0.34390454285092142 0.14511799507198361 0 -0.3555049679781126 0.1505760613458631 0 -0.36665526372176771 0.13730429675490469 0 -0.35263347434092718 0.1362403606906743 0 -0.3555049679781126 0.1505760613458631 0 -0.3555049679781126 0.1505760613458631 0 -0.36621615949343472 0.1486214512811308 0 -0.36585720665500848 0.15950360534376229 0 -0.36665526372176771 0.13730429675490469 0 -0.3555049679781126 0.1505760613458631 0 -0.36621615949343472 0.1486214512811308 0 -0.36665526372176771 0.13730429675490469 0 -0.3555049679781126 0.1505760613458631 0 -0.37644029935099732 0.14899669277874611 0 -0.36665526372176771 0.13730429675490469 0 -0.36621615949343472 0.1486214512811308 0 -0.37644029935099732 0.14899669277874611 0 -0.36621615949343472 0.1486214512811308 0 -0.36585720665500848 0.15950360534376229 0 -0.36955403342997389 0.171800738079259 0 -0.36585720665500848 0.15950360534376229 0 -0.34801232186150738 0.16754996235888531 0 -0.38002578602110743 0.16240222273931679 0 -0.37644029935099732 0.14899669277874611 0 -0.36585720665500848 0.15950360534376229 0 -0.38002578602110743 0.16240222273931679 0 -0.36955403342997389 0.171800738079259 0 -0.36585720665500848 0.15950360534376229 0 -0.38656004119525073 0.1797369747467665 0 -0.36955403342997389 0.171800738079259 0 -0.36733972146311072 0.1871124347946595 0 -0.36955403342997389 0.171800738079259 0 -0.36733972146311072 0.1871124347946595 0 -0.34801232186150738 0.16754996235888531 0 -0.36733972146311072 0.1871124347946595 0 -0.34801232186150738 0.16754996235888531 0 -0.36733972146311072 0.1871124347946595 0 -0.34950667467576979 0.18540237844482849 0 -0.34801232186150738 0.16754996235888531 0 -0.34950667467576979 0.18540237844482849 0 -0.34801232186150738 0.16754996235888531 0 -0.33711676114620809 0.17246283080323591 0 -0.3555049679781126 0.1505760613458631 0 -0.34801232186150738 0.16754996235888531 0 -0.34435467223445743 0.1638478259368214 0 -0.36585720665500848 0.15950360534376229 0 -0.34801232186150738 0.16754996235888531 0 -0.3555049679781126 0.1505760613458631 0 -0.36585720665500848 0.15950360534376229 0 -0.34801232186150738 0.16754996235888531 0 -0.34801232186150738 0.16754996235888531 0 -0.34435467223445743 0.1638478259368214 0 -0.3555049679781126 0.1505760613458631 0 -0.34435467223445743 0.1638478259368214 0 -0.34435467223445743 0.1638478259368214 0 -0.32474818188767252 0.16779016575308819 0 -0.32816760912653731 0.1474638848794603 0 -0.34435467223445743 0.1638478259368214 0 -0.33711676114620809 0.17246283080323591 0 -0.32474818188767252 0.16779016575308819 0 -0.34801232186150738 0.16754996235888531 0 -0.33711676114620809 0.17246283080323591 0 -0.34801232186150738 0.16754996235888531 0 -0.34435467223445743 0.1638478259368214 0 -0.33711676114620809 0.17246283080323591 0 -0.34435467223445743 0.1638478259368214 0 -0.33711676114620809 0.17246283080323591 0 -0.33711676114620809 0.17246283080323591 0 -0.32254383130781122 0.18980842401997181 0 -0.34950667467576979 0.18540237844482849 0 -0.33711676114620809 0.17246283080323591 0 -0.33787085547536277 0.19147881963790009 0 -0.33711676114620809 0.17246283080323591 0 -0.33787085547536277 0.19147881963790009 0 -0.32254383130781122 0.18980842401997181 0 -0.33711676114620809 0.17246283080323591 0 -0.31484008638213001 0.18250750636912971 0 -0.33711676114620809 0.17246283080323591 0 -0.32382557786184363 0.187204826960821 0 -0.32254383130781122 0.18980842401997181 0 -0.33711676114620809 0.17246283080323591 0 -0.32382557786184363 0.187204826960821 0 -0.31484008638213001 0.18250750636912971 0 -0.33711676114620809 0.17246283080323591 0 -0.31484008638213001 0.18250750636912971 0 -0.32474818188767252 0.16779016575308819 0 -0.32382557786184363 0.187204826960821 0 -0.31484008638213001 0.18250750636912971 0 -0.32382557786184363 0.187204826960821 0 -0.31484008638213001 0.18250750636912971 0 -0.3175149124965545 0.18913570420090309 0 -0.31484008638213001 0.18250750636912971 0 -0.32474818188767252 0.16779016575308819 0 -0.30924299170034703 0.16136492011651329 0 -0.32474818188767252 0.16779016575308819 0 -0.32816760912653731 0.1474638848794603 0 -0.30924299170034703 0.16136492011651329 0 -0.32816760912653731 0.1474638848794603 0 -0.30116539000869402 0.14324730272956501 0 -0.30924299170034703 0.16136492011651329 0 -0.33967887290048621 0.12754478955736179 0 -0.31198054601861852 0.13107994382209781 0 -0.32554516302573983 0.1169421376637811 0 -0.32816760912653731 0.1474638848794603 0 -0.31198054601861852 0.13107994382209781 0 -0.30116539000869402 0.14324730272956501 0 -0.33967887290048621 0.12754478955736179 0 -0.32816760912653731 0.1474638848794603 0 -0.31198054601861852 0.13107994382209781 0 -0.32816760912653731 0.1474638848794603 0 -0.31198054601861852 0.13107994382209781 0 -0.34390454285092142 0.14511799507198361 0 -0.33967887290048621 0.12754478955736179 0 -0.32816760912653731 0.1474638848794603 0 -0.34390454285092142 0.14511799507198361 0 -0.34435467223445743 0.1638478259368214 0 -0.32816760912653731 0.1474638848794603 0 -0.34435467223445743 0.1638478259368214 0 -0.32816760912653731 0.1474638848794603 0 -0.36739155055521322 0.23776886418399251 0 -0.34708085422443929 0.2263604768993365 0 -0.34287641500782712 0.25543372350954552 0 -0.36739155055521322 0.23776886418399251 0 -0.34708085422443929 0.2263604768993365 0 -0.36676528995403629 0.21377940251421371 0 -0.38437696795969262 0.22557122230981469 0 -0.36739155055521322 0.23776886418399251 0 -0.36676528995403629 0.21377940251421371 0 -0.34708085422443929 0.2263604768993365 0 -0.36676528995403629 0.21377940251421371 0 -0.34891190787006321 0.2019044193433967 0 -0.36733972146311072 0.1871124347946595 0 -0.36676528995403629 0.21377940251421371 0 -0.34891190787006321 0.2019044193433967 0 -0.38666712106471512 0.2066749072304325 0 -0.36733972146311072 0.1871124347946595 0 -0.36676528995403629 0.21377940251421371 0 -0.34950667467576979 0.18540237844482849 0 -0.34891190787006321 0.2019044193433967 0 -0.33787085547536277 0.19147881963790009 0 -0.36733972146311072 0.1871124347946595 0 -0.34950667467576979 0.18540237844482849 0 -0.34891190787006321 0.2019044193433967 0 -0.33787085547536277 0.19147881963790009 0 -0.32254383130781122 0.18980842401997181 0 -0.33127510237696228 0.20781604557806849 0 -0.34891190787006321 0.2019044193433967 0 -0.33787085547536277 0.19147881963790009 0 -0.33127510237696228 0.20781604557806849 0 -0.32254383130781122 0.18980842401997181 0 -0.30797090146941553 0.20715401723670851 0 -0.32254383130781122 0.18980842401997181 0 -0.31333543416458581 0.19454054343652899 0 -0.30797090146941553 0.20715401723670851 0 -0.32254383130781122 0.18980842401997181 0 -0.33127510237696228 0.20781604557806849 0 -0.30797090146941553 0.20715401723670851 0 -0.32382557786184363 0.187204826960821 0 -0.32254383130781122 0.18980842401997181 0 -0.3175149124965545 0.18913570420090309 0 -0.31484008638213001 0.18250750636912971 0 -0.3175149124965545 0.18913570420090309 0 -0.31333543416458581 0.19454054343652899 0 -0.32254383130781122 0.18980842401997181 0 -0.3175149124965545 0.18913570420090309 0 -0.31333543416458581 0.19454054343652899 0 -0.33127510237696228 0.20781604557806849 0 -0.32542365823862229 0.23129387037312621 0 -0.30797090146941553 0.20715401723670851 0 -0.34708085422443929 0.2263604768993365 0 -0.34891190787006321 0.2019044193433967 0 -0.33127510237696228 0.20781604557806849 0 -0.34708085422443929 0.2263604768993365 0 -0.33127510237696228 0.20781604557806849 0 -0.32542365823862229 0.23129387037312621 0 -0.32542365823862229 0.23129387037312621 0 -0.30726236964348741 0.2311629580639751 0 -0.30797090146941553 0.20715401723670851 0 -0.32542365823862229 0.23129387037312621 0 -0.30797090146941553 0.20715401723670851 0 -0.32542365823862229 0.23129387037312621 0 -0.32319077684055347 0.26047663771887131 0 -0.30652531113353643 0.2513270211066716 0 -0.32542365823862229 0.23129387037312621 0 -0.30726236964348741 0.2311629580639751 0 -0.30652531113353643 0.2513270211066716 0 -0.32542365823862229 0.23129387037312621 0 -0.34287641500782712 0.25543372350954552 0 -0.32319077684055347 0.26047663771887131 0 -0.34708085422443929 0.2263604768993365 0 -0.32542365823862229 0.23129387037312621 0 -0.34287641500782712 0.25543372350954552 0 -0.32542365823862229 0.23129387037312621 0 -0.34287641500782712 0.25543372350954552 0 -0.28166205787749471 0.24654461896357471 0 -0.2931984503859596 0.2247370928535708 0 -0.28166205787749471 0.24654461896357471 0 -0.29641179586741262 0.2414109455539028 0 -0.2931984503859596 0.2247370928535708 0 -0.28166205787749471 0.24654461896357471 0 -0.2931984503859596 0.2247370928535708 0 -0.28036732684319499 0.2400094815876522 0 -0.28166205787749471 0.24654461896357471 0 -0.29641179586741262 0.2414109455539028 0 -0.29199792964606591 0.25330556944924337 0 -0.29641179586741262 0.2414109455539028 0 -0.30726236964348741 0.2311629580639751 0 -0.30652531113353643 0.2513270211066716 0 -0.29641179586741262 0.2414109455539028 0 -0.30652531113353643 0.2513270211066716 0 -0.29199792964606591 0.25330556944924337 0 -0.29641179586741262 0.2414109455539028 0 -0.30726236964348741 0.2311629580639751 0 -0.2931984503859596 0.2247370928535708 0 -0.30726236964348741 0.2311629580639751 0 -0.2931984503859596 0.2247370928535708 0 -0.30797090146941553 0.20715401723670851 0 -0.2931984503859596 0.2247370928535708 0 -0.28036732684319499 0.2400094815876522 0 -0.2931984503859596 0.2247370928535708 0 -0.2776022789716367 0.22954082177353691 0 -0.28036732684319499 0.2400094815876522 0 -0.2931984503859596 0.2247370928535708 0 -0.281358107896717 0.2193365024463888 0 -0.2776022789716367 0.22954082177353691 0 -0.28771947209934101 0.20960201904970571 0 -0.3048116777877119 0.2027843238576062 0 -0.2887618699317796 0.19993246372866719 0 -0.2931984503859596 0.2247370928535708 0 -0.28771947209934101 0.20960201904970571 0 -0.3048116777877119 0.2027843238576062 0 -0.2931984503859596 0.2247370928535708 0 -0.281358107896717 0.2193365024463888 0 -0.28771947209934101 0.20960201904970571 0 -0.281358107896717 0.2193365024463888 0 -0.28771947209934101 0.20960201904970571 0 -0.27559782277396322 0.2102700743508866 0 -0.2931984503859596 0.2247370928535708 0 -0.30797090146941553 0.20715401723670851 0 -0.3048116777877119 0.2027843238576062 0 -0.2931984503859596 0.2247370928535708 0 -0.3048116777877119 0.2027843238576062 0 -0.2931984503859596 0.2247370928535708 0 -0.30797090146941553 0.20715401723670851 0 -0.30797090146941553 0.20715401723670851 0 -0.3048116777877119 0.2027843238576062 0 -0.31484008638213001 0.18250750636912971 0 -0.30773370029558211 0.18990082018728779 0 -0.29622147055053732 0.19090274297849361 0 -0.31484008638213001 0.18250750636912971 0 -0.3048116777877119 0.2027843238576062 0 -0.3048116777877119 0.2027843238576062 0 -0.29622147055053732 0.19090274297849361 0 -0.31484008638213001 0.18250750636912971 0 -0.31333543416458581 0.19454054343652899 0 -0.3048116777877119 0.2027843238576062 0 -0.31484008638213001 0.18250750636912971 0 -0.3048116777877119 0.2027843238576062 0 -0.30773370029558211 0.18990082018728779 0 -0.3048116777877119 0.2027843238576062 0 -0.29622147055053732 0.19090274297849361 0 -0.29212620103150022 0.19274932260086841 0 -0.31333543416458581 0.19454054343652899 0 -0.30797090146941553 0.20715401723670851 0 -0.3048116777877119 0.2027843238576062 0 -0.3048116777877119 0.2027843238576062 0 -0.30773370029558211 0.18990082018728779 0 -0.29622147055053732 0.19090274297849361 0 -0.3048116777877119 0.2027843238576062 0 -0.29212620103150022 0.19274932260086841 0 -0.2887618699317796 0.19993246372866719 0 -0.29622147055053732 0.19090274297849361 0 -0.29212620103150022 0.19274932260086841 0 -0.28771947209934101 0.20960201904970571 0 -0.2887618699317796 0.19993246372866719 0 -0.28025415824258781 0.19917025999610671 0 -0.2887618699317796 0.19993246372866719 0 -0.28576255785176208 0.19478431495531001 0 -0.28025415824258781 0.19917025999610671 0 -0.29212620103150022 0.19274932260086841 0 -0.2887618699317796 0.19993246372866719 0 -0.28576255785176208 0.19478431495531001 0 -0.29212620103150022 0.19274932260086841 0 -0.28576255785176208 0.19478431495531001 0 -0.28190800220118101 0.18728521349559771 0 -0.28576255785176208 0.19478431495531001 0 -0.28025415824258781 0.19917025999610671 0 -0.28190800220118101 0.18728521349559771 0 -0.28025415824258781 0.19917025999610671 0 -0.2703171977523518 0.19205052106089529 0 -0.28190800220118101 0.18728521349559771 0 -0.28025415824258781 0.19917025999610671 0 -0.27138302331033459 0.2011747106665337 0 -0.2703171977523518 0.19205052106089529 0 -0.27138302331033459 0.2011747106665337 0 -0.2703171977523518 0.19205052106089529 0 -0.26132428969069432 0.19909963868215391 0 -0.27138302331033459 0.2011747106665337 0 -0.26132428969069432 0.19909963868215391 0 -0.26497022856438979 0.2069094341203826 0 -0.2703171977523518 0.19205052106089529 0 -0.25967544573041268 0.188298846551406 0 -0.26132428969069432 0.19909963868215391 0 -0.25967544573041268 0.188298846551406 0 -0.25150433605041062 0.19473409522781959 0 -0.26132428969069432 0.19909963868215391 0 -0.25967544573041268 0.188298846551406 0 -0.25150433605041062 0.19473409522781959 0 -0.24806601312553511 0.18384609063628959 0 -0.25150433605041062 0.19473409522781959 0 -0.25398905249910619 0.20166687324756341 0 -0.26132428969069432 0.19909963868215391 0 -0.25150433605041062 0.19473409522781959 0 -0.25398905249910619 0.20166687324756341 0 -0.24666531613690271 0.20386508404673151 0 -0.26132428969069432 0.19909963868215391 0 -0.26497022856438979 0.2069094341203826 0 -0.25646226811841738 0.20896867503354849 0 -0.25398905249910619 0.20166687324756341 0 -0.25646226811841738 0.20896867503354849 0 -0.24666531613690271 0.20386508404673151 0 -0.25398905249910619 0.20166687324756341 0 -0.26132428969069432 0.19909963868215391 0 -0.25646226811841738 0.20896867503354849 0 -0.25646226811841738 0.20896867503354849 0 -0.24722957445290369 0.21404590575577129 0 -0.24666531613690271 0.20386508404673151 0 -0.25646226811841738 0.20896867503354849 0 -0.25483072364087211 0.2202441649145942 0 -0.24722957445290369 0.21404590575577129 0 -0.25646226811841738 0.20896867503354849 0 -0.26403964352415982 0.21708998646200561 0 -0.25483072364087211 0.2202441649145942 0 -0.26497022856438979 0.2069094341203826 0 -0.25646226811841738 0.20896867503354849 0 -0.26403964352415982 0.21708998646200561 0 -0.26497022856438979 0.2069094341203826 0 -0.26403964352415982 0.21708998646200561 0 -0.27559782277396322 0.2102700743508866 0 -0.26403964352415982 0.21708998646200561 0 -0.27559782277396322 0.2102700743508866 0 -0.27267251525268421 0.22253250420424381 0 -0.27138302331033459 0.2011747106665337 0 -0.26497022856438979 0.2069094341203826 0 -0.27559782277396322 0.2102700743508866 0 -0.28771947209934101 0.20960201904970571 0 -0.28025415824258781 0.19917025999610671 0 -0.27559782277396322 0.2102700743508866 0 -0.28025415824258781 0.19917025999610671 0 -0.27138302331033459 0.2011747106665337 0 -0.27559782277396322 0.2102700743508866 0 -0.281358107896717 0.2193365024463888 0 -0.27559782277396322 0.2102700743508866 0 -0.27267251525268421 0.22253250420424381 0 -0.281358107896717 0.2193365024463888 0 -0.2776022789716367 0.22954082177353691 0 -0.27267251525268421 0.22253250420424381 0 -0.2776022789716367 0.22954082177353691 0 -0.26996974689609371 0.2315365807403135 0 -0.27402816744195901 0.23649939988265209 0 -0.26996974689609371 0.2315365807403135 0 -0.26578556867597208 0.2256987066821014 0 -0.26193852525792638 0.23404364514103509 0 -0.26996974689609371 0.2315365807403135 0 -0.27267251525268421 0.22253250420424381 0 -0.26578556867597208 0.2256987066821014 0 -0.2776022789716367 0.22954082177353691 0 -0.26996974689609371 0.2315365807403135 0 -0.27267251525268421 0.22253250420424381 0 -0.26403964352415982 0.21708998646200561 0 -0.27267251525268421 0.22253250420424381 0 -0.26578556867597208 0.2256987066821014 0 -0.26403964352415982 0.21708998646200561 0 -0.26578556867597208 0.2256987066821014 0 -0.25905715122276968 0.22610257686098439 0 -0.26403964352415982 0.21708998646200561 0 -0.25905715122276968 0.22610257686098439 0 -0.25483072364087211 0.2202441649145942 0 -0.25905715122276968 0.22610257686098439 0 -0.25483072364087211 0.2202441649145942 0 -0.25372238742754161 0.23132372007593241 0 -0.25483072364087211 0.2202441649145942 0 -0.25372238742754161 0.23132372007593241 0 -0.24559854804269679 0.2252658723909238 0 -0.25905715122276968 0.22610257686098439 0 -0.25372238742754161 0.23132372007593241 0 -0.26193852525792638 0.23404364514103509 0 -0.26578556867597208 0.2256987066821014 0 -0.25905715122276968 0.22610257686098439 0 -0.26193852525792638 0.23404364514103509 0 -0.26193852525792638 0.23404364514103509 0 -0.26202403864547558 0.2429188321742308 0 -0.26874396735513312 0.23838850290156469 0 -0.26193852525792638 0.23404364514103509 0 -0.25380224261194823 0.2420236261065293 0 -0.26202403864547558 0.2429188321742308 0 -0.25372238742754161 0.23132372007593241 0 -0.26193852525792638 0.23404364514103509 0 -0.25380224261194823 0.2420236261065293 0 -0.25380224261194823 0.2420236261065293 0 -0.25786390678722121 0.25004617063311368 0 -0.24800282081558991 0.25311300777040008 0 -0.26202403864547558 0.2429188321742308 0 -0.26742202564945078 0.25040646433326869 0 -0.25786390678722121 0.25004617063311368 0 -0.25380224261194823 0.2420236261065293 0 -0.26202403864547558 0.2429188321742308 0 -0.25786390678722121 0.25004617063311368 0 -0.26791188719844911 0.2436838529548144 0 -0.27345751714373667 0.2430216124101934 0 -0.26742202564945078 0.25040646433326869 0 -0.26202403864547558 0.2429188321742308 0 -0.26791188719844911 0.2436838529548144 0 -0.26742202564945078 0.25040646433326869 0 -0.26996974689609371 0.2315365807403135 0 -0.26193852525792638 0.23404364514103509 0 -0.26874396735513312 0.23838850290156469 0 -0.26202403864547558 0.2429188321742308 0 -0.26791188719844911 0.2436838529548144 0 -0.26874396735513312 0.23838850290156469 0 -0.26996974689609371 0.2315365807403135 0 -0.26874396735513312 0.23838850290156469 0 -0.27402816744195901 0.23649939988265209 0 -0.26791188719844911 0.2436838529548144 0 -0.26874396735513312 0.23838850290156469 0 -0.27345751714373667 0.2430216124101934 0 -0.26874396735513312 0.23838850290156469 0 -0.27402816744195901 0.23649939988265209 0 -0.27345751714373667 0.2430216124101934 0 -0.2776022789716367 0.22954082177353691 0 -0.27402816744195901 0.23649939988265209 0 -0.28036732684319499 0.2400094815876522 0 -0.27402816744195901 0.23649939988265209 0 -0.28036732684319499 0.2400094815876522 0 -0.27345751714373667 0.2430216124101934 0 -0.28166205787749471 0.24654461896357471 0 -0.27345751714373667 0.2430216124101934 0 -0.26742202564945078 0.25040646433326869 0 -0.28166205787749471 0.24654461896357471 0 -0.28036732684319499 0.2400094815876522 0 -0.27345751714373667 0.2430216124101934 0 -0.29041236635411011 0.14198576070679761 0 -0.29362037367835109 0.1526921640559073 0 -0.28343409229691557 0.14731696245080361 0 -0.29041236635411011 0.14198576070679761 0 -0.29362037367835109 0.1526921640559073 0 -0.30116539000869402 0.14324730272956501 0 -0.29362037367835109 0.1526921640559073 0 -0.2831218423000007 0.15531135900157231 0 -0.28343409229691557 0.14731696245080361 0 -0.29041236635411011 0.14198576070679761 0 -0.28343409229691557 0.14731696245080361 0 -0.28340526165314389 0.1385769097237447 0 -0.28340526165314389 0.1385769097237447 0 -0.28816847720383448 0.13712488548245 0 -0.28653951604166089 0.131323010625637 0 -0.28816847720383448 0.13712488548245 0 -0.28653951604166089 0.131323010625637 0 -0.29231676476642321 0.1366138608736206 0 -0.29041236635411011 0.14198576070679761 0 -0.28340526165314389 0.1385769097237447 0 -0.28816847720383448 0.13712488548245 0 -0.28340526165314389 0.1385769097237447 0 -0.2846208269112781 0.12815264320601311 0 -0.28653951604166089 0.131323010625637 0 -0.2846208269112781 0.12815264320601311 0 -0.28653951604166089 0.131323010625637 0 -0.29546681449044748 0.130524411357057 0 -0.2846208269112781 0.12815264320601311 0 -0.28653951604166089 0.131323010625637 0 -0.29546681449044748 0.130524411357057 0 -0.29231676476642321 0.1366138608736206 0 -0.30116539000869402 0.14324730272956501 0 -0.28653951604166089 0.131323010625637 0 -0.29546681449044748 0.130524411357057 0 -0.29231676476642321 0.1366138608736206 0 -0.29041236635411011 0.14198576070679761 0 -0.29231676476642321 0.1366138608736206 0 -0.30116539000869402 0.14324730272956501 0 -0.29041236635411011 0.14198576070679761 0 -0.28816847720383448 0.13712488548245 0 -0.29231676476642321 0.1366138608736206 0 -0.29546681449044748 0.130524411357057 0 -0.31198054601861852 0.13107994382209781 0 -0.30116539000869402 0.14324730272956501 0 -0.29546681449044748 0.130524411357057 0 -0.31198054601861852 0.13107994382209781 0 -0.29579348291070151 0.1146960027647337 0 -0.29362037367835109 0.1526921640559073 0 -0.30116539000869402 0.14324730272956501 0 -0.30924299170034703 0.16136492011651329 0 -0.29362037367835109 0.1526921640559073 0 -0.30924299170034703 0.16136492011651329 0 -0.29499572810855512 0.17213352594103701 0 -0.31484008638213001 0.18250750636912971 0 -0.29499572810855512 0.17213352594103701 0 -0.31484008638213001 0.18250750636912971 0 -0.30924299170034703 0.16136492011651329 0 -0.29499572810855512 0.17213352594103701 0 -0.31484008638213001 0.18250750636912971 0 -0.29622147055053732 0.19090274297849361 0 -0.31484008638213001 0.18250750636912971 0 -0.29622147055053732 0.19090274297849361 0 -0.29499572810855512 0.17213352594103701 0 -0.29212620103150022 0.19274932260086841 0 -0.28568642019275953 0.17633114424571811 0 -0.28190800220118101 0.18728521349559771 0 -0.29622147055053732 0.19090274297849361 0 -0.29499572810855512 0.17213352594103701 0 -0.28568642019275953 0.17633114424571811 0 -0.29622147055053732 0.19090274297849361 0 -0.29212620103150022 0.19274932260086841 0 -0.28568642019275953 0.17633114424571811 0 -0.29622147055053732 0.19090274297849361 0 -0.28568642019275953 0.17633114424571811 0 -0.29362037367835109 0.1526921640559073 0 -0.2831218423000007 0.15531135900157231 0 -0.29499572810855512 0.17213352594103701 0 -0.29499572810855512 0.17213352594103701 0 -0.27515136983498051 0.16175954551294361 0 -0.29499572810855512 0.17213352594103701 0 -0.28568642019275953 0.17633114424571811 0 -0.27515136983498051 0.16175954551294361 0 -0.2831218423000007 0.15531135900157231 0 -0.29499572810855512 0.17213352594103701 0 -0.27515136983498051 0.16175954551294361 0 -0.28568642019275953 0.17633114424571811 0 -0.27515136983498051 0.16175954551294361 0 -0.27545552349656549 0.1741227203294059 0 -0.28568642019275953 0.17633114424571811 0 -0.27515136983498051 0.16175954551294361 0 -0.27515136983498051 0.16175954551294361 0 -0.2663292989169106 0.17095236925784049 0 -0.27545552349656549 0.1741227203294059 0 -0.27515136983498051 0.16175954551294361 0 -0.2663292989169106 0.17095236925784049 0 -0.26376522261784707 0.16342044040157611 0 -0.27515136983498051 0.16175954551294361 0 -0.26376522261784707 0.16342044040157611 0 -0.26229719964622539 0.15503980642543189 0 -0.27515136983498051 0.16175954551294361 0 -0.26229719964622539 0.15503980642543189 0 -0.2703171977523518 0.19205052106089529 0 -0.28190800220118101 0.18728521349559771 0 -0.2685115015813252 0.1817771165396237 0 -0.28190800220118101 0.18728521349559771 0 -0.27545552349656549 0.1741227203294059 0 -0.2685115015813252 0.1817771165396237 0 -0.28568642019275953 0.17633114424571811 0 -0.28190800220118101 0.18728521349559771 0 -0.27545552349656549 0.1741227203294059 0 -0.2663292989169106 0.17095236925784049 0 -0.27545552349656549 0.1741227203294059 0 -0.2685115015813252 0.1817771165396237 0 -0.2703171977523518 0.19205052106089529 0 -0.25967544573041268 0.188298846551406 0 -0.2685115015813252 0.1817771165396237 0 -0.25967544573041268 0.188298846551406 0 -0.2685115015813252 0.1817771165396237 0 -0.25738354139052999 0.1779530285425969 0 -0.2663292989169106 0.17095236925784049 0 -0.25738354139052999 0.1779530285425969 0 -0.25715384509131939 0.1690078263290978 0 -0.2663292989169106 0.17095236925784049 0 -0.2685115015813252 0.1817771165396237 0 -0.25738354139052999 0.1779530285425969 0 -0.25738354139052999 0.1779530285425969 0 -0.2484577803484381 0.16911774492432341 0 -0.24806601312553511 0.18384609063628959 0 -0.25738354139052999 0.1779530285425969 0 -0.25715384509131939 0.1690078263290978 0 -0.2484577803484381 0.16911774492432341 0 -0.25967544573041268 0.188298846551406 0 -0.25738354139052999 0.1779530285425969 0 -0.24806601312553511 0.18384609063628959 0 -0.26376522261784707 0.16342044040157611 0 -0.25789439959979971 0.1603426544825661 0 -0.26229719964622539 0.15503980642543189 0 -0.25789439959979971 0.1603426544825661 0 -0.26229719964622539 0.15503980642543189 0 -0.26376522261784707 0.16342044040157611 0 -0.25789439959979971 0.1603426544825661 0 -0.25715384509131939 0.1690078263290978 0 -0.2663292989169106 0.17095236925784049 0 -0.26376522261784707 0.16342044040157611 0 -0.25715384509131939 0.1690078263290978 0 -0.25789439959979971 0.1603426544825661 0 -0.25715384509131939 0.1690078263290978 0 -0.2484577803484381 0.16911774492432341 0 -0.25789439959979971 0.1603426544825661 0 -0.24770739827517721 0.15884923907876289 0 -0.2484577803484381 0.16911774492432341 0 -0.25789439959979971 0.1603426544825661 0 -0.25400879478249672 0.15070689988085861 0 -0.24770739827517721 0.15884923907876289 0 -0.25400879478249672 0.15070689988085861 0 -0.26657129282564801 0.1498919763006174 0 -0.2499487205023905 0.1269003962345385 0 -0.2846208269112781 0.12815264320601311 0 -0.26657129282564801 0.1498919763006174 0 -0.2499487205023905 0.1269003962345385 0 -0.25400879478249672 0.15070689988085861 0 -0.26229719964622539 0.15503980642543189 0 -0.26657129282564801 0.1498919763006174 0 -0.25789439959979971 0.1603426544825661 0 -0.25400879478249672 0.15070689988085861 0 -0.26229719964622539 0.15503980642543189 0 -0.25400879478249672 0.15070689988085861 0 -0.26229719964622539 0.15503980642543189 0 -0.26229719964622539 0.15503980642543189 0 -0.26657129282564801 0.1498919763006174 0 -0.2831218423000007 0.15531135900157231 0 -0.28343409229691557 0.14731696245080361 0 -0.26657129282564801 0.1498919763006174 0 -0.28343409229691557 0.14731696245080361 0 -0.28340526165314389 0.1385769097237447 0 -0.26657129282564801 0.1498919763006174 0 -0.27515136983498051 0.16175954551294361 0 -0.26657129282564801 0.1498919763006174 0 -0.2831218423000007 0.15531135900157231 0 -0.27515136983498051 0.16175954551294361 0 -0.26657129282564801 0.1498919763006174 0 -0.27515136983498051 0.16175954551294361 0 -0.26229719964622539 0.15503980642543189 0 -0.26657129282564801 0.1498919763006174 0 -0.28340526165314389 0.1385769097237447 0 -0.2846208269112781 0.12815264320601311 0 -0.26657129282564801 0.1498919763006174 0 -0.2846208269112781 0.12815264320601311 0 -0.26657129282564801 0.1498919763006174 0 -0.26657129282564801 0.1498919763006174 0 -0.2499487205023905 0.1269003962345385 0 -0.2846208269112781 0.12815264320601311 0 -0.27172629194349052 0.1068462142979982 0 -0.2499487205023905 0.1269003962345385 0 -0.25202467591831917 0.1031831303953244 0 -0.27172629194349052 0.1068462142979982 0 -0.2499487205023905 0.1269003962345385 0 -0.27172629194349052 0.1068462142979982 0 -0.25883175697570282 0.08553978538998358 0 -0.25202467591831917 0.1031831303953244 0 -0.27172629194349052 0.1068462142979982 0 -0.25883175697570282 0.08553978538998358 0 -0.27917472927643788 0.097875120670479987 0 -0.27172629194349052 0.1068462142979982 0 -0.25883175697570282 0.08553978538998358 0 -0.2846208269112781 0.12815264320601311 0 -0.27172629194349052 0.1068462142979982 0 -0.2846208269112781 0.12815264320601311 0 -0.27172629194349052 0.1068462142979982 0 -0.29579348291070151 0.1146960027647337 0 -0.2846208269112781 0.12815264320601311 0 -0.29546681449044748 0.130524411357057 0 -0.29579348291070151 0.1146960027647337 0 -0.2846208269112781 0.12815264320601311 0 -0.29579348291070151 0.1146960027647337 0 -0.27917472927643788 0.097875120670479987 0 -0.27172629194349052 0.1068462142979982 0 -0.29579348291070151 0.1146960027647337 0 -0.27917472927643788 0.097875120670479987 0 -0.29579348291070151 0.1146960027647337 0 -0.27917472927643788 0.097875120670479987 0 -0.29579348291070151 0.1146960027647337 0 -0.29468620596193912 0.090356749692257501 0 -0.29579348291070151 0.1146960027647337 0 -0.31006325857667127 0.097509110021902073 0 -0.31466713903662141 0.1048376939583852 0 -0.29579348291070151 0.1146960027647337 0 -0.31006325857667127 0.097509110021902073 0 -0.29468620596193912 0.090356749692257501 0 -0.29579348291070151 0.1146960027647337 0 -0.31006325857667127 0.097509110021902073 0 -0.31198054601861852 0.13107994382209781 0 -0.29579348291070151 0.1146960027647337 0 -0.31263059523002179 0.117411319040347 0 -0.29579348291070151 0.1146960027647337 0 -0.31263059523002179 0.117411319040347 0 -0.31466713903662141 0.1048376939583852 0 -0.31198054601861852 0.13107994382209781 0 -0.29579348291070151 0.1146960027647337 0 -0.31134765149775712 0.067833073982807413 0 -0.30775084040973488 0.081351725968802024 0 -0.29428961921366681 0.069895381810368473 0 -0.31006325857667127 0.097509110021902073 0 -0.30775084040973488 0.081351725968802024 0 -0.29468620596193912 0.090356749692257501 0 -0.30775084040973488 0.081351725968802024 0 -0.29468620596193912 0.090356749692257501 0 -0.29428961921366681 0.069895381810368473 0 -0.27917472927643788 0.097875120670479987 0 -0.29468620596193912 0.090356749692257501 0 -0.28020191898721158 0.080618038361085928 0 -0.29468620596193912 0.090356749692257501 0 -0.29428961921366681 0.069895381810368473 0 -0.28020191898721158 0.080618038361085928 0 -0.29428961921366681 0.069895381810368473 0 -0.27030306484183808 0.063908701056098943 0 -0.28541170846375191 0.054101045950701303 0 -0.29428961921366681 0.069895381810368473 0 -0.27030306484183808 0.063908701056098943 0 -0.28020191898721158 0.080618038361085928 0 -0.27030306484183808 0.063908701056098943 0 -0.28020191898721158 0.080618038361085928 0 -0.26255597564217631 0.081054238576224666 0 -0.27917472927643788 0.097875120670479987 0 -0.26255597564217631 0.081054238576224666 0 -0.27917472927643788 0.097875120670479987 0 -0.28020191898721158 0.080618038361085928 0 -0.26255597564217631 0.081054238576224666 0 -0.27917472927643788 0.097875120670479987 0 -0.26255597564217631 0.081054238576224666 0 -0.25883175697570282 0.08553978538998358 0 -0.27030306484183808 0.063908701056098943 0 -0.26255597564217631 0.081054238576224666 0 -0.24593722200791471 0.064233356481969039 0 -0.26255597564217631 0.081054238576224666 0 -0.24593722200791471 0.064233356481969039 0 -0.25883175697570282 0.08553978538998358 0 -0.24593722200791471 0.064233356481969039 0 -0.26255597564217631 0.081054238576224666 0 -0.25883175697570282 0.08553978538998358 0 -0.24593722200791471 0.064233356481969039 0 -0.27030306484183808 0.063908701056098943 0 -0.25654794015545968 0.054683927786505597 0 -0.26633368302547372 0.042579799869666222 0 -0.25654794015545968 0.054683927786505597 0 -0.24801373987997199 0.054302097415669472 0 -0.24593722200791471 0.064233356481969039 0 -0.27030306484183808 0.063908701056098943 0 -0.25654794015545968 0.054683927786505597 0 -0.24593722200791471 0.064233356481969039 0 -0.25654794015545968 0.054683927786505597 0 -0.24863621078836329 0.04311354441041032 0 -0.24801373987997199 0.054302097415669472 0 -0.26633368302547372 0.042579799869666222 0 -0.24652525723962471 0.025256980154944431 0 -0.24863621078836329 0.04311354441041032 0 -0.25654794015545968 0.054683927786505597 0 -0.26633368302547372 0.042579799869666222 0 -0.24863621078836329 0.04311354441041032 0 -0.26633368302547372 0.042579799869666222 0 -0.28541170846375191 0.054101045950701303 0 -0.28278655936470509 0.036755368513010853 0 -0.26633368302547372 0.042579799869666222 0 -0.27346723259980321 0.019261809699381419 0 -0.28278655936470509 0.036755368513010853 0 -0.27030306484183808 0.063908701056098943 0 -0.26633368302547372 0.042579799869666222 0 -0.28541170846375191 0.054101045950701303 0 -0.25368046575302122 -0.0060765949484967302 0 -0.2687292122232216 -0.00039107927712494318 0 -0.2559682256568111 0.0085224452031399753 0 -0.2559682256568111 0.0085224452031399753 0 -0.27346723259980321 0.019261809699381419 0 -0.24652525723962471 0.025256980154944431 0 -0.27346723259980321 0.019261809699381419 0 -0.24652525723962471 0.025256980154944431 0 -0.26633368302547372 0.042579799869666222 0 -0.27346723259980321 0.019261809699381419 0 -0.24652525723962471 0.025256980154944431 0 -0.2687292122232216 -0.00039107927712494318 0 -0.27346723259980321 0.019261809699381419 0 -0.28669271409587033 0.00067394175626276775 0 -0.2687292122232216 -0.00039107927712494318 0 -0.2559682256568111 0.0085224452031399753 0 -0.27346723259980321 0.019261809699381419 0 -0.27346723259980321 0.019261809699381419 0 -0.28669271409587033 0.00067394175626276775 0 -0.29342922958270468 0.016292084913638118 0 -0.28669271409587033 0.00067394175626276775 0 -0.29342922958270468 0.016292084913638118 0 -0.30636397558727529 0.0074589686305737476 0 -0.29342922958270468 0.016292084913638118 0 -0.28278655936470509 0.036755368513010853 0 -0.29796544892220012 0.031603439955737993 0 -0.27346723259980321 0.019261809699381419 0 -0.29342922958270468 0.016292084913638118 0 -0.28278655936470509 0.036755368513010853 0 -0.29342922958270468 0.016292084913638118 0 -0.31128922760479799 0.025597670344622139 0 -0.30636397558727529 0.0074589686305737476 0 -0.29342922958270468 0.016292084913638118 0 -0.31128922760479799 0.025597670344622139 0 -0.29796544892220012 0.031603439955737993 0 -0.31128922760479799 0.025597670344622139 0 -0.30636397558727529 0.0074589686305737476 0 -0.31967615519358261 0.01309571834917644 0 -0.30442587094067991 -0.0091726997856424724 0 -0.30636397558727529 0.0074589686305737476 0 -0.32136171038173122 0.0039822429546938244 0 -0.29428961921366681 0.069895381810368473 0 -0.28541170846375191 0.054101045950701303 0 -0.30443342253598488 0.047419101246825593 0 -0.28278655936470509 0.036755368513010853 0 -0.29796544892220012 0.031603439955737993 0 -0.30443342253598488 0.047419101246825593 0 -0.28541170846375191 0.054101045950701303 0 -0.28278655936470509 0.036755368513010853 0 -0.30443342253598488 0.047419101246825593 0 -0.31128922760479799 0.025597670344622139 0 -0.29796544892220012 0.031603439955737993 0 -0.30443342253598488 0.047419101246825593 0 -0.31134765149775712 0.067833073982807413 0 -0.29428961921366681 0.069895381810368473 0 -0.30443342253598488 0.047419101246825593 0 -0.31134765149775712 0.067833073982807413 0 -0.30443342253598488 0.047419101246825593 0 -0.32749567209038172 0.057836461044680092 0 -0.30443342253598488 0.047419101246825593 0 -0.32749567209038172 0.057836461044680092 0 -0.32358591364198208 0.035466089696928237 0 -0.32749567209038172 0.057836461044680092 0 -0.32358591364198208 0.035466089696928237 0 -0.31128922760479799 0.025597670344622139 0 -0.30443342253598488 0.047419101246825593 0 -0.32358591364198208 0.035466089696928237 0 -0.32749567209038172 0.057836461044680092 0 -0.32358591364198208 0.035466089696928237 0 -0.34535856748301552 0.037873264805799903 0 -0.32749567209038172 0.057836461044680092 0 -0.34877764926571442 0.056424638428939577 0 -0.34535856748301552 0.037873264805799903 0 -0.32749567209038172 0.057836461044680092 0 -0.34877764926571442 0.056424638428939577 0 -0.33965532917065677 0.068041417554307856 0 -0.32136171038173122 0.0039822429546938244 0 -0.31967615519358261 0.01309571834917644 0 -0.3382975498227826 0.017137185695030119 0 -0.30636397558727529 0.0074589686305737476 0 -0.32136171038173122 0.0039822429546938244 0 -0.31967615519358261 0.01309571834917644 0 -0.31128922760479799 0.025597670344622139 0 -0.32358591364198208 0.035466089696928237 0 -0.31967615519358261 0.01309571834917644 0 -0.32358591364198208 0.035466089696928237 0 -0.31967615519358261 0.01309571834917644 0 -0.32358591364198208 0.035466089696928237 0 -0.31967615519358261 0.01309571834917644 0 -0.3382975498227826 0.017137185695030119 0 -0.32358591364198208 0.035466089696928237 0 -0.3382975498227826 0.017137185695030119 0 -0.34535856748301552 0.037873264805799903 0 -0.33237148267863559 -0.0023354662605286139 0 -0.32136171038173122 0.0039822429546938244 0 -0.3382975498227826 0.017137185695030119 0 -0.32136171038173122 0.0039822429546938244 0 -0.3382975498227826 0.017137185695030119 0 -0.34396552384851448 -0.002286048506845227 0 -0.33237148267863559 -0.0023354662605286139 0 -0.3382975498227826 0.017137185695030119 0 -0.34396552384851448 -0.002286048506845227 0 -0.3382975498227826 0.017137185695030119 0 -0.35669899738390448 0.0061599450621230532 0 -0.3382975498227826 0.017137185695030119 0 -0.35669899738390448 0.0061599450621230532 0 -0.35509611680264752 0.022565830746099282 0 -0.3382975498227826 0.017137185695030119 0 -0.35509611680264752 0.022565830746099282 0 -0.34535856748301552 0.037873264805799903 0 -0.35509611680264752 0.022565830746099282 0 -0.34535856748301552 0.037873264805799903 0 -0.36858128962725328 0.031388571701146797 0 -0.38590037094696072 0.021936836233300599 0 -0.36948133179405301 0.016461005873055191 0 -0.36858128962725328 0.031388571701146797 0 -0.35509611680264752 0.022565830746099282 0 -0.36948133179405301 0.016461005873055191 0 -0.36858128962725328 0.031388571701146797 0 -0.3809477351706122 0.0027779631661205301 0 -0.35669899738390448 0.0061599450621230532 0 -0.36948133179405301 0.016461005873055191 0 -0.35669899738390448 0.0061599450621230532 0 -0.35509611680264752 0.022565830746099282 0 -0.36948133179405301 0.016461005873055191 0 -0.34877764926571442 0.056424638428939577 0 -0.34535856748301552 0.037873264805799903 0 -0.36522499818381288 0.047101909261874721 0 -0.34535856748301552 0.037873264805799903 0 -0.36858128962725328 0.031388571701146797 0 -0.36522499818381288 0.047101909261874721 0 -0.38485069663672228 0.039572138335468458 0 -0.36858128962725328 0.031388571701146797 0 -0.36522499818381288 0.047101909261874721 0 -0.34877764926571442 0.056424638428939577 0 -0.36522499818381288 0.047101909261874721 0 -0.36469040019974219 0.063788076308829988 0 -0.37968102449553931 0.055261132986699428 0 -0.36522499818381288 0.047101909261874721 0 -0.36469040019974219 0.063788076308829988 0 -0.37866953800929221 0.072188859818500373 0 -0.36469040019974219 0.063788076308829988 0 -0.36437800354805611 0.080126564233039821 0 -0.37968102449553931 0.055261132986699428 0 -0.37866953800929221 0.072188859818500373 0 -0.36469040019974219 0.063788076308829988 0 -0.36469040019974219 0.063788076308829988 0 -0.35141118769603907 0.071625353123926011 0 -0.36437800354805611 0.080126564233039821 0 -0.34877764926571442 0.056424638428939577 0 -0.36469040019974219 0.063788076308829988 0 -0.35141118769603907 0.071625353123926011 0 -0.35141118769603907 0.071625353123926011 0 -0.33965532917065677 0.068041417554307856 0 -0.34223240286875178 0.078278285120625971 0 -0.34877764926571442 0.056424638428939577 0 -0.35141118769603907 0.071625353123926011 0 -0.33965532917065677 0.068041417554307856 0 -0.34914540267198357 0.086755035559317878 0 -0.36437800354805611 0.080126564233039821 0 -0.3627680514013697 0.099571741863765773 0 -0.35141118769603907 0.071625353123926011 0 -0.34914540267198357 0.086755035559317878 0 -0.34223240286875178 0.078278285120625971 0 -0.35141118769603907 0.071625353123926011 0 -0.34914540267198357 0.086755035559317878 0 -0.36437800354805611 0.080126564233039821 0 -0.37749545954619118 0.085803985482563253 0 -0.36437800354805611 0.080126564233039821 0 -0.3627680514013697 0.099571741863765773 0 -0.37749545954619118 0.085803985482563253 0 -0.37866953800929221 0.072188859818500373 0 -0.36437800354805611 0.080126564233039821 0 -0.3627680514013697 0.099571741863765773 0 -0.37493080857762762 0.117639443057466 0 -0.35742372425334801 0.1206586607232582 0 -0.33967887290048621 0.12754478955736179 0 -0.35742372425334801 0.1206586607232582 0 -0.3353151889871806 0.1025772037401836 0 -0.34914540267198357 0.086755035559317878 0 -0.3627680514013697 0.099571741863765773 0 -0.3353151889871806 0.1025772037401836 0 -0.3627680514013697 0.099571741863765773 0 -0.35742372425334801 0.1206586607232582 0 -0.3353151889871806 0.1025772037401836 0 -0.3627680514013697 0.099571741863765773 0 -0.3353151889871806 0.1025772037401836 0 -0.33967887290048621 0.12754478955736179 0 -0.3353151889871806 0.1025772037401836 0 -0.33967887290048621 0.12754478955736179 0 -0.3353151889871806 0.1025772037401836 0 -0.32554516302573983 0.1169421376637811 0 -0.32554516302573983 0.1169421376637811 0 -0.31263059523002179 0.117411319040347 0 -0.31466713903662141 0.1048376939583852 0 -0.31198054601861852 0.13107994382209781 0 -0.32554516302573983 0.1169421376637811 0 -0.31263059523002179 0.117411319040347 0 -0.3353151889871806 0.1025772037401836 0 -0.31466713903662141 0.1048376939583852 0 -0.31734125986687589 0.098047396955438182 0 -0.3353151889871806 0.1025772037401836 0 -0.31734125986687589 0.098047396955438182 0 -0.32369163444242999 0.091732552077805216 0 -0.3353151889871806 0.1025772037401836 0 -0.31466713903662141 0.1048376939583852 0 -0.3353151889871806 0.1025772037401836 0 -0.32554516302573983 0.1169421376637811 0 -0.31466713903662141 0.1048376939583852 0 -0.31006325857667127 0.097509110021902073 0 -0.31466713903662141 0.1048376939583852 0 -0.31734125986687589 0.098047396955438182 0 -0.31006325857667127 0.097509110021902073 0 -0.31734125986687589 0.098047396955438182 0 -0.32369163444242999 0.091732552077805216 0 -0.31006325857667127 0.097509110021902073 0 -0.30775084040973488 0.081351725968802024 0 -0.32433303424264098 0.080322217279070296 0 -0.31006325857667127 0.097509110021902073 0 -0.32433303424264098 0.080322217279070296 0 -0.31006325857667127 0.097509110021902073 0 -0.32369163444242999 0.091732552077805216 0 -0.32433303424264098 0.080322217279070296 0 -0.32369163444242999 0.091732552077805216 0 -0.32433303424264098 0.080322217279070296 0 -0.33140543053878119 0.080206832392431912 0 -0.32749567209038172 0.057836461044680092 0 -0.32433303424264098 0.080322217279070296 0 -0.33140543053878119 0.080206832392431912 0 -0.31134765149775712 0.067833073982807413 0 -0.30775084040973488 0.081351725968802024 0 -0.32433303424264098 0.080322217279070296 0 -0.31134765149775712 0.067833073982807413 0 -0.32749567209038172 0.057836461044680092 0 -0.32433303424264098 0.080322217279070296 0 -0.32749567209038172 0.057836461044680092 0 -0.33140543053878119 0.080206832392431912 0 -0.32749567209038172 0.057836461044680092 0 -0.33965532917065677 0.068041417554307856 0 -0.33140543053878119 0.080206832392431912 0 -0.33965532917065677 0.068041417554307856 0 -0.34223240286875178 0.078278285120625971 0 -0.33140543053878119 0.080206832392431912 0 -0.3353151889871806 0.1025772037401836 0 -0.32369163444242999 0.091732552077805216 0 -0.33140543053878119 0.080206832392431912 0 -0.34223240286875178 0.078278285120625971 0 -0.3395246062666743 0.08695433920313983 0 -0.33140543053878119 0.080206832392431912 0 -0.3353151889871806 0.1025772037401836 0 -0.3395246062666743 0.08695433920313983 0 -0.33140543053878119 0.080206832392431912 0 -0.34914540267198357 0.086755035559317878 0 -0.34223240286875178 0.078278285120625971 0 -0.3395246062666743 0.08695433920313983 0 -0.34914540267198357 0.086755035559317878 0 -0.3353151889871806 0.1025772037401836 0 -0.3395246062666743 0.08695433920313983 0 -0.3353151889871806 0.1025772037401836 0 -0.33140543053878119 0.080206832392431912 0 -0.39490744557181329 0.47749542215548041 0 -0.40238690193534687 0.48618951775534291 0 -0.38204176093759867 0.48767303845213411 0 -0.39490744557181329 0.47749542215548041 0 -0.39324728345878118 0.47058229686955139 0 -0.38620655286583028 0.47549051880844878 0 -0.39490744557181329 0.47749542215548041 0 -0.39324728345878118 0.47058229686955139 0 -0.39950232781761019 0.4698941889100679 0 -0.39490744557181329 0.47749542215548041 0 -0.40605984641571291 0.47514297213733753 0 -0.39950232781761019 0.4698941889100679 0 -0.40605984641571291 0.47514297213733753 0 -0.39950232781761019 0.4698941889100679 0 -0.40344336090166311 0.46223533000004818 0 -0.39490744557181329 0.47749542215548041 0 -0.40605984641571291 0.47514297213733753 0 -0.40238690193534687 0.48618951775534291 0 -0.39981313985169459 0.5 0 -0.40238690193534687 0.48618951775534291 0 -0.38204176093759867 0.48767303845213411 0 -0.40238690193534687 0.48618951775534291 0 -0.38204176093759867 0.48767303845213411 0 -0.39981313985169459 0.5 0 -0.38204176093759867 0.48767303845213411 0 -0.37044734965704867 0.5 0 -0.38204176093759867 0.48767303845213411 0 -0.38620655286583028 0.47549051880844878 0 -0.37333950992086351 0.47327722219825058 0 -0.38204176093759867 0.48767303845213411 0 -0.37333950992086351 0.47327722219825058 0 -0.36994570678819511 0.48733690223976572 0 -0.39490744557181329 0.47749542215548041 0 -0.38204176093759867 0.48767303845213411 0 -0.38620655286583028 0.47549051880844878 0 -0.39324728345878118 0.47058229686955139 0 -0.38620655286583028 0.47549051880844878 0 -0.38559273904397229 0.46432478489105861 0 -0.38620655286583028 0.47549051880844878 0 -0.38559273904397229 0.46432478489105861 0 -0.37333950992086351 0.47327722219825058 0 -0.37626883962521179 0.45892663211557277 0 -0.38559273904397229 0.46432478489105861 0 -0.37333950992086351 0.47327722219825058 0 -0.37626883962521179 0.45892663211557277 0 -0.38281421218162648 0.45301532836957992 0 -0.37481481235924752 0.4476546642360138 0 -0.37626883962521179 0.45892663211557277 0 -0.38559273904397229 0.46432478489105861 0 -0.38281421218162648 0.45301532836957992 0 -0.38559273904397229 0.46432478489105861 0 -0.38281421218162648 0.45301532836957992 0 -0.39168507055110569 0.45433832731915158 0 -0.38559273904397229 0.46432478489105861 0 -0.39441247863106599 0.46340476004126452 0 -0.39168507055110569 0.45433832731915158 0 -0.37558425303023452 0.43976878428969562 0 -0.38178602289440311 0.44653188465487098 0 -0.38775378317896692 0.44369977129527732 0 -0.37558425303023452 0.43976878428969562 0 -0.38178602289440311 0.44653188465487098 0 -0.37481481235924752 0.4476546642360138 0 -0.38178602289440311 0.44653188465487098 0 -0.38281421218162648 0.45301532836957992 0 -0.37481481235924752 0.4476546642360138 0 -0.38600977220152549 0.44939632790971989 0 -0.38775378317896692 0.44369977129527732 0 -0.39168507055110569 0.45433832731915158 0 -0.38281421218162648 0.45301532836957992 0 -0.38600977220152549 0.44939632790971989 0 -0.39168507055110569 0.45433832731915158 0 -0.38178602289440311 0.44653188465487098 0 -0.38281421218162648 0.45301532836957992 0 -0.38600977220152549 0.44939632790971989 0 -0.38178602289440311 0.44653188465487098 0 -0.38600977220152549 0.44939632790971989 0 -0.38775378317896692 0.44369977129527732 0 -0.38520205828472109 0.43947649428889168 0 -0.38775378317896692 0.44369977129527732 0 -0.39305454088869402 0.44028907937492251 0 -0.38775378317896692 0.44369977129527732 0 -0.40344336090166311 0.46223533000004818 0 -0.38775378317896692 0.44369977129527732 0 -0.40152380697676188 0.45059662414066209 0 -0.40344336090166311 0.46223533000004818 0 -0.39305454088869402 0.44028907937492251 0 -0.39815501932632519 0.44415738894337708 0 -0.39840934245878362 0.43477159503588902 0 -0.38775378317896692 0.44369977129527732 0 -0.39305454088869402 0.44028907937492251 0 -0.39815501932632519 0.44415738894337708 0 -0.38520205828472109 0.43947649428889168 0 -0.39305454088869402 0.44028907937492251 0 -0.39840934245878362 0.43477159503588902 0 -0.38775378317896692 0.44369977129527732 0 -0.39815501932632519 0.44415738894337708 0 -0.40152380697676188 0.45059662414066209 0 -0.39815501932632519 0.44415738894337708 0 -0.40152380697676188 0.45059662414066209 0 -0.40890687271294718 0.44615818941335511 0 -0.39815501932632519 0.44415738894337708 0 -0.40890687271294718 0.44615818941335511 0 -0.39840934245878362 0.43477159503588902 0 -0.40890687271294718 0.44615818941335511 0 -0.39840934245878362 0.43477159503588902 0 -0.38775378317896692 0.44369977129527732 0 -0.39168507055110569 0.45433832731915158 0 -0.40344336090166311 0.46223533000004818 0 -0.39324728345878118 0.47058229686955139 0 -0.38559273904397229 0.46432478489105861 0 -0.39441247863106599 0.46340476004126452 0 -0.39324728345878118 0.47058229686955139 0 -0.39950232781761019 0.4698941889100679 0 -0.39441247863106599 0.46340476004126452 0 -0.39441247863106599 0.46340476004126452 0 -0.39168507055110569 0.45433832731915158 0 -0.40344336090166311 0.46223533000004818 0 -0.40152380697676188 0.45059662414066209 0 -0.40344336090166311 0.46223533000004818 0 -0.40935999876390688 0.45673244105125249 0 -0.39950232781761019 0.4698941889100679 0 -0.39441247863106599 0.46340476004126452 0 -0.40344336090166311 0.46223533000004818 0 -0.40344336090166311 0.46223533000004818 0 -0.41333145950128303 0.46415450668508118 0 -0.40935999876390688 0.45673244105125249 0 -0.41333145950128303 0.46415450668508118 0 -0.40935999876390688 0.45673244105125249 0 -0.41940440296711079 0.45754478379082109 0 -0.40935999876390688 0.45673244105125249 0 -0.41940440296711079 0.45754478379082109 0 -0.40890687271294718 0.44615818941335511 0 -0.41333145950128303 0.46415450668508118 0 -0.41940440296711079 0.45754478379082109 0 -0.41333145950128303 0.46415450668508118 0 -0.41940440296711079 0.45754478379082109 0 -0.42171457542345819 0.47025898220142759 0 -0.40152380697676188 0.45059662414066209 0 -0.40935999876390688 0.45673244105125249 0 -0.40890687271294718 0.44615818941335511 0 -0.41940440296711079 0.45754478379082109 0 -0.40890687271294718 0.44615818941335511 0 -0.41940440296711079 0.45754478379082109 0 -0.40890687271294718 0.44615818941335511 0 -0.41974589467358681 0.44604231398710442 0 -0.40890687271294718 0.44615818941335511 0 -0.41974589467358681 0.44604231398710442 0 -0.41955991599177078 0.43566433621052969 0 -0.43111238702251831 0.44480194653371191 0 -0.4428203710779261 0.43205910927660302 0 -0.41955991599177078 0.43566433621052969 0 -0.41974589467358681 0.44604231398710442 0 -0.43111238702251831 0.44480194653371191 0 -0.41955991599177078 0.43566433621052969 0 -0.41940440296711079 0.45754478379082109 0 -0.41974589467358681 0.44604231398710442 0 -0.43111238702251831 0.44480194653371191 0 -0.41940440296711079 0.45754478379082109 0 -0.43111238702251831 0.44480194653371191 0 -0.43111238702251831 0.44480194653371191 0 -0.4428203710779261 0.43205910927660302 0 -0.41940440296711079 0.45754478379082109 0 -0.4358735311723283 0.45703586748138431 0 -0.43124079344897592 0.47038363007629302 0 -0.41940440296711079 0.45754478379082109 0 -0.43111238702251831 0.44480194653371191 0 -0.4358735311723283 0.45703586748138431 0 -0.41940440296711079 0.45754478379082109 0 -0.43124079344897592 0.47038363007629302 0 -0.42171457542345819 0.47025898220142759 0 -0.41940440296711079 0.45754478379082109 0 -0.43124079344897592 0.47038363007629302 0 -0.43124079344897592 0.47038363007629302 0 -0.42675882117162323 0.47740960084324557 0 -0.44307718393084339 0.48322247636176258 0 -0.42273204293309502 0.48470599705855177 0 -0.44307718393084339 0.48322247636176258 0 -0.42675882117162323 0.47740960084324557 0 -0.42273204293309502 0.48470599705855177 0 -0.44307718393084339 0.48322247636176258 0 -0.43124079344897592 0.47038363007629302 0 -0.44307718393084339 0.48322247636176258 0 -0.42675882117162323 0.47740960084324557 0 -0.41913293862435919 0.48077088870481899 0 -0.42273204293309502 0.48470599705855177 0 -0.43124079344897592 0.47038363007629302 0 -0.42675882117162323 0.47740960084324557 0 -0.42171457542345819 0.47025898220142759 0 -0.42675882117162323 0.47740960084324557 0 -0.42171457542345819 0.47025898220142759 0 -0.41913293862435919 0.48077088870481899 0 -0.40344336090166311 0.46223533000004818 0 -0.41913293862435919 0.48077088870481899 0 -0.40238690193534687 0.48618951775534291 0 -0.41913293862435919 0.48077088870481899 0 -0.42273204293309502 0.48470599705855177 0 -0.40605984641571291 0.47514297213733753 0 -0.40344336090166311 0.46223533000004818 0 -0.41913293862435919 0.48077088870481899 0 -0.41333145950128303 0.46415450668508118 0 -0.42171457542345819 0.47025898220142759 0 -0.41913293862435919 0.48077088870481899 0 -0.40344336090166311 0.46223533000004818 0 -0.41333145950128303 0.46415450668508118 0 -0.41913293862435919 0.48077088870481899 0 -0.40605984641571291 0.47514297213733753 0 -0.40238690193534687 0.48618951775534291 0 -0.41913293862435919 0.48077088870481899 0 -0.39981313985169459 0.5 0 -0.42917893004634061 0.5 0 -0.42273204293309502 0.48470599705855177 0 -0.39981313985169459 0.5 0 -0.40238690193534687 0.48618951775534291 0 -0.42273204293309502 0.48470599705855177 0 -0.40238690193534687 0.48618951775534291 0 -0.42273204293309502 0.48470599705855177 0 -0.42273204293309502 0.48470599705855177 0 -0.43329083577145538 0.48926092584322811 0 -0.44307718393084339 0.48322247636176258 0 -0.42917893004634061 0.5 0 -0.42273204293309502 0.48470599705855177 0 -0.43329083577145538 0.48926092584322811 0 -0.42917893004634061 0.5 0 -0.43329083577145538 0.48926092584322811 0 -0.45854472024098653 0.50000000000000167 0 -0.44307718393084339 0.48322247636176258 0 -0.45854472024098653 0.50000000000000167 0 -0.43329083577145538 0.48926092584322811 0 -0.44307718393084339 0.48322247636176258 0 -0.45854472024098653 0.50000000000000167 0 -0.43124079344897592 0.47038363007629302 0 -0.44307718393084339 0.48322247636176258 0 -0.45176717470325878 0.46380821064388678 0 -0.46836306224000968 0.48137868851028581 0 -0.47128447964556919 0.46295763473221557 0 -0.45176717470325878 0.46380821064388678 0 -0.44307718393084339 0.48322247636176258 0 -0.46836306224000968 0.48137868851028581 0 -0.44307718393084339 0.48322247636176258 0 -0.46836306224000968 0.48137868851028581 0 -0.45176717470325878 0.46380821064388678 0 -0.44307718393084339 0.48322247636176258 0 -0.46836306224000968 0.48137868851028581 0 -0.45854472024098653 0.50000000000000167 0 -0.46836306224000968 0.48137868851028581 0 -0.49364894054917619 0.47953490065881132 0 -0.48751681264942431 0.50000000000000067 0 -0.46836306224000968 0.48137868851028581 0 -0.45854472024098653 0.50000000000000167 0 -0.48751681264942431 0.50000000000000067 0 -0.46836306224000968 0.48137868851028581 0 -0.48373181651593311 0.46957425119040169 0 -0.49364894054917619 0.47953490065881132 0 -0.46836306224000968 0.48137868851028581 0 -0.49364894054917619 0.47953490065881132 0 -0.46836306224000968 0.48137868851028581 0 -0.48373181651593311 0.46957425119040169 0 -0.47128447964556919 0.46295763473221557 0 -0.48373181651593311 0.46957425119040169 0 -0.49364894054917619 0.47953490065881132 0 -0.49724591349141689 0.46753051820072999 0 -0.50000000000000222 0.4712835840454942 0 -0.49364894054917619 0.47953490065881132 0 -0.49724591349141689 0.46753051820072999 0 -0.49364894054917619 0.47953490065881132 0 -0.49724591349141689 0.46753051820072999 0 -0.50000000000000222 0.4712835840454942 0 -0.49724591349141689 0.46753051820072999 0 -0.50000000000000222 0.4712835840454942 0 -0.49364894054917619 0.47953490065881132 0 -0.49999999999999489 0.47907179607069938 0 -0.49364894054917619 0.47953490065881132 0 -0.49999999999999489 0.47907179607069938 0 -0.49364894054917619 0.47953490065881132 0 -0.49999999999999489 0.47907179607069938 0 -0.5 0.5 0 -0.49364894054917619 0.47953490065881132 0 -0.5 0.5 0 -0.48751681264942431 0.50000000000000067 0 -0.49364894054917619 0.47953490065881132 0 -0.48751681264942431 0.50000000000000067 0 -0.48983763369558869 0.44158310504263121 0 -0.49999999999999989 0.45833914859562852 0 -0.49016642815461042 0.45788311804346032 0 -0.48983763369558869 0.44158310504263121 0 -0.49999999999999989 0.45833914859562852 0 -0.5 0.42883458196274332 0 -0.48983763369558869 0.44158310504263121 0 -0.49016642815461042 0.45788311804346032 0 -0.47438689006328361 0.43637992804850029 0 -0.49999999999999989 0.45833914859562852 0 -0.49873608737430708 0.46255727611453279 0 -0.49016642815461042 0.45788311804346032 0 -0.49873608737430708 0.46255727611453279 0 -0.49016642815461042 0.45788311804346032 0 -0.50000000000000222 0.4712835840454942 0 -0.49724591349141689 0.46753051820072999 0 -0.49873608737430708 0.46255727611453279 0 -0.49724591349141689 0.46753051820072999 0 -0.49873608737430708 0.46255727611453279 0 -0.49016642815461042 0.45788311804346032 0 -0.49724591349141689 0.46753051820072999 0 -0.49016642815461042 0.45788311804346032 0 -0.49724591349141689 0.46753051820072999 0 -0.49873608737430708 0.46255727611453279 0 -0.48373181651593311 0.46957425119040169 0 -0.49724591349141689 0.46753051820072999 0 -0.49016642815461042 0.45788311804346032 0 -0.49016642815461042 0.45788311804346032 0 -0.47128447964556919 0.46295763473221557 0 -0.46649339961626829 0.44497111366003139 0 -0.48373181651593311 0.46957425119040169 0 -0.49016642815461042 0.45788311804346032 0 -0.47128447964556919 0.46295763473221557 0 -0.49016642815461042 0.45788311804346032 0 -0.46649339961626829 0.44497111366003139 0 -0.49016642815461042 0.45788311804346032 0 -0.47438689006328361 0.43637992804850029 0 -0.49016642815461042 0.45788311804346032 0 -0.46649339961626829 0.44497111366003139 0 -0.47438689006328361 0.43637992804850029 0 -0.46649339961626829 0.44497111366003139 0 -0.4428203710779261 0.43205910927660302 0 -0.46649339961626829 0.44497111366003139 0 -0.45176717470325878 0.46380821064388678 0 -0.44584289771977759 0.4486407663622089 0 -0.47128447964556919 0.46295763473221557 0 -0.46649339961626829 0.44497111366003139 0 -0.45176717470325878 0.46380821064388678 0 -0.4358735311723283 0.45703586748138431 0 -0.45176717470325878 0.46380821064388678 0 -0.44584289771977759 0.4486407663622089 0 -0.4358735311723283 0.45703586748138431 0 -0.43124079344897592 0.47038363007629302 0 -0.45176717470325878 0.46380821064388678 0 -0.43111238702251831 0.44480194653371191 0 -0.44584289771977759 0.4486407663622089 0 -0.4428203710779261 0.43205910927660302 0 -0.46649339961626829 0.44497111366003139 0 -0.44584289771977759 0.4486407663622089 0 -0.4428203710779261 0.43205910927660302 0 -0.43111238702251831 0.44480194653371191 0 -0.4358735311723283 0.45703586748138431 0 -0.44584289771977759 0.4486407663622089 0 -0.4428203710779261 0.43205910927660302 0 -0.45860735197195701 0.41487673805354008 0 -0.4428203710779261 0.43205910927660302 0 -0.44776129043856289 0.41595327423210898 0 -0.45860735197195701 0.41487673805354008 0 -0.4428203710779261 0.43205910927660302 0 -0.44776129043856289 0.41595327423210898 0 -0.43716627103313022 0.4133956298611261 0 -0.45204174961864468 0.4059296197020697 0 -0.43716627103313022 0.4133956298611261 0 -0.45204174961864468 0.4059296197020697 0 -0.44140072212960357 0.40521549308841931 0 -0.43716627103313022 0.4133956298611261 0 -0.44776129043856289 0.41595327423210898 0 -0.45204174961864468 0.4059296197020697 0 -0.43716627103313022 0.4133956298611261 0 -0.44776129043856289 0.41595327423210898 0 -0.45860735197195701 0.41487673805354008 0 -0.45204174961864468 0.4059296197020697 0 -0.45860735197195701 0.41487673805354008 0 -0.45204174961864468 0.4059296197020697 0 -0.45860735197195701 0.41487673805354008 0 -0.45994546635435518 0.4019627403103333 0 -0.45204174961864468 0.4059296197020697 0 -0.45860735197195701 0.41487673805354008 0 -0.4724049013146398 0.39985964160135129 0 -0.4428203710779261 0.43205910927660302 0 -0.45860735197195701 0.41487673805354008 0 -0.45958420046582832 0.43070119401699292 0 -0.45860735197195701 0.41487673805354008 0 -0.47438689006328361 0.43637992804850029 0 -0.46649339961626829 0.44497111366003139 0 -0.4428203710779261 0.43205910927660302 0 -0.45958420046582832 0.43070119401699292 0 -0.45860735197195701 0.41487673805354008 0 -0.45958420046582832 0.43070119401699292 0 -0.47438689006328361 0.43637992804850029 0 -0.46649339961626829 0.44497111366003139 0 -0.45958420046582832 0.43070119401699292 0 -0.47438689006328361 0.43637992804850029 0 -0.45860735197195701 0.41487673805354008 0 -0.47438689006328361 0.43637992804850029 0 -0.4836654749670114 0.41841208652258888 0 -0.48983763369558869 0.44158310504263121 0 -0.47438689006328361 0.43637992804850029 0 -0.4836654749670114 0.41841208652258888 0 -0.45860735197195701 0.41487673805354008 0 -0.4836654749670114 0.41841208652258888 0 -0.4724049013146398 0.39985964160135129 0 -0.4836654749670114 0.41841208652258888 0 -0.5 0.42883458196274332 0 -0.5 0.39933001532985812 0 -0.48983763369558869 0.44158310504263121 0 -0.4836654749670114 0.41841208652258888 0 -0.5 0.42883458196274332 0 -0.48620245065732293 0.38484254514916288 0 -0.5 0.39933001532985812 0 -0.500000000000004 0.36982544869697259 0 -0.48620245065732293 0.38484254514916288 0 -0.500000000000004 0.36982544869697259 0 -0.48620245065732293 0.38484254514916288 0 -0.5 0.39933001532985812 0 -0.4724049013146398 0.39985964160135129 0 -0.4836654749670114 0.41841208652258888 0 -0.5 0.39933001532985812 0 -0.4724049013146398 0.39985964160135129 0 -0.48620245065732293 0.38484254514916288 0 -0.4724049013146398 0.39985964160135129 0 -0.48620245065732293 0.38484254514916288 0 -0.46882103669359348 0.38271975529743629 0 -0.47496095621428192 0.36016817074259322 0 -0.48620245065732293 0.38484254514916288 0 -0.4724049013146398 0.39985964160135129 0 -0.46882103669359348 0.38271975529743629 0 -0.46882103669359348 0.38271975529743629 0 -0.46300474617248288 0.39248374190397167 0 -0.45244523189891372 0.38892078790980428 0 -0.46882103669359348 0.38271975529743629 0 -0.45244523189891372 0.38892078790980428 0 -0.45043554360320448 0.37287948770410961 0 -0.4724049013146398 0.39985964160135129 0 -0.46882103669359348 0.38271975529743629 0 -0.46300474617248288 0.39248374190397167 0 -0.45860735197195701 0.41487673805354008 0 -0.4724049013146398 0.39985964160135129 0 -0.45994546635435518 0.4019627403103333 0 -0.4724049013146398 0.39985964160135129 0 -0.46300474617248288 0.39248374190397167 0 -0.45994546635435518 0.4019627403103333 0 -0.46300474617248288 0.39248374190397167 0 -0.45430833132047271 0.39673982167744432 0 -0.45994546635435518 0.4019627403103333 0 -0.46300474617248288 0.39248374190397167 0 -0.45430833132047271 0.39673982167744432 0 -0.45244523189891372 0.38892078790980428 0 -0.45430833132047271 0.39673982167744432 0 -0.45994546635435518 0.4019627403103333 0 -0.45050865349022079 0.40384042943938631 0 -0.45994546635435518 0.4019627403103333 0 -0.45204174961864468 0.4059296197020697 0 -0.45050865349022079 0.40384042943938631 0 -0.45994546635435518 0.4019627403103333 0 -0.45204174961864468 0.4059296197020697 0 -0.45204174961864468 0.4059296197020697 0 -0.45050865349022079 0.40384042943938631 0 -0.44140072212960357 0.40521549308841931 0 -0.45050865349022079 0.40384042943938631 0 -0.44680146788996927 0.39714892291331688 0 -0.44140072212960357 0.40521549308841931 0 -0.45204174961864468 0.4059296197020697 0 -0.45050865349022079 0.40384042943938631 0 -0.45430833132047271 0.39673982167744432 0 -0.45050865349022079 0.40384042943938631 0 -0.44680146788996927 0.39714892291331688 0 -0.45430833132047271 0.39673982167744432 0 -0.44680146788996927 0.39714892291331688 0 -0.45244523189891372 0.38892078790980428 0 -0.44680146788996927 0.39714892291331688 0 -0.45244523189891372 0.38892078790980428 0 -0.43741644519336342 0.3911176918987912 0 -0.44680146788996927 0.39714892291331688 0 -0.44140072212960357 0.40521549308841931 0 -0.43741644519336342 0.3911176918987912 0 -0.45244523189891372 0.38892078790980428 0 -0.43741644519336342 0.3911176918987912 0 -0.45043554360320448 0.37287948770410961 0 -0.43741644519336342 0.3911176918987912 0 -0.43036842009734949 0.37128442628390051 0 -0.45043554360320448 0.37287948770410961 0 -0.42352976909768741 0.38854168431897801 0 -0.43741644519336342 0.3911176918987912 0 -0.43036842009734949 0.37128442628390051 0 -0.42352976909768741 0.38854168431897801 0 -0.40044726833764949 0.38895064935752027 0 -0.42352976909768741 0.38854168431897801 0 -0.40731254649571569 0.36971446559326249 0 -0.43036842009734949 0.37128442628390051 0 -0.42352976909768741 0.38854168431897801 0 -0.40044726833764949 0.38895064935752027 0 -0.40731254649571569 0.36971446559326249 0 -0.42352976909768741 0.38854168431897801 0 -0.40893475308072091 0.40049586729479492 0 -0.40044726833764949 0.38895064935752027 0 -0.42352976909768741 0.38854168431897801 0 -0.40893475308072091 0.40049586729479492 0 -0.42147873413131209 0.40414659604710412 0 -0.40893475308072091 0.40049586729479492 0 -0.42147873413131209 0.40414659604710412 0 -0.41537776168563639 0.40974641200544432 0 -0.42352976909768741 0.38854168431897801 0 -0.42147873413131209 0.40414659604710412 0 -0.43741644519336342 0.3911176918987912 0 -0.44140072212960357 0.40521549308841931 0 -0.42147873413131209 0.40414659604710412 0 -0.43741644519336342 0.3911176918987912 0 -0.44140072212960357 0.40521549308841931 0 -0.42147873413131209 0.40414659604710412 0 -0.43716627103313022 0.4133956298611261 0 -0.42147873413131209 0.40414659604710412 0 -0.43716627103313022 0.4133956298611261 0 -0.4222907924476148 0.42086164002018062 0 -0.43716627103313022 0.4133956298611261 0 -0.4222907924476148 0.42086164002018062 0 -0.4428203710779261 0.43205910927660302 0 -0.4222907924476148 0.42086164002018062 0 -0.41955991599177078 0.43566433621052969 0 -0.4428203710779261 0.43205910927660302 0 -0.4222907924476148 0.42086164002018062 0 -0.4428203710779261 0.43205910927660302 0 -0.43716627103313022 0.4133956298611261 0 -0.4222907924476148 0.42086164002018062 0 -0.4222907924476148 0.42086164002018062 0 -0.40374642536616823 0.43016906715453662 0 -0.40890687271294718 0.44615818941335511 0 -0.41955991599177078 0.43566433621052969 0 -0.40374642536616823 0.43016906715453662 0 -0.4222907924476148 0.42086164002018062 0 -0.41955991599177078 0.43566433621052969 0 -0.40374642536616823 0.43016906715453662 0 -0.4222907924476148 0.42086164002018062 0 -0.40692682426899229 0.41912914207218088 0 -0.40374642536616823 0.43016906715453662 0 -0.42147873413131209 0.40414659604710412 0 -0.4222907924476148 0.42086164002018062 0 -0.41537776168563639 0.40974641200544432 0 -0.4222907924476148 0.42086164002018062 0 -0.40880676708289793 0.41348154465969839 0 -0.4222907924476148 0.42086164002018062 0 -0.41537776168563639 0.40974641200544432 0 -0.40880676708289793 0.41348154465969839 0 -0.4222907924476148 0.42086164002018062 0 -0.40692682426899229 0.41912914207218088 0 -0.40880676708289793 0.41348154465969839 0 -0.40893475308072091 0.40049586729479492 0 -0.41537776168563639 0.40974641200544432 0 -0.40880676708289793 0.41348154465969839 0 -0.40880676708289793 0.41348154465969839 0 -0.39308576733025469 0.40142057952788063 0 -0.40692682426899229 0.41912914207218088 0 -0.38949551486263201 0.42214667733134281 0 -0.40880676708289793 0.41348154465969839 0 -0.39653494405341022 0.41198361301216341 0 -0.38861272044836742 0.40249257445785058 0 -0.40692682426899229 0.41912914207218088 0 -0.40193048964567252 0.41507163245320172 0 -0.38949551486263201 0.42214667733134281 0 -0.40880676708289793 0.41348154465969839 0 -0.40193048964567252 0.41507163245320172 0 -0.39653494405341022 0.41198361301216341 0 -0.40880676708289793 0.41348154465969839 0 -0.38861272044836742 0.40249257445785058 0 -0.40692682426899229 0.41912914207218088 0 -0.40880676708289793 0.41348154465969839 0 -0.40193048964567252 0.41507163245320172 0 -0.39653494405341022 0.41198361301216341 0 -0.38949551486263201 0.42214667733134281 0 -0.38934961284783898 0.40990930145296328 0 -0.40193048964567252 0.41507163245320172 0 -0.39653494405341022 0.41198361301216341 0 -0.38949551486263201 0.42214667733134281 0 -0.39653494405341022 0.41198361301216341 0 -0.38934961284783898 0.40990930145296328 0 -0.38861272044836742 0.40249257445785058 0 -0.38520205828472109 0.43947649428889168 0 -0.40374642536616823 0.43016906715453662 0 -0.38949551486263201 0.42214667733134281 0 -0.38520205828472109 0.43947649428889168 0 -0.40374642536616823 0.43016906715453662 0 -0.39840934245878362 0.43477159503588902 0 -0.40692682426899229 0.41912914207218088 0 -0.40374642536616823 0.43016906715453662 0 -0.38949551486263201 0.42214667733134281 0 -0.38520205828472109 0.43947649428889168 0 -0.40374642536616823 0.43016906715453662 0 -0.40890687271294718 0.44615818941335511 0 -0.40374642536616823 0.43016906715453662 0 -0.39840934245878362 0.43477159503588902 0 -0.37558425303023452 0.43976878428969562 0 -0.38775378317896692 0.44369977129527732 0 -0.37206420545627189 0.42516421259050541 0 -0.38949551486263201 0.42214667733134281 0 -0.37206420545627189 0.42516421259050541 0 -0.38520205828472109 0.43947649428889168 0 -0.38775378317896692 0.44369977129527732 0 -0.37206420545627189 0.42516421259050541 0 -0.38520205828472109 0.43947649428889168 0 -0.38949551486263201 0.42214667733134281 0 -0.37206420545627189 0.42516421259050541 0 -0.38775378317896692 0.44369977129527732 0 -0.37206420545627189 0.42516421259050541 0 -0.38949551486263201 0.42214667733134281 0 -0.37864662773806562 0.41722752979911931 0 -0.37206420545627189 0.42516421259050541 0 -0.38314274612048332 0.41260464969060701 0 -0.38934961284783898 0.40990930145296328 0 -0.38238175539163088 0.40599038569393697 0 -0.38949551486263201 0.42214667733134281 0 -0.38314274612048332 0.41260464969060701 0 -0.37864662773806562 0.41722752979911931 0 -0.38949551486263201 0.42214667733134281 0 -0.38314274612048332 0.41260464969060701 0 -0.38934961284783898 0.40990930145296328 0 -0.38314274612048332 0.41260464969060701 0 -0.38238175539163088 0.40599038569393697 0 -0.37350898954660372 0.40884341438939542 0 -0.38314274612048332 0.41260464969060701 0 -0.37864662773806562 0.41722752979911931 0 -0.37350898954660372 0.40884341438939542 0 -0.38861272044836742 0.40249257445785058 0 -0.37736476757761162 0.38935961439606259 0 -0.39308576733025469 0.40142057952788063 0 -0.37813154251789888 0.40042869531825431 0 -0.38238175539163088 0.40599038569393697 0 -0.37350898954660372 0.40884341438939542 0 -0.37736476757761162 0.38935961439606259 0 -0.39308576733025469 0.40142057952788063 0 -0.37736476757761162 0.38935961439606259 0 -0.40044726833764949 0.38895064935752027 0 -0.39308576733025469 0.40142057952788063 0 -0.37813154251789888 0.40042869531825431 0 -0.38238175539163088 0.40599038569393697 0 -0.38861272044836742 0.40249257445785058 0 -0.38934961284783898 0.40990930145296328 0 -0.38238175539163088 0.40599038569393697 0 -0.38861272044836742 0.40249257445785058 0 -0.37813154251789888 0.40042869531825431 0 -0.38861272044836742 0.40249257445785058 0 -0.37736476757761162 0.38935961439606259 0 -0.37736476757761162 0.38935961439606259 0 -0.38941371878969883 0.37621176091410119 0 -0.37314783256138973 0.36653686702920141 0 -0.37736476757761162 0.38935961439606259 0 -0.38941371878969883 0.37621176091410119 0 -0.40044726833764949 0.38895064935752027 0 -0.37736476757761162 0.38935961439606259 0 -0.40044726833764949 0.38895064935752027 0 -0.38941371878969883 0.37621176091410119 0 -0.40044726833764949 0.38895064935752027 0 -0.40731254649571569 0.36971446559326249 0 -0.40893475308072091 0.40049586729479492 0 -0.40880676708289793 0.41348154465969839 0 -0.39308576733025469 0.40142057952788063 0 -0.40893475308072091 0.40049586729479492 0 -0.40044726833764949 0.38895064935752027 0 -0.39308576733025469 0.40142057952788063 0 -0.40880676708289793 0.41348154465969839 0 -0.38861272044836742 0.40249257445785058 0 -0.39308576733025469 0.40142057952788063 0 -0.40127540942841838 0.34595916120078157 0 -0.3901707040142714 0.36087984084199798 0 -0.40731254649571569 0.36971446559326249 0 -0.38941371878969883 0.37621176091410119 0 -0.3901707040142714 0.36087984084199798 0 -0.40731254649571569 0.36971446559326249 0 -0.38941371878969883 0.37621176091410119 0 -0.3901707040142714 0.36087984084199798 0 -0.37314783256138973 0.36653686702920141 0 -0.40127540942841838 0.34595916120078157 0 -0.3901707040142714 0.36087984084199798 0 -0.37962142275066407 0.34564359451383009 0 -0.3901707040142714 0.36087984084199798 0 -0.37962142275066407 0.34564359451383009 0 -0.37314783256138973 0.36653686702920141 0 -0.37962142275066407 0.34564359451383009 0 -0.39345778603011361 0.32539555727962538 0 -0.37494127925403331 0.32538872180934097 0 -0.39345778603011361 0.32539555727962538 0 -0.3777819285462356 0.30371342978238419 0 -0.39345778603011361 0.32539555727962538 0 -0.3777819285462356 0.30371342978238419 0 -0.37494127925403331 0.32538872180934097 0 -0.40127540942841838 0.34595916120078157 0 -0.39345778603011361 0.32539555727962538 0 -0.4205488779119424 0.32753448510117639 0 -0.40127540942841838 0.34595916120078157 0 -0.37962142275066407 0.34564359451383009 0 -0.39345778603011361 0.32539555727962538 0 -0.40127540942841838 0.34595916120078157 0 -0.4205488779119424 0.32753448510117639 0 -0.42156133890494152 0.35343928601697228 0 -0.39345778603011361 0.32539555727962538 0 -0.4205488779119424 0.32753448510117639 0 -0.4085358222261849 0.30629007038994033 0 -0.4205488779119424 0.32753448510117639 0 -0.43277974913817041 0.34077057890093138 0 -0.44705390244661253 0.33009460231428728 0 -0.4205488779119424 0.32753448510117639 0 -0.43277974913817041 0.34077057890093138 0 -0.42156133890494152 0.35343928601697228 0 -0.43277974913817041 0.34077057890093138 0 -0.42156133890494152 0.35343928601697228 0 -0.44195487728918531 0.35201394217128951 0 -0.42156133890494152 0.35343928601697228 0 -0.43036842009734949 0.37128442628390051 0 -0.44195487728918531 0.35201394217128951 0 -0.40127540942841838 0.34595916120078157 0 -0.42156133890494152 0.35343928601697228 0 -0.40731254649571569 0.36971446559326249 0 -0.42156133890494152 0.35343928601697228 0 -0.40731254649571569 0.36971446559326249 0 -0.43036842009734949 0.37128442628390051 0 -0.43036842009734949 0.37128442628390051 0 -0.45043554360320448 0.37287948770410961 0 -0.44195487728918531 0.35201394217128951 0 -0.45043554360320448 0.37287948770410961 0 -0.44195487728918531 0.35201394217128951 0 -0.45949397508777218 0.34779523497535653 0 -0.45043554360320448 0.37287948770410961 0 -0.45949397508777218 0.34779523497535653 0 -0.47496095621428192 0.36016817074259322 0 -0.46882103669359348 0.38271975529743629 0 -0.45043554360320448 0.37287948770410961 0 -0.47496095621428192 0.36016817074259322 0 -0.45949397508777218 0.34779523497535653 0 -0.47496095621428192 0.36016817074259322 0 -0.47276905251210388 0.33354568979412641 0 -0.47496095621428192 0.36016817074259322 0 -0.5 0.34172395543993722 0 -0.47276905251210388 0.33354568979412641 0 -0.47496095621428192 0.36016817074259322 0 -0.500000000000004 0.36982544869697259 0 -0.5 0.34172395543993722 0 -0.48620245065732293 0.38484254514916288 0 -0.47496095621428192 0.36016817074259322 0 -0.500000000000004 0.36982544869697259 0 -0.48525919103419962 0.32190233038011518 0 -0.5 0.31362246218290168 0 -0.5 0.34172395543993722 0 -0.48525919103419962 0.32190233038011518 0 -0.5 0.31362246218290168 0 -0.485560162466113 0.3067707523199083 0 -0.48525919103419962 0.32190233038011518 0 -0.5 0.34172395543993722 0 -0.47276905251210388 0.33354568979412641 0 -0.48525919103419962 0.32190233038011518 0 -0.46494391099544358 0.31193054610614129 0 -0.485560162466113 0.3067707523199083 0 -0.48525919103419962 0.32190233038011518 0 -0.47276905251210388 0.33354568979412641 0 -0.46494391099544358 0.31193054610614129 0 -0.47276905251210388 0.33354568979412641 0 -0.44705390244661253 0.33009460231428728 0 -0.46494391099544358 0.31193054610614129 0 -0.45949397508777218 0.34779523497535653 0 -0.47276905251210388 0.33354568979412641 0 -0.44705390244661253 0.33009460231428728 0 -0.44195487728918531 0.35201394217128951 0 -0.45949397508777218 0.34779523497535653 0 -0.44705390244661253 0.33009460231428728 0 -0.43277974913817041 0.34077057890093138 0 -0.44195487728918531 0.35201394217128951 0 -0.44705390244661253 0.33009460231428728 0 -0.4205488779119424 0.32753448510117639 0 -0.44705390244661253 0.33009460231428728 0 -0.44528449691207361 0.31072606717476908 0 -0.44705390244661253 0.33009460231428728 0 -0.44528449691207361 0.31072606717476908 0 -0.46494391099544358 0.31193054610614129 0 -0.44528449691207361 0.31072606717476908 0 -0.44876710461414271 0.29185104394040778 0 -0.42957627299925999 0.2992243359369855 0 -0.44528449691207361 0.31072606717476908 0 -0.44876710461414271 0.29185104394040778 0 -0.46494391099544358 0.31193054610614129 0 -0.44876710461414271 0.29185104394040778 0 -0.46809561679917611 0.28909379110137018 0 -0.45063107113223899 0.27141682988283189 0 -0.44876710461414271 0.29185104394040778 0 -0.46809561679917611 0.28909379110137018 0 -0.46494391099544358 0.31193054610614129 0 -0.46809561679917611 0.28909379110137018 0 -0.46494391099544358 0.31193054610614129 0 -0.485560162466113 0.3067707523199083 0 -0.46809561679917611 0.28909379110137018 0 -0.485560162466113 0.3067707523199083 0 -0.46809561679917611 0.28909379110137018 0 -0.48383501797111311 0.28817091292643049 0 -0.485560162466113 0.3067707523199083 0 -0.46809561679917611 0.28909379110137018 0 -0.48383501797111311 0.28817091292643049 0 -0.48168429261916329 0.27129813935857738 0 -0.48383501797111311 0.28817091292643049 0 -0.5 0.2855209689258662 0 -0.48168429261916329 0.27129813935857738 0 -0.48383501797111311 0.28817091292643049 0 -0.5 0.2855209689258662 0 -0.485560162466113 0.3067707523199083 0 -0.5 0.31362246218290168 0 -0.5 0.2855209689258662 0 -0.485560162466113 0.3067707523199083 0 -0.47776068413743611 0.24602954292504409 0 -0.5 0.25741947566883072 0 -0.48168429261916329 0.27129813935857738 0 -0.5 0.2855209689258662 0 -0.5 0.25741947566883072 0 -0.48168429261916329 0.27129813935857738 0 -0.46809561679917611 0.28909379110137018 0 -0.48168429261916329 0.27129813935857738 0 -0.46482969445195887 0.26200748233501492 0 -0.47776068413743611 0.24602954292504409 0 -0.48168429261916329 0.27129813935857738 0 -0.46482969445195887 0.26200748233501492 0 -0.44938809190214019 0.24913618733658899 0 -0.46141841012159912 0.24507040340567721 0 -0.46482969445195887 0.26200748233501492 0 -0.47776068413743611 0.24602954292504409 0 -0.46141841012159912 0.24507040340567721 0 -0.46482969445195887 0.26200748233501492 0 -0.44938809190214019 0.24913618733658899 0 -0.46482969445195887 0.26200748233501492 0 -0.45063107113223899 0.27141682988283189 0 -0.46809561679917611 0.28909379110137018 0 -0.46482969445195887 0.26200748233501492 0 -0.45063107113223899 0.27141682988283189 0 -0.46809561679917611 0.28909379110137018 0 -0.45063107113223899 0.27141682988283189 0 -0.44876710461414271 0.29185104394040778 0 -0.45063107113223899 0.27141682988283189 0 -0.43230618987697711 0.27694905875041792 0 -0.45063107113223899 0.27141682988283189 0 -0.43316652546530088 0.25373986866429499 0 -0.43230618987697711 0.27694905875041792 0 -0.44938809190214019 0.24913618733658899 0 -0.45063107113223899 0.27141682988283189 0 -0.43316652546530088 0.25373986866429499 0 -0.43974957060265979 0.2477999823634939 0 -0.44938809190214019 0.24913618733658899 0 -0.43316652546530088 0.25373986866429499 0 -0.45063107113223899 0.27141682988283189 0 -0.43316652546530088 0.25373986866429499 0 -0.43316652546530088 0.25373986866429499 0 -0.41470499315894582 0.27039772237032478 0 -0.43974957060265979 0.2477999823634939 0 -0.43316652546530088 0.25373986866429499 0 -0.42532192026792442 0.24579985210197841 0 -0.43316652546530088 0.25373986866429499 0 -0.41246051243446907 0.25499403182025637 0 -0.43316652546530088 0.25373986866429499 0 -0.41246051243446907 0.25499403182025637 0 -0.41470499315894582 0.27039772237032478 0 -0.41246051243446907 0.25499403182025637 0 -0.41470499315894582 0.27039772237032478 0 -0.39937580307607629 0.26462188642776691 0 -0.41470499315894582 0.27039772237032478 0 -0.43230618987697711 0.27694905875041792 0 -0.41597626210742422 0.288766035036855 0 -0.43316652546530088 0.25373986866429499 0 -0.41470499315894582 0.27039772237032478 0 -0.43230618987697711 0.27694905875041792 0 -0.44876710461414271 0.29185104394040778 0 -0.43230618987697711 0.27694905875041792 0 -0.42957627299925999 0.2992243359369855 0 -0.43230618987697711 0.27694905875041792 0 -0.42957627299925999 0.2992243359369855 0 -0.41597626210742422 0.288766035036855 0 -0.4205488779119424 0.32753448510117639 0 -0.44528449691207361 0.31072606717476908 0 -0.42957627299925999 0.2992243359369855 0 -0.4205488779119424 0.32753448510117639 0 -0.42957627299925999 0.2992243359369855 0 -0.4085358222261849 0.30629007038994033 0 -0.42957627299925999 0.2992243359369855 0 -0.4085358222261849 0.30629007038994033 0 -0.41597626210742422 0.288766035036855 0 -0.4085358222261849 0.30629007038994033 0 -0.41597626210742422 0.288766035036855 0 -0.39624346085259071 0.28705557607635451 0 -0.41470499315894582 0.27039772237032478 0 -0.41597626210742422 0.288766035036855 0 -0.39624346085259071 0.28705557607635451 0 -0.39624346085259071 0.28705557607635451 0 -0.3777819285462356 0.30371342978238419 0 -0.36032917177703161 0.27957357664596472 0 -0.4085358222261849 0.30629007038994033 0 -0.39624346085259071 0.28705557607635451 0 -0.3777819285462356 0.30371342978238419 0 -0.39345778603011361 0.32539555727962538 0 -0.4085358222261849 0.30629007038994033 0 -0.3777819285462356 0.30371342978238419 0 -0.39624346085259071 0.28705557607635451 0 -0.3777819285462356 0.30371342978238419 0 -0.39624346085259071 0.28705557607635451 0 -0.38034939632101578 0.26165486428978091 0 -0.36032917177703161 0.27957357664596472 0 -0.39635673541156891 0.2417843581429853 0 -0.38034939632101578 0.26165486428978091 0 -0.39937580307607629 0.26462188642776691 0 -0.39635673541156891 0.2417843581429853 0 -0.41246051243446907 0.25499403182025637 0 -0.39937580307607629 0.26462188642776691 0 -0.39624346085259071 0.28705557607635451 0 -0.38034939632101578 0.26165486428978091 0 -0.39937580307607629 0.26462188642776691 0 -0.41470499315894582 0.27039772237032478 0 -0.39624346085259071 0.28705557607635451 0 -0.39937580307607629 0.26462188642776691 0 -0.41470499315894582 0.27039772237032478 0 -0.39624346085259071 0.28705557607635451 0 -0.36032917177703161 0.27957357664596472 0 -0.33410591432286019 0.2776176734961453 0 -0.34287641500782712 0.25543372350954552 0 -0.36032917177703161 0.27957357664596472 0 -0.34287641500782712 0.25543372350954552 0 -0.36739155055521322 0.23776886418399251 0 -0.3627366334152719 0.25860775715732093 0 -0.34287641500782712 0.25543372350954552 0 -0.3627366334152719 0.25860775715732093 0 -0.36032917177703161 0.27957357664596472 0 -0.34287641500782712 0.25543372350954552 0 -0.36739155055521322 0.23776886418399251 0 -0.38034939632101578 0.26165486428978091 0 -0.3627366334152719 0.25860775715732093 0 -0.38034939632101578 0.26165486428978091 0 -0.3627366334152719 0.25860775715732093 0 -0.36032917177703161 0.27957357664596472 0 -0.3777819285462356 0.30371342978238419 0 -0.36032917177703161 0.27957357664596472 0 -0.34328939864069352 0.30101947125134659 0 -0.3777819285462356 0.30371342978238419 0 -0.34328939864069352 0.30101947125134659 0 -0.35689802041256602 0.3225569949170658 0 -0.3777819285462356 0.30371342978238419 0 -0.36032917177703161 0.27957357664596472 0 -0.36032917177703161 0.27957357664596472 0 -0.34328939864069352 0.30101947125134659 0 -0.33410591432286019 0.2776176734961453 0 -0.34328939864069352 0.30101947125134659 0 -0.32007136180823859 0.29138351594866591 0 -0.33410591432286019 0.2776176734961453 0 -0.34328939864069352 0.30101947125134659 0 -0.32038392598237903 0.30994818250671718 0 -0.33488287217376861 0.32165563653347318 0 -0.34328939864069352 0.30101947125134659 0 -0.32038392598237903 0.30994818250671718 0 -0.32007136180823859 0.29138351594866591 0 -0.32007136180823859 0.29138351594866591 0 -0.33410591432286019 0.2776176734961453 0 -0.30728320474673287 0.27624742375476402 0 -0.33410591432286019 0.2776176734961453 0 -0.30728320474673287 0.27624742375476402 0 -0.33410591432286019 0.2776176734961453 0 -0.32319077684055347 0.26047663771887131 0 -0.30728320474673287 0.27624742375476402 0 -0.33410591432286019 0.2776176734961453 0 -0.34287641500782712 0.25543372350954552 0 -0.32319077684055347 0.26047663771887131 0 -0.32319077684055347 0.26047663771887131 0 -0.30652531113353643 0.2513270211066716 0 -0.30728320474673287 0.27624742375476402 0 -0.30652531113353643 0.2513270211066716 0 -0.30728320474673287 0.27624742375476402 0 -0.294359025653332 0.26477412849912269 0 -0.30652531113353643 0.2513270211066716 0 -0.29199792964606591 0.25330556944924337 0 -0.294359025653332 0.26477412849912269 0 -0.30728320474673287 0.27624742375476402 0 -0.28046049517060567 0.27487717401338269 0 -0.30728320474673287 0.27624742375476402 0 -0.294359025653332 0.26477412849912269 0 -0.28046049517060567 0.27487717401338269 0 -0.30728320474673287 0.27624742375476402 0 -0.28046049517060567 0.27487717401338269 0 -0.28380863748364299 0.2904435180288335 0 -0.294359025653332 0.26477412849912269 0 -0.28388532136388861 0.26216552056085057 0 -0.28046049517060567 0.27487717401338269 0 -0.29199792964606591 0.25330556944924337 0 -0.294359025653332 0.26477412849912269 0 -0.28388532136388861 0.26216552056085057 0 -0.28166205787749471 0.24654461896357471 0 -0.29199792964606591 0.25330556944924337 0 -0.28388532136388861 0.26216552056085057 0 -0.28166205787749471 0.24654461896357471 0 -0.26742202564945078 0.25040646433326869 0 -0.27093517817661228 0.26395618718070057 0 -0.28166205787749471 0.24654461896357471 0 -0.27012566536902971 0.26835214507357852 0 -0.28166205787749471 0.24654461896357471 0 -0.28388532136388861 0.26216552056085057 0 -0.27012566536902971 0.26835214507357852 0 -0.28166205787749471 0.24654461896357471 0 -0.27093517817661228 0.26395618718070057 0 -0.27012566536902971 0.26835214507357852 0 -0.28046049517060567 0.27487717401338269 0 -0.25363778559447842 0.27350692427200241 0 -0.28046049517060567 0.27487717401338269 0 -0.27012566536902971 0.26835214507357852 0 -0.25363778559447842 0.27350692427200241 0 -0.28388532136388861 0.26216552056085057 0 -0.28046049517060567 0.27487717401338269 0 -0.27012566536902971 0.26835214507357852 0 -0.28046049517060567 0.27487717401338269 0 -0.25363778559447842 0.27350692427200241 0 -0.26624408311198772 0.28995108686270071 0 -0.27093517817661228 0.26395618718070057 0 -0.27012566536902971 0.26835214507357852 0 -0.25363778559447842 0.27350692427200241 0 -0.27093517817661228 0.26395618718070057 0 -0.25363778559447842 0.27350692427200241 0 -0.27093517817661228 0.26395618718070057 0 -0.25363778559447842 0.27350692427200241 0 -0.25714214375922329 0.25982886013905893 0 -0.25363778559447842 0.27350692427200241 0 -0.25714214375922329 0.25982886013905893 0 -0.2444451896747076 0.26404729237941471 0 -0.25714214375922329 0.25982886013905893 0 -0.25786390678722121 0.25004617063311368 0 -0.24800282081558991 0.25311300777040008 0 -0.26742202564945078 0.25040646433326869 0 -0.25714214375922329 0.25982886013905893 0 -0.25786390678722121 0.25004617063311368 0 -0.26742202564945078 0.25040646433326869 0 -0.27093517817661228 0.26395618718070057 0 -0.25714214375922329 0.25982886013905893 0 -0.26861968835565903 0.30940493865090568 0 -0.25190859989712849 0.32267914652403529 0 -0.24955002262375489 0.29959517145917181 0 -0.26624408311198772 0.28995108686270071 0 -0.26861968835565903 0.30940493865090568 0 -0.24955002262375489 0.29959517145917181 0 -0.25363778559447842 0.27350692427200241 0 -0.26624408311198772 0.28995108686270071 0 -0.24955002262375489 0.29959517145917181 0 -0.28046049517060567 0.27487717401338269 0 -0.26624408311198772 0.28995108686270071 0 -0.28380863748364299 0.2904435180288335 0 -0.26624408311198772 0.28995108686270071 0 -0.26861968835565903 0.30940493865090568 0 -0.28380863748364299 0.2904435180288335 0 -0.26861968835565903 0.30940493865090568 0 -0.29643571603322949 0.3017369668624143 0 -0.28380863748364299 0.2904435180288335 0 -0.26861968835565903 0.30940493865090568 0 -0.29643571603322949 0.3017369668624143 0 -0.28493867639476078 0.31962531949013062 0 -0.30728320474673287 0.27624742375476402 0 -0.29643571603322949 0.3017369668624143 0 -0.28380863748364299 0.2904435180288335 0 -0.32007136180823859 0.29138351594866591 0 -0.30728320474673287 0.27624742375476402 0 -0.29643571603322949 0.3017369668624143 0 -0.32038392598237903 0.30994818250671718 0 -0.29643571603322949 0.3017369668624143 0 -0.30314195263174282 0.31931745404620993 0 -0.32038392598237903 0.30994818250671718 0 -0.32007136180823859 0.29138351594866591 0 -0.29643571603322949 0.3017369668624143 0 -0.29562269102854127 0.33485673566541801 0 -0.31017246770937662 0.35204574129549332 0 -0.29562269102854127 0.33485673566541801 0 -0.31017246770937662 0.35204574129549332 0 -0.31782890355430798 0.33335297394048879 0 -0.30314195263174282 0.31931745404620993 0 -0.29562269102854127 0.33485673566541801 0 -0.31782890355430798 0.33335297394048879 0 -0.29562269102854127 0.33485673566541801 0 -0.28493867639476078 0.31962531949013062 0 -0.26758763809366432 0.33891484310787218 0 -0.29643571603322949 0.3017369668624143 0 -0.30314195263174282 0.31931745404620993 0 -0.28493867639476078 0.31962531949013062 0 -0.30314195263174282 0.31931745404620993 0 -0.29562269102854127 0.33485673566541801 0 -0.28493867639476078 0.31962531949013062 0 -0.26861968835565903 0.30940493865090568 0 -0.28493867639476078 0.31962531949013062 0 -0.26758763809366432 0.33891484310787218 0 -0.26758763809366432 0.33891484310787218 0 -0.25190859989712849 0.32267914652403529 0 -0.24443552246153269 0.33896729888257182 0 -0.26861968835565903 0.30940493865090568 0 -0.26758763809366432 0.33891484310787218 0 -0.25190859989712849 0.32267914652403529 0 -0.2709070612171503 0.3757267901420277 0 -0.24793647807619529 0.36272983982548312 0 -0.26860020240025578 0.35876494828412869 0 -0.2709070612171503 0.3757267901420277 0 -0.24793647807619529 0.36272983982548312 0 -0.26758763809366432 0.33891484310787218 0 -0.26860020240025578 0.35876494828412869 0 -0.24793647807619529 0.36272983982548312 0 -0.26758763809366432 0.33891484310787218 0 -0.24793647807619529 0.36272983982548312 0 -0.24443552246153269 0.33896729888257182 0 -0.26758763809366432 0.33891484310787218 0 -0.26860020240025578 0.35876494828412869 0 -0.2879979019050713 0.36100426520322521 0 -0.26860020240025578 0.35876494828412869 0 -0.2879979019050713 0.36100426520322521 0 -0.2709070612171503 0.3757267901420277 0 -0.29562269102854127 0.33485673566541801 0 -0.26758763809366432 0.33891484310787218 0 -0.2879979019050713 0.36100426520322521 0 -0.29562269102854127 0.33485673566541801 0 -0.2879979019050713 0.36100426520322521 0 -0.31017246770937662 0.35204574129549332 0 -0.2879979019050713 0.36100426520322521 0 -0.31017246770937662 0.35204574129549332 0 -0.30757225412210198 0.37673025947837652 0 -0.31017246770937662 0.35204574129549332 0 -0.32472224439021191 0.36923474692556868 0 -0.30757225412210198 0.37673025947837652 0 -0.31017246770937662 0.35204574129549332 0 -0.32472224439021191 0.36923474692556868 0 -0.32472224439021191 0.36923474692556868 0 -0.33925959826018959 0.36012577903504062 0 -0.3255128913059272 0.35202177384089978 0 -0.32472224439021191 0.36923474692556868 0 -0.33925959826018959 0.36012577903504062 0 -0.33879980053897052 0.37190000367902509 0 -0.33925959826018959 0.36012577903504062 0 -0.33879980053897052 0.37190000367902509 0 -0.35162962036551348 0.3696159137363686 0 -0.33925959826018959 0.36012577903504062 0 -0.3255128913059272 0.35202177384089978 0 -0.33601411227889638 0.34140056005174751 0 -0.33925959826018959 0.36012577903504062 0 -0.33601411227889638 0.34140056005174751 0 -0.35060765014597922 0.34836458062675058 0 -0.31017246770937662 0.35204574129549332 0 -0.32472224439021191 0.36923474692556868 0 -0.3255128913059272 0.35202177384089978 0 -0.31017246770937662 0.35204574129549332 0 -0.3255128913059272 0.35202177384089978 0 -0.31782890355430798 0.33335297394048879 0 -0.3255128913059272 0.35202177384089978 0 -0.31782890355430798 0.33335297394048879 0 -0.33601411227889638 0.34140056005174751 0 -0.32038392598237903 0.30994818250671718 0 -0.31782890355430798 0.33335297394048879 0 -0.33488287217376861 0.32165563653347318 0 -0.32038392598237903 0.30994818250671718 0 -0.30314195263174282 0.31931745404620993 0 -0.31782890355430798 0.33335297394048879 0 -0.31782890355430798 0.33335297394048879 0 -0.33488287217376861 0.32165563653347318 0 -0.33601411227889638 0.34140056005174751 0 -0.33488287217376861 0.32165563653347318 0 -0.33601411227889638 0.34140056005174751 0 -0.35689802041256602 0.3225569949170658 0 -0.33601411227889638 0.34140056005174751 0 -0.35689802041256602 0.3225569949170658 0 -0.35689802041256602 0.3225569949170658 0 -0.36470737923429752 0.33963753998220148 0 -0.35060765014597922 0.34836458062675058 0 -0.33601411227889638 0.34140056005174751 0 -0.35689802041256602 0.3225569949170658 0 -0.35060765014597922 0.34836458062675058 0 -0.34328939864069352 0.30101947125134659 0 -0.33488287217376861 0.32165563653347318 0 -0.35689802041256602 0.3225569949170658 0 -0.3777819285462356 0.30371342978238419 0 -0.35689802041256602 0.3225569949170658 0 -0.37494127925403331 0.32538872180934097 0 -0.3777819285462356 0.30371342978238419 0 -0.35689802041256602 0.3225569949170658 0 -0.37962142275066407 0.34564359451383009 0 -0.37494127925403331 0.32538872180934097 0 -0.36470737923429752 0.33963753998220148 0 -0.35689802041256602 0.3225569949170658 0 -0.37494127925403331 0.32538872180934097 0 -0.36470737923429752 0.33963753998220148 0 -0.37962142275066407 0.34564359451383009 0 -0.36470737923429752 0.33963753998220148 0 -0.36146852360824477 0.35623380804401972 0 -0.37962142275066407 0.34564359451383009 0 -0.36146852360824477 0.35623380804401972 0 -0.37314783256138973 0.36653686702920141 0 -0.36146852360824477 0.35623380804401972 0 -0.37314783256138973 0.36653686702920141 0 -0.35162962036551348 0.3696159137363686 0 -0.37314783256138973 0.36653686702920141 0 -0.35162962036551348 0.3696159137363686 0 -0.36449719397156249 0.37948776406621559 0 -0.36146852360824477 0.35623380804401972 0 -0.35162962036551348 0.3696159137363686 0 -0.35162962036551348 0.3696159137363686 0 -0.36449719397156249 0.37948776406621559 0 -0.33925959826018959 0.36012577903504062 0 -0.35162962036551348 0.3696159137363686 0 -0.33925959826018959 0.36012577903504062 0 -0.35162962036551348 0.3696159137363686 0 -0.35060765014597922 0.34836458062675058 0 -0.36146852360824477 0.35623380804401972 0 -0.35162962036551348 0.3696159137363686 0 -0.35060765014597922 0.34836458062675058 0 -0.36470737923429752 0.33963753998220148 0 -0.36146852360824477 0.35623380804401972 0 -0.35060765014597922 0.34836458062675058 0 -0.35982399829888839 0.38967039360749689 0 -0.35717371723821778 0.40757269270471902 0 -0.34228322902016528 0.38998117281893141 0 -0.35717371723821778 0.40757269270471902 0 -0.34068102198961359 0.40269895944522599 0 -0.34228322902016528 0.38998117281893141 0 -0.35717371723821778 0.40757269270471902 0 -0.34228322902016528 0.38998117281893141 0 -0.35982399829888839 0.38967039360749689 0 -0.34228322902016528 0.38998117281893141 0 -0.35162962036551348 0.3696159137363686 0 -0.3392720210710472 0.38642375255564421 0 -0.35162962036551348 0.3696159137363686 0 -0.35106248291686631 0.38198270918940758 0 -0.3392720210710472 0.38642375255564421 0 -0.35106248291686631 0.38198270918940758 0 -0.35982399829888839 0.38967039360749689 0 -0.34228322902016528 0.38998117281893141 0 -0.35106248291686631 0.38198270918940758 0 -0.34228322902016528 0.38998117281893141 0 -0.3392720210710472 0.38642375255564421 0 -0.35162962036551348 0.3696159137363686 0 -0.35106248291686631 0.38198270918940758 0 -0.36449719397156249 0.37948776406621559 0 -0.35106248291686631 0.38198270918940758 0 -0.35982399829888839 0.38967039360749689 0 -0.36449719397156249 0.37948776406621559 0 -0.37736476757761162 0.38935961439606259 0 -0.37314783256138973 0.36653686702920141 0 -0.36449719397156249 0.37948776406621559 0 -0.37736476757761162 0.38935961439606259 0 -0.35982399829888839 0.38967039360749689 0 -0.36449719397156249 0.37948776406621559 0 -0.37736476757761162 0.38935961439606259 0 -0.35982399829888839 0.38967039360749689 0 -0.37736476757761162 0.38935961439606259 0 -0.36449719397156249 0.37948776406621559 0 -0.35982399829888839 0.38967039360749689 0 -0.36767078997624458 0.39916937908993522 0 -0.35717371723821778 0.40757269270471902 0 -0.37813154251789888 0.40042869531825431 0 -0.37736476757761162 0.38935961439606259 0 -0.36767078997624458 0.39916937908993522 0 -0.36767078997624458 0.39916937908993522 0 -0.37350898954660372 0.40884341438939542 0 -0.35717371723821778 0.40757269270471902 0 -0.37736476757761162 0.38935961439606259 0 -0.35982399829888839 0.38967039360749689 0 -0.36767078997624458 0.39916937908993522 0 -0.37813154251789888 0.40042869531825431 0 -0.36767078997624458 0.39916937908993522 0 -0.37350898954660372 0.40884341438939542 0 -0.37206420545627189 0.42516421259050541 0 -0.35717371723821778 0.40757269270471902 0 -0.35544353965973852 0.41967370443181551 0 -0.37206420545627189 0.42516421259050541 0 -0.35717371723821778 0.40757269270471902 0 -0.37864662773806562 0.41722752979911931 0 -0.37350898954660372 0.40884341438939542 0 -0.37206420545627189 0.42516421259050541 0 -0.37350898954660372 0.40884341438939542 0 -0.37206420545627189 0.42516421259050541 0 -0.35717371723821778 0.40757269270471902 0 -0.36853465053276069 0.43395789291501202 0 -0.37206420545627189 0.42516421259050541 0 -0.34675411588956062 0.42954564406530987 0 -0.37206420545627189 0.42516421259050541 0 -0.34675411588956062 0.42954564406530987 0 -0.37558425303023452 0.43976878428969562 0 -0.36853465053276069 0.43395789291501202 0 -0.37206420545627189 0.42516421259050541 0 -0.36853465053276069 0.43395789291501202 0 -0.34675411588956062 0.42954564406530987 0 -0.34646933504476463 0.4452196266635754 0 -0.37206420545627189 0.42516421259050541 0 -0.34675411588956062 0.42954564406530987 0 -0.35544353965973852 0.41967370443181551 0 -0.35717371723821778 0.40757269270471902 0 -0.3446784148694047 0.41522559546254428 0 -0.34068102198961359 0.40269895944522599 0 -0.35717371723821778 0.40757269270471902 0 -0.35544353965973852 0.41967370443181551 0 -0.3446784148694047 0.41522559546254428 0 -0.34675411588956062 0.42954564406530987 0 -0.35544353965973852 0.41967370443181551 0 -0.3446784148694047 0.41522559546254428 0 -0.3446784148694047 0.41522559546254428 0 -0.33473602630913679 0.41080062494518571 0 -0.34068102198961359 0.40269895944522599 0 -0.3446784148694047 0.41522559546254428 0 -0.33443783534532828 0.41904650601603449 0 -0.33473602630913679 0.41080062494518571 0 -0.34675411588956062 0.42954564406530987 0 -0.3446784148694047 0.41522559546254428 0 -0.33443783534532828 0.41904650601603449 0 -0.33443783534532828 0.41904650601603449 0 -0.32589020218022652 0.42374247216830718 0 -0.32624145412934252 0.41478925836495772 0 -0.33443783534532828 0.41904650601603449 0 -0.33473602630913679 0.41080062494518571 0 -0.32624145412934252 0.41478925836495772 0 -0.33473602630913679 0.41080062494518571 0 -0.32624145412934252 0.41478925836495772 0 -0.32764140521199531 0.40224280543716601 0 -0.34675411588956062 0.42954564406530987 0 -0.32144402632284941 0.43392707554011523 0 -0.34675411588956062 0.42954564406530987 0 -0.33443783534532828 0.41904650601603449 0 -0.32589020218022652 0.42374247216830718 0 -0.34675411588956062 0.42954564406530987 0 -0.32144402632284941 0.43392707554011523 0 -0.32589020218022652 0.42374247216830718 0 -0.34675411588956062 0.42954564406530987 0 -0.32144402632284941 0.43392707554011523 0 -0.33142766990517958 0.44359749458483438 0 -0.32144402632284941 0.43392707554011523 0 -0.31601078935294391 0.41806185831868808 0 -0.31026439759793462 0.42033102996219007 0 -0.32144402632284941 0.43392707554011523 0 -0.32589020218022652 0.42374247216830718 0 -0.31601078935294391 0.41806185831868808 0 -0.31601078935294391 0.41806185831868808 0 -0.32764140521199531 0.40224280543716601 0 -0.32624145412934252 0.41478925836495772 0 -0.31601078935294391 0.41806185831868808 0 -0.32764140521199531 0.40224280543716601 0 -0.31601078935294391 0.41806185831868808 0 -0.31849362783804941 0.40629459828804682 0 -0.32764140521199531 0.40224280543716601 0 -0.32589020218022652 0.42374247216830718 0 -0.32624145412934252 0.41478925836495772 0 -0.31601078935294391 0.41806185831868808 0 -0.31601078935294391 0.41806185831868808 0 -0.31849362783804941 0.40629459828804682 0 -0.30861510005548332 0.41270841669431951 0 -0.32170721673177521 0.39216531270201382 0 -0.30861510005548332 0.41270841669431951 0 -0.31849362783804941 0.40629459828804682 0 -0.32170721673177521 0.39216531270201382 0 -0.30861510005548332 0.41270841669431951 0 -0.31849362783804941 0.40629459828804682 0 -0.32170721673177521 0.39216531270201382 0 -0.32764140521199531 0.40224280543716601 0 -0.32764140521199531 0.40224280543716601 0 -0.34027429376362728 0.39001676620169151 0 -0.3392720210710472 0.38642375255564421 0 -0.32170721673177521 0.39216531270201382 0 -0.32764140521199531 0.40224280543716601 0 -0.3392720210710472 0.38642375255564421 0 -0.32764140521199531 0.40224280543716601 0 -0.3392720210710472 0.38642375255564421 0 -0.33473602630913679 0.41080062494518571 0 -0.32764140521199531 0.40224280543716601 0 -0.34068102198961359 0.40269895944522599 0 -0.32764140521199531 0.40224280543716601 0 -0.34068102198961359 0.40269895944522599 0 -0.34027429376362728 0.39001676620169151 0 -0.34068102198961359 0.40269895944522599 0 -0.34228322902016528 0.38998117281893141 0 -0.34027429376362728 0.39001676620169151 0 -0.32472224439021191 0.36923474692556868 0 -0.33879980053897052 0.37190000367902509 0 -0.3392720210710472 0.38642375255564421 0 -0.32472224439021191 0.36923474692556868 0 -0.32170721673177521 0.39216531270201382 0 -0.3392720210710472 0.38642375255564421 0 -0.33879980053897052 0.37190000367902509 0 -0.35162962036551348 0.3696159137363686 0 -0.3392720210710472 0.38642375255564421 0 -0.32472224439021191 0.36923474692556868 0 -0.3392720210710472 0.38642375255564421 0 -0.34228322902016528 0.38998117281893141 0 -0.3392720210710472 0.38642375255564421 0 -0.34228322902016528 0.38998117281893141 0 -0.34027429376362728 0.39001676620169151 0 -0.34228322902016528 0.38998117281893141 0 -0.34027429376362728 0.39001676620169151 0 -0.3392720210710472 0.38642375255564421 0 -0.32472224439021191 0.36923474692556868 0 -0.32170721673177521 0.39216531270201382 0 -0.30757225412210198 0.37673025947837652 0 -0.30757225412210198 0.37673025947837652 0 -0.30570275566344979 0.39498971630578672 0 -0.29387764435810543 0.38872374045857222 0 -0.32170721673177521 0.39216531270201382 0 -0.30757225412210198 0.37673025947837652 0 -0.30570275566344979 0.39498971630578672 0 -0.30570275566344979 0.39498971630578672 0 -0.29642601029339311 0.40523158123237007 0 -0.29387764435810543 0.38872374045857222 0 -0.30570275566344979 0.39498971630578672 0 -0.29642601029339311 0.40523158123237007 0 -0.30861510005548332 0.41270841669431951 0 -0.32170721673177521 0.39216531270201382 0 -0.30570275566344979 0.39498971630578672 0 -0.30861510005548332 0.41270841669431951 0 -0.29642601029339311 0.40523158123237007 0 -0.28370806127361298 0.40394822033236971 0 -0.29387764435810543 0.38872374045857222 0 -0.28370806127361298 0.40394822033236971 0 -0.29387764435810543 0.38872374045857222 0 -0.27131752978195728 0.39486628372312582 0 -0.2879979019050713 0.36100426520322521 0 -0.29387764435810543 0.38872374045857222 0 -0.2709070612171503 0.3757267901420277 0 -0.2879979019050713 0.36100426520322521 0 -0.30757225412210198 0.37673025947837652 0 -0.29387764435810543 0.38872374045857222 0 -0.29387764435810543 0.38872374045857222 0 -0.2709070612171503 0.3757267901420277 0 -0.29387764435810543 0.38872374045857222 0 -0.2709070612171503 0.3757267901420277 0 -0.27131752978195728 0.39486628372312582 0 -0.28370806127361298 0.40394822033236971 0 -0.27131752978195728 0.39486628372312582 0 -0.27160751247139198 0.40959816715053848 0 -0.27131752978195728 0.39486628372312582 0 -0.25967077559403229 0.40897108603318683 0 -0.27160751247139198 0.40959816715053848 0 -0.25207500354250989 0.39285229113824099 0 -0.25967077559403229 0.40897108603318683 0 -0.24761294086593569 0.41443381151829423 0 -0.27131752978195728 0.39486628372312582 0 -0.25207500354250989 0.39285229113824099 0 -0.25967077559403229 0.40897108603318683 0 -0.2709070612171503 0.3757267901420277 0 -0.25207500354250989 0.39285229113824099 0 -0.24793647807619529 0.36272983982548312 0 -0.2709070612171503 0.3757267901420277 0 -0.27131752978195728 0.39486628372312582 0 -0.25207500354250989 0.39285229113824099 0 -0.2580689285417021 0.42922692192400391 0 -0.2521198901848119 0.4223400115759261 0 -0.26352291878338702 0.42035899168727209 0 -0.2580689285417021 0.42922692192400391 0 -0.26352291878338702 0.42035899168727209 0 -0.26730207145695528 0.43025608575479829 0 -0.2580689285417021 0.42922692192400391 0 -0.25907570013663911 0.43743077650676698 0 -0.26730207145695528 0.43025608575479829 0 -0.2580689285417021 0.42922692192400391 0 -0.25907570013663911 0.43743077650676698 0 -0.25417417357400579 0.4344584026021705 0 -0.25417417357400579 0.4344584026021705 0 -0.25004256813668041 0.43120033462999913 0 -0.24950949748100201 0.43997557734791232 0 -0.2580689285417021 0.42922692192400391 0 -0.25417417357400579 0.4344584026021705 0 -0.25004256813668041 0.43120033462999913 0 -0.25907570013663911 0.43743077650676698 0 -0.25417417357400579 0.4344584026021705 0 -0.24950949748100201 0.43997557734791232 0 -0.2580689285417021 0.42922692192400391 0 -0.25004256813668041 0.43120033462999913 0 -0.2521198901848119 0.4223400115759261 0 -0.2521198901848119 0.4223400115759261 0 -0.25967077559403229 0.40897108603318683 0 -0.24761294086593569 0.41443381151829423 0 -0.25967077559403229 0.40897108603318683 0 -0.26352291878338702 0.42035899168727209 0 -0.27160751247139198 0.40959816715053848 0 -0.2521198901848119 0.4223400115759261 0 -0.25967077559403229 0.40897108603318683 0 -0.26352291878338702 0.42035899168727209 0 -0.26352291878338702 0.42035899168727209 0 -0.27160751247139198 0.40959816715053848 0 -0.2739495322552486 0.42094914632653763 0 -0.28370806127361298 0.40394822033236971 0 -0.27160751247139198 0.40959816715053848 0 -0.28054670278539162 0.41399099311994308 0 -0.27160751247139198 0.40959816715053848 0 -0.28054670278539162 0.41399099311994308 0 -0.2739495322552486 0.42094914632653763 0 -0.28054670278539162 0.41399099311994308 0 -0.2739495322552486 0.42094914632653763 0 -0.28421627153293161 0.42300373004037622 0 -0.2739495322552486 0.42094914632653763 0 -0.27660560770755671 0.42929109506645591 0 -0.28421627153293161 0.42300373004037622 0 -0.26352291878338702 0.42035899168727209 0 -0.2739495322552486 0.42094914632653763 0 -0.26730207145695528 0.43025608575479829 0 -0.2739495322552486 0.42094914632653763 0 -0.27660560770755671 0.42929109506645591 0 -0.26730207145695528 0.43025608575479829 0 -0.27660560770755671 0.42929109506645591 0 -0.26730207145695528 0.43025608575479829 0 -0.27364351679327992 0.43763232373345112 0 -0.25907570013663911 0.43743077650676698 0 -0.26730207145695528 0.43025608575479829 0 -0.27364351679327992 0.43763232373345112 0 -0.27660560770755671 0.42929109506645591 0 -0.2828033379623488 0.43738903666030282 0 -0.27364351679327992 0.43763232373345112 0 -0.27660560770755671 0.42929109506645591 0 -0.28612528944635679 0.43097996429707353 0 -0.2828033379623488 0.43738903666030282 0 -0.28612528944635679 0.43097996429707353 0 -0.2828033379623488 0.43738903666030282 0 -0.29552298337919142 0.43325152068662509 0 -0.292745197581674 0.42416808819869112 0 -0.29552298337919142 0.43325152068662509 0 -0.29746421392979733 0.41752127617717377 0 -0.28421627153293161 0.42300373004037622 0 -0.292745197581674 0.42416808819869112 0 -0.28965243548503838 0.42785082580569139 0 -0.28612528944635679 0.43097996429707353 0 -0.28421627153293161 0.42300373004037622 0 -0.28965243548503838 0.42785082580569139 0 -0.27660560770755671 0.42929109506645591 0 -0.28612528944635679 0.43097996429707353 0 -0.28421627153293161 0.42300373004037622 0 -0.292745197581674 0.42416808819869112 0 -0.28965243548503838 0.42785082580569139 0 -0.29552298337919142 0.43325152068662509 0 -0.28612528944635679 0.43097996429707353 0 -0.28965243548503838 0.42785082580569139 0 -0.29552298337919142 0.43325152068662509 0 -0.28370806127361298 0.40394822033236971 0 -0.28054670278539162 0.41399099311994308 0 -0.28945991880601712 0.41406407147021002 0 -0.28421627153293161 0.42300373004037622 0 -0.292745197581674 0.42416808819869112 0 -0.28945991880601712 0.41406407147021002 0 -0.28054670278539162 0.41399099311994308 0 -0.28421627153293161 0.42300373004037622 0 -0.28945991880601712 0.41406407147021002 0 -0.292745197581674 0.42416808819869112 0 -0.28945991880601712 0.41406407147021002 0 -0.29746421392979733 0.41752127617717377 0 -0.29642601029339311 0.40523158123237007 0 -0.28945991880601712 0.41406407147021002 0 -0.29746421392979733 0.41752127617717377 0 -0.29642601029339311 0.40523158123237007 0 -0.28370806127361298 0.40394822033236971 0 -0.28945991880601712 0.41406407147021002 0 -0.29552298337919142 0.43325152068662509 0 -0.29746421392979733 0.41752127617717377 0 -0.30861510005548332 0.41270841669431951 0 -0.29642601029339311 0.40523158123237007 0 -0.29746421392979733 0.41752127617717377 0 -0.30861510005548332 0.41270841669431951 0 -0.31026439759793462 0.42033102996219007 0 -0.30861510005548332 0.41270841669431951 0 -0.30564194206844197 0.4259577804383371 0 -0.31601078935294391 0.41806185831868808 0 -0.31026439759793462 0.42033102996219007 0 -0.30861510005548332 0.41270841669431951 0 -0.32144402632284941 0.43392707554011523 0 -0.29613393675613808 0.43830850701492052 0 -0.32144402632284941 0.43392707554011523 0 -0.31026439759793462 0.42033102996219007 0 -0.30564194206844197 0.4259577804383371 0 -0.29552298337919142 0.43325152068662509 0 -0.30861510005548332 0.41270841669431951 0 -0.29552298337919142 0.43325152068662509 0 -0.30861510005548332 0.41270841669431951 0 -0.30564194206844197 0.4259577804383371 0 -0.32144402632284941 0.43392707554011523 0 -0.30564194206844197 0.4259577804383371 0 -0.29613393675613808 0.43830850701492052 0 -0.29552298337919142 0.43325152068662509 0 -0.30564194206844197 0.4259577804383371 0 -0.29613393675613808 0.43830850701492052 0 -0.32144402632284941 0.43392707554011523 0 -0.31064098844761562 0.44681622647895403 0 -0.29613393675613808 0.43830850701492052 0 -0.31064098844761562 0.44681622647895403 0 -0.29769620624557491 0.45206872096128742 0 -0.29613393675613808 0.43830850701492052 0 -0.31064098844761562 0.44681622647895403 0 -0.29769620624557491 0.45206872096128742 0 -0.30233870406877178 0.46774309416070148 0 -0.31064098844761562 0.44681622647895403 0 -0.30233870406877178 0.46774309416070148 0 -0.32440401955676851 0.45648136041213883 0 -0.30233870406877178 0.46774309416070148 0 -0.28243086670289952 0.45379462467893089 0 -0.28099903354084349 0.47863447198388998 0 -0.30233870406877178 0.46774309416070148 0 -0.28243086670289952 0.45379462467893089 0 -0.29769620624557491 0.45206872096128742 0 -0.30233870406877178 0.46774309416070148 0 -0.28243086670289952 0.45379462467893089 0 -0.29552298337919142 0.43325152068662509 0 -0.28243086670289952 0.45379462467893089 0 -0.2828033379623488 0.43738903666030282 0 -0.29552298337919142 0.43325152068662509 0 -0.28243086670289952 0.45379462467893089 0 -0.29552298337919142 0.43325152068662509 0 -0.28243086670289952 0.45379462467893089 0 -0.29613393675613808 0.43830850701492052 0 -0.29769620624557491 0.45206872096128742 0 -0.28243086670289952 0.45379462467893089 0 -0.29613393675613808 0.43830850701492052 0 -0.25907570013663911 0.43743077650676698 0 -0.28243086670289952 0.45379462467893089 0 -0.27364351679327992 0.43763232373345112 0 -0.25907570013663911 0.43743077650676698 0 -0.28243086670289952 0.45379462467893089 0 -0.2621833250833735 0.45555156983522821 0 -0.2828033379623488 0.43738903666030282 0 -0.28243086670289952 0.45379462467893089 0 -0.27364351679327992 0.43763232373345112 0 -0.25907570013663911 0.43743077650676698 0 -0.28243086670289952 0.45379462467893089 0 -0.28243086670289952 0.45379462467893089 0 -0.2621833250833735 0.45555156983522821 0 -0.27104511485790678 0.47166023724300388 0 -0.28243086670289952 0.45379462467893089 0 -0.28099903354084349 0.47863447198388998 0 -0.27104511485790678 0.47166023724300388 0 -0.28243086670289952 0.45379462467893089 0 -0.27104511485790678 0.47166023724300388 0 -0.2621833250833735 0.45555156983522821 0 -0.25198464064083681 0.47520384361635343 0 -0.27104511485790678 0.47166023724300388 0 -0.2621833250833735 0.45555156983522821 0 -0.25198464064083681 0.47520384361635343 0 -0.24765625357791221 0.4589504801762021 0 -0.2621833250833735 0.45555156983522821 0 -0.25253061715126801 0.44818190212920039 0 -0.24765625357791221 0.4589504801762021 0 -0.25907570013663911 0.43743077650676698 0 -0.2621833250833735 0.45555156983522821 0 -0.25253061715126801 0.44818190212920039 0 -0.25907570013663911 0.43743077650676698 0 -0.25253061715126801 0.44818190212920039 0 -0.24950949748100201 0.43997557734791232 0 -0.25965936301291459 0.48952584980707708 0 -0.25298418887846569 0.49999999999999878 0 -0.28234997907311149 0.5 0 -0.25965936301291459 0.48952584980707708 0 -0.25298418887846569 0.49999999999999878 0 -0.25259763005996522 0.48732801685094579 0 -0.25965936301291459 0.48952584980707708 0 -0.25298418887846569 0.49999999999999878 0 -0.25965936301291459 0.48952584980707708 0 -0.25259763005996522 0.48732801685094579 0 -0.25198464064083681 0.47520384361635343 0 -0.25965936301291459 0.48952584980707708 0 -0.27104511485790678 0.47166023724300388 0 -0.25965936301291459 0.48952584980707708 0 -0.25198464064083681 0.47520384361635343 0 -0.27104511485790678 0.47166023724300388 0 -0.25965936301291459 0.48952584980707708 0 -0.28099903354084349 0.47863447198388998 0 -0.25965936301291459 0.48952584980707708 0 -0.28099903354084349 0.47863447198388998 0 -0.27104511485790678 0.47166023724300388 0 -0.25965936301291459 0.48952584980707708 0 -0.28099903354084349 0.47863447198388998 0 -0.28234997907311149 0.5 0 -0.28099903354084349 0.47863447198388998 0 -0.28234997907311149 0.5 0 -0.30071650889003071 0.48628195233196098 0 -0.30233870406877178 0.46774309416070148 0 -0.28099903354084349 0.47863447198388998 0 -0.30071650889003071 0.48628195233196098 0 -0.30233870406877178 0.46774309416070148 0 -0.28099903354084349 0.47863447198388998 0 -0.30233870406877178 0.46774309416070148 0 -0.30071650889003071 0.48628195233196098 0 -0.31850757226199528 0.47907184677220049 0 -0.30233870406877178 0.46774309416070148 0 -0.31850757226199528 0.47907184677220049 0 -0.28234997907311149 0.5 0 -0.30071650889003071 0.48628195233196098 0 -0.31171576926775729 0.5 0 -0.30071650889003071 0.48628195233196098 0 -0.31171576926775729 0.5 0 -0.32133957006748082 0.49115087969757237 0 -0.33467644045521761 0.49040059938370112 0 -0.31850757226199528 0.47907184677220049 0 -0.30071650889003071 0.48628195233196098 0 -0.32133957006748082 0.49115087969757237 0 -0.31850757226199528 0.47907184677220049 0 -0.31171576926775729 0.5 0 -0.32133957006748082 0.49115087969757237 0 -0.34108155946240298 0.5 0 -0.32133957006748082 0.49115087969757237 0 -0.33467644045521761 0.49040059938370112 0 -0.31850757226199528 0.47907184677220049 0 -0.33467644045521761 0.49040059938370112 0 -0.34108155946240298 0.5 0 -0.34875932141135568 0.48423580373931052 0 -0.32133957006748082 0.49115087969757237 0 -0.33467644045521761 0.49040059938370112 0 -0.34108155946240298 0.5 0 -0.33467644045521761 0.49040059938370112 0 -0.33415377417376252 0.47427505615044191 0 -0.31850757226199528 0.47907184677220049 0 -0.33467644045521761 0.49040059938370112 0 -0.33415377417376252 0.47427505615044191 0 -0.34875932141135568 0.48423580373931052 0 -0.33415377417376252 0.47427505615044191 0 -0.34875932141135568 0.48423580373931052 0 -0.3459950843939601 0.46904362589957899 0 -0.33415377417376252 0.47427505615044191 0 -0.31850757226199528 0.47907184677220049 0 -0.32440401955676851 0.45648136041213883 0 -0.30233870406877178 0.46774309416070148 0 -0.31850757226199528 0.47907184677220049 0 -0.32440401955676851 0.45648136041213883 0 -0.30233870406877178 0.46774309416070148 0 -0.32440401955676851 0.45648136041213883 0 -0.32144402632284941 0.43392707554011523 0 -0.31064098844761562 0.44681622647895403 0 -0.33142766990517958 0.44359749458483438 0 -0.31064098844761562 0.44681622647895403 0 -0.32440401955676851 0.45648136041213883 0 -0.33142766990517958 0.44359749458483438 0 -0.32440401955676851 0.45648136041213883 0 -0.33142766990517958 0.44359749458483438 0 -0.34646933504476463 0.4452196266635754 0 -0.32440401955676851 0.45648136041213883 0 -0.34646933504476463 0.4452196266635754 0 -0.34675411588956062 0.42954564406530987 0 -0.33142766990517958 0.44359749458483438 0 -0.34646933504476463 0.4452196266635754 0 -0.33415377417376252 0.47427505615044191 0 -0.32440401955676851 0.45648136041213883 0 -0.34118522711253157 0.46037000652509369 0 -0.32440401955676851 0.45648136041213883 0 -0.34118522711253157 0.46037000652509369 0 -0.34646933504476463 0.4452196266635754 0 -0.33415377417376252 0.47427505615044191 0 -0.34118522711253157 0.46037000652509369 0 -0.3459950843939601 0.46904362589957899 0 -0.34118522711253157 0.46037000652509369 0 -0.35490392239340202 0.45683036349973338 0 -0.3459950843939601 0.46904362589957899 0 -0.34118522711253157 0.46037000652509369 0 -0.35490392239340202 0.45683036349973338 0 -0.34646933504476463 0.4452196266635754 0 -0.35490392239340202 0.45683036349973338 0 -0.3459950843939601 0.46904362589957899 0 -0.35774361702694218 0.4688480115987434 0 -0.36853465053276069 0.43395789291501202 0 -0.34646933504476463 0.4452196266635754 0 -0.36853465053276069 0.43395789291501202 0 -0.34646933504476463 0.4452196266635754 0 -0.36062943463732572 0.44564811859507031 0 -0.35490392239340202 0.45683036349973338 0 -0.34646933504476463 0.4452196266635754 0 -0.36062943463732572 0.44564811859507031 0 -0.36853465053276069 0.43395789291501202 0 -0.36062943463732572 0.44564811859507031 0 -0.36921405837342719 0.44360890941763248 0 -0.36689647524649233 0.45191928119338221 0 -0.36062943463732572 0.44564811859507031 0 -0.36921405837342719 0.44360890941763248 0 -0.35490392239340202 0.45683036349973338 0 -0.36689647524649233 0.45191928119338221 0 -0.36062943463732572 0.44564811859507031 0 -0.36689647524649233 0.45191928119338221 0 -0.37481481235924752 0.4476546642360138 0 -0.36921405837342719 0.44360890941763248 0 -0.37626883962521179 0.45892663211557277 0 -0.36689647524649233 0.45191928119338221 0 -0.37481481235924752 0.4476546642360138 0 -0.37558425303023452 0.43976878428969562 0 -0.37481481235924752 0.4476546642360138 0 -0.36921405837342719 0.44360890941763248 0 -0.37558425303023452 0.43976878428969562 0 -0.36853465053276069 0.43395789291501202 0 -0.36921405837342719 0.44360890941763248 0 -0.36648218554375789 0.46101706523469832 0 -0.37333950992086351 0.47327722219825058 0 -0.35774361702694218 0.4688480115987434 0 -0.35490392239340202 0.45683036349973338 0 -0.36648218554375789 0.46101706523469832 0 -0.35774361702694218 0.4688480115987434 0 -0.35490392239340202 0.45683036349973338 0 -0.36689647524649233 0.45191928119338221 0 -0.36648218554375789 0.46101706523469832 0 -0.37626883962521179 0.45892663211557277 0 -0.36689647524649233 0.45191928119338221 0 -0.36648218554375789 0.46101706523469832 0 -0.37626883962521179 0.45892663211557277 0 -0.36648218554375789 0.46101706523469832 0 -0.37333950992086351 0.47327722219825058 0 -0.37333950992086351 0.47327722219825058 0 -0.363368118917266 0.4794488133702835 0 -0.35774361702694218 0.4688480115987434 0 -0.37333950992086351 0.47327722219825058 0 -0.363368118917266 0.4794488133702835 0 -0.36994570678819511 0.48733690223976572 0 -0.38204176093759867 0.48767303845213411 0 -0.36994570678819511 0.48733690223976572 0 -0.37044734965704867 0.5 0 -0.36994570678819511 0.48733690223976572 0 -0.37044734965704867 0.5 0 -0.35879286657769149 0.49044754920220351 0 -0.363368118917266 0.4794488133702835 0 -0.36994570678819511 0.48733690223976572 0 -0.35879286657769149 0.49044754920220351 0 -0.34108155946240298 0.5 0 -0.37044734965704867 0.5 0 -0.35879286657769149 0.49044754920220351 0 -0.363368118917266 0.4794488133702835 0 -0.35879286657769149 0.49044754920220351 0 -0.34875932141135568 0.48423580373931052 0 -0.34108155946240298 0.5 0 -0.35879286657769149 0.49044754920220351 0 -0.34875932141135568 0.48423580373931052 0 -0.34875932141135568 0.48423580373931052 0 -0.3459950843939601 0.46904362589957899 0 -0.35774361702694218 0.4688480115987434 0 -0.363368118917266 0.4794488133702835 0 -0.34875932141135568 0.48423580373931052 0 -0.35774361702694218 0.4688480115987434 0 -0.13427192322805959 0.47639302624934232 0 -0.15477328032414309 0.46665094998287848 0 -0.1604117123520987 0.48445360486279682 0 -0.1488478701325433 0.5 0 -0.13427192322805959 0.47639302624934232 0 -0.1604117123520987 0.48445360486279682 0 -0.12706975131072731 0.500000000000002 0 -0.13427192322805959 0.47639302624934232 0 -0.12706975131072731 0.500000000000002 0 -0.13427192322805959 0.47639302624934232 0 -0.1138616612205828 0.48107829569316701 0 -0.1488478701325433 0.5 0 -0.12706975131072731 0.500000000000002 0 -0.13427192322805959 0.47639302624934232 0 -0.13427192322805959 0.47639302624934232 0 -0.1414740951453915 0.45278605249868231 0 -0.1166238092426813 0.46215407445810708 0 -0.13427192322805959 0.47639302624934232 0 -0.1414740951453915 0.45278605249868231 0 -0.1414740951453915 0.45278605249868231 0 -0.1201918169322794 0.44443799824850971 0 -0.1166238092426813 0.46215407445810708 0 -0.1414740951453915 0.45278605249868231 0 -0.13212812499831089 0.43138243712523361 0 -0.1201918169322794 0.44443799824850971 0 -0.1414740951453915 0.45278605249868231 0 -0.14867626706272341 0.4291790787480223 0 -0.1414740951453915 0.45278605249868231 0 -0.14867626706272341 0.4291790787480223 0 -0.13212812499831089 0.43138243712523361 0 -0.1414740951453915 0.45278605249868231 0 -0.1639685221005471 0.45383429956500532 0 -0.16011962671551089 0.43745496671563522 0 -0.1414740951453915 0.45278605249868231 0 -0.16011962671551089 0.43745496671563522 0 -0.14867626706272341 0.4291790787480223 0 -0.1414740951453915 0.45278605249868231 0 -0.15477328032414309 0.46665094998287848 0 -0.1639685221005471 0.45383429956500532 0 -0.13427192322805959 0.47639302624934232 0 -0.1414740951453915 0.45278605249868231 0 -0.15477328032414309 0.46665094998287848 0 -0.15477328032414309 0.46665094998287848 0 -0.1639685221005471 0.45383429956500532 0 -0.1724361631082181 0.47391552010628968 0 -0.1639685221005471 0.45383429956500532 0 -0.17310578032346599 0.44196666659649292 0 -0.16011962671551089 0.43745496671563522 0 -0.17310578032346599 0.44196666659649292 0 -0.1793033291033872 0.45428852208808218 0 -0.18892182078301609 0.44241925027374779 0 -0.1639685221005471 0.45383429956500532 0 -0.17310578032346599 0.44196666659649292 0 -0.1793033291033872 0.45428852208808218 0 -0.1724361631082181 0.47391552010628968 0 -0.19462467619076751 0.46170278519843488 0 -0.1639685221005471 0.45383429956500532 0 -0.1793033291033872 0.45428852208808218 0 -0.1724361631082181 0.47391552010628968 0 -0.1793033291033872 0.45428852208808218 0 -0.1724361631082181 0.47391552010628968 0 -0.19462467619076751 0.46170278519843488 0 -0.1724361631082181 0.47391552010628968 0 -0.1935143919834712 0.48085139259921927 0 -0.19462467619076751 0.46170278519843488 0 -0.1724361631082181 0.47391552010628968 0 -0.18056841791691311 0.48926285406780817 0 -0.1935143919834712 0.48085139259921927 0 -0.1724361631082181 0.47391552010628968 0 -0.1604117123520987 0.48445360486279682 0 -0.18056841791691311 0.48926285406780817 0 -0.15477328032414309 0.46665094998287848 0 -0.1724361631082181 0.47391552010628968 0 -0.1604117123520987 0.48445360486279682 0 -0.1604117123520987 0.48445360486279682 0 -0.17062598895435921 0.5 0 -0.18056841791691311 0.48926285406780817 0 -0.1488478701325433 0.5 0 -0.1604117123520987 0.48445360486279682 0 -0.17062598895435921 0.5 0 -0.17062598895435921 0.5 0 -0.18056841791691311 0.48926285406780817 0 -0.1924041077761752 0.50000000000000377 0 -0.1924041077761752 0.50000000000000377 0 -0.1935143919834712 0.48085139259921927 0 -0.20551793484502409 0.48797211710356853 0 -0.1924041077761752 0.50000000000000377 0 -0.1935143919834712 0.48085139259921927 0 -0.18056841791691311 0.48926285406780817 0 -0.1924041077761752 0.50000000000000377 0 -0.1935143919834712 0.48085139259921927 0 -0.1935143919834712 0.48085139259921927 0 -0.2082705745540461 0.46578996418937318 0 -0.19462467619076751 0.46170278519843488 0 -0.1935143919834712 0.48085139259921927 0 -0.19462467619076751 0.46170278519843488 0 -0.1935143919834712 0.48085139259921927 0 -0.2154037205442679 0.47812016299260052 0 -0.20551793484502409 0.48797211710356853 0 -0.1935143919834712 0.48085139259921927 0 -0.2154037205442679 0.47812016299260052 0 -0.2082705745540461 0.46578996418937318 0 -0.2154037205442679 0.47812016299260052 0 -0.2225112956939751 0.46766217399626769 0 -0.2082705745540461 0.46578996418937318 0 -0.2154037205442679 0.47812016299260052 0 -0.21259746814360539 0.5 0 -0.20551793484502409 0.48797211710356853 0 -0.1924041077761752 0.50000000000000377 0 -0.21259746814360539 0.5 0 -0.20551793484502409 0.48797211710356853 0 -0.2154037205442679 0.47812016299260052 0 -0.21259746814360539 0.5 0 -0.22908055967340421 0.48348424614661872 0 -0.21259746814360539 0.5 0 -0.23279082851103561 0.5 0 -0.22908055967340421 0.48348424614661872 0 -0.22908055967340421 0.48348424614661872 0 -0.2366047132014448 0.47086389098740189 0 -0.2225112956939751 0.46766217399626769 0 -0.2154037205442679 0.47812016299260052 0 -0.22908055967340421 0.48348424614661872 0 -0.2225112956939751 0.46766217399626769 0 -0.22908055967340421 0.48348424614661872 0 -0.2366047132014448 0.47086389098740189 0 -0.24278479051092461 0.48731117119140688 0 -0.25198464064083681 0.47520384361635343 0 -0.2366047132014448 0.47086389098740189 0 -0.24278479051092461 0.48731117119140688 0 -0.25259763005996522 0.48732801685094579 0 -0.25198464064083681 0.47520384361635343 0 -0.24278479051092461 0.48731117119140688 0 -0.25298418887846569 0.49999999999999878 0 -0.23279082851103561 0.5 0 -0.24278479051092461 0.48731117119140688 0 -0.25298418887846569 0.49999999999999878 0 -0.25259763005996522 0.48732801685094579 0 -0.24278479051092461 0.48731117119140688 0 -0.23279082851103561 0.5 0 -0.22908055967340421 0.48348424614661872 0 -0.24278479051092461 0.48731117119140688 0 -0.25004256813668041 0.43120033462999913 0 -0.24950949748100201 0.43997557734791232 0 -0.2315699374880428 0.44136781815281112 0 -0.24950949748100201 0.43997557734791232 0 -0.24422830947741331 0.44900110677989291 0 -0.2315699374880428 0.44136781815281112 0 -0.24422830947741331 0.44900110677989291 0 -0.23261089935128271 0.45617947798598912 0 -0.2315699374880428 0.44136781815281112 0 -0.25253061715126801 0.44818190212920039 0 -0.24950949748100201 0.43997557734791232 0 -0.24422830947741331 0.44900110677989291 0 -0.25253061715126801 0.44818190212920039 0 -0.24422830947741331 0.44900110677989291 0 -0.24765625357791221 0.4589504801762021 0 -0.25198464064083681 0.47520384361635343 0 -0.2366047132014448 0.47086389098740189 0 -0.24765625357791221 0.4589504801762021 0 -0.2366047132014448 0.47086389098740189 0 -0.24765625357791221 0.4589504801762021 0 -0.23261089935128271 0.45617947798598912 0 -0.24422830947741331 0.44900110677989291 0 -0.24765625357791221 0.4589504801762021 0 -0.23261089935128271 0.45617947798598912 0 -0.23261089935128271 0.45617947798598912 0 -0.2225112956939751 0.46766217399626769 0 -0.2130973068394052 0.45153530167562311 0 -0.2366047132014448 0.47086389098740189 0 -0.23261089935128271 0.45617947798598912 0 -0.2225112956939751 0.46766217399626769 0 -0.23261089935128271 0.45617947798598912 0 -0.2315699374880428 0.44136781815281112 0 -0.2130973068394052 0.45153530167562311 0 -0.2315699374880428 0.44136781815281112 0 -0.2130973068394052 0.45153530167562311 0 -0.21576368557645009 0.42668935284907328 0 -0.2315699374880428 0.44136781815281112 0 -0.2130973068394052 0.45153530167562311 0 -0.2130973068394052 0.45153530167562311 0 -0.19597528131132069 0.43840946350924059 0 -0.21576368557645009 0.42668935284907328 0 -0.2130973068394052 0.45153530167562311 0 -0.2082705745540461 0.46578996418937318 0 -0.19462467619076751 0.46170278519843488 0 -0.2130973068394052 0.45153530167562311 0 -0.19462467619076751 0.46170278519843488 0 -0.2225112956939751 0.46766217399626769 0 -0.2130973068394052 0.45153530167562311 0 -0.2082705745540461 0.46578996418937318 0 -0.2130973068394052 0.45153530167562311 0 -0.19462467619076751 0.46170278519843488 0 -0.19597528131132069 0.43840946350924059 0 -0.19462467619076751 0.46170278519843488 0 -0.18892182078301609 0.44241925027374779 0 -0.19597528131132069 0.43840946350924059 0 -0.19462467619076751 0.46170278519843488 0 -0.19597528131132069 0.43840946350924059 0 -0.1793033291033872 0.45428852208808218 0 -0.19462467619076751 0.46170278519843488 0 -0.18892182078301609 0.44241925027374779 0 -0.19597528131132069 0.43840946350924059 0 -0.1973258864318744 0.41511614182004652 0 -0.19597528131132069 0.43840946350924059 0 -0.1973258864318744 0.41511614182004652 0 -0.21576368557645009 0.42668935284907328 0 -0.19597528131132069 0.43840946350924059 0 -0.1973258864318744 0.41511614182004652 0 -0.18743143511948979 0.42622825333424402 0 -0.18892182078301609 0.44241925027374779 0 -0.19597528131132069 0.43840946350924059 0 -0.18743143511948979 0.42622825333424402 0 -0.1973258864318744 0.41511614182004652 0 -0.18150578678724719 0.4037008311144315 0 -0.18743143511948979 0.42622825333424402 0 -0.1973258864318744 0.41511614182004652 0 -0.211702664334769 0.40670194627138168 0 -0.21576368557645009 0.42668935284907328 0 -0.2315699374880428 0.44136781815281112 0 -0.21576368557645009 0.42668935284907328 0 -0.23130239775558381 0.42745505016864199 0 -0.211702664334769 0.40670194627138168 0 -0.21576368557645009 0.42668935284907328 0 -0.23115580651773371 0.41041111155740501 0 -0.21576368557645009 0.42668935284907328 0 -0.23130239775558381 0.42745505016864199 0 -0.23115580651773371 0.41041111155740501 0 -0.23115580651773371 0.41041111155740501 0 -0.24672016144010869 0.43135191811527862 0 -0.23115580651773371 0.41041111155740501 0 -0.24761294086593569 0.41443381151829423 0 -0.24672016144010869 0.43135191811527862 0 -0.2521198901848119 0.4223400115759261 0 -0.24761294086593569 0.41443381151829423 0 -0.24672016144010869 0.43135191811527862 0 -0.25004256813668041 0.43120033462999913 0 -0.2315699374880428 0.44136781815281112 0 -0.24672016144010869 0.43135191811527862 0 -0.25004256813668041 0.43120033462999913 0 -0.2315699374880428 0.44136781815281112 0 -0.23130239775558381 0.42745505016864199 0 -0.23115580651773371 0.41041111155740501 0 -0.24672016144010869 0.43135191811527862 0 -0.25004256813668041 0.43120033462999913 0 -0.2521198901848119 0.4223400115759261 0 -0.24672016144010869 0.43135191811527862 0 -0.2315699374880428 0.44136781815281112 0 -0.23130239775558381 0.42745505016864199 0 -0.24672016144010869 0.43135191811527862 0 -0.25207500354250989 0.39285229113824099 0 -0.23340047209497061 0.38504431229589958 0 -0.24793647807619529 0.36272983982548312 0 -0.25207500354250989 0.39285229113824099 0 -0.23115580651773371 0.41041111155740501 0 -0.24761294086593569 0.41443381151829423 0 -0.25207500354250989 0.39285229113824099 0 -0.23115580651773371 0.41041111155740501 0 -0.23340047209497061 0.38504431229589958 0 -0.211702664334769 0.40670194627138168 0 -0.23115580651773371 0.41041111155740501 0 -0.21559145159535861 0.38947030499953128 0 -0.23115580651773371 0.41041111155740501 0 -0.21559145159535861 0.38947030499953128 0 -0.23115580651773371 0.41041111155740501 0 -0.23340047209497061 0.38504431229589958 0 -0.21559145159535861 0.38947030499953128 0 -0.23340047209497061 0.38504431229589958 0 -0.21559145159535861 0.38947030499953128 0 -0.22024362074305559 0.36975801395883739 0 -0.21559145159535861 0.38947030499953128 0 -0.1986764915524282 0.39182282013085218 0 -0.20002709667298299 0.36852949844165822 0 -0.21559145159535861 0.38947030499953128 0 -0.20002709667298299 0.36852949844165822 0 -0.22024362074305559 0.36975801395883739 0 -0.21559145159535861 0.38947030499953128 0 -0.20002709667298299 0.36852949844165822 0 -0.211702664334769 0.40670194627138168 0 -0.21559145159535861 0.38947030499953128 0 -0.1986764915524282 0.39182282013085218 0 -0.1973258864318744 0.41511614182004652 0 -0.1986764915524282 0.39182282013085218 0 -0.18150578678724719 0.4037008311144315 0 -0.1973258864318744 0.41511614182004652 0 -0.1986764915524282 0.39182282013085218 0 -0.1973258864318744 0.41511614182004652 0 -0.211702664334769 0.40670194627138168 0 -0.1986764915524282 0.39182282013085218 0 -0.1986764915524282 0.39182282013085218 0 -0.18235670781421481 0.3743657705644442 0 -0.20002709667298299 0.36852949844165822 0 -0.1986764915524282 0.39182282013085218 0 -0.20002709667298299 0.36852949844165822 0 -0.1662988083540419 0.37539478395147691 0 -0.16815728555877549 0.38705773540129351 0 -0.18235670781421481 0.3743657705644442 0 -0.18016301718315211 0.39009840998192691 0 -0.16815728555877549 0.38705773540129351 0 -0.18235670781421481 0.3743657705644442 0 -0.1986764915524282 0.39182282013085218 0 -0.18016301718315211 0.39009840998192691 0 -0.18235670781421481 0.3743657705644442 0 -0.1662988083540419 0.37539478395147691 0 -0.15882889901863481 0.39737131762923639 0 -0.1662988083540419 0.37539478395147691 0 -0.15882889901863481 0.39737131762923639 0 -0.15539321601027811 0.39848010462130418 0 -0.1662988083540419 0.37539478395147691 0 -0.16815728555877549 0.38705773540129351 0 -0.15882889901863481 0.39737131762923639 0 -0.16321409299502571 0.39978351448649718 0 -0.15750938504671669 0.40125333840624389 0 -0.16859648333140451 0.40495447501341292 0 -0.15750938504671669 0.40125333840624389 0 -0.1560524219351804 0.40553973566355739 0 -0.16321409299502571 0.39978351448649718 0 -0.15750938504671669 0.40125333840624389 0 -0.15882889901863481 0.39737131762923639 0 -0.15750938504671669 0.40125333840624389 0 -0.15539321601027811 0.39848010462130418 0 -0.1560524219351804 0.40553973566355739 0 -0.15750938504671669 0.40125333840624389 0 -0.15539321601027811 0.39848010462130418 0 -0.15750938504671669 0.40125333840624389 0 -0.15882889901863481 0.39737131762923639 0 -0.15750938504671669 0.40125333840624389 0 -0.15882889901863481 0.39737131762923639 0 -0.15539321601027811 0.39848010462130418 0 -0.16815728555877549 0.38705773540129351 0 -0.15882889901863481 0.39737131762923639 0 -0.16120481812895621 0.39660454485150348 0 -0.15882889901863481 0.39737131762923639 0 -0.15539321601027811 0.39848010462130418 0 -0.15882889901863481 0.39737131762923639 0 -0.16120481812895621 0.39660454485150348 0 -0.16321409299502571 0.39978351448649718 0 -0.15882889901863481 0.39737131762923639 0 -0.16120481812895621 0.39660454485150348 0 -0.16321409299502571 0.39978351448649718 0 -0.16120481812895621 0.39660454485150348 0 -0.17042919251308891 0.39685722919504118 0 -0.16815728555877549 0.38705773540129351 0 -0.16120481812895621 0.39660454485150348 0 -0.17042919251308891 0.39685722919504118 0 -0.16321409299502571 0.39978351448649718 0 -0.17042919251308891 0.39685722919504118 0 -0.16859648333140451 0.40495447501341292 0 -0.17042919251308891 0.39685722919504118 0 -0.16859648333140451 0.40495447501341292 0 -0.18150578678724719 0.4037008311144315 0 -0.1986764915524282 0.39182282013085218 0 -0.18016301718315211 0.39009840998192691 0 -0.18150578678724719 0.4037008311144315 0 -0.18016301718315211 0.39009840998192691 0 -0.16815728555877549 0.38705773540129351 0 -0.17042919251308891 0.39685722919504118 0 -0.18016301718315211 0.39009840998192691 0 -0.17042919251308891 0.39685722919504118 0 -0.18150578678724719 0.4037008311144315 0 -0.18150578678724719 0.4037008311144315 0 -0.1732156029148689 0.42183629433999398 0 -0.18743143511948979 0.42622825333424402 0 -0.16859648333140451 0.40495447501341292 0 -0.18150578678724719 0.4037008311144315 0 -0.1732156029148689 0.42183629433999398 0 -0.18892182078301609 0.44241925027374779 0 -0.1732156029148689 0.42183629433999398 0 -0.18892182078301609 0.44241925027374779 0 -0.1732156029148689 0.42183629433999398 0 -0.18743143511948979 0.42622825333424402 0 -0.17310578032346599 0.44196666659649292 0 -0.18892182078301609 0.44241925027374779 0 -0.1732156029148689 0.42183629433999398 0 -0.1732156029148689 0.42183629433999398 0 -0.16011962671551089 0.43745496671563522 0 -0.15695275005955839 0.42102631930853612 0 -0.17310578032346599 0.44196666659649292 0 -0.1732156029148689 0.42183629433999398 0 -0.16011962671551089 0.43745496671563522 0 -0.15750938504671669 0.40125333840624389 0 -0.1732156029148689 0.42183629433999398 0 -0.1732156029148689 0.42183629433999398 0 -0.15695275005955839 0.42102631930853612 0 -0.1560524219351804 0.40553973566355739 0 -0.15750938504671669 0.40125333840624389 0 -0.1732156029148689 0.42183629433999398 0 -0.1560524219351804 0.40553973566355739 0 -0.15750938504671669 0.40125333840624389 0 -0.16859648333140451 0.40495447501341292 0 -0.1732156029148689 0.42183629433999398 0 -0.1423244780615425 0.41422668014664488 0 -0.1275529580078951 0.40746490207023051 0 -0.15539321601027811 0.39848010462130418 0 -0.15695275005955839 0.42102631930853612 0 -0.1423244780615425 0.41422668014664488 0 -0.1560524219351804 0.40553973566355739 0 -0.15695275005955839 0.42102631930853612 0 -0.1423244780615425 0.41422668014664488 0 -0.14867626706272341 0.4291790787480223 0 -0.16011962671551089 0.43745496671563522 0 -0.15695275005955839 0.42102631930853612 0 -0.14867626706272341 0.4291790787480223 0 -0.1423244780615425 0.41422668014664488 0 -0.14867626706272341 0.4291790787480223 0 -0.13212812499831089 0.43138243712523361 0 -0.13212812499831089 0.43138243712523361 0 -0.1275529580078951 0.40746490207023051 0 -0.11576362909944179 0.42707853232459431 0 -0.1423244780615425 0.41422668014664488 0 -0.13212812499831089 0.43138243712523361 0 -0.1275529580078951 0.40746490207023051 0 -0.1275529580078951 0.40746490207023051 0 -0.13767619579953419 0.37526199766923429 0 -0.1172731310204301 0.37997009596775111 0 -0.1275529580078951 0.40746490207023051 0 -0.13767619579953419 0.37526199766923429 0 -0.15539321601027811 0.39848010462130418 0 -0.13767619579953419 0.37526199766923429 0 -0.15539321601027811 0.39848010462130418 0 -0.1662988083540419 0.37539478395147691 0 -0.13767619579953419 0.37526199766923429 0 -0.15539321601027811 0.39848010462130418 0 -0.1275529580078951 0.40746490207023051 0 -0.15539321601027811 0.39848010462130418 0 -0.1423244780615425 0.41422668014664488 0 -0.15539321601027811 0.39848010462130418 0 -0.1560524219351804 0.40553973566355739 0 -0.14304471827390031 0.35357519045164831 0 -0.1583412379941054 0.34067777797127652 0 -0.1571074301458609 0.36005789747204731 0 -0.14304471827390031 0.35357519045164831 0 -0.14162963659725511 0.33830633309548119 0 -0.1583412379941054 0.34067777797127652 0 -0.1662988083540419 0.37539478395147691 0 -0.13767619579953419 0.37526199766923429 0 -0.1571074301458609 0.36005789747204731 0 -0.13767619579953419 0.37526199766923429 0 -0.14304471827390031 0.35357519045164831 0 -0.1571074301458609 0.36005789747204731 0 -0.13767619579953419 0.37526199766923429 0 -0.14304471827390031 0.35357519045164831 0 -0.1199591755887908 0.35204389071716408 0 -0.13767619579953419 0.37526199766923429 0 -0.1199591755887908 0.35204389071716408 0 -0.14304471827390031 0.35357519045164831 0 -0.1226434368259746 0.34120048710837031 0 -0.1199591755887908 0.35204389071716408 0 -0.14304471827390031 0.35357519045164831 0 -0.14162963659725511 0.33830633309548119 0 -0.1226434368259746 0.34120048710837031 0 -0.14304471827390031 0.35357519045164831 0 -0.1226434368259746 0.34120048710837031 0 -0.13245514128645941 0.32992620577102161 0 -0.14162963659725511 0.33830633309548119 0 -0.1226434368259746 0.34120048710837031 0 -0.13245514128645941 0.32992620577102161 0 -0.1468486342375942 0.32429953560112862 0 -0.14162963659725511 0.33830633309548119 0 -0.13245514128645941 0.32992620577102161 0 -0.1278360377772465 0.31560376677006419 0 -0.1468486342375942 0.32429953560112862 0 -0.1278360377772465 0.31560376677006419 0 -0.1468486342375942 0.32429953560112862 0 -0.14665957854107939 0.3073778773056014 0 -0.13245514128645941 0.32992620577102161 0 -0.1278360377772465 0.31560376677006419 0 -0.118762066897334 0.32593186160389498 0 -0.1468486342375942 0.32429953560112862 0 -0.1637952159011177 0.31596552193540928 0 -0.14665957854107939 0.3073778773056014 0 -0.1468486342375942 0.32429953560112862 0 -0.14162963659725511 0.33830633309548119 0 -0.1583412379941054 0.34067777797127652 0 -0.1583412379941054 0.34067777797127652 0 -0.1637952159011177 0.31596552193540928 0 -0.18123862702485499 0.33144171659595739 0 -0.1583412379941054 0.34067777797127652 0 -0.18123862702485499 0.33144171659595739 0 -0.17376871768944849 0.35341825027371709 0 -0.1468486342375942 0.32429953560112862 0 -0.1583412379941054 0.34067777797127652 0 -0.1637952159011177 0.31596552193540928 0 -0.18123862702485499 0.33144171659595739 0 -0.1939358966342879 0.3099555774219796 0 -0.18052202139302909 0.3106363917488133 0 -0.1637952159011177 0.31596552193540928 0 -0.18123862702485499 0.33144171659595739 0 -0.18052202139302909 0.3106363917488133 0 -0.18123862702485499 0.33144171659595739 0 -0.17376871768944849 0.35341825027371709 0 -0.18123862702485499 0.33144171659595739 0 -0.17376871768944849 0.35341825027371709 0 -0.18934618547625251 0.34139870279750822 0 -0.17376871768944849 0.35341825027371709 0 -0.18940553768867541 0.35423889577018491 0 -0.18934618547625251 0.34139870279750822 0 -0.1583412379941054 0.34067777797127652 0 -0.17376871768944849 0.35341825027371709 0 -0.1571074301458609 0.36005789747204731 0 -0.1662988083540419 0.37539478395147691 0 -0.17376871768944849 0.35341825027371709 0 -0.1571074301458609 0.36005789747204731 0 -0.1662988083540419 0.37539478395147691 0 -0.17376871768944849 0.35341825027371709 0 -0.17376871768944849 0.35341825027371709 0 -0.18235670781421481 0.3743657705644442 0 -0.18940553768867541 0.35423889577018491 0 -0.1662988083540419 0.37539478395147691 0 -0.17376871768944849 0.35341825027371709 0 -0.18235670781421481 0.3743657705644442 0 -0.18235670781421481 0.3743657705644442 0 -0.20002709667298299 0.36852949844165822 0 -0.18940553768867541 0.35423889577018491 0 -0.20002709667298299 0.36852949844165822 0 -0.18940553768867541 0.35423889577018491 0 -0.20002709667298299 0.36852949844165822 0 -0.20133335026742991 0.34600108897533632 0 -0.20002709667298299 0.36852949844165822 0 -0.18940553768867541 0.35423889577018491 0 -0.20133335026742991 0.34600108897533632 0 -0.18940553768867541 0.35423889577018491 0 -0.20133335026742991 0.34600108897533632 0 -0.18934618547625251 0.34139870279750822 0 -0.20133335026742991 0.34600108897533632 0 -0.22024362074305559 0.36975801395883739 0 -0.2249658949352403 0.3497328895089386 0 -0.20002709667298299 0.36852949844165822 0 -0.20133335026742991 0.34600108897533632 0 -0.22024362074305559 0.36975801395883739 0 -0.23340047209497061 0.38504431229589958 0 -0.22024362074305559 0.36975801395883739 0 -0.24793647807619529 0.36272983982548312 0 -0.22024362074305559 0.36975801395883739 0 -0.2249658949352403 0.3497328895089386 0 -0.24793647807619529 0.36272983982548312 0 -0.2249658949352403 0.3497328895089386 0 -0.24793647807619529 0.36272983982548312 0 -0.24443552246153269 0.33896729888257182 0 -0.2249658949352403 0.3497328895089386 0 -0.24793647807619529 0.36272983982548312 0 -0.25190859989712849 0.32267914652403529 0 -0.23485087614604711 0.31544414318655078 0 -0.24443552246153269 0.33896729888257182 0 -0.25190859989712849 0.32267914652403529 0 -0.23485087614604711 0.31544414318655078 0 -0.24955002262375489 0.29959517145917181 0 -0.23485087614604711 0.31544414318655078 0 -0.24443552246153269 0.33896729888257182 0 -0.2204133347270216 0.33127041252609352 0 -0.2249658949352403 0.3497328895089386 0 -0.24443552246153269 0.33896729888257182 0 -0.2204133347270216 0.33127041252609352 0 -0.23485087614604711 0.31544414318655078 0 -0.2204133347270216 0.33127041252609352 0 -0.2173584178857817 0.31302403854327099 0 -0.2204133347270216 0.33127041252609352 0 -0.2173584178857817 0.31302403854327099 0 -0.20263960386187799 0.32347267950901448 0 -0.20133335026742991 0.34600108897533632 0 -0.2204133347270216 0.33127041252609352 0 -0.20263960386187799 0.32347267950901448 0 -0.20133335026742991 0.34600108897533632 0 -0.2249658949352403 0.3497328895089386 0 -0.2204133347270216 0.33127041252609352 0 -0.18123862702485499 0.33144171659595739 0 -0.18934618547625251 0.34139870279750822 0 -0.20263960386187799 0.32347267950901448 0 -0.20133335026742991 0.34600108897533632 0 -0.18934618547625251 0.34139870279750822 0 -0.20263960386187799 0.32347267950901448 0 -0.20133335026742991 0.34600108897533632 0 -0.20263960386187799 0.32347267950901448 0 -0.18123862702485499 0.33144171659595739 0 -0.20263960386187799 0.32347267950901448 0 -0.1939358966342879 0.3099555774219796 0 -0.20263960386187799 0.32347267950901448 0 -0.1939358966342879 0.3099555774219796 0 -0.20394585745632771 0.30094427004269297 0 -0.1939358966342879 0.3099555774219796 0 -0.18900670575295 0.29637100675225958 0 -0.18052202139302909 0.3106363917488133 0 -0.1939358966342879 0.3099555774219796 0 -0.19603941430502239 0.30125743115627529 0 -0.18900670575295 0.29637100675225958 0 -0.19795374151449471 0.29738090008356 0 -0.19603941430502239 0.30125743115627529 0 -0.18900670575295 0.29637100675225958 0 -0.19795374151449471 0.29738090008356 0 -0.19603941430502239 0.30125743115627529 0 -0.20394585745632771 0.30094427004269297 0 -0.1939358966342879 0.3099555774219796 0 -0.19603941430502239 0.30125743115627529 0 -0.20394585745632771 0.30094427004269297 0 -0.19734423019548331 0.28700019963902879 0 -0.20394585745632771 0.30094427004269297 0 -0.20567880092494481 0.2710569187588065 0 -0.1896247381081913 0.28174231935058719 0 -0.18900670575295 0.29637100675225958 0 -0.19734423019548331 0.28700019963902879 0 -0.1896247381081913 0.28174231935058719 0 -0.19734423019548331 0.28700019963902879 0 -0.1969203713000309 0.27664541708541129 0 -0.19795374151449471 0.29738090008356 0 -0.18900670575295 0.29637100675225958 0 -0.19734423019548331 0.28700019963902879 0 -0.19795374151449471 0.29738090008356 0 -0.19734423019548331 0.28700019963902879 0 -0.20394585745632771 0.30094427004269297 0 -0.20394585745632771 0.30094427004269297 0 -0.2287918215254035 0.28722559715734841 0 -0.20567880092494481 0.2710569187588065 0 -0.20394585745632771 0.30094427004269297 0 -0.20567880092494481 0.2710569187588065 0 -0.20394585745632771 0.30094427004269297 0 -0.2287918215254035 0.28722559715734841 0 -0.2173584178857817 0.31302403854327099 0 -0.20394585745632771 0.30094427004269297 0 -0.2287918215254035 0.28722559715734841 0 -0.2173584178857817 0.31302403854327099 0 -0.20263960386187799 0.32347267950901448 0 -0.20394585745632771 0.30094427004269297 0 -0.20263960386187799 0.32347267950901448 0 -0.20394585745632771 0.30094427004269297 0 -0.23485087614604711 0.31544414318655078 0 -0.2173584178857817 0.31302403854327099 0 -0.2287918215254035 0.28722559715734841 0 -0.25363778559447842 0.27350692427200241 0 -0.2287918215254035 0.28722559715734841 0 -0.24955002262375489 0.29959517145917181 0 -0.23485087614604711 0.31544414318655078 0 -0.2287918215254035 0.28722559715734841 0 -0.24955002262375489 0.29959517145917181 0 -0.24800282081558991 0.25311300777040008 0 -0.2337849049445343 0.26150574820020728 0 -0.24184004484167479 0.2397688574378101 0 -0.24800282081558991 0.25311300777040008 0 -0.2444451896747076 0.26404729237941471 0 -0.2337849049445343 0.26150574820020728 0 -0.25714214375922329 0.25982886013905893 0 -0.24800282081558991 0.25311300777040008 0 -0.2444451896747076 0.26404729237941471 0 -0.25363778559447842 0.27350692427200241 0 -0.22965829325971171 0.27228192151540398 0 -0.25363778559447842 0.27350692427200241 0 -0.2444451896747076 0.26404729237941471 0 -0.22965829325971171 0.27228192151540398 0 -0.25363778559447842 0.27350692427200241 0 -0.2287918215254035 0.28722559715734841 0 -0.25363778559447842 0.27350692427200241 0 -0.2287918215254035 0.28722559715734841 0 -0.22965829325971171 0.27228192151540398 0 -0.2444451896747076 0.26404729237941471 0 -0.22965829325971171 0.27228192151540398 0 -0.2337849049445343 0.26150574820020728 0 -0.2287918215254035 0.28722559715734841 0 -0.22965829325971171 0.27228192151540398 0 -0.20567880092494481 0.2710569187588065 0 -0.21876605819550171 0.26070399828302399 0 -0.2337849049445343 0.26150574820020728 0 -0.2259041914856694 0.23902676701485259 0 -0.2337849049445343 0.26150574820020728 0 -0.2259041914856694 0.23902676701485259 0 -0.22965829325971171 0.27228192151540398 0 -0.21876605819550171 0.26070399828302399 0 -0.2337849049445343 0.26150574820020728 0 -0.20567880092494481 0.2710569187588065 0 -0.207166788805945 0.24539421405391901 0 -0.21876605819550171 0.26070399828302399 0 -0.20567880092494481 0.2710569187588065 0 -0.207166788805945 0.24539421405391901 0 -0.22965829325971171 0.27228192151540398 0 -0.21876605819550171 0.26070399828302399 0 -0.20567880092494481 0.2710569187588065 0 -0.22965829325971171 0.27228192151540398 0 -0.20567880092494481 0.2710569187588065 0 -0.20567880092494481 0.2710569187588065 0 -0.20423548904753211 0.27098318654614012 0 -0.19734423019548331 0.28700019963902879 0 -0.20567880092494481 0.2710569187588065 0 -0.1969203713000309 0.27664541708541129 0 -0.20567880092494481 0.2710569187588065 0 -0.20423548904753211 0.27098318654614012 0 -0.19628042656794009 0.25891871677109879 0 -0.20567880092494481 0.2710569187588065 0 -0.20423548904753211 0.27098318654614012 0 -0.1969203713000309 0.27664541708541129 0 -0.20423548904753211 0.27098318654614012 0 -0.1969203713000309 0.27664541708541129 0 -0.19427523885630271 0.26835085841611928 0 -0.20423548904753211 0.27098318654614012 0 -0.19427523885630271 0.26835085841611928 0 -0.19628042656794009 0.25891871677109879 0 -0.19427523885630271 0.26835085841611928 0 -0.18361590411376719 0.26220936795776728 0 -0.18675575857947871 0.27404490781965513 0 -0.1969203713000309 0.27664541708541129 0 -0.19427523885630271 0.26835085841611928 0 -0.18675575857947871 0.27404490781965513 0 -0.1896247381081913 0.28174231935058719 0 -0.1969203713000309 0.27664541708541129 0 -0.18675575857947871 0.27404490781965513 0 -0.20567880092494481 0.2710569187588065 0 -0.19628042656794009 0.25891871677109879 0 -0.207166788805945 0.24539421405391901 0 -0.19427523885630271 0.26835085841611928 0 -0.19628042656794009 0.25891871677109879 0 -0.18361590411376719 0.26220936795776728 0 -0.19628042656794009 0.25891871677109879 0 -0.19354405793523019 0.24535322686402061 0 -0.18323044690438359 0.24992529319367501 0 -0.19628042656794009 0.25891871677109879 0 -0.18361590411376719 0.26220936795776728 0 -0.18323044690438359 0.24992529319367501 0 -0.18361590411376719 0.26220936795776728 0 -0.17221168326327271 0.25819498994622198 0 -0.17070736460313751 0.27119982073985899 0 -0.18361590411376719 0.26220936795776728 0 -0.17221168326327271 0.25819498994622198 0 -0.18323044690438359 0.24992529319367501 0 -0.17221168326327271 0.25819498994622198 0 -0.1604121232400475 0.24882297611887791 0 -0.16714373723180939 0.24389921076693449 0 -0.17221168326327271 0.25819498994622198 0 -0.15733785840470951 0.26043670846148442 0 -0.17070736460313751 0.27119982073985899 0 -0.17221168326327271 0.25819498994622198 0 -0.15733785840470951 0.26043670846148442 0 -0.1604121232400475 0.24882297611887791 0 -0.17070736460313751 0.27119982073985899 0 -0.16381817432103801 0.28606608003159428 0 -0.15165669416691829 0.27475714607895191 0 -0.15733785840470951 0.26043670846148442 0 -0.17070736460313751 0.27119982073985899 0 -0.15165669416691829 0.27475714607895191 0 -0.17070736460313751 0.27119982073985899 0 -0.1800562830753118 0.28450557870871451 0 -0.16381817432103801 0.28606608003159428 0 -0.18361590411376719 0.26220936795776728 0 -0.17070736460313751 0.27119982073985899 0 -0.18675575857947871 0.27404490781965513 0 -0.17070736460313751 0.27119982073985899 0 -0.18675575857947871 0.27404490781965513 0 -0.1800562830753118 0.28450557870871451 0 -0.1896247381081913 0.28174231935058719 0 -0.18675575857947871 0.27404490781965513 0 -0.1800562830753118 0.28450557870871451 0 -0.18900670575295 0.29637100675225958 0 -0.1800562830753118 0.28450557870871451 0 -0.17276905974355281 0.29877747763716078 0 -0.1800562830753118 0.28450557870871451 0 -0.17276905974355281 0.29877747763716078 0 -0.16381817432103801 0.28606608003159428 0 -0.1896247381081913 0.28174231935058719 0 -0.18900670575295 0.29637100675225958 0 -0.1800562830753118 0.28450557870871451 0 -0.1637952159011177 0.31596552193540928 0 -0.18052202139302909 0.3106363917488133 0 -0.17276905974355281 0.29877747763716078 0 -0.18900670575295 0.29637100675225958 0 -0.18052202139302909 0.3106363917488133 0 -0.17276905974355281 0.29877747763716078 0 -0.1637952159011177 0.31596552193540928 0 -0.17276905974355281 0.29877747763716078 0 -0.15941595801787051 0.29912028664617452 0 -0.1637952159011177 0.31596552193540928 0 -0.15941595801787051 0.29912028664617452 0 -0.14665957854107939 0.3073778773056014 0 -0.15941595801787051 0.29912028664617452 0 -0.16381817432103801 0.28606608003159428 0 -0.14720347338207021 0.29013710411651589 0 -0.17276905974355281 0.29877747763716078 0 -0.15941595801787051 0.29912028664617452 0 -0.16381817432103801 0.28606608003159428 0 -0.16381817432103801 0.28606608003159428 0 -0.14720347338207021 0.29013710411651589 0 -0.15165669416691829 0.27475714607895191 0 -0.14720347338207021 0.29013710411651589 0 -0.14665957854107939 0.3073778773056014 0 -0.13338495156930799 0.29774094916589777 0 -0.15941595801787051 0.29912028664617452 0 -0.14720347338207021 0.29013710411651589 0 -0.14665957854107939 0.3073778773056014 0 -0.1278360377772465 0.31560376677006419 0 -0.13338495156930799 0.29774094916589777 0 -0.11504710197413701 0.29860534987934628 0 -0.1278360377772465 0.31560376677006419 0 -0.14665957854107939 0.3073778773056014 0 -0.13338495156930799 0.29774094916589777 0 -0.13338495156930799 0.29774094916589777 0 -0.12828548367620701 0.27576028547087622 0 -0.11504710197413701 0.29860534987934628 0 -0.14720347338207021 0.29013710411651589 0 -0.13338495156930799 0.29774094916589777 0 -0.12828548367620701 0.27576028547087622 0 -0.12828548367620701 0.27576028547087622 0 -0.14057597760833451 0.2595852381562147 0 -0.15165669416691829 0.27475714607895191 0 -0.14057597760833451 0.2595852381562147 0 -0.1230919246696725 0.25268263208805719 0 -0.13603747276117739 0.23906220223414301 0 -0.12828548367620701 0.27576028547087622 0 -0.14057597760833451 0.2595852381562147 0 -0.1230919246696725 0.25268263208805719 0 -0.15733785840470951 0.26043670846148442 0 -0.14057597760833451 0.2595852381562147 0 -0.14947536152884949 0.24666552624664281 0 -0.15733785840470951 0.26043670846148442 0 -0.14057597760833451 0.2595852381562147 0 -0.15165669416691829 0.27475714607895191 0 -0.15733785840470951 0.26043670846148442 0 -0.1604121232400475 0.24882297611887791 0 -0.14947536152884949 0.24666552624664281 0 -0.14720347338207021 0.29013710411651589 0 -0.12828548367620701 0.27576028547087622 0 -0.15165669416691829 0.27475714607895191 0 -0.1062614378512178 0.28103931874055049 0 -0.10494843545882129 0.26132747574465243 0 -0.086649351274337871 0.27419118569370637 0 -0.10494843545882129 0.26132747574465243 0 -0.088750902751745797 0.25373427230794993 0 -0.10606753491286119 0.24419388851310331 0 -0.10494843545882129 0.26132747574465243 0 -0.1230919246696725 0.25268263208805719 0 -0.10606753491286119 0.24419388851310331 0 -0.12828548367620701 0.27576028547087622 0 -0.10494843545882129 0.26132747574465243 0 -0.1230919246696725 0.25268263208805719 0 -0.12828548367620701 0.27576028547087622 0 -0.1062614378512178 0.28103931874055049 0 -0.10494843545882129 0.26132747574465243 0 -0.12828548367620701 0.27576028547087622 0 -0.1062614378512178 0.28103931874055049 0 -0.11504710197413701 0.29860534987934628 0 -0.1278360377772465 0.31560376677006419 0 -0.11504710197413701 0.29860534987934628 0 -0.1099536999557332 0.31527029530843292 0 -0.11504710197413701 0.29860534987934628 0 -0.085881137751900954 0.30738471452376481 0 -0.1099536999557332 0.31527029530843292 0 -0.1062614378512178 0.28103931874055049 0 -0.11504710197413701 0.29860534987934628 0 -0.085881137751900954 0.30738471452376481 0 -0.085881137751900954 0.30738471452376481 0 -0.069520120125754412 0.28594364528243571 0 -0.086649351274337871 0.27419118569370637 0 -0.1062614378512178 0.28103931874055049 0 -0.085881137751900954 0.30738471452376481 0 -0.086649351274337871 0.27419118569370637 0 -0.085881137751900954 0.30738471452376481 0 -0.066879086570641941 0.30737578382677561 0 -0.084560620974345441 0.31810078379593398 0 -0.085881137751900954 0.30738471452376481 0 -0.066879086570641941 0.30737578382677561 0 -0.069520120125754412 0.28594364528243571 0 -0.085881137751900954 0.30738471452376481 0 -0.069520120125754412 0.28594364528243571 0 -0.069520120125754412 0.28594364528243571 0 -0.086649351274337871 0.27419118569370637 0 -0.071501712983172483 0.26190280120660397 0 -0.069520120125754412 0.28594364528243571 0 -0.071501712983172483 0.26190280120660397 0 -0.053159102499607903 0.26450257604110661 0 -0.086649351274337871 0.27419118569370637 0 -0.088750902751745797 0.25373427230794993 0 -0.071501712983172483 0.26190280120660397 0 -0.10494843545882129 0.26132747574465243 0 -0.086649351274337871 0.27419118569370637 0 -0.088750902751745797 0.25373427230794993 0 -0.071501712983172483 0.26190280120660397 0 -0.072402403370984733 0.24307516658186251 0 -0.058133126017242333 0.24942309207664951 0 -0.088750902751745797 0.25373427230794993 0 -0.071501712983172483 0.26190280120660397 0 -0.072402403370984733 0.24307516658186251 0 -0.053159102499607903 0.26450257604110661 0 -0.036798084873461312 0.24306150679977731 0 -0.058133126017242333 0.24942309207664951 0 -0.071501712983172483 0.26190280120660397 0 -0.053159102499607903 0.26450257604110661 0 -0.058133126017242333 0.24942309207664951 0 -0.069520120125754412 0.28594364528243571 0 -0.053159102499607903 0.26450257604110661 0 -0.053159102499607903 0.26450257604110661 0 -0.03679645826924044 0.27679908373578882 0 -0.022882560889335081 0.26280583991096162 0 -0.053159102499607903 0.26450257604110661 0 -0.03679645826924044 0.27679908373578882 0 -0.046415103691227408 0.29397526034317129 0 -0.053159102499607903 0.26450257604110661 0 -0.036798084873461312 0.24306150679977731 0 -0.053159102499607903 0.26450257604110661 0 -0.022882560889335081 0.26280583991096162 0 -0.036798084873461312 0.24306150679977731 0 -0.03679645826924044 0.27679908373578882 0 -0.022882560889335081 0.26280583991096162 0 -0.02223542200319013 0.28619439559009519 0 -0.022882560889335081 0.26280583991096162 0 -0.001578176680146459 0.27507181497635702 0 -0.02223542200319013 0.28619439559009519 0 -0.022882560889335081 0.26280583991096162 0 -0.010663072791586219 0.24029389619086081 0 0.00052355941179598429 0.25579479798048171 0 -0.022882560889335081 0.26280583991096162 0 -0.001578176680146459 0.27507181497635702 0 0.00052355941179598429 0.25579479798048171 0 -0.0056734005591082184 0.29844779389953791 0 -0.0074649973427216437 0.32553759514413338 0 0.0099458108876561181 0.30752992596193612 0 -0.0056734005591082184 0.29844779389953791 0 -0.021982776728677069 0.30782204483811959 0 -0.0074649973427216437 0.32553759514413338 0 -0.001578176680146459 0.27507181497635702 0 -0.0056734005591082184 0.29844779389953791 0 -0.02223542200319013 0.28619439559009519 0 -0.02223542200319013 0.28619439559009519 0 -0.021982776728677069 0.30782204483811959 0 -0.046415103691227408 0.29397526034317129 0 -0.0056734005591082184 0.29844779389953791 0 -0.02223542200319013 0.28619439559009519 0 -0.021982776728677069 0.30782204483811959 0 -0.046415103691227408 0.29397526034317129 0 -0.052219224461103511 0.30984454005180639 0 -0.039958988653569567 0.31642450729501942 0 -0.021982776728677069 0.30782204483811959 0 -0.046415103691227408 0.29397526034317129 0 -0.039958988653569567 0.31642450729501942 0 -0.03679645826924044 0.27679908373578882 0 -0.02223542200319013 0.28619439559009519 0 -0.046415103691227408 0.29397526034317129 0 -0.066879086570641941 0.30737578382677561 0 -0.069520120125754412 0.28594364528243571 0 -0.046415103691227408 0.29397526034317129 0 -0.069520120125754412 0.28594364528243571 0 -0.053159102499607903 0.26450257604110661 0 -0.046415103691227408 0.29397526034317129 0 -0.066879086570641941 0.30737578382677561 0 -0.046415103691227408 0.29397526034317129 0 -0.052219224461103511 0.30984454005180639 0 -0.055623718928975108 0.32160260874225921 0 -0.061845397890605149 0.33750194797183708 0 -0.069701264825157844 0.32271656777136809 0 -0.052219224461103511 0.30984454005180639 0 -0.055623718928975108 0.32160260874225921 0 -0.039958988653569567 0.31642450729501942 0 -0.066879086570641941 0.30737578382677561 0 -0.052219224461103511 0.30984454005180639 0 -0.055623718928975108 0.32160260874225921 0 -0.061845397890605149 0.33750194797183708 0 -0.043251526853985672 0.3379866768910002 0 -0.05608517096511198 0.352250194069472 0 -0.055623718928975108 0.32160260874225921 0 -0.061845397890605149 0.33750194797183708 0 -0.043251526853985672 0.3379866768910002 0 -0.043251526853985672 0.3379866768910002 0 -0.027506819030410669 0.32626321769892058 0 -0.024875805573099381 0.34354526432633081 0 -0.043251526853985672 0.3379866768910002 0 -0.039958988653569567 0.31642450729501942 0 -0.027506819030410669 0.32626321769892058 0 -0.055623718928975108 0.32160260874225921 0 -0.043251526853985672 0.3379866768910002 0 -0.039958988653569567 0.31642450729501942 0 -0.021982776728677069 0.30782204483811959 0 -0.027506819030410669 0.32626321769892058 0 -0.0074649973427216437 0.32553759514413338 0 -0.021982776728677069 0.30782204483811959 0 -0.039958988653569567 0.31642450729501942 0 -0.027506819030410669 0.32626321769892058 0 -0.024875805573099381 0.34354526432633081 0 -0.0074649973427216437 0.32553759514413338 0 -0.01924571403845805 0.34496305818094042 0 -0.027506819030410669 0.32626321769892058 0 -0.024875805573099381 0.34354526432633081 0 -0.0074649973427216437 0.32553759514413338 0 -0.024875805573099381 0.34354526432633081 0 -0.0074649973427216437 0.32553759514413338 0 -0.0027275111302669762 0.33917893461267751 0 -0.0074649973427216437 0.32553759514413338 0 -0.01924571403845805 0.34496305818094042 0 -0.01062872298156819 0.37022538710606068 0 -0.0031907760215338348 0.38094285235515429 0 0.013550997673091951 0.36700894749171747 0 -0.01062872298156819 0.37022538710606068 0 -0.018270474300810299 0.35525003435254199 0 -0.01604549236614955 0.37871948013141421 0 -0.008160548181576105 0.35967708751988442 0 -0.01062872298156819 0.37022538710606068 0 -0.018270474300810299 0.35525003435254199 0 -0.008160548181576105 0.35967708751988442 0 -0.01062872298156819 0.37022538710606068 0 0.0017598356757351249 0.35970487886607511 0 -0.008160548181576105 0.35967708751988442 0 -0.002301468281773961 0.35105905958958589 0 -0.018270474300810299 0.35525003435254199 0 -0.002301468281773961 0.35105905958958589 0 -0.018270474300810299 0.35525003435254199 0 -0.01924571403845805 0.34496305818094042 0 -0.0027275111302669762 0.33917893461267751 0 -0.002301468281773961 0.35105905958958589 0 -0.01924571403845805 0.34496305818094042 0 -0.002301468281773961 0.35105905958958589 0 -0.018270474300810299 0.35525003435254199 0 -0.008160548181576105 0.35967708751988442 0 -0.002301468281773961 0.35105905958958589 0 0.0017598356757351249 0.35970487886607511 0 -0.018270474300810299 0.35525003435254199 0 -0.042286613803477272 0.36155293350852802 0 -0.024875805573099381 0.34354526432633081 0 -0.018270474300810299 0.35525003435254199 0 -0.042286613803477272 0.36155293350852802 0 -0.024875805573099381 0.34354526432633081 0 -0.018270474300810299 0.35525003435254199 0 -0.01924571403845805 0.34496305818094042 0 -0.018270474300810299 0.35525003435254199 0 -0.01924571403845805 0.34496305818094042 0 -0.018270474300810299 0.35525003435254199 0 -0.0277620766285024 0.36799006074327018 0 -0.01604549236614955 0.37871948013141421 0 -0.018270474300810299 0.35525003435254199 0 -0.01604549236614955 0.37871948013141421 0 -0.018270474300810299 0.35525003435254199 0 -0.0277620766285024 0.36799006074327018 0 -0.042286613803477272 0.36155293350852802 0 -0.042286613803477272 0.36155293350852802 0 -0.057005834630637103 0.37677674481975382 0 -0.038834021818545242 0.38141551184696021 0 -0.0277620766285024 0.36799006074327018 0 -0.042286613803477272 0.36155293350852802 0 -0.038834021818545242 0.38141551184696021 0 -0.024875805573099381 0.34354526432633081 0 -0.042286613803477272 0.36155293350852802 0 -0.043251526853985672 0.3379866768910002 0 -0.024875805573099381 0.34354526432633081 0 -0.042286613803477272 0.36155293350852802 0 -0.043251526853985672 0.3379866768910002 0 -0.042286613803477272 0.36155293350852802 0 -0.05608517096511198 0.352250194069472 0 -0.042286613803477272 0.36155293350852802 0 -0.05608517096511198 0.352250194069472 0 -0.063875325828084584 0.3672187681354297 0 -0.042286613803477272 0.36155293350852802 0 -0.063875325828084584 0.3672187681354297 0 -0.042286613803477272 0.36155293350852802 0 -0.063875325828084584 0.3672187681354297 0 -0.057005834630637103 0.37677674481975382 0 -0.042286613803477272 0.36155293350852802 0 -0.057005834630637103 0.37677674481975382 0 -0.063875325828084584 0.3672187681354297 0 -0.070249048424013347 0.37585332165042168 0 -0.057005834630637103 0.37677674481975382 0 -0.063875325828084584 0.3672187681354297 0 -0.078875066177914122 0.36511765988308542 0 -0.069878272846954165 0.35224087942530841 0 -0.063875325828084584 0.3672187681354297 0 -0.078875066177914122 0.36511765988308542 0 -0.070249048424013347 0.37585332165042168 0 -0.078875066177914122 0.36511765988308542 0 -0.0830487327496406 0.37814083421040579 0 -0.070249048424013347 0.37585332165042168 0 -0.078875066177914122 0.36511765988308542 0 -0.085711382744759812 0.34979998096900722 0 -0.10048763447403231 0.3674521749079398 0 -0.078875066177914122 0.36511765988308542 0 -0.10048763447403231 0.3674521749079398 0 -0.0830487327496406 0.37814083421040579 0 -0.078875066177914122 0.36511765988308542 0 -0.085711382744759812 0.34979998096900722 0 -0.069878272846954165 0.35224087942530841 0 -0.085711382744759812 0.34979998096900722 0 -0.089983008597934622 0.33572965188636877 0 -0.10042789303650621 0.34671714457043451 0 -0.085711382744759812 0.34979998096900722 0 -0.069878272846954165 0.35224087942530841 0 -0.076972990856014098 0.33520456633137458 0 -0.05608517096511198 0.352250194069472 0 -0.063875325828084584 0.3672187681354297 0 -0.069878272846954165 0.35224087942530841 0 -0.061845397890605149 0.33750194797183708 0 -0.05608517096511198 0.352250194069472 0 -0.069878272846954165 0.35224087942530841 0 -0.061845397890605149 0.33750194797183708 0 -0.069878272846954165 0.35224087942530841 0 -0.076972990856014098 0.33520456633137458 0 -0.061845397890605149 0.33750194797183708 0 -0.076972990856014098 0.33520456633137458 0 -0.069701264825157844 0.32271656777136809 0 -0.066879086570641941 0.30737578382677561 0 -0.069701264825157844 0.32271656777136809 0 -0.084560620974345441 0.31810078379593398 0 -0.076972990856014098 0.33520456633137458 0 -0.069701264825157844 0.32271656777136809 0 -0.084560620974345441 0.31810078379593398 0 -0.066879086570641941 0.30737578382677561 0 -0.084560620974345441 0.31810078379593398 0 -0.066879086570641941 0.30737578382677561 0 -0.055623718928975108 0.32160260874225921 0 -0.069701264825157844 0.32271656777136809 0 -0.084560620974345441 0.31810078379593398 0 -0.089983008597934622 0.33572965188636877 0 -0.1022421553780483 0.3288257837650933 0 -0.084560620974345441 0.31810078379593398 0 -0.1022421553780483 0.3288257837650933 0 -0.085881137751900954 0.30738471452376481 0 -0.084560620974345441 0.31810078379593398 0 -0.1022421553780483 0.3288257837650933 0 -0.076972990856014098 0.33520456633137458 0 -0.084560620974345441 0.31810078379593398 0 -0.089983008597934622 0.33572965188636877 0 -0.085711382744759812 0.34979998096900722 0 -0.076972990856014098 0.33520456633137458 0 -0.089983008597934622 0.33572965188636877 0 -0.1022421553780483 0.3288257837650933 0 -0.1199591755887908 0.35204389071716408 0 -0.10042789303650621 0.34671714457043451 0 -0.089983008597934622 0.33572965188636877 0 -0.1022421553780483 0.3288257837650933 0 -0.10042789303650621 0.34671714457043451 0 -0.085881137751900954 0.30738471452376481 0 -0.1022421553780483 0.3288257837650933 0 -0.1099536999557332 0.31527029530843292 0 -0.085881137751900954 0.30738471452376481 0 -0.1022421553780483 0.3288257837650933 0 -0.1022421553780483 0.3288257837650933 0 -0.1099536999557332 0.31527029530843292 0 -0.118762066897334 0.32593186160389498 0 -0.1278360377772465 0.31560376677006419 0 -0.1099536999557332 0.31527029530843292 0 -0.118762066897334 0.32593186160389498 0 -0.1022421553780483 0.3288257837650933 0 -0.1226434368259746 0.34120048710837031 0 -0.1022421553780483 0.3288257837650933 0 -0.118762066897334 0.32593186160389498 0 -0.1226434368259746 0.34120048710837031 0 -0.1022421553780483 0.3288257837650933 0 -0.1226434368259746 0.34120048710837031 0 -0.1199591755887908 0.35204389071716408 0 -0.1022421553780483 0.3288257837650933 0 -0.1199591755887908 0.35204389071716408 0 -0.13245514128645941 0.32992620577102161 0 -0.118762066897334 0.32593186160389498 0 -0.1226434368259746 0.34120048710837031 0 -0.13767619579953419 0.37526199766923429 0 -0.1199591755887908 0.35204389071716408 0 -0.1172731310204301 0.37997009596775111 0 -0.1199591755887908 0.35204389071716408 0 -0.10048763447403231 0.3674521749079398 0 -0.1172731310204301 0.37997009596775111 0 -0.085711382744759812 0.34979998096900722 0 -0.10048763447403231 0.3674521749079398 0 -0.10042789303650621 0.34671714457043451 0 -0.1199591755887908 0.35204389071716408 0 -0.10048763447403231 0.3674521749079398 0 -0.10042789303650621 0.34671714457043451 0 -0.10010016723977171 0.39195093721354879 0 -0.099712700005512495 0.416449699519158 0 -0.1275529580078951 0.40746490207023051 0 -0.10010016723977171 0.39195093721354879 0 -0.099712700005512495 0.416449699519158 0 -0.10010016723977171 0.39195093721354879 0 -0.099712700005512495 0.416449699519158 0 -0.087353620443009955 0.40543611054325762 0 -0.10048763447403231 0.3674521749079398 0 -0.10010016723977171 0.39195093721354879 0 -0.10048763447403231 0.3674521749079398 0 -0.10010016723977171 0.39195093721354879 0 -0.0830487327496406 0.37814083421040579 0 -0.10048763447403231 0.3674521749079398 0 -0.10010016723977171 0.39195093721354879 0 -0.1172731310204301 0.37997009596775111 0 -0.1275529580078951 0.40746490207023051 0 -0.10010016723977171 0.39195093721354879 0 -0.1172731310204301 0.37997009596775111 0 -0.1275529580078951 0.40746490207023051 0 -0.099712700005512495 0.416449699519158 0 -0.1275529580078951 0.40746490207023051 0 -0.11576362909944179 0.42707853232459431 0 -0.099712700005512495 0.416449699519158 0 -0.11576362909944179 0.42707853232459431 0 -0.099421083367553148 0.43488802427538892 0 -0.1201918169322794 0.44443799824850971 0 -0.13212812499831089 0.43138243712523361 0 -0.11576362909944179 0.42707853232459431 0 -0.1201918169322794 0.44443799824850971 0 -0.11576362909944179 0.42707853232459431 0 -0.099421083367553148 0.43488802427538892 0 -0.099712700005512495 0.416449699519158 0 -0.099421083367553148 0.43488802427538892 0 -0.096398093368643162 0.41751941192097991 0 -0.08957318630845558 0.42775585234421493 0 -0.099421083367553148 0.43488802427538892 0 -0.099712700005512495 0.416449699519158 0 -0.096398093368643162 0.41751941192097991 0 -0.099421083367553148 0.43488802427538892 0 -0.099712700005512495 0.416449699519158 0 -0.099712700005512495 0.416449699519158 0 -0.096398093368643162 0.41751941192097991 0 -0.099712700005512495 0.416449699519158 0 -0.096398093368643162 0.41751941192097991 0 -0.087353620443009955 0.40543611054325762 0 -0.096398093368643162 0.41751941192097991 0 -0.086444276284957822 0.40722436744220403 0 -0.078227131484671003 0.4233836683501343 0 -0.096398093368643162 0.41751941192097991 0 -0.086444276284957822 0.40722436744220403 0 -0.087353620443009955 0.40543611054325762 0 -0.096398093368643162 0.41751941192097991 0 -0.086444276284957822 0.40722436744220403 0 -0.096398093368643162 0.41751941192097991 0 -0.078227131484671003 0.4233836683501343 0 -0.086444276284957822 0.40722436744220403 0 -0.078227131484671003 0.4233836683501343 0 -0.086444276284957822 0.40722436744220403 0 -0.087353620443009955 0.40543611054325762 0 -0.096398093368643162 0.41751941192097991 0 -0.08957318630845558 0.42775585234421493 0 -0.078227131484671003 0.4233836683501343 0 -0.099421083367553148 0.43488802427538892 0 -0.08957318630845558 0.42775585234421493 0 -0.090475946192242251 0.44396801833255889 0 -0.08957318630845558 0.42775585234421493 0 -0.078227131484671003 0.4233836683501343 0 -0.077769653089370547 0.44497394414856017 0 -0.078227131484671003 0.4233836683501343 0 -0.064504317643521616 0.45037005882421222 0 -0.078227131484671003 0.4233836683501343 0 -0.063756609306514667 0.42805369370477753 0 -0.064504317643521616 0.45037005882421222 0 -0.078227131484671003 0.4233836683501343 0 -0.063756609306514667 0.42805369370477753 0 -0.078227131484671003 0.4233836683501343 0 -0.063756609306514667 0.42805369370477753 0 -0.063749441227582887 0.40879497138454568 0 -0.086444276284957822 0.40722436744220403 0 -0.078227131484671003 0.4233836683501343 0 -0.063749441227582887 0.40879497138454568 0 -0.086444276284957822 0.40722436744220403 0 -0.063749441227582887 0.40879497138454568 0 -0.071725055457797005 0.39200055613097928 0 -0.063749441227582887 0.40879497138454568 0 -0.071725055457797005 0.39200055613097928 0 -0.054987682020503241 0.3924848305009534 0 -0.071725055457797005 0.39200055613097928 0 -0.085556893972554823 0.39188210952454777 0 -0.087353620443009955 0.40543611054325762 0 -0.086444276284957822 0.40722436744220403 0 -0.071725055457797005 0.39200055613097928 0 -0.086444276284957822 0.40722436744220403 0 -0.071725055457797005 0.39200055613097928 0 -0.087353620443009955 0.40543611054325762 0 -0.10010016723977171 0.39195093721354879 0 -0.085556893972554823 0.39188210952454777 0 -0.087353620443009955 0.40543611054325762 0 -0.10010016723977171 0.39195093721354879 0 -0.085556893972554823 0.39188210952454777 0 -0.0830487327496406 0.37814083421040579 0 -0.071725055457797005 0.39200055613097928 0 -0.085556893972554823 0.39188210952454777 0 -0.0830487327496406 0.37814083421040579 0 -0.071725055457797005 0.39200055613097928 0 -0.0830487327496406 0.37814083421040579 0 -0.070249048424013347 0.37585332165042168 0 -0.071725055457797005 0.39200055613097928 0 -0.070249048424013347 0.37585332165042168 0 -0.057005834630637103 0.37677674481975382 0 -0.071725055457797005 0.39200055613097928 0 -0.057005834630637103 0.37677674481975382 0 -0.071725055457797005 0.39200055613097928 0 -0.057005834630637103 0.37677674481975382 0 -0.054987682020503241 0.3924848305009534 0 -0.057005834630637103 0.37677674481975382 0 -0.054987682020503241 0.3924848305009534 0 -0.038834021818545242 0.38141551184696021 0 -0.063749441227582887 0.40879497138454568 0 -0.054987682020503241 0.3924848305009534 0 -0.04362405696795392 0.40343636832252788 0 -0.04362405696795392 0.40343636832252788 0 -0.025531428093057099 0.39147860944481039 0 -0.026094894258113319 0.40880749566774061 0 -0.04362405696795392 0.40343636832252788 0 -0.038834021818545242 0.38141551184696021 0 -0.025531428093057099 0.39147860944481039 0 -0.054987682020503241 0.3924848305009534 0 -0.04362405696795392 0.40343636832252788 0 -0.038834021818545242 0.38141551184696021 0 -0.0277620766285024 0.36799006074327018 0 -0.027043254726563569 0.3799009155416137 0 -0.01604549236614955 0.37871948013141421 0 -0.0277620766285024 0.36799006074327018 0 -0.038834021818545242 0.38141551184696021 0 -0.027043254726563569 0.3799009155416137 0 -0.027043254726563569 0.3799009155416137 0 -0.01604549236614955 0.37871948013141421 0 -0.025531428093057099 0.39147860944481039 0 -0.038834021818545242 0.38141551184696021 0 -0.027043254726563569 0.3799009155416137 0 -0.025531428093057099 0.39147860944481039 0 -0.025531428093057099 0.39147860944481039 0 -0.01382051043148803 0.4021889259102861 0 -0.026094894258113319 0.40880749566774061 0 -0.01604549236614955 0.37871948013141421 0 -0.025531428093057099 0.39147860944481039 0 -0.01382051043148803 0.4021889259102861 0 -0.01382051043148803 0.4021889259102861 0 -0.0033560911855174251 0.4100707043998737 0 0.003049774445861032 0.39239897064232809 0 -0.01382051043148803 0.4021889259102861 0 -0.0031907760215338348 0.38094285235515429 0 0.003049774445861032 0.39239897064232809 0 -0.01604549236614955 0.37871948013141421 0 -0.01382051043148803 0.4021889259102861 0 -0.01604549236614955 0.37871948013141421 0 -0.01382051043148803 0.4021889259102861 0 -0.0031907760215338348 0.38094285235515429 0 -0.01062872298156819 0.37022538710606068 0 -0.01604549236614955 0.37871948013141421 0 -0.0031907760215338348 0.38094285235515429 0 -0.01159552849682652 0.42565837168915799 0 0.0089418997403838164 0.42003654935772261 0 0.00070246242907472112 0.4356242166470069 0 -0.01159552849682652 0.42565837168915799 0 -0.0093705465621650112 0.44912781746802999 0 0.00070246242907472112 0.4356242166470069 0 -0.01159552849682652 0.42565837168915799 0 -0.0093705465621650112 0.44912781746802999 0 -0.01382051043148803 0.4021889259102861 0 -0.01159552849682652 0.42565837168915799 0 -0.01382051043148803 0.4021889259102861 0 -0.01159552849682652 0.42565837168915799 0 -0.0033560911855174251 0.4100707043998737 0 -0.01159552849682652 0.42565837168915799 0 -0.0033560911855174251 0.4100707043998737 0 0.0089418997403838164 0.42003654935772261 0 -0.01382051043148803 0.4021889259102861 0 -0.01159552849682652 0.42565837168915799 0 -0.026094894258113319 0.40880749566774061 0 -0.01159552849682652 0.42565837168915799 0 -0.026094894258113319 0.40880749566774061 0 -0.035902947301240988 0.42127520297192028 0 -0.01159552849682652 0.42565837168915799 0 -0.035902947301240988 0.42127520297192028 0 -0.029970511433193611 0.44248839874102891 0 -0.035902947301240988 0.42127520297192028 0 -0.049286087128358518 0.43272371905942142 0 -0.029970511433193611 0.44248839874102891 0 -0.035902947301240988 0.42127520297192028 0 -0.051263828386330187 0.4188567910886386 0 -0.049286087128358518 0.43272371905942142 0 -0.04362405696795392 0.40343636832252788 0 -0.026094894258113319 0.40880749566774061 0 -0.035902947301240988 0.42127520297192028 0 -0.04362405696795392 0.40343636832252788 0 -0.035902947301240988 0.42127520297192028 0 -0.051263828386330187 0.4188567910886386 0 -0.063756609306514667 0.42805369370477753 0 -0.063749441227582887 0.40879497138454568 0 -0.051263828386330187 0.4188567910886386 0 -0.063749441227582887 0.40879497138454568 0 -0.04362405696795392 0.40343636832252788 0 -0.051263828386330187 0.4188567910886386 0 -0.063756609306514667 0.42805369370477753 0 -0.049286087128358518 0.43272371905942142 0 -0.064504317643521616 0.45037005882421222 0 -0.063756609306514667 0.42805369370477753 0 -0.051263828386330187 0.4188567910886386 0 -0.049286087128358518 0.43272371905942142 0 -0.063756609306514667 0.42805369370477753 0 -0.049286087128358518 0.43272371905942142 0 -0.049286087128358518 0.43272371905942142 0 -0.047076478351341537 0.4460178375737987 0 -0.064504317643521616 0.45037005882421222 0 -0.047076478351341537 0.4460178375737987 0 -0.044544997200293937 0.45848917367053299 0 -0.064504317643521616 0.45037005882421222 0 -0.051885689665895421 0.47518502941210389 0 -0.064504317643521616 0.45037005882421222 0 -0.044544997200293937 0.45848917367053299 0 -0.064504317643521616 0.45037005882421222 0 -0.044544997200293937 0.45848917367053299 0 -0.051885689665895421 0.47518502941210389 0 -0.064504317643521616 0.45037005882421222 0 -0.044544997200293937 0.45848917367053299 0 -0.029970511433193611 0.44248839874102891 0 -0.024585676757065411 0.46660828851685199 0 -0.044544997200293937 0.45848917367053299 0 -0.024585676757065411 0.46660828851685199 0 -0.044544997200293937 0.45848917367053299 0 -0.024585676757065411 0.46660828851685199 0 -0.037267747307899619 0.47716478213706442 0 -0.049286087128358518 0.43272371905942142 0 -0.047076478351341537 0.4460178375737987 0 -0.029970511433193611 0.44248839874102891 0 -0.047076478351341537 0.4460178375737987 0 -0.044544997200293937 0.45848917367053299 0 -0.029970511433193611 0.44248839874102891 0 -0.01159552849682652 0.42565837168915799 0 -0.029970511433193611 0.44248839874102891 0 -0.0093705465621650112 0.44912781746802999 0 -0.029970511433193611 0.44248839874102891 0 -0.024585676757065411 0.46660828851685199 0 -0.0093705465621650112 0.44912781746802999 0 -0.0093705465621650112 0.44912781746802999 0 -0.0046263563138369129 0.47472740336317082 0 0.0070915896478249809 0.46407540904328187 0 -0.024585676757065411 0.46660828851685199 0 -0.0093705465621650112 0.44912781746802999 0 -0.0046263563138369129 0.47472740336317082 0 -0.01350573409862321 0.5 0 0.00047754122158997348 0.49529221912806559 0 0.01225559349102562 0.5 0 -0.01009796097326706 0.48700114416249618 0 -0.01350573409862321 0.5 0 0.00047754122158997348 0.49529221912806559 0 -0.01009796097326706 0.48700114416249618 0 -0.0015562876768971451 0.48331675208623398 0 0.00047754122158997348 0.49529221912806559 0 -0.024585676757065411 0.46660828851685199 0 -0.0046263563138369129 0.47472740336317082 0 -0.024585676757065411 0.46660828851685199 0 -0.01009796097326706 0.48700114416249618 0 -0.0046263563138369129 0.47472740336317082 0 -0.01009796097326706 0.48700114416249618 0 -0.0015562876768971451 0.48331675208623398 0 -0.0046263563138369129 0.47472740336317082 0 -0.024585676757065411 0.46660828851685199 0 -0.026055311227972531 0.48554141908583681 0 -0.037267747307899619 0.47716478213706442 0 -0.024585676757065411 0.46660828851685199 0 -0.01009796097326706 0.48700114416249618 0 -0.026055311227972531 0.48554141908583681 0 -0.01350573409862321 0.5 0 -0.026055311227972531 0.48554141908583681 0 -0.039267061688272098 0.49999999999999678 0 -0.01009796097326706 0.48700114416249618 0 -0.01350573409862321 0.5 0 -0.026055311227972531 0.48554141908583681 0 -0.026055311227972531 0.48554141908583681 0 -0.039267061688272098 0.49999999999999678 0 -0.037267747307899619 0.47716478213706442 0 -0.039267061688272098 0.49999999999999678 0 -0.051885689665895421 0.47518502941210389 0 -0.044544997200293937 0.45848917367053299 0 -0.037267747307899619 0.47716478213706442 0 -0.051885689665895421 0.47518502941210389 0 -0.039267061688272098 0.49999999999999678 0 -0.037267747307899619 0.47716478213706442 0 -0.051885689665895421 0.47518502941210389 0 -0.039267061688272098 0.49999999999999678 0 -0.051885689665895421 0.47518502941210389 0 -0.068534624895757124 0.5 0 -0.068534624895757124 0.5 0 -0.077220729602397439 0.47511960580051033 0 -0.097802188103242149 0.5 0 -0.077220729602397439 0.47511960580051033 0 -0.097802188103242149 0.5 0 -0.098291184186041172 0.47143493316397689 0 -0.051885689665895421 0.47518502941210389 0 -0.068534624895757124 0.5 0 -0.077220729602397439 0.47511960580051033 0 -0.077220729602397439 0.47511960580051033 0 -0.064504317643521616 0.45037005882421222 0 -0.085109250217748331 0.45693127400045769 0 -0.051885689665895421 0.47518502941210389 0 -0.077220729602397439 0.47511960580051033 0 -0.064504317643521616 0.45037005882421222 0 -0.064504317643521616 0.45037005882421222 0 -0.077769653089370547 0.44497394414856017 0 -0.085109250217748331 0.45693127400045769 0 -0.078227131484671003 0.4233836683501343 0 -0.064504317643521616 0.45037005882421222 0 -0.077769653089370547 0.44497394414856017 0 -0.064504317643521616 0.45037005882421222 0 -0.077769653089370547 0.44497394414856017 0 -0.08957318630845558 0.42775585234421493 0 -0.077769653089370547 0.44497394414856017 0 -0.090475946192242251 0.44396801833255889 0 -0.077769653089370547 0.44497394414856017 0 -0.090475946192242251 0.44396801833255889 0 -0.085109250217748331 0.45693127400045769 0 -0.090475946192242251 0.44396801833255889 0 -0.085109250217748331 0.45693127400045769 0 -0.09912946672959512 0.45332634903161972 0 -0.077220729602397439 0.47511960580051033 0 -0.085109250217748331 0.45693127400045769 0 -0.098291184186041172 0.47143493316397689 0 -0.09912946672959512 0.45332634903161972 0 -0.1166238092426813 0.46215407445810708 0 -0.098291184186041172 0.47143493316397689 0 -0.085109250217748331 0.45693127400045769 0 -0.09912946672959512 0.45332634903161972 0 -0.098291184186041172 0.47143493316397689 0 -0.099421083367553148 0.43488802427538892 0 -0.09912946672959512 0.45332634903161972 0 -0.1201918169322794 0.44443799824850971 0 -0.099421083367553148 0.43488802427538892 0 -0.090475946192242251 0.44396801833255889 0 -0.09912946672959512 0.45332634903161972 0 -0.099421083367553148 0.43488802427538892 0 -0.09912946672959512 0.45332634903161972 0 -0.09912946672959512 0.45332634903161972 0 -0.1201918169322794 0.44443799824850971 0 -0.1166238092426813 0.46215407445810708 0 -0.13427192322805959 0.47639302624934232 0 -0.1166238092426813 0.46215407445810708 0 -0.1138616612205828 0.48107829569316701 0 -0.1166238092426813 0.46215407445810708 0 -0.1138616612205828 0.48107829569316701 0 -0.098291184186041172 0.47143493316397689 0 -0.12706975131072731 0.500000000000002 0 -0.1138616612205828 0.48107829569316701 0 -0.097802188103242149 0.5 0 -0.1138616612205828 0.48107829569316701 0 -0.097802188103242149 0.5 0 -0.098291184186041172 0.47143493316397689 0 -0.17283812945989069 0.074649228893553354 0 -0.14064160935044259 0.075973430479098131 0 -0.15691265875611959 0.05681361801433419 0 -0.17283812945989069 0.074649228893553354 0 -0.16750824177749499 0.094329592018755404 0 -0.14064160935044259 0.075973430479098131 0 -0.17283812945989069 0.074649228893553354 0 -0.15691265875611959 0.05681361801433419 0 -0.1795503023827684 0.057266236033449318 0 -0.17283812945989069 0.074649228893553354 0 -0.1795503023827684 0.057266236033449318 0 -0.19007497771773621 0.072883278701425663 0 -0.17283812945989069 0.074649228893553354 0 -0.19291657563570491 0.091073476316207172 0 -0.19007497771773621 0.072883278701425663 0 -0.17283812945989069 0.074649228893553354 0 -0.16750824177749499 0.094329592018755404 0 -0.19291657563570491 0.091073476316207172 0 -0.1859777253151946 0.1070780892906999 0 -0.16750824177749499 0.094329592018755404 0 -0.19291657563570491 0.091073476316207172 0 -0.1859777253151946 0.1070780892906999 0 -0.17161704086758031 0.1194569527958555 0 -0.16750824177749499 0.094329592018755404 0 -0.1859777253151946 0.1070780892906999 0 -0.17161704086758031 0.1194569527958555 0 -0.19651578415892501 0.12390332723603351 0 -0.17161704086758031 0.1194569527958555 0 -0.1479646960116362 0.1001411507033555 0 -0.1552877826728298 0.12430887092761279 0 -0.17161704086758031 0.1194569527958555 0 -0.16750824177749499 0.094329592018755404 0 -0.1479646960116362 0.1001411507033555 0 -0.1479646960116362 0.1001411507033555 0 -0.1552877826728298 0.12430887092761279 0 -0.1297016798790894 0.1066375800531613 0 -0.1479646960116362 0.1001411507033555 0 -0.1552877826728298 0.12430887092761279 0 -0.1552877826728298 0.12430887092761279 0 -0.1297016798790894 0.1066375800531613 0 -0.13121897980857941 0.12587151947184211 0 -0.1479646960116362 0.1001411507033555 0 -0.1297016798790894 0.1066375800531613 0 -0.14064160935044259 0.075973430479098131 0 -0.1297016798790894 0.1066375800531613 0 -0.14064160935044259 0.075973430479098131 0 -0.1146061005291409 0.094477611441191531 0 -0.16750824177749499 0.094329592018755404 0 -0.1479646960116362 0.1001411507033555 0 -0.14064160935044259 0.075973430479098131 0 -0.1479646960116362 0.1001411507033555 0 -0.14064160935044259 0.075973430479098131 0 -0.14064160935044259 0.075973430479098131 0 -0.13331852268924901 0.051805710254840778 0 -0.11901684822623899 0.069332624134384499 0 -0.14064160935044259 0.075973430479098131 0 -0.13331852268924901 0.051805710254840778 0 -0.13331852268924901 0.051805710254840778 0 -0.12875972825011101 0.033202911982989122 0 -0.1477616223555055 0.038585030956722798 0 -0.13331852268924901 0.051805710254840778 0 -0.12875972825011101 0.033202911982989122 0 -0.1144352779592047 0.050024446948300168 0 -0.14064160935044259 0.075973430479098131 0 -0.13331852268924901 0.051805710254840778 0 -0.15691265875611959 0.05681361801433419 0 -0.13331852268924901 0.051805710254840778 0 -0.1477616223555055 0.038585030956722798 0 -0.15691265875611959 0.05681361801433419 0 -0.12749226590576249 0.01550433414524306 0 -0.14066513223612051 0.020893853292430851 0 -0.14089948435513211 0.0045028521199517741 0 -0.1222840736381321 -0.0043715844633764982 0 -0.12749226590576249 0.01550433414524306 0 -0.14089948435513211 0.0045028521199517741 0 -0.12875972825011101 0.033202911982989122 0 -0.12749226590576249 0.01550433414524306 0 -0.14066513223612051 0.020893853292430851 0 -0.12875972825011101 0.033202911982989122 0 -0.1477616223555055 0.038585030956722798 0 -0.14066513223612051 0.020893853292430851 0 -0.1477616223555055 0.038585030956722798 0 -0.14066513223612051 0.020893853292430851 0 -0.16934200089913659 0.015408876656124551 0 -0.14066513223612051 0.020893853292430851 0 -0.14089948435513211 0.0045028521199517741 0 -0.16934200089913659 0.015408876656124551 0 -0.15251229991028711 -0.0078691942855123181 0 -0.14089948435513211 0.0045028521199517741 0 -0.16934200089913659 0.015408876656124551 0 -0.15251229991028711 -0.0078691942855123181 0 -0.17782312591884469 -0.0047091890594081476 0 -0.16934200089913659 0.015408876656124551 0 -0.15251229991028711 -0.0078691942855123181 0 -0.16934200089913659 0.015408876656124551 0 -0.16934200089913659 0.015408876656124551 0 -0.18617170188798779 0.038686947597760223 0 -0.19614921834684179 0.01383979763140139 0 -0.16934200089913659 0.015408876656124551 0 -0.18617170188798779 0.038686947597760223 0 -0.17782312591884469 -0.0047091890594081476 0 -0.16934200089913659 0.015408876656124551 0 -0.19614921834684179 0.01383979763140139 0 -0.17782312591884469 -0.0047091890594081476 0 -0.19614921834684179 0.01383979763140139 0 -0.15691265875611959 0.05681361801433419 0 -0.1668403584618689 0.042988588343296871 0 -0.1795503023827684 0.057266236033449318 0 -0.1477616223555055 0.038585030956722798 0 -0.15691265875611959 0.05681361801433419 0 -0.1668403584618689 0.042988588343296871 0 -0.1477616223555055 0.038585030956722798 0 -0.16934200089913659 0.015408876656124551 0 -0.1668403584618689 0.042988588343296871 0 -0.16934200089913659 0.015408876656124551 0 -0.1668403584618689 0.042988588343296871 0 -0.18617170188798779 0.038686947597760223 0 -0.1668403584618689 0.042988588343296871 0 -0.18617170188798779 0.038686947597760223 0 -0.1795503023827684 0.057266236033449318 0 -0.1668403584618689 0.042988588343296871 0 -0.18617170188798779 0.038686947597760223 0 -0.18617170188798779 0.038686947597760223 0 -0.1795503023827684 0.057266236033449318 0 -0.20143763887193011 0.059802091850071508 0 -0.18617170188798779 0.038686947597760223 0 -0.20143763887193011 0.059802091850071508 0 -0.18617170188798779 0.038686947597760223 0 -0.20143763887193011 0.059802091850071508 0 -0.2078586498101366 0.045430069991844513 0 -0.18617170188798779 0.038686947597760223 0 -0.21447531077484011 0.032388784322209693 0 -0.18617170188798779 0.038686947597760223 0 -0.2078586498101366 0.045430069991844513 0 -0.21447531077484011 0.032388784322209693 0 -0.2078586498101366 0.045430069991844513 0 -0.21447531077484011 0.032388784322209693 0 -0.2192378730586704 0.037209272091992707 0 -0.21447531077484011 0.032388784322209693 0 -0.2195832818794459 0.031252150610506388 0 -0.2192378730586704 0.037209272091992707 0 -0.21447531077484011 0.032388784322209693 0 -0.2195832818794459 0.031252150610506388 0 -0.21447531077484011 0.032388784322209693 0 -0.2192378730586704 0.037209272091992707 0 -0.21797072445725191 0.059063254097192958 0 -0.2192378730586704 0.037209272091992707 0 -0.2078586498101366 0.045430069991844513 0 -0.21797072445725191 0.059063254097192958 0 -0.2192378730586704 0.037209272091992707 0 -0.20143763887193011 0.059802091850071508 0 -0.2078586498101366 0.045430069991844513 0 -0.21797072445725191 0.059063254097192958 0 -0.18617170188798779 0.038686947597760223 0 -0.21447531077484011 0.032388784322209693 0 -0.19614921834684179 0.01383979763140139 0 -0.21447531077484011 0.032388784322209693 0 -0.22093415874407599 0.0079541422647997212 0 -0.2195832818794459 0.031252150610506388 0 -0.21447531077484011 0.032388784322209693 0 -0.19614921834684179 0.01383979763140139 0 -0.21447531077484011 0.032388784322209693 0 -0.19614921834684179 0.01383979763140139 0 -0.22093415874407599 0.0079541422647997212 0 -0.19944529478696479 -0.012571765856828581 0 -0.19614921834684179 0.01383979763140139 0 -0.22093415874407599 0.0079541422647997212 0 -0.22093415874407599 0.0079541422647997212 0 -0.23112041458288279 0.017256095854311829 0 -0.23887829093550719 0.0026937934494007118 0 -0.22093415874407599 0.0079541422647997212 0 -0.2195832818794459 0.031252150610506388 0 -0.24652525723962471 0.025256980154944431 0 -0.2195832818794459 0.031252150610506388 0 -0.2345798097551996 0.035110261424597049 0 -0.24652525723962471 0.025256980154944431 0 -0.2195832818794459 0.031252150610506388 0 -0.23112041458288279 0.017256095854311829 0 -0.24652525723962471 0.025256980154944431 0 -0.2195832818794459 0.031252150610506388 0 -0.22093415874407599 0.0079541422647997212 0 -0.23112041458288279 0.017256095854311829 0 -0.2195832818794459 0.031252150610506388 0 -0.23112041458288279 0.017256095854311829 0 -0.24652525723962471 0.025256980154944431 0 -0.23887829093550719 0.0026937934494007118 0 -0.2559682256568111 0.0085224452031399753 0 -0.24652525723962471 0.025256980154944431 0 -0.23887829093550719 0.0026937934494007118 0 -0.25368046575302122 -0.0060765949484967302 0 -0.2559682256568111 0.0085224452031399753 0 -0.23887829093550719 0.0026937934494007118 0 -0.21797072445725191 0.059063254097192958 0 -0.23258754753329389 0.050721314286979569 0 -0.23013845701493321 0.067665304460687511 0 -0.21797072445725191 0.059063254097192958 0 -0.23258754753329389 0.050721314286979569 0 -0.2192378730586704 0.037209272091992707 0 -0.23258754753329389 0.050721314286979569 0 -0.2192378730586704 0.037209272091992707 0 -0.2195832818794459 0.031252150610506388 0 -0.2192378730586704 0.037209272091992707 0 -0.2345798097551996 0.035110261424597049 0 -0.2195832818794459 0.031252150610506388 0 -0.2192378730586704 0.037209272091992707 0 -0.23258754753329389 0.050721314286979569 0 -0.2192378730586704 0.037209272091992707 0 -0.2345798097551996 0.035110261424597049 0 -0.23258754753329389 0.050721314286979569 0 -0.2345798097551996 0.035110261424597049 0 -0.24215536103181359 0.050121451860559801 0 -0.2345798097551996 0.035110261424597049 0 -0.24863621078836329 0.04311354441041032 0 -0.24215536103181359 0.050121451860559801 0 -0.24652525723962471 0.025256980154944431 0 -0.2345798097551996 0.035110261424597049 0 -0.24863621078836329 0.04311354441041032 0 -0.23258754753329389 0.050721314286979569 0 -0.24593722200791471 0.064233356481969039 0 -0.23013845701493321 0.067665304460687511 0 -0.24863621078836329 0.04311354441041032 0 -0.24801373987997199 0.054302097415669472 0 -0.24215536103181359 0.050121451860559801 0 -0.23258754753329389 0.050721314286979569 0 -0.24215536103181359 0.050121451860559801 0 -0.24316618987360289 0.05965461057767419 0 -0.23258754753329389 0.050721314286979569 0 -0.24593722200791471 0.064233356481969039 0 -0.23258754753329389 0.050721314286979569 0 -0.24316618987360289 0.05965461057767419 0 -0.24593722200791471 0.064233356481969039 0 -0.24316618987360289 0.05965461057767419 0 -0.24593722200791471 0.064233356481969039 0 -0.24801373987997199 0.054302097415669472 0 -0.24215536103181359 0.050121451860559801 0 -0.24316618987360289 0.05965461057767419 0 -0.24801373987997199 0.054302097415669472 0 -0.24316618987360289 0.05965461057767419 0 -0.24593722200791471 0.064233356481969039 0 -0.24593722200791471 0.064233356481969039 0 -0.2374932152203659 0.083391361334902617 0 -0.23013845701493321 0.067665304460687511 0 -0.25883175697570282 0.08553978538998358 0 -0.24593722200791471 0.064233356481969039 0 -0.2374932152203659 0.083391361334902617 0 -0.25202467591831917 0.1031831303953244 0 -0.25883175697570282 0.08553978538998358 0 -0.2374932152203659 0.083391361334902617 0 -0.2167035758558564 0.080917236102394444 0 -0.2333261481791323 0.10390881616846009 0 -0.2374932152203659 0.083391361334902617 0 -0.2167035758558564 0.080917236102394444 0 -0.2333261481791323 0.10390881616846009 0 -0.21797072445725191 0.059063254097192958 0 -0.23013845701493321 0.067665304460687511 0 -0.2167035758558564 0.080917236102394444 0 -0.2374932152203659 0.083391361334902617 0 -0.23013845701493321 0.067665304460687511 0 -0.2167035758558564 0.080917236102394444 0 -0.20143763887193011 0.059802091850071508 0 -0.2167035758558564 0.080917236102394444 0 -0.21797072445725191 0.059063254097192958 0 -0.2167035758558564 0.080917236102394444 0 -0.20143763887193011 0.059802091850071508 0 -0.21797072445725191 0.059063254097192958 0 -0.2167035758558564 0.080917236102394444 0 -0.2167035758558564 0.080917236102394444 0 -0.21562280679612461 0.099556808096125687 0 -0.2167035758558564 0.080917236102394444 0 -0.19291657563570491 0.091073476316207172 0 -0.21562280679612461 0.099556808096125687 0 -0.2167035758558564 0.080917236102394444 0 -0.19291657563570491 0.091073476316207172 0 -0.19007497771773621 0.072883278701425663 0 -0.20143763887193011 0.059802091850071508 0 -0.2167035758558564 0.080917236102394444 0 -0.19007497771773621 0.072883278701425663 0 -0.1795503023827684 0.057266236033449318 0 -0.20143763887193011 0.059802091850071508 0 -0.19007497771773621 0.072883278701425663 0 -0.1859777253151946 0.1070780892906999 0 -0.19651578415892501 0.12390332723603351 0 -0.2011149859284718 0.1079616162057848 0 -0.1859777253151946 0.1070780892906999 0 -0.19291657563570491 0.091073476316207172 0 -0.2011149859284718 0.1079616162057848 0 -0.19291657563570491 0.091073476316207172 0 -0.2011149859284718 0.1079616162057848 0 -0.21562280679612461 0.099556808096125687 0 -0.2011149859284718 0.1079616162057848 0 -0.21562280679612461 0.099556808096125687 0 -0.21454203773640981 0.118196380089858 0 -0.21562280679612461 0.099556808096125687 0 -0.21454203773640981 0.118196380089858 0 -0.21562280679612461 0.099556808096125687 0 -0.21558632741173381 0.11543647568383759 0 -0.2197974094866382 0.1075062738490969 0 -0.19651578415892501 0.12390332723603351 0 -0.2011149859284718 0.1079616162057848 0 -0.21454203773640981 0.118196380089858 0 -0.21562280679612461 0.099556808096125687 0 -0.21558632741173381 0.11543647568383759 0 -0.21454203773640981 0.118196380089858 0 -0.21558632741173381 0.11543647568383759 0 -0.21454203773640981 0.118196380089858 0 -0.22306486740956391 0.11365998603405029 0 -0.21558632741173381 0.11543647568383759 0 -0.21454203773640981 0.118196380089858 0 -0.23207241423390529 0.12325198437899899 0 -0.22306486740956391 0.11365998603405029 0 -0.2333261481791323 0.10390881616846009 0 -0.21454203773640981 0.118196380089858 0 -0.23207241423390529 0.12325198437899899 0 -0.22306486740956391 0.11365998603405029 0 -0.21558632741173381 0.11543647568383759 0 -0.22306486740956391 0.11365998603405029 0 -0.2197974094866382 0.1075062738490969 0 -0.21562280679612461 0.099556808096125687 0 -0.2197974094866382 0.1075062738490969 0 -0.2333261481791323 0.10390881616846009 0 -0.2167035758558564 0.080917236102394444 0 -0.21562280679612461 0.099556808096125687 0 -0.2333261481791323 0.10390881616846009 0 -0.22306486740956391 0.11365998603405029 0 -0.2197974094866382 0.1075062738490969 0 -0.2333261481791323 0.10390881616846009 0 -0.25202467591831917 0.1031831303953244 0 -0.2374932152203659 0.083391361334902617 0 -0.2333261481791323 0.10390881616846009 0 -0.2333261481791323 0.10390881616846009 0 -0.2499487205023905 0.1269003962345385 0 -0.23207241423390529 0.12325198437899899 0 -0.2333261481791323 0.10390881616846009 0 -0.2499487205023905 0.1269003962345385 0 -0.25202467591831917 0.1031831303953244 0 -0.2333261481791323 0.10390881616846009 0 -0.2499487205023905 0.1269003962345385 0 -0.23207241423390529 0.12325198437899899 0 -0.2499487205023905 0.1269003962345385 0 -0.2334294419101717 0.14045715667949629 0 -0.2499487205023905 0.1269003962345385 0 -0.2334294419101717 0.14045715667949629 0 -0.24193288449945771 0.14909995823120001 0 -0.23207241423390529 0.12325198437899899 0 -0.2334294419101717 0.14045715667949629 0 -0.21307561334691941 0.14348718827461979 0 -0.21454203773640981 0.118196380089858 0 -0.23207241423390529 0.12325198437899899 0 -0.21307561334691941 0.14348718827461979 0 -0.2334294419101717 0.14045715667949629 0 -0.22779113194665809 0.15630605238408191 0 -0.21307561334691941 0.14348718827461979 0 -0.24193288449945771 0.14909995823120001 0 -0.23777061730354521 0.16319671061710761 0 -0.22779113194665809 0.15630605238408191 0 -0.25400879478249672 0.15070689988085861 0 -0.2499487205023905 0.1269003962345385 0 -0.24193288449945771 0.14909995823120001 0 -0.2334294419101717 0.14045715667949629 0 -0.24193288449945771 0.14909995823120001 0 -0.22779113194665809 0.15630605238408191 0 -0.25400879478249672 0.15070689988085861 0 -0.24193288449945771 0.14909995823120001 0 -0.24770739827517721 0.15884923907876289 0 -0.24770739827517721 0.15884923907876289 0 -0.2484577803484381 0.16911774492432341 0 -0.23777061730354521 0.16319671061710761 0 -0.24193288449945771 0.14909995823120001 0 -0.24770739827517721 0.15884923907876289 0 -0.23777061730354521 0.16319671061710761 0 -0.23777061730354521 0.16319671061710761 0 -0.23887201846984471 0.17355458884694819 0 -0.22892904566242611 0.17281730404268639 0 -0.2484577803484381 0.16911774492432341 0 -0.23777061730354521 0.16319671061710761 0 -0.23887201846984471 0.17355458884694819 0 -0.2484577803484381 0.16911774492432341 0 -0.24806601312553511 0.18384609063628959 0 -0.23887201846984471 0.17355458884694819 0 -0.23887201846984471 0.17355458884694819 0 -0.2378114324785629 0.18389871335692601 0 -0.22892904566242611 0.17281730404268639 0 -0.24806601312553511 0.18384609063628959 0 -0.23887201846984471 0.17355458884694819 0 -0.2378114324785629 0.18389871335692601 0 -0.22892904566242611 0.17281730404268639 0 -0.21160918895742889 0.16877799645938149 0 -0.22610751092901349 0.18921688877778209 0 -0.2378114324785629 0.18389871335692601 0 -0.22892904566242611 0.17281730404268639 0 -0.22610751092901349 0.18921688877778209 0 -0.22892904566242611 0.17281730404268639 0 -0.22779113194665809 0.15630605238408191 0 -0.21160918895742889 0.16877799645938149 0 -0.23777061730354521 0.16319671061710761 0 -0.22892904566242611 0.17281730404268639 0 -0.22779113194665809 0.15630605238408191 0 -0.21160918895742889 0.16877799645938149 0 -0.19845163097361909 0.16072096456926441 0 -0.21307561334691941 0.14348718827461979 0 -0.21160918895742889 0.16877799645938149 0 -0.20429719777077979 0.17739488460670361 0 -0.19845163097361909 0.16072096456926441 0 -0.20429719777077979 0.17739488460670361 0 -0.21014276456793901 0.19406880464414331 0 -0.21160918895742889 0.16877799645938149 0 -0.21014276456793901 0.19406880464414331 0 -0.21160918895742889 0.16877799645938149 0 -0.20429719777077979 0.17739488460670361 0 -0.21014276456793901 0.19406880464414331 0 -0.21160918895742889 0.16877799645938149 0 -0.22610751092901349 0.18921688877778209 0 -0.21014276456793901 0.19406880464414331 0 -0.20429719777077979 0.17739488460670361 0 -0.19078434836162 0.18098446765952661 0 -0.19845163097361909 0.16072096456926441 0 -0.20429719777077979 0.17739488460670361 0 -0.19078434836162 0.18098446765952661 0 -0.19577944577205381 0.19445682791110169 0 -0.19078434836162 0.18098446765952661 0 -0.19845163097361909 0.16072096456926441 0 -0.1863190198298087 0.16878571484748911 0 -0.20429719777077979 0.17739488460670361 0 -0.19845163097361909 0.16072096456926441 0 -0.19078434836162 0.18098446765952661 0 -0.19845163097361909 0.16072096456926441 0 -0.19845163097361909 0.16072096456926441 0 -0.19621829629563109 0.15435059106575311 0 -0.19845163097361909 0.16072096456926441 0 -0.18918124318418461 0.15864215931445511 0 -0.19621829629563109 0.15435059106575311 0 -0.19845163097361909 0.16072096456926441 0 -0.18918124318418461 0.15864215931445511 0 -0.1863190198298087 0.16878571484748911 0 -0.19845163097361909 0.16072096456926441 0 -0.20649683435501409 0.139458672329561 0 -0.19845163097361909 0.16072096456926441 0 -0.19621829629563109 0.15435059106575311 0 -0.20649683435501409 0.139458672329561 0 -0.18918124318418461 0.15864215931445511 0 -0.19621829629563109 0.15435059106575311 0 -0.1831114806155876 0.14829813367680389 0 -0.19621829629563109 0.15435059106575311 0 -0.19358688865029011 0.14089417912214261 0 -0.20649683435501409 0.139458672329561 0 -0.19621829629563109 0.15435059106575311 0 -0.19358688865029011 0.14089417912214261 0 -0.1831114806155876 0.14829813367680389 0 -0.19651578415892501 0.12390332723603351 0 -0.19358688865029011 0.14089417912214261 0 -0.20649683435501409 0.139458672329561 0 -0.19651578415892501 0.12390332723603351 0 -0.19358688865029011 0.14089417912214261 0 -0.18247999827373829 0.13387516283971179 0 -0.21454203773640981 0.118196380089858 0 -0.21307561334691941 0.14348718827461979 0 -0.19651578415892501 0.12390332723603351 0 -0.21454203773640981 0.118196380089858 0 -0.20649683435501409 0.139458672329561 0 -0.21454203773640981 0.118196380089858 0 -0.20649683435501409 0.139458672329561 0 -0.21307561334691941 0.14348718827461979 0 -0.21454203773640981 0.118196380089858 0 -0.20649683435501409 0.139458672329561 0 -0.21160918895742889 0.16877799645938149 0 -0.21307561334691941 0.14348718827461979 0 -0.19845163097361909 0.16072096456926441 0 -0.20649683435501409 0.139458672329561 0 -0.21307561334691941 0.14348718827461979 0 -0.22779113194665809 0.15630605238408191 0 -0.21160918895742889 0.16877799645938149 0 -0.21307561334691941 0.14348718827461979 0 -0.2337849049445343 0.26150574820020728 0 -0.2259041914856694 0.23902676701485259 0 -0.24184004484167479 0.2397688574378101 0 -0.2259041914856694 0.23902676701485259 0 -0.24184004484167479 0.2397688574378101 0 -0.23673235458058969 0.22945960196481119 0 -0.25380224261194823 0.2420236261065293 0 -0.24800282081558991 0.25311300777040008 0 -0.24184004484167479 0.2397688574378101 0 -0.25372238742754161 0.23132372007593241 0 -0.25380224261194823 0.2420236261065293 0 -0.24184004484167479 0.2397688574378101 0 -0.24184004484167479 0.2397688574378101 0 -0.23673235458058969 0.22945960196481119 0 -0.24559854804269679 0.2252658723909238 0 -0.25372238742754161 0.23132372007593241 0 -0.24184004484167479 0.2397688574378101 0 -0.24559854804269679 0.2252658723909238 0 -0.25483072364087211 0.2202441649145942 0 -0.24559854804269679 0.2252658723909238 0 -0.24722957445290369 0.21404590575577129 0 -0.23673235458058969 0.22945960196481119 0 -0.2305143728006408 0.2218320629556273 0 -0.23831553141832609 0.21670250140992861 0 -0.23673235458058969 0.22945960196481119 0 -0.24559854804269679 0.2252658723909238 0 -0.23831553141832609 0.21670250140992861 0 -0.2259041914856694 0.23902676701485259 0 -0.23673235458058969 0.22945960196481119 0 -0.2305143728006408 0.2218320629556273 0 -0.2259041914856694 0.23902676701485259 0 -0.21802347802680441 0.21654778582949791 0 -0.2259041914856694 0.23902676701485259 0 -0.2305143728006408 0.2218320629556273 0 -0.21802347802680441 0.21654778582949791 0 -0.2305143728006408 0.2218320629556273 0 -0.22838465546626679 0.212395393063219 0 -0.21802347802680441 0.21654778582949791 0 -0.22838465546626679 0.212395393063219 0 -0.2241935968774911 0.20241080203921141 0 -0.21802347802680441 0.21654778582949791 0 -0.22838465546626679 0.212395393063219 0 -0.23638400648292929 0.20731688174909721 0 -0.2241935968774911 0.20241080203921141 0 -0.22838465546626679 0.212395393063219 0 -0.23831553141832609 0.21670250140992861 0 -0.23638400648292929 0.20731688174909721 0 -0.2305143728006408 0.2218320629556273 0 -0.22838465546626679 0.212395393063219 0 -0.23831553141832609 0.21670250140992861 0 -0.23831553141832609 0.21670250140992861 0 -0.24722957445290369 0.21404590575577129 0 -0.23638400648292929 0.20731688174909721 0 -0.24559854804269679 0.2252658723909238 0 -0.23831553141832609 0.21670250140992861 0 -0.24722957445290369 0.21404590575577129 0 -0.24722957445290369 0.21404590575577129 0 -0.24666531613690271 0.20386508404673151 0 -0.23638400648292929 0.20731688174909721 0 -0.24666531613690271 0.20386508404673151 0 -0.23638400648292929 0.20731688174909721 0 -0.23849084814909549 0.19513543400691419 0 -0.25150433605041062 0.19473409522781959 0 -0.24666531613690271 0.20386508404673151 0 -0.23849084814909549 0.19513543400691419 0 -0.25150433605041062 0.19473409522781959 0 -0.24806601312553511 0.18384609063628959 0 -0.23849084814909549 0.19513543400691419 0 -0.24806601312553511 0.18384609063628959 0 -0.2378114324785629 0.18389871335692601 0 -0.23849084814909549 0.19513543400691419 0 -0.2241935968774911 0.20241080203921141 0 -0.22610751092901349 0.18921688877778209 0 -0.21014276456793901 0.19406880464414331 0 -0.2378114324785629 0.18389871335692601 0 -0.23849084814909549 0.19513543400691419 0 -0.22610751092901349 0.18921688877778209 0 -0.23849084814909549 0.19513543400691419 0 -0.2241935968774911 0.20241080203921141 0 -0.22610751092901349 0.18921688877778209 0 -0.23638400648292929 0.20731688174909721 0 -0.23849084814909549 0.19513543400691419 0 -0.2241935968774911 0.20241080203921141 0 -0.20429719777077979 0.17739488460670361 0 -0.21014276456793901 0.19406880464414331 0 -0.19577944577205381 0.19445682791110169 0 -0.21014276456793901 0.19406880464414331 0 -0.19577944577205381 0.19445682791110169 0 -0.2086547766869418 0.2197315093490311 0 -0.19078434836162 0.18098446765952661 0 -0.19577944577205381 0.19445682791110169 0 -0.18311706574962161 0.20124797074978909 0 -0.19577944577205381 0.19445682791110169 0 -0.1903024120836406 0.2163343812644852 0 -0.2086547766869418 0.2197315093490311 0 -0.19577944577205381 0.19445682791110169 0 -0.1903024120836406 0.2163343812644852 0 -0.18311706574962161 0.20124797074978909 0 -0.21014276456793901 0.19406880464414331 0 -0.21802347802680441 0.21654778582949791 0 -0.2086547766869418 0.2197315093490311 0 -0.2241935968774911 0.20241080203921141 0 -0.21014276456793901 0.19406880464414331 0 -0.21802347802680441 0.21654778582949791 0 -0.21014276456793901 0.19406880464414331 0 -0.2086547766869418 0.2197315093490311 0 -0.21014276456793901 0.19406880464414331 0 -0.21802347802680441 0.21654778582949791 0 -0.2259041914856694 0.23902676701485259 0 -0.21802347802680441 0.21654778582949791 0 -0.2086547766869418 0.2197315093490311 0 -0.2086547766869418 0.2197315093490311 0 -0.207166788805945 0.24539421405391901 0 -0.2086547766869418 0.2197315093490311 0 -0.19418368638125261 0.23297679107888219 0 -0.207166788805945 0.24539421405391901 0 -0.1903024120836406 0.2163343812644852 0 -0.19418368638125261 0.23297679107888219 0 -0.18341045209496451 0.23022550053385221 0 -0.1903024120836406 0.2163343812644852 0 -0.2086547766869418 0.2197315093490311 0 -0.19418368638125261 0.23297679107888219 0 -0.19418368638125261 0.23297679107888219 0 -0.19354405793523019 0.24535322686402061 0 -0.207166788805945 0.24539421405391901 0 -0.19418368638125261 0.23297679107888219 0 -0.19354405793523019 0.24535322686402061 0 -0.1845361620435966 0.24004079847925841 0 -0.19628042656794009 0.25891871677109879 0 -0.19354405793523019 0.24535322686402061 0 -0.207166788805945 0.24539421405391901 0 -0.21876605819550171 0.26070399828302399 0 -0.2259041914856694 0.23902676701485259 0 -0.207166788805945 0.24539421405391901 0 -0.2259041914856694 0.23902676701485259 0 -0.2086547766869418 0.2197315093490311 0 -0.207166788805945 0.24539421405391901 0 -0.17221168326327271 0.25819498994622198 0 -0.16714373723180939 0.24389921076693449 0 -0.1738307332004477 0.23985323189313679 0 -0.1604121232400475 0.24882297611887791 0 -0.15924660888784439 0.23675675394935769 0 -0.14947536152884949 0.24666552624664281 0 -0.1604121232400475 0.24882297611887791 0 -0.15924660888784439 0.23675675394935769 0 -0.16714373723180939 0.24389921076693449 0 -0.1700175375674344 0.23586810192707841 0 -0.16714373723180939 0.24389921076693449 0 -0.1738307332004477 0.23985323189313679 0 -0.15924660888784439 0.23675675394935769 0 -0.1700175375674344 0.23586810192707841 0 -0.16714373723180939 0.24389921076693449 0 -0.17221168326327271 0.25819498994622198 0 -0.1738307332004477 0.23985323189313679 0 -0.17221168326327271 0.25819498994622198 0 -0.18323044690438359 0.24992529319367501 0 -0.1738307332004477 0.23985323189313679 0 -0.19354405793523019 0.24535322686402061 0 -0.18323044690438359 0.24992529319367501 0 -0.1845361620435966 0.24004079847925841 0 -0.18323044690438359 0.24992529319367501 0 -0.1845361620435966 0.24004079847925841 0 -0.1738307332004477 0.23985323189313679 0 -0.1845361620435966 0.24004079847925841 0 -0.1738307332004477 0.23985323189313679 0 -0.18341045209496451 0.23022550053385221 0 -0.19418368638125261 0.23297679107888219 0 -0.1845361620435966 0.24004079847925841 0 -0.18341045209496451 0.23022550053385221 0 -0.1700175375674344 0.23586810192707841 0 -0.1738307332004477 0.23985323189313679 0 -0.17544978313762299 0.22151147384005171 0 -0.1738307332004477 0.23985323189313679 0 -0.18341045209496451 0.23022550053385221 0 -0.17544978313762299 0.22151147384005171 0 -0.1738307332004477 0.23985323189313679 0 -0.17544978313762299 0.22151147384005171 0 -0.1700175375674344 0.23586810192707841 0 -0.17544978313762299 0.22151147384005171 0 -0.1903024120836406 0.2163343812644852 0 -0.18341045209496451 0.23022550053385221 0 -0.17544978313762299 0.22151147384005171 0 -0.17544978313762299 0.22151147384005171 0 -0.16512337585071299 0.22610825804455451 0 -0.16269562634920209 0.21240424941451641 0 -0.15924660888784439 0.23675675394935769 0 -0.1700175375674344 0.23586810192707841 0 -0.16512337585071299 0.22610825804455451 0 -0.1700175375674344 0.23586810192707841 0 -0.17544978313762299 0.22151147384005171 0 -0.16512337585071299 0.22610825804455451 0 -0.15924660888784439 0.23675675394935769 0 -0.16512337585071299 0.22610825804455451 0 -0.154795120164582 0.2233056882485579 0 -0.16512337585071299 0.22610825804455451 0 -0.16269562634920209 0.21240424941451641 0 -0.154795120164582 0.2233056882485579 0 -0.17544978313762299 0.22151147384005171 0 -0.16269562634920209 0.21240424941451641 0 -0.17745268148896651 0.19882120584907939 0 -0.1903024120836406 0.2163343812644852 0 -0.17544978313762299 0.22151147384005171 0 -0.18311706574962161 0.20124797074978909 0 -0.17544978313762299 0.22151147384005171 0 -0.17745268148896651 0.19882120584907939 0 -0.17544978313762299 0.22151147384005171 0 -0.18311706574962161 0.20124797074978909 0 -0.17969863857726659 0.19950742689960829 0 -0.17544978313762299 0.22151147384005171 0 -0.18311706574962161 0.20124797074978909 0 -0.17544978313762299 0.22151147384005171 0 -0.17745268148896651 0.19882120584907939 0 -0.17969863857726659 0.19950742689960829 0 -0.19078434836162 0.18098446765952661 0 -0.18311706574962161 0.20124797074978909 0 -0.17969863857726659 0.19950742689960829 0 -0.17762715000671209 0.19684470143936769 0 -0.17969863857726659 0.19950742689960829 0 -0.1790600605220076 0.18061166416249719 0 -0.17762715000671209 0.19684470143936769 0 -0.1790600605220076 0.18061166416249719 0 -0.19078434836162 0.18098446765952661 0 -0.18311706574962161 0.20124797074978909 0 -0.17762715000671209 0.19684470143936769 0 -0.17745268148896651 0.19882120584907939 0 -0.17762715000671209 0.19684470143936769 0 -0.17745268148896651 0.19882120584907939 0 -0.17969863857726659 0.19950742689960829 0 -0.17745268148896651 0.19882120584907939 0 -0.17969863857726659 0.19950742689960829 0 -0.17762715000671209 0.19684470143936769 0 -0.17745268148896651 0.19882120584907939 0 -0.16727237805147441 0.1874993196379468 0 -0.17745268148896651 0.19882120584907939 0 -0.15391661753301741 0.19163008780976989 0 -0.16727237805147441 0.1874993196379468 0 -0.17745268148896651 0.19882120584907939 0 -0.15391661753301741 0.19163008780976989 0 -0.16269562634920209 0.21240424941451641 0 -0.17745268148896651 0.19882120584907939 0 -0.15391661753301741 0.19163008780976989 0 -0.15391661753301741 0.19163008780976989 0 -0.13651517619112011 0.20403110183309431 0 -0.1481479019978115 0.21222740759336919 0 -0.15391661753301741 0.19163008780976989 0 -0.1303805535770681 0.18443896977046129 0 -0.15391661753301741 0.19163008780976989 0 -0.13651517619112011 0.20403110183309431 0 -0.1303805535770681 0.18443896977046129 0 -0.13651517619112011 0.20403110183309431 0 -0.1303805535770681 0.18443896977046129 0 -0.11609935545667301 0.2018678873001811 0 -0.13651517619112011 0.20403110183309431 0 -0.1235089591793134 0.21730733450799211 0 -0.11609935545667301 0.2018678873001811 0 -0.13651517619112011 0.20403110183309431 0 -0.13875340818369131 0.2230332554938933 0 -0.1235089591793134 0.21730733450799211 0 -0.13651517619112011 0.20403110183309431 0 -0.1481479019978115 0.21222740759336919 0 -0.13875340818369131 0.2230332554938933 0 -0.16269562634920209 0.21240424941451641 0 -0.15391661753301741 0.19163008780976989 0 -0.1481479019978115 0.21222740759336919 0 -0.16269562634920209 0.21240424941451641 0 -0.1481479019978115 0.21222740759336919 0 -0.154795120164582 0.2233056882485579 0 -0.1476615943052289 0.23376468523451899 0 -0.13875340818369131 0.2230332554938933 0 -0.13603747276117739 0.23906220223414301 0 -0.154795120164582 0.2233056882485579 0 -0.1476615943052289 0.23376468523451899 0 -0.13875340818369131 0.2230332554938933 0 -0.1481479019978115 0.21222740759336919 0 -0.154795120164582 0.2233056882485579 0 -0.13875340818369131 0.2230332554938933 0 -0.15924660888784439 0.23675675394935769 0 -0.154795120164582 0.2233056882485579 0 -0.1476615943052289 0.23376468523451899 0 -0.13875340818369131 0.2230332554938933 0 -0.1223159266714744 0.23291985806603391 0 -0.1235089591793134 0.21730733450799211 0 -0.13875340818369131 0.2230332554938933 0 -0.13603747276117739 0.23906220223414301 0 -0.1223159266714744 0.23291985806603391 0 -0.1230919246696725 0.25268263208805719 0 -0.13603747276117739 0.23906220223414301 0 -0.1223159266714744 0.23291985806603391 0 -0.14057597760833451 0.2595852381562147 0 -0.13603747276117739 0.23906220223414301 0 -0.14947536152884949 0.24666552624664281 0 -0.1476615943052289 0.23376468523451899 0 -0.13603747276117739 0.23906220223414301 0 -0.14947536152884949 0.24666552624664281 0 -0.15924660888784439 0.23675675394935769 0 -0.1476615943052289 0.23376468523451899 0 -0.14947536152884949 0.24666552624664281 0 -0.17161704086758031 0.1194569527958555 0 -0.1552877826728298 0.12430887092761279 0 -0.16261086933402341 0.14847659115187009 0 -0.1552877826728298 0.12430887092761279 0 -0.16261086933402341 0.14847659115187009 0 -0.17161704086758031 0.1194569527958555 0 -0.16261086933402341 0.14847659115187009 0 -0.18247999827373829 0.13387516283971179 0 -0.17161704086758031 0.1194569527958555 0 -0.19651578415892501 0.12390332723603351 0 -0.18247999827373829 0.13387516283971179 0 -0.19358688865029011 0.14089417912214261 0 -0.18247999827373829 0.13387516283971179 0 -0.1831114806155876 0.14829813367680389 0 -0.16261086933402341 0.14847659115187009 0 -0.1831114806155876 0.14829813367680389 0 -0.17447275958903169 0.15833579497357389 0 -0.16261086933402341 0.14847659115187009 0 -0.18247999827373829 0.13387516283971179 0 -0.1831114806155876 0.14829813367680389 0 -0.1831114806155876 0.14829813367680389 0 -0.18180578820627749 0.16105539241296549 0 -0.17447275958903169 0.15833579497357389 0 -0.18918124318418461 0.15864215931445511 0 -0.1831114806155876 0.14829813367680389 0 -0.18180578820627749 0.16105539241296549 0 -0.18918124318418461 0.15864215931445511 0 -0.18180578820627749 0.16105539241296549 0 -0.1863190198298087 0.16878571484748911 0 -0.18180578820627749 0.16105539241296549 0 -0.1863190198298087 0.16878571484748911 0 -0.17800771564352161 0.16764275470867351 0 -0.17800771564352161 0.16764275470867351 0 -0.17447275958903169 0.15833579497357389 0 -0.16993395599521699 0.17264431137612751 0 -0.18180578820627749 0.16105539241296549 0 -0.17800771564352161 0.16764275470867351 0 -0.17447275958903169 0.15833579497357389 0 -0.17762715000671209 0.19684470143936769 0 -0.16993395599521699 0.17264431137612751 0 -0.19078434836162 0.18098446765952661 0 -0.17969863857726659 0.19950742689960829 0 -0.1790600605220076 0.18061166416249719 0 -0.17762715000671209 0.19684470143936769 0 -0.1790600605220076 0.18061166416249719 0 -0.16993395599521699 0.17264431137612751 0 -0.19078434836162 0.18098446765952661 0 -0.1863190198298087 0.16878571484748911 0 -0.1790600605220076 0.18061166416249719 0 -0.1863190198298087 0.16878571484748911 0 -0.17800771564352161 0.16764275470867351 0 -0.1790600605220076 0.18061166416249719 0 -0.17800771564352161 0.16764275470867351 0 -0.1790600605220076 0.18061166416249719 0 -0.16993395599521699 0.17264431137612751 0 -0.17762715000671209 0.19684470143936769 0 -0.16727237805147441 0.1874993196379468 0 -0.16993395599521699 0.17264431137612751 0 -0.16727237805147441 0.1874993196379468 0 -0.16993395599521699 0.17264431137612751 0 -0.15891136562595171 0.17741486759956929 0 -0.15391661753301741 0.19163008780976989 0 -0.16727237805147441 0.1874993196379468 0 -0.15891136562595171 0.17741486759956929 0 -0.16261086933402341 0.14847659115187009 0 -0.16993395599521699 0.17264431137612751 0 -0.16261086933402341 0.14847659115187009 0 -0.17447275958903169 0.15833579497357389 0 -0.16993395599521699 0.17264431137612751 0 -0.16261086933402341 0.14847659115187009 0 -0.16993395599521699 0.17264431137612751 0 -0.15672267324220601 0.16467436123790899 0 -0.16993395599521699 0.17264431137612751 0 -0.15891136562595171 0.17741486759956929 0 -0.15672267324220601 0.16467436123790899 0 -0.1438376228782921 0.17066473232413559 0 -0.1319396817972357 0.15362407044259729 0 -0.14765074599521649 0.1551455574135146 0 -0.15672267324220601 0.16467436123790899 0 -0.1438376228782921 0.17066473232413559 0 -0.14765074599521649 0.1551455574135146 0 -0.15891136562595171 0.17741486759956929 0 -0.15672267324220601 0.16467436123790899 0 -0.1438376228782921 0.17066473232413559 0 -0.15391661753301741 0.19163008780976989 0 -0.1438376228782921 0.17066473232413559 0 -0.1303805535770681 0.18443896977046129 0 -0.15391661753301741 0.19163008780976989 0 -0.15891136562595171 0.17741486759956929 0 -0.1438376228782921 0.17066473232413559 0 -0.1438376228782921 0.17066473232413559 0 -0.1303805535770681 0.18443896977046129 0 -0.12490910860765971 0.16856384610403921 0 -0.1438376228782921 0.17066473232413559 0 -0.1319396817972357 0.15362407044259729 0 -0.12490910860765971 0.16856384610403921 0 -0.1319396817972357 0.15362407044259729 0 -0.14180526995966641 0.1402365392624049 0 -0.1213451890051471 0.1400443304662882 0 -0.1319396817972357 0.15362407044259729 0 -0.14765074599521649 0.1551455574135146 0 -0.14180526995966641 0.1402365392624049 0 -0.16261086933402341 0.14847659115187009 0 -0.15672267324220601 0.16467436123790899 0 -0.14765074599521649 0.1551455574135146 0 -0.16261086933402341 0.14847659115187009 0 -0.14765074599521649 0.1551455574135146 0 -0.14180526995966641 0.1402365392624049 0 -0.1552877826728298 0.12430887092761279 0 -0.16261086933402341 0.14847659115187009 0 -0.14180526995966641 0.1402365392624049 0 -0.1552877826728298 0.12430887092761279 0 -0.14180526995966641 0.1402365392624049 0 -0.13121897980857941 0.12587151947184211 0 -0.14180526995966641 0.1402365392624049 0 -0.13121897980857941 0.12587151947184211 0 -0.1213451890051471 0.1400443304662882 0 -0.13121897980857941 0.12587151947184211 0 -0.1213451890051471 0.1400443304662882 0 -0.1120273366060608 0.1196740423458376 0 -0.1213451890051471 0.1400443304662882 0 -0.10369152689770619 0.13939316573005051 0 -0.1120273366060608 0.1196740423458376 0 -0.10369152689770619 0.13939316573005051 0 -0.088536025093881712 0.1231465751782846 0 -0.1120273366060608 0.1196740423458376 0 -0.10369152689770619 0.13939316573005051 0 -0.088536025093881712 0.1231465751782846 0 -0.10369152689770619 0.13939316573005051 0 -0.1130908849026438 0.1563505359333584 0 -0.093281580995531549 0.1549713382514023 0 -0.1319396817972357 0.15362407044259729 0 -0.1213451890051471 0.1400443304662882 0 -0.1130908849026438 0.1563505359333584 0 -0.1213451890051471 0.1400443304662882 0 -0.10369152689770619 0.13939316573005051 0 -0.1130908849026438 0.1563505359333584 0 -0.1130908849026438 0.1563505359333584 0 -0.12490910860765971 0.16856384610403921 0 -0.1068444896211188 0.17724785173115271 0 -0.1319396817972357 0.15362407044259729 0 -0.1130908849026438 0.1563505359333584 0 -0.12490910860765971 0.16856384610403921 0 -0.1303805535770681 0.18443896977046129 0 -0.12490910860765971 0.16856384610403921 0 -0.1068444896211188 0.17724785173115271 0 -0.1303805535770681 0.18443896977046129 0 -0.1068444896211188 0.17724785173115271 0 -0.1068444896211188 0.17724785173115271 0 -0.083308425665169494 0.17005673369184399 0 -0.1130908849026438 0.1563505359333584 0 -0.1068444896211188 0.17724785173115271 0 -0.093281580995531549 0.1549713382514023 0 -0.1068444896211188 0.17724785173115271 0 -0.083308425665169494 0.17005673369184399 0 -0.093281580995531549 0.1549713382514023 0 -0.083308425665169494 0.17005673369184399 0 -0.070825302443715113 0.14909902974373879 0 -0.093281580995531549 0.1549713382514023 0 -0.1068444896211188 0.17724785173115271 0 -0.083308425665169494 0.17005673369184399 0 -0.076210886672391009 0.18658120972266901 0 -0.083308425665169494 0.17005673369184399 0 -0.076210886672391009 0.18658120972266901 0 -0.059007754678410039 0.1813385369839807 0 -0.083308425665169494 0.17005673369184399 0 -0.070825302443715113 0.14909902974373879 0 -0.059772361709220727 0.1628656156525336 0 -0.083308425665169494 0.17005673369184399 0 -0.059772361709220727 0.1628656156525336 0 -0.083308425665169494 0.17005673369184399 0 -0.059772361709220727 0.1628656156525336 0 -0.059007754678410039 0.1813385369839807 0 -0.070825302443715113 0.14909902974373879 0 -0.060947836547449827 0.13446611978253659 0 -0.059772361709220727 0.1628656156525336 0 -0.070825302443715113 0.14909902974373879 0 -0.068132667327297836 0.1371956617169855 0 -0.08296062401431728 0.1362763795947792 0 -0.069471102569403115 0.12631058973122339 0 -0.08296062401431728 0.1362763795947792 0 -0.057796906303709122 0.12894111774688749 0 -0.08296062401431728 0.1362763795947792 0 -0.057796906303709122 0.12894111774688749 0 -0.068132667327297836 0.1371956617169855 0 -0.08296062401431728 0.1362763795947792 0 -0.057796906303709122 0.12894111774688749 0 -0.070825302443715113 0.14909902974373879 0 -0.068132667327297836 0.1371956617169855 0 -0.060947836547449827 0.13446611978253659 0 -0.069471102569403115 0.12631058973122339 0 -0.08296062401431728 0.1362763795947792 0 -0.074501389404617119 0.1219926676580704 0 -0.10369152689770619 0.13939316573005051 0 -0.08296062401431728 0.1362763795947792 0 -0.088536025093881712 0.1231465751782846 0 -0.08296062401431728 0.1362763795947792 0 -0.074501389404617119 0.1219926676580704 0 -0.088536025093881712 0.1231465751782846 0 -0.070825302443715113 0.14909902974373879 0 -0.08296062401431728 0.1362763795947792 0 -0.093281580995531549 0.1549713382514023 0 -0.10369152689770619 0.13939316573005051 0 -0.08296062401431728 0.1362763795947792 0 -0.093281580995531549 0.1549713382514023 0 -0.10606753491286119 0.24419388851310331 0 -0.10386092939360821 0.2246845698467578 0 -0.09066870662966893 0.2380631811563117 0 -0.088750902751745797 0.25373427230794993 0 -0.10606753491286119 0.24419388851310331 0 -0.09066870662966893 0.2380631811563117 0 -0.1230919246696725 0.25268263208805719 0 -0.10606753491286119 0.24419388851310331 0 -0.1223159266714744 0.23291985806603391 0 -0.10606753491286119 0.24419388851310331 0 -0.1223159266714744 0.23291985806603391 0 -0.10386092939360821 0.2246845698467578 0 -0.1223159266714744 0.23291985806603391 0 -0.10386092939360821 0.2246845698467578 0 -0.1235089591793134 0.21730733450799211 0 -0.10386092939360821 0.2246845698467578 0 -0.11609935545667301 0.2018678873001811 0 -0.087171251552135898 0.20083967280780449 0 -0.10386092939360821 0.2246845698467578 0 -0.1235089591793134 0.21730733450799211 0 -0.11609935545667301 0.2018678873001811 0 -0.1303805535770681 0.18443896977046129 0 -0.1068444896211188 0.17724785173115271 0 -0.11609935545667301 0.2018678873001811 0 -0.11609935545667301 0.2018678873001811 0 -0.087171251552135898 0.20083967280780449 0 -0.1068444896211188 0.17724785173115271 0 -0.11609935545667301 0.2018678873001811 0 -0.087171251552135898 0.20083967280780449 0 -0.1068444896211188 0.17724785173115271 0 -0.076210886672391009 0.18658120972266901 0 -0.087171251552135898 0.20083967280780449 0 -0.076210886672391009 0.18658120972266901 0 -0.087171251552135898 0.20083967280780449 0 -0.058243147647598859 0.19981145831542779 0 -0.087171251552135898 0.20083967280780449 0 -0.058243147647598859 0.19981145831542779 0 -0.076210886672391009 0.18658120972266901 0 -0.058243147647598859 0.19981145831542779 0 -0.059007754678410039 0.1813385369839807 0 -0.087171251552135898 0.20083967280780449 0 -0.072376852112868456 0.2109928278409893 0 -0.058243147647598859 0.19981145831542779 0 -0.072376852112868456 0.2109928278409893 0 -0.079543787104951288 0.2268092354988179 0 -0.057523737003292059 0.21719243403466251 0 -0.072376852112868456 0.2109928278409893 0 -0.057523737003292059 0.21719243403466251 0 -0.058243147647598859 0.19981145831542779 0 -0.10386092939360821 0.2246845698467578 0 -0.087171251552135898 0.20083967280780449 0 -0.079543787104951288 0.2268092354988179 0 -0.087171251552135898 0.20083967280780449 0 -0.072376852112868456 0.2109928278409893 0 -0.079543787104951288 0.2268092354988179 0 -0.10386092939360821 0.2246845698467578 0 -0.079543787104951288 0.2268092354988179 0 -0.09066870662966893 0.2380631811563117 0 -0.079543787104951288 0.2268092354988179 0 -0.05680432635898526 0.23457340975389709 0 -0.057523737003292059 0.21719243403466251 0 -0.079543787104951288 0.2268092354988179 0 -0.072402403370984733 0.24307516658186251 0 -0.05680432635898526 0.23457340975389709 0 -0.088750902751745797 0.25373427230794993 0 -0.072402403370984733 0.24307516658186251 0 -0.09066870662966893 0.2380631811563117 0 -0.079543787104951288 0.2268092354988179 0 -0.072402403370984733 0.24307516658186251 0 -0.09066870662966893 0.2380631811563117 0 -0.036798084873461312 0.24306150679977731 0 -0.05680432635898526 0.23457340975389709 0 -0.043258256162018387 0.22565994012888521 0 -0.036798084873461312 0.24306150679977731 0 -0.058133126017242333 0.24942309207664951 0 -0.05680432635898526 0.23457340975389709 0 -0.072402403370984733 0.24307516658186251 0 -0.058133126017242333 0.24942309207664951 0 -0.05680432635898526 0.23457340975389709 0 -0.05680432635898526 0.23457340975389709 0 -0.043258256162018387 0.22565994012888521 0 -0.057523737003292059 0.21719243403466251 0 -0.05680432635898526 0.23457340975389709 0 -0.057523737003292059 0.21719243403466251 0 -0.036798084873461312 0.24306150679977731 0 -0.043258256162018387 0.22565994012888521 0 -0.020437067247314731 0.22162043755844821 0 -0.043258256162018387 0.22565994012888521 0 -0.043733099752248233 0.21268379592964121 0 -0.020437067247314731 0.22162043755844821 0 -0.043733099752248233 0.21268379592964121 0 -0.039203290701017093 0.19913470961078231 0 -0.020437067247314731 0.22162043755844821 0 -0.043733099752248233 0.21268379592964121 0 -0.058243147647598859 0.19981145831542779 0 -0.039203290701017093 0.19913470961078231 0 -0.043733099752248233 0.21268379592964121 0 -0.057523737003292059 0.21719243403466251 0 -0.058243147647598859 0.19981145831542779 0 -0.043258256162018387 0.22565994012888521 0 -0.043733099752248233 0.21268379592964121 0 -0.057523737003292059 0.21719243403466251 0 -0.057523737003292059 0.21719243403466251 0 -0.058243147647598859 0.19981145831542779 0 -0.058243147647598859 0.19981145831542779 0 -0.059007754678410039 0.1813385369839807 0 -0.058243147647598859 0.19981145831542779 0 -0.039203290701017093 0.19913470961078231 0 -0.049195923865489967 0.1901598225296644 0 -0.058243147647598859 0.19981145831542779 0 -0.039203290701017093 0.19913470961078231 0 -0.049195923865489967 0.1901598225296644 0 -0.058243147647598859 0.19981145831542779 0 -0.059007754678410039 0.1813385369839807 0 -0.039203290701017093 0.19913470961078231 0 -0.02153202838005128 0.19603752306850231 0 -0.040557264019018588 0.18032420370999261 0 -0.049195923865489967 0.1901598225296644 0 -0.039203290701017093 0.19913470961078231 0 -0.040557264019018588 0.18032420370999261 0 -0.02153202838005128 0.19603752306850231 0 -0.0040760496211680944 0.20017936831711891 0 -0.020998722927044321 0.17810482495059879 0 -0.0040760496211680944 0.20017936831711891 0 -0.020437067247314731 0.22162043755844821 0 -0.001542110983380432 0.22401166836485309 0 -0.0040760496211680944 0.20017936831711891 0 -0.020437067247314731 0.22162043755844821 0 -0.02153202838005128 0.19603752306850231 0 -0.0040760496211680944 0.20017936831711891 0 -0.020437067247314731 0.22162043755844821 0 -0.039203290701017093 0.19913470961078231 0 -0.02153202838005128 0.19603752306850231 0 -0.020437067247314731 0.22162043755844821 0 -0.036798084873461312 0.24306150679977731 0 -0.020437067247314731 0.22162043755844821 0 -0.020437067247314731 0.22162043755844821 0 -0.001542110983380432 0.22401166836485309 0 -0.010663072791586219 0.24029389619086081 0 -0.001542110983380432 0.22401166836485309 0 -0.010663072791586219 0.24029389619086081 0 0.0084792465519147632 0.23863263955916281 0 -0.010663072791586219 0.24029389619086081 0 0.0084792465519147632 0.23863263955916281 0 0.00052355941179598429 0.25579479798048171 0 -0.036798084873461312 0.24306150679977731 0 -0.020437067247314731 0.22162043755844821 0 -0.010663072791586219 0.24029389619086081 0 -0.022882560889335081 0.26280583991096162 0 -0.036798084873461312 0.24306150679977731 0 -0.010663072791586219 0.24029389619086081 0 -0.032589274837996618 0.14707247615162841 0 -0.048435938796672143 0.14442648045518211 0 -0.038257486294270587 0.1562920437503052 0 -0.032589274837996618 0.14707247615162841 0 -0.048435938796672143 0.14442648045518211 0 -0.032589274837996618 0.14707247615162841 0 -0.036976010324175232 0.1363129276738676 0 -0.048435938796672143 0.14442648045518211 0 -0.057796906303709122 0.12894111774688749 0 -0.032633188593100951 0.12160585589899579 0 -0.047357976113021449 0.13315050031149389 0 -0.057796906303709122 0.12894111774688749 0 -0.032633188593100951 0.12160585589899579 0 -0.036976010324175232 0.1363129276738676 0 -0.047357976113021449 0.13315050031149389 0 -0.032633188593100951 0.12160585589899579 0 -0.036976010324175232 0.1363129276738676 0 -0.047357976113021449 0.13315050031149389 0 -0.048435938796672143 0.14442648045518211 0 -0.047357976113021449 0.13315050031149389 0 -0.060947836547449827 0.13446611978253659 0 -0.048435938796672143 0.14442648045518211 0 -0.047357976113021449 0.13315050031149389 0 -0.057796906303709122 0.12894111774688749 0 -0.060947836547449827 0.13446611978253659 0 -0.068132667327297836 0.1371956617169855 0 -0.057796906303709122 0.12894111774688749 0 -0.060947836547449827 0.13446611978253659 0 -0.048435938796672143 0.14442648045518211 0 -0.059772361709220727 0.1628656156525336 0 -0.038257486294270587 0.1562920437503052 0 -0.060947836547449827 0.13446611978253659 0 -0.048435938796672143 0.14442648045518211 0 -0.059772361709220727 0.1628656156525336 0 -0.060947836547449827 0.13446611978253659 0 -0.059772361709220727 0.1628656156525336 0 -0.059772361709220727 0.1628656156525336 0 -0.038257486294270587 0.1562920437503052 0 -0.059772361709220727 0.1628656156525336 0 -0.059007754678410039 0.1813385369839807 0 -0.059772361709220727 0.1628656156525336 0 -0.059007754678410039 0.1813385369839807 0 -0.040557264019018588 0.18032420370999261 0 -0.049195923865489967 0.1901598225296644 0 -0.059007754678410039 0.1813385369839807 0 -0.040557264019018588 0.18032420370999261 0 -0.040557264019018588 0.18032420370999261 0 -0.038257486294270587 0.1562920437503052 0 -0.020998722927044321 0.17810482495059879 0 -0.059772361709220727 0.1628656156525336 0 -0.040557264019018588 0.18032420370999261 0 -0.038257486294270587 0.1562920437503052 0 -0.038257486294270587 0.1562920437503052 0 -0.020998722927044321 0.17810482495059879 0 -0.016742610879321111 0.14971847184807491 0 -0.0040760496211680944 0.20017936831711891 0 -0.020998722927044321 0.17810482495059879 0 0.012284968004978509 0.1787382990757897 0 -0.020998722927044321 0.17810482495059879 0 -0.0048761696063712393 0.16501736167893261 0 0.012284968004978509 0.1787382990757897 0 -0.02153202838005128 0.19603752306850231 0 -0.040557264019018588 0.18032420370999261 0 -0.020998722927044321 0.17810482495059879 0 -0.020998722927044321 0.17810482495059879 0 -0.0048761696063712393 0.16501736167893261 0 -0.016742610879321111 0.14971847184807491 0 -0.0048761696063712393 0.16501736167893261 0 -0.016742610879321111 0.14971847184807491 0 0.0059516873759019248 0.15350785084126731 0 -0.016742610879321111 0.14971847184807491 0 0.0059516873759019248 0.15350785084126731 0 -0.016742610879321111 0.14971847184807491 0 0.0059516873759019248 0.15350785084126731 0 0.010763234767585761 0.14131444204988469 0 -0.016742610879321111 0.14971847184807491 0 -0.0050733015910006882 0.13156669209468241 0 0.010763234767585761 0.14131444204988469 0 -0.016742610879321111 0.14971847184807491 0 0.010763234767585761 0.14131444204988469 0 -0.032589274837996618 0.14707247615162841 0 -0.038257486294270587 0.1562920437503052 0 -0.016742610879321111 0.14971847184807491 0 -0.032589274837996618 0.14707247615162841 0 -0.016742610879321111 0.14971847184807491 0 -0.02231592745415921 0.13432141316036281 0 -0.032589274837996618 0.14707247615162841 0 -0.016742610879321111 0.14971847184807491 0 -0.038257486294270587 0.1562920437503052 0 -0.016742610879321111 0.14971847184807491 0 -0.036976010324175232 0.1363129276738676 0 -0.02231592745415921 0.13432141316036281 0 -0.032633188593100951 0.12160585589899579 0 -0.032589274837996618 0.14707247615162841 0 -0.036976010324175232 0.1363129276738676 0 -0.02231592745415921 0.13432141316036281 0 -0.02231592745415921 0.13432141316036281 0 -0.0050733015910006882 0.13156669209468241 0 -0.0074694708824928138 0.1142705940511041 0 -0.016742610879321111 0.14971847184807491 0 -0.02231592745415921 0.13432141316036281 0 -0.0050733015910006882 0.13156669209468241 0 -0.0050733015910006882 0.13156669209468241 0 -0.0074694708824928138 0.1142705940511041 0 0.0087792745487023267 0.1228019865252658 0 -0.0074694708824928138 0.1142705940511041 0 -0.012715356561886571 0.097236530809795538 0 0.0015840102750627151 0.086596665437876572 0 -0.012715356561886571 0.097236530809795538 0 -0.028320505605585151 0.088625029756313631 0 -0.037011367382072058 0.1042609671291691 0 -0.0074694708824928138 0.1142705940511041 0 -0.012715356561886571 0.097236530809795538 0 -0.037011367382072058 0.1042609671291691 0 -0.02231592745415921 0.13432141316036281 0 -0.0074694708824928138 0.1142705940511041 0 -0.032633188593100951 0.12160585589899579 0 -0.0074694708824928138 0.1142705940511041 0 -0.032633188593100951 0.12160585589899579 0 -0.0074694708824928138 0.1142705940511041 0 -0.032633188593100951 0.12160585589899579 0 -0.037011367382072058 0.1042609671291691 0 -0.0129649850606203 0.068229016587511057 0 -0.003137787526490379 0.062521167176500969 0 -0.021817039290884022 0.057053576637570498 0 -0.0129649850606203 0.068229016587511057 0 -0.019293607398702731 0.071904817665022824 0 0.0015840102750627151 0.086596665437876572 0 -0.0129649850606203 0.068229016587511057 0 0.0015840102750627151 0.086596665437876572 0 0.0023564420774942361 0.076512728404814642 0 -0.0129649850606203 0.068229016587511057 0 0.0015840102750627151 0.086596665437876572 0 -0.0129649850606203 0.068229016587511057 0 -0.003137787526490379 0.062521167176500969 0 -0.0129649850606203 0.068229016587511057 0 -0.003137787526490379 0.062521167176500969 0 0.0023564420774942361 0.076512728404814642 0 -0.028320505605585151 0.088625029756313631 0 0.0015840102750627151 0.086596665437876572 0 -0.012715356561886571 0.097236530809795538 0 -0.028320505605585151 0.088625029756313631 0 0.0015840102750627151 0.086596665437876572 0 -0.022061719730323871 0.079939829219001307 0 -0.019293607398702731 0.071904817665022824 0 0.0015840102750627151 0.086596665437876572 0 -0.028320505605585151 0.088625029756313631 0 -0.022061719730323871 0.079939829219001307 0 0.0015840102750627151 0.086596665437876572 0 -0.028320505605585151 0.088625029756313631 0 -0.022061719730323871 0.079939829219001307 0 -0.031864682499231779 0.073355001272323903 0 -0.022061719730323871 0.079939829219001307 0 -0.019293607398702731 0.071904817665022824 0 -0.031864682499231779 0.073355001272323903 0 -0.023380363133597371 0.065442952699973064 0 -0.031864682499231779 0.073355001272323903 0 -0.03036675161832712 0.060789526161765688 0 -0.019293607398702731 0.071904817665022824 0 -0.023380363133597371 0.065442952699973064 0 -0.031864682499231779 0.073355001272323903 0 -0.0129649850606203 0.068229016587511057 0 -0.019293607398702731 0.071904817665022824 0 -0.023380363133597371 0.065442952699973064 0 -0.0129649850606203 0.068229016587511057 0 -0.023380363133597371 0.065442952699973064 0 -0.021817039290884022 0.057053576637570498 0 -0.0129649850606203 0.068229016587511057 0 -0.021817039290884022 0.057053576637570498 0 -0.0129649850606203 0.068229016587511057 0 -0.019293607398702731 0.071904817665022824 0 -0.044295886552279902 0.075721460118259365 0 -0.043668215999513947 0.062492916746221712 0 -0.03036675161832712 0.060789526161765688 0 -0.044295886552279902 0.075721460118259365 0 -0.03036675161832712 0.060789526161765688 0 -0.031864682499231779 0.073355001272323903 0 -0.044295886552279902 0.075721460118259365 0 -0.03036675161832712 0.060789526161765688 0 -0.028320505605585151 0.088625029756313631 0 -0.044295886552279902 0.075721460118259365 0 -0.058225021486232847 0.090653394074752883 0 -0.028320505605585151 0.088625029756313631 0 -0.031864682499231779 0.073355001272323903 0 -0.044295886552279902 0.075721460118259365 0 -0.028320505605585151 0.088625029756313631 0 -0.058225021486232847 0.090653394074752883 0 -0.044295886552279902 0.075721460118259365 0 -0.058225021486232847 0.090653394074752883 0 -0.064536897009078151 0.077564899286451647 0 -0.044295886552279902 0.075721460118259365 0 -0.058225021486232847 0.090653394074752883 0 -0.044295886552279902 0.075721460118259365 0 -0.056917329294472907 0.062634745154407367 0 -0.064536897009078151 0.077564899286451647 0 -0.044295886552279902 0.075721460118259365 0 -0.056917329294472907 0.062634745154407367 0 -0.043668215999513947 0.062492916746221712 0 -0.032633188593100951 0.12160585589899579 0 -0.037011367382072058 0.1042609671291691 0 -0.049359521656441127 0.1161632494042482 0 -0.057796906303709122 0.12894111774688749 0 -0.032633188593100951 0.12160585589899579 0 -0.049359521656441127 0.1161632494042482 0 -0.028320505605585151 0.088625029756313631 0 -0.058225021486232847 0.090653394074752883 0 -0.037011367382072058 0.1042609671291691 0 -0.058225021486232847 0.090653394074752883 0 -0.037011367382072058 0.1042609671291691 0 -0.056730655448354518 0.1079761123210321 0 -0.037011367382072058 0.1042609671291691 0 -0.056730655448354518 0.1079761123210321 0 -0.049359521656441127 0.1161632494042482 0 -0.056730655448354518 0.1079761123210321 0 -0.049359521656441127 0.1161632494042482 0 -0.062625490554968966 0.11803219392515669 0 -0.057796906303709122 0.12894111774688749 0 -0.049359521656441127 0.1161632494042482 0 -0.062625490554968966 0.11803219392515669 0 -0.056730655448354518 0.1079761123210321 0 -0.062625490554968966 0.11803219392515669 0 -0.07338052329005719 0.1068999846265188 0 -0.069471102569403115 0.12631058973122339 0 -0.062625490554968966 0.11803219392515669 0 -0.074501389404617119 0.1219926676580704 0 -0.069471102569403115 0.12631058973122339 0 -0.057796906303709122 0.12894111774688749 0 -0.062625490554968966 0.11803219392515669 0 -0.062625490554968966 0.11803219392515669 0 -0.074501389404617119 0.1219926676580704 0 -0.07338052329005719 0.1068999846265188 0 -0.088536025093881712 0.1231465751782846 0 -0.07338052329005719 0.1068999846265188 0 -0.096081880365861835 0.10725930060580199 0 -0.088536025093881712 0.1231465751782846 0 -0.07338052329005719 0.1068999846265188 0 -0.074501389404617119 0.1219926676580704 0 -0.088536025093881712 0.1231465751782846 0 -0.07338052329005719 0.1068999846265188 0 -0.07338052329005719 0.1068999846265188 0 -0.086415561007686811 0.092565502757972068 0 -0.096081880365861835 0.10725930060580199 0 -0.058225021486232847 0.090653394074752883 0 -0.07338052329005719 0.1068999846265188 0 -0.058225021486232847 0.090653394074752883 0 -0.056730655448354518 0.1079761123210321 0 -0.07338052329005719 0.1068999846265188 0 -0.058225021486232847 0.090653394074752883 0 -0.07338052329005719 0.1068999846265188 0 -0.086415561007686811 0.092565502757972068 0 -0.058225021486232847 0.090653394074752883 0 -0.064536897009078151 0.077564899286451647 0 -0.086415561007686811 0.092565502757972068 0 -0.058225021486232847 0.090653394074752883 0 -0.086415561007686811 0.092565502757972068 0 -0.064536897009078151 0.077564899286451647 0 -0.076830686704718265 0.066249394326866551 0 -0.086415561007686811 0.092565502757972068 0 -0.056917329294472907 0.062634745154407367 0 -0.064536897009078151 0.077564899286451647 0 -0.076830686704718265 0.066249394326866551 0 -0.076830686704718265 0.066249394326866551 0 -0.086415561007686811 0.092565502757972068 0 -0.098225255247852666 0.07141088989745191 0 -0.086415561007686811 0.092565502757972068 0 -0.098225255247852666 0.07141088989745191 0 -0.1146061005291409 0.094477611441191531 0 -0.086415561007686811 0.092565502757972068 0 -0.1146061005291409 0.094477611441191531 0 -0.098225255247852666 0.07141088989745191 0 -0.11901684822623899 0.069332624134384499 0 -0.1144352779592047 0.050024446948300168 0 -0.14064160935044259 0.075973430479098131 0 -0.11901684822623899 0.069332624134384499 0 -0.1146061005291409 0.094477611441191531 0 -0.098225255247852666 0.07141088989745191 0 -0.11901684822623899 0.069332624134384499 0 -0.1146061005291409 0.094477611441191531 0 -0.1297016798790894 0.1066375800531613 0 -0.1146061005291409 0.094477611441191531 0 -0.1120273366060608 0.1196740423458376 0 -0.1297016798790894 0.1066375800531613 0 -0.13121897980857941 0.12587151947184211 0 -0.1120273366060608 0.1196740423458376 0 -0.088536025093881712 0.1231465751782846 0 -0.1120273366060608 0.1196740423458376 0 -0.096081880365861835 0.10725930060580199 0 -0.1146061005291409 0.094477611441191531 0 -0.1120273366060608 0.1196740423458376 0 -0.096081880365861835 0.10725930060580199 0 -0.086415561007686811 0.092565502757972068 0 -0.1146061005291409 0.094477611441191531 0 -0.096081880365861835 0.10725930060580199 0 -0.108885548354824 0.022404096300397029 0 -0.081796898685300115 0.024418792807408791 0 -0.090749260952593599 0.0065063747977018227 0 -0.097804271532689085 -0.0045970153036278358 0 -0.109530651746324 0.00091513813098781371 0 -0.090749260952593599 0.0065063747977018227 0 -0.108885548354824 0.022404096300397029 0 -0.109530651746324 0.00091513813098781371 0 -0.090749260952593599 0.0065063747977018227 0 -0.1222840736381321 -0.0043715844633764982 0 -0.12749226590576249 0.01550433414524306 0 -0.108885548354824 0.022404096300397029 0 -0.1222840736381321 -0.0043715844633764982 0 -0.108885548354824 0.022404096300397029 0 -0.109530651746324 0.00091513813098781371 0 -0.1222840736381321 -0.0043715844633764982 0 -0.108885548354824 0.022404096300397029 0 -0.12875972825011101 0.033202911982989122 0 -0.12749226590576249 0.01550433414524306 0 -0.108885548354824 0.022404096300397029 0 -0.12875972825011101 0.033202911982989122 0 -0.108885548354824 0.022404096300397029 0 -0.1144352779592047 0.050024446948300168 0 -0.13331852268924901 0.051805710254840778 0 -0.11901684822623899 0.069332624134384499 0 -0.1144352779592047 0.050024446948300168 0 -0.098225255247852666 0.07141088989745191 0 -0.1144352779592047 0.050024446948300168 0 -0.095487023071516075 0.049179777064170323 0 -0.108885548354824 0.022404096300397029 0 -0.095487023071516075 0.049179777064170323 0 -0.081796898685300115 0.024418792807408791 0 -0.108885548354824 0.022404096300397029 0 -0.1144352779592047 0.050024446948300168 0 -0.095487023071516075 0.049179777064170323 0 -0.108885548354824 0.022404096300397029 0 -0.095487023071516075 0.049179777064170323 0 -0.095487023071516075 0.049179777064170323 0 -0.064368753775068038 0.044598294463339003 0 -0.081796898685300115 0.024418792807408791 0 -0.076830686704718265 0.066249394326866551 0 -0.095487023071516075 0.049179777064170323 0 -0.064368753775068038 0.044598294463339003 0 -0.076830686704718265 0.066249394326866551 0 -0.098225255247852666 0.07141088989745191 0 -0.095487023071516075 0.049179777064170323 0 -0.056917329294472907 0.062634745154407367 0 -0.076830686704718265 0.066249394326866551 0 -0.064368753775068038 0.044598294463339003 0 -0.064368753775068038 0.044598294463339003 0 -0.065567190003576969 0.02787042833550625 0 -0.081796898685300115 0.024418792807408791 0 -0.065567190003576969 0.02787042833550625 0 -0.081796898685300115 0.024418792807408791 0 -0.06429663775293179 0.0034244201320481082 0 -0.081796898685300115 0.024418792807408791 0 -0.090749260952593599 0.0065063747977018227 0 -0.06429663775293179 0.0034244201320481082 0 -0.06429663775293179 0.0034244201320481082 0 -0.050136771598916177 0.021300805633889169 0 -0.06429663775293179 0.0034244201320481082 0 -0.040669640705615413 0.0212410590638764 0 -0.042331935630484048 0.002039555730186072 0 -0.06429663775293179 0.0034244201320481082 0 -0.040669640705615413 0.0212410590638764 0 -0.06429663775293179 0.0034244201320481082 0 -0.050136771598916177 0.021300805633889169 0 -0.040669640705615413 0.0212410590638764 0 -0.065567190003576969 0.02787042833550625 0 -0.06429663775293179 0.0034244201320481082 0 -0.050136771598916177 0.021300805633889169 0 -0.050136771598916177 0.021300805633889169 0 -0.040669640705615413 0.0212410590638764 0 -0.035976905444900363 0.039177191135729997 0 -0.050136771598916177 0.021300805633889169 0 -0.035976905444900363 0.039177191135729997 0 -0.026366295026715381 -0.0080643654216814211 0 -0.042331935630484048 0.002039555730186072 0 -0.02841283365284639 0.0087375389049946864 0 -0.040669640705615413 0.0212410590638764 0 -0.042331935630484048 0.002039555730186072 0 -0.02841283365284639 0.0087375389049946864 0 -0.056917329294472907 0.062634745154407367 0 -0.064368753775068038 0.044598294463339003 0 -0.043092896532975877 0.050825935550454407 0 -0.064368753775068038 0.044598294463339003 0 -0.043092896532975877 0.050825935550454407 0 -0.056917329294472907 0.062634745154407367 0 -0.043092896532975877 0.050825935550454407 0 -0.043668215999513947 0.062492916746221712 0 -0.064368753775068038 0.044598294463339003 0 -0.050136771598916177 0.021300805633889169 0 -0.035976905444900363 0.039177191135729997 0 -0.064368753775068038 0.044598294463339003 0 -0.035976905444900363 0.039177191135729997 0 -0.043092896532975877 0.050825935550454407 0 -0.064368753775068038 0.044598294463339003 0 -0.065567190003576969 0.02787042833550625 0 -0.050136771598916177 0.021300805633889169 0 -0.035976905444900363 0.039177191135729997 0 -0.043092896532975877 0.050825935550454407 0 -0.021817039290884022 0.057053576637570498 0 -0.043092896532975877 0.050825935550454407 0 -0.021817039290884022 0.057053576637570498 0 -0.03036675161832712 0.060789526161765688 0 -0.043092896532975877 0.050825935550454407 0 -0.021817039290884022 0.057053576637570498 0 -0.043092896532975877 0.050825935550454407 0 -0.043668215999513947 0.062492916746221712 0 -0.03036675161832712 0.060789526161765688 0 -0.035976905444900363 0.039177191135729997 0 -0.021817039290884022 0.057053576637570498 0 -0.023380363133597371 0.065442952699973064 0 -0.021817039290884022 0.057053576637570498 0 -0.03036675161832712 0.060789526161765688 0 -0.040669640705615413 0.0212410590638764 0 -0.035976905444900363 0.039177191135729997 0 -0.01704264365829922 0.039057697995704937 0 -0.035976905444900363 0.039177191135729997 0 -0.021817039290884022 0.057053576637570498 0 -0.01704264365829922 0.039057697995704937 0 -0.01704264365829922 0.039057697995704937 0 -0.012816892631072571 0.025645468694267069 0 0.0013651773459444729 0.031880029734714342 0 -0.01704264365829922 0.039057697995704937 0 0.0065843533890169014 0.056874336927533638 0 0.0013651773459444729 0.031880029734714342 0 -0.003137787526490379 0.062521167176500969 0 -0.01704264365829922 0.039057697995704937 0 0.0065843533890169014 0.056874336927533638 0 -0.003137787526490379 0.062521167176500969 0 -0.021817039290884022 0.057053576637570498 0 -0.01704264365829922 0.039057697995704937 0 -0.01704264365829922 0.039057697995704937 0 0.0065843533890169014 0.056874336927533638 0 -0.003137787526490379 0.062521167176500969 0 -0.021817039290884022 0.057053576637570498 0 -0.026366295026715381 -0.0080643654216814211 0 -0.02841283365284639 0.0087375389049946864 0 -0.012500558840385451 0.01190783215651646 0 -0.02841283365284639 0.0087375389049946864 0 -0.023089545371550078 0.019736314890132538 0 -0.012500558840385451 0.01190783215651646 0 -0.026366295026715381 -0.0080643654216814211 0 -0.012500558840385451 0.01190783215651646 0 -0.040669640705615413 0.0212410590638764 0 -0.02841283365284639 0.0087375389049946864 0 -0.023089545371550078 0.019736314890132538 0 -0.040669640705615413 0.0212410590638764 0 -0.01704264365829922 0.039057697995704937 0 -0.023089545371550078 0.019736314890132538 0 -0.01704264365829922 0.039057697995704937 0 -0.023089545371550078 0.019736314890132538 0 -0.012816892631072571 0.025645468694267069 0 -0.040669640705615413 0.0212410590638764 0 -0.01704264365829922 0.039057697995704937 0 -0.023089545371550078 0.019736314890132538 0 -0.012816892631072571 0.025645468694267069 0 -0.012500558840385451 0.01190783215651646 0 -0.012500558840385451 0.01190783215651646 0 0.0082665737667670623 0.02373199143127953 0 0.0013651773459444729 0.031880029734714342 0 -0.012500558840385451 0.01190783215651646 0 0.0013651773459444729 0.031880029734714342 0 -0.012816892631072571 0.025645468694267069 0 -0.012500558840385451 0.01190783215651646 0 0.0013651773459444729 0.031880029734714342 0 -0.0060991833155395643 -8.9340787780604891e-05 0 -0.012500558840385451 0.01190783215651646 0 0.0082665737667670623 0.02373199143127953 0 -0.026366295026715381 -0.0080643654216814211 0 -0.0060991833155395643 -8.9340787780604891e-05 0 -0.012500558840385451 0.01190783215651646 0 -0.0060991833155395643 -8.9340787780604891e-05 0 0.0082665737667670623 0.02373199143127953 0 -0.0060991833155395643 -8.9340787780604891e-05 0 0.0082665737667670623 0.02373199143127953 0 0.017048673377461451 0.0079426142550743165 0 0.0082665737667670623 0.02373199143127953 0 0.03625653237627189 0.039640091989698159 0 0.033603450889287442 0.019387283149508529 0 0.0082665737667670623 0.02373199143127953 0 0.017048673377461451 0.0079426142550743165 0 0.033603450889287442 0.019387283149508529 0 0.017048673377461451 0.0079426142550743165 0 0.033603450889287442 0.019387283149508529 0 0.03105222981857109 -0.0008786088452242824 0 0.0065843533890169014 0.056874336927533638 0 0.015230913532274329 0.05185222731291228 0 0.02473194611532769 0.065537508598785446 0 -0.003137787526490379 0.062521167176500969 0 0.0065843533890169014 0.056874336927533638 0 0.01215692475392297 0.066998071562974507 0 -0.003137787526490379 0.062521167176500969 0 0.0065843533890169014 0.056874336927533638 0 0.0065843533890169014 0.056874336927533638 0 0.015230913532274329 0.05185222731291228 0 0.0082665737667670623 0.02373199143127953 0 0.0013651773459444729 0.031880029734714342 0 0.02263233084907269 0.047553323650340207 0 0.015230913532274329 0.05185222731291228 0 0.0013651773459444729 0.031880029734714342 0 0.02263233084907269 0.047553323650340207 0 0.0065843533890169014 0.056874336927533638 0 0.015230913532274329 0.05185222731291228 0 0.0013651773459444729 0.031880029734714342 0 0.0082665737667670623 0.02373199143127953 0 0.02263233084907269 0.047553323650340207 0 0.015230913532274329 0.05185222731291228 0 0.0013651773459444729 0.031880029734714342 0 0.0082665737667670623 0.02373199143127953 0 0.02263233084907269 0.047553323650340207 0 0.03625653237627189 0.039640091989698159 0 0.02263233084907269 0.047553323650340207 0 0.03625653237627189 0.039640091989698159 0 0.02263233084907269 0.047553323650340207 0 0.036745802469353328 0.070956315522245531 0 0.02263233084907269 0.047553323650340207 0 0.02473194611532769 0.065537508598785446 0 0.030860827439113281 0.068836381689233728 0 0.02263233084907269 0.047553323650340207 0 0.036745802469353328 0.070956315522245531 0 0.030860827439113281 0.068836381689233728 0 0.015230913532274329 0.05185222731291228 0 0.02263233084907269 0.047553323650340207 0 0.02473194611532769 0.065537508598785446 0 0.015230913532274329 0.05185222731291228 0 0.02263233084907269 0.047553323650340207 0 0.015230913532274329 0.05185222731291228 0 0.02473194611532769 0.065537508598785446 0 0.036981171178426579 0.05451407738129594 0 0.03625653237627189 0.039640091989698159 0 0.051894327175260428 0.051085307113240649 0 0.02263233084907269 0.047553323650340207 0 0.036981171178426579 0.05451407738129594 0 0.036745802469353328 0.070956315522245531 0 0.036981171178426579 0.05451407738129594 0 0.051894327175260428 0.051085307113240649 0 0.036745802469353328 0.070956315522245531 0 0.02263233084907269 0.047553323650340207 0 0.036981171178426579 0.05451407738129594 0 0.03625653237627189 0.039640091989698159 0 0.03625653237627189 0.039640091989698159 0 0.049880733903471093 0.031726860329056077 0 0.051894327175260428 0.051085307113240649 0 0.03625653237627189 0.039640091989698159 0 0.049880733903471093 0.031726860329056077 0 0.049880733903471093 0.031726860329056077 0 0.051894327175260428 0.051085307113240649 0 0.063953296952700994 0.038195409423808308 0 0.051894327175260428 0.051085307113240649 0 0.071843673561547028 0.051601535267580927 0 0.062226300778223588 0.063659228363162998 0 0.051894327175260428 0.051085307113240649 0 0.062226300778223588 0.063659228363162998 0 0.036745802469353328 0.070956315522245531 0 0.033603450889287442 0.019387283149508529 0 0.049637077477659317 0.01270165718965135 0 0.03105222981857109 -0.0008786088452242824 0 0.049637077477659317 0.01270165718965135 0 0.03105222981857109 -0.0008786088452242824 0 0.051489997258358969 -0.0070351701845739372 0 0.03625653237627189 0.039640091989698159 0 0.049880733903471093 0.031726860329056077 0 0.033603450889287442 0.019387283149508529 0 0.049880733903471093 0.031726860329056077 0 0.033603450889287442 0.019387283149508529 0 0.049637077477659317 0.01270165718965135 0 0.049880733903471093 0.031726860329056077 0 0.060449169125260722 0.023185786893228189 0 0.049637077477659317 0.01270165718965135 0 0.049880733903471093 0.031726860329056077 0 0.060449169125260722 0.023185786893228189 0 0.063953296952700994 0.038195409423808308 0 0.049637077477659317 0.01270165718965135 0 0.066317762399445576 0.0043892815254785167 0 0.051489997258358969 -0.0070351701845739372 0 0.060449169125260722 0.023185786893228189 0 0.049637077477659317 0.01270165718965135 0 0.066317762399445576 0.0043892815254785167 0 0.066317762399445576 0.0043892815254785167 0 0.086626109984082864 0.0087739812618877148 0 0.075661010549378321 0.023715469181392949 0 0.066317762399445576 0.0043892815254785167 0 0.086626109984082864 0.0087739812618877148 0 0.081532356514722987 -0.0108093011453232 0 0.086626109984082864 0.0087739812618877148 0 0.075661010549378321 0.023715469181392949 0 0.094821805463468689 0.025328515686624111 0 0.075661010549378321 0.023715469181392949 0 0.082092862665525138 0.039219240595167577 0 0.094821805463468689 0.025328515686624111 0 0.060449169125260722 0.023185786893228189 0 0.066317762399445576 0.0043892815254785167 0 0.075661010549378321 0.023715469181392949 0 0.060449169125260722 0.023185786893228189 0 0.075661010549378321 0.023715469181392949 0 0.063953296952700994 0.038195409423808308 0 0.063953296952700994 0.038195409423808308 0 0.071843673561547028 0.051601535267580927 0 0.082092862665525138 0.039219240595167577 0 0.075661010549378321 0.023715469181392949 0 0.063953296952700994 0.038195409423808308 0 0.082092862665525138 0.039219240595167577 0 0.051894327175260428 0.051085307113240649 0 0.063953296952700994 0.038195409423808308 0 0.071843673561547028 0.051601535267580927 0 0.071843673561547028 0.051601535267580927 0 0.080193698541872332 0.068438339119724273 0 0.062226300778223588 0.063659228363162998 0 0.071843673561547028 0.051601535267580927 0 0.086627117939808762 0.052690849200832918 0 0.080193698541872332 0.068438339119724273 0 0.086627117939808762 0.052690849200832918 0 0.099151617951542315 0.062530061618462029 0 0.080193698541872332 0.068438339119724273 0 0.071843673561547028 0.051601535267580927 0 0.086627117939808762 0.052690849200832918 0 0.082092862665525138 0.039219240595167577 0 0.082092862665525138 0.039219240595167577 0 0.099853736978557039 0.041665069403229747 0 0.094821805463468689 0.025328515686624111 0 0.086627117939808762 0.052690849200832918 0 0.082092862665525138 0.039219240595167577 0 0.099853736978557039 0.041665069403229747 0 0.099853736978557039 0.041665069403229747 0 0.1117731786429243 0.031222272408135909 0 0.094821805463468689 0.025328515686624111 0 0.099853736978557039 0.041665069403229747 0 0.099151617951542315 0.062530061618462029 0 0.099853736978557039 0.041665069403229747 0 0.12084946676276651 0.051920765802114653 0 0.099151617951542315 0.062530061618462029 0 0.086627117939808762 0.052690849200832918 0 0.099853736978557039 0.041665069403229747 0 0.099151617951542315 0.062530061618462029 0 0.12084946676276651 0.051920765802114653 0 0.1117731786429243 0.031222272408135909 0 0.12590570183597469 0.035936875787285161 0 0.099853736978557039 0.041665069403229747 0 0.12084946676276651 0.051920765802114653 0 0.1117731786429243 0.031222272408135909 0 0.1117731786429243 0.031222272408135909 0 0.12401493039047071 0.020319397639299529 0 0.10519343042630799 0.012163010130262299 0 0.1117731786429243 0.031222272408135909 0 0.12401493039047071 0.020319397639299529 0 0.12590570183597469 0.035936875787285161 0 0.12313387866373759 0.0035515711970952281 0 0.10519343042630799 0.012163010130262299 0 0.10448182883083849 -0.0074166645345203897 0 0.12401493039047071 0.020319397639299529 0 0.12313387866373759 0.0035515711970952281 0 0.10519343042630799 0.012163010130262299 0 0.086626109984082864 0.0087739812618877148 0 0.10519343042630799 0.012163010130262299 0 0.094821805463468689 0.025328515686624111 0 0.086626109984082864 0.0087739812618877148 0 0.10519343042630799 0.012163010130262299 0 0.10448182883083849 -0.0074166645345203897 0 0.1117731786429243 0.031222272408135909 0 0.10519343042630799 0.012163010130262299 0 0.094821805463468689 0.025328515686624111 0 0.097782068941230843 0.1032291857541798 0 0.124516223342394 0.102573694320021 0 0.09812404952953474 0.093066489632638694 0 0.097782068941230843 0.1032291857541798 0 0.097391140065000922 0.1148464865898018 0 0.12629269148191641 0.106016018243555 0 0.097782068941230843 0.1032291857541798 0 0.09812404952953474 0.093066489632638694 0 0.097782068941230843 0.1032291857541798 0 0.097391140065000922 0.1148464865898018 0 0.097391140065000922 0.1148464865898018 0 0.1136454455756077 0.1184987920293956 0 0.09686179101501495 0.13057724360127851 0 0.097391140065000922 0.1148464865898018 0 0.09686179101501495 0.13057724360127851 0 0.1136454455756077 0.1184987920293956 0 0.09686179101501495 0.13057724360127851 0 0.097391140065000922 0.1148464865898018 0 0.1136454455756077 0.1184987920293956 0 0.12629269148191641 0.106016018243555 0 0.1136454455756077 0.1184987920293956 0 0.12629269148191641 0.106016018243555 0 0.13042910013620129 0.10642034045751381 0 0.097391140065000922 0.1148464865898018 0 0.12629269148191641 0.106016018243555 0 0.1136454455756077 0.1184987920293956 0 0.13042910013620129 0.10642034045751381 0 0.097782068941230843 0.1032291857541798 0 0.12629269148191641 0.106016018243555 0 0.097782068941230843 0.1032291857541798 0 0.124516223342394 0.102573694320021 0 0.12629269148191641 0.106016018243555 0 0.124516223342394 0.102573694320021 0 0.1146001851029943 0.090900803095575786 0 0.09812404952953474 0.093066489632638694 0 0.124516223342394 0.102573694320021 0 0.09812404952953474 0.093066489632638694 0 0.124516223342394 0.102573694320021 0 0.1234856839472072 0.093079819220779875 0 0.1146001851029943 0.090900803095575786 0 0.1228453092766736 0.076283638144546695 0 0.09844949892452759 0.083395053833694249 0 0.1234856839472072 0.093079819220779875 0 0.1146001851029943 0.090900803095575786 0 0.1228453092766736 0.076283638144546695 0 0.1146001851029943 0.090900803095575786 0 0.1228453092766736 0.076283638144546695 0 0.1055414396037832 0.088474895408991422 0 0.12084946676276651 0.051920765802114653 0 0.1228453092766736 0.076283638144546695 0 0.099151617951542315 0.062530061618462029 0 0.1228453092766736 0.076283638144546695 0 0.099151617951542315 0.062530061618462029 0 0.09844949892452759 0.083395053833694249 0 0.099151617951542315 0.062530061618462029 0 0.09844949892452759 0.083395053833694249 0 0.099151617951542315 0.062530061618462029 0 0.09844949892452759 0.083395053833694249 0 0.088506272824586715 0.077236134328939068 0 0.1146001851029943 0.090900803095575786 0 0.1055414396037832 0.088474895408991422 0 0.09812404952953474 0.093066489632638694 0 0.1228453092766736 0.076283638144546695 0 0.1055414396037832 0.088474895408991422 0 0.09844949892452759 0.083395053833694249 0 0.09844949892452759 0.083395053833694249 0 0.09812404952953474 0.093066489632638694 0 0.1055414396037832 0.088474895408991422 0 0.09844949892452759 0.083395053833694249 0 0.09812404952953474 0.093066489632638694 0 0.09812404952953474 0.093066489632638694 0 0.083429971751463911 0.087773268766517837 0 0.09844949892452759 0.083395053833694249 0 0.09812404952953474 0.093066489632638694 0 0.083429971751463911 0.087773268766517837 0 0.09844949892452759 0.083395053833694249 0 0.083429971751463911 0.087773268766517837 0 0.088506272824586715 0.077236134328939068 0 0.09844949892452759 0.083395053833694249 0 0.083429971751463911 0.087773268766517837 0 0.083429971751463911 0.087773268766517837 0 0.080193698541872332 0.068438339119724273 0 0.088506272824586715 0.077236134328939068 0 0.099151617951542315 0.062530061618462029 0 0.080193698541872332 0.068438339119724273 0 0.088506272824586715 0.077236134328939068 0 0.080193698541872332 0.068438339119724273 0 0.062226300778223588 0.063659228363162998 0 0.060087887110408432 0.079364792144382079 0 0.083429971751463911 0.087773268766517837 0 0.065378478009223057 0.093035306549158314 0 0.060087887110408432 0.079364792144382079 0 0.083429971751463911 0.087773268766517837 0 0.060087887110408432 0.079364792144382079 0 0.083429971751463911 0.087773268766517837 0 0.065378478009223057 0.093035306549158314 0 0.083429971751463911 0.087773268766517837 0 0.080193698541872332 0.068438339119724273 0 0.060087887110408432 0.079364792144382079 0 0.083429971751463911 0.087773268766517837 0 0.065378478009223057 0.093035306549158314 0 0.072554526604106412 0.10076326504299279 0 0.097782068941230843 0.1032291857541798 0 0.072554526604106412 0.10076326504299279 0 0.083224369189592057 0.110888398146449 0 0.097782068941230843 0.1032291857541798 0 0.083429971751463911 0.087773268766517837 0 0.072554526604106412 0.10076326504299279 0 0.097782068941230843 0.1032291857541798 0 0.072554526604106412 0.10076326504299279 0 0.097782068941230843 0.1032291857541798 0 0.09812404952953474 0.093066489632638694 0 0.083429971751463911 0.087773268766517837 0 0.097391140065000922 0.1148464865898018 0 0.083224369189592057 0.110888398146449 0 0.073688932706138466 0.12208836744246809 0 0.097391140065000922 0.1148464865898018 0 0.073688932706138466 0.12208836744246809 0 0.097391140065000922 0.1148464865898018 0 0.073688932706138466 0.12208836744246809 0 0.083567606064033184 0.13009304620436929 0 0.097782068941230843 0.1032291857541798 0 0.097391140065000922 0.1148464865898018 0 0.083224369189592057 0.110888398146449 0 0.072554526604106412 0.10076326504299279 0 0.083224369189592057 0.110888398146449 0 0.073688932706138466 0.12208836744246809 0 0.072554526604106412 0.10076326504299279 0 0.073688932706138466 0.12208836744246809 0 0.060259787635175643 0.11516922602917409 0 0.073688932706138466 0.12208836744246809 0 0.060259787635175643 0.11516922602917409 0 0.052024026791648283 0.12666037027577559 0 0.050019384779381851 0.1169945047809985 0 0.060259787635175643 0.11516922602917409 0 0.052024026791648283 0.12666037027577559 0 0.050019384779381851 0.1169945047809985 0 0.043678864345366303 0.1230522574692401 0 0.052024026791648283 0.12666037027577559 0 0.050019384779381851 0.1169945047809985 0 0.05312934104925484 0.1085195720653928 0 0.042457241474105269 0.1116230922557807 0 0.050019384779381851 0.1169945047809985 0 0.060259787635175643 0.11516922602917409 0 0.05312934104925484 0.1085195720653928 0 0.072554526604106412 0.10076326504299279 0 0.047326984266982543 0.098297344331799874 0 0.065378478009223057 0.093035306549158314 0 0.072554526604106412 0.10076326504299279 0 0.047326984266982543 0.098297344331799874 0 0.072554526604106412 0.10076326504299279 0 0.060259787635175643 0.11516922602917409 0 0.05312934104925484 0.1085195720653928 0 0.072554526604106412 0.10076326504299279 0 0.047326984266982543 0.098297344331799874 0 0.05312934104925484 0.1085195720653928 0 0.065378478009223057 0.093035306549158314 0 0.047326984266982543 0.098297344331799874 0 0.047326984266982543 0.098297344331799874 0 0.05312934104925484 0.1085195720653928 0 0.042457241474105269 0.1116230922557807 0 0.047326984266982543 0.098297344331799874 0 0.032510615547548742 0.10261633826750551 0 0.042457241474105269 0.1116230922557807 0 0.047326984266982543 0.098297344331799874 0 0.032510615547548742 0.10261633826750551 0 0.047326984266982543 0.098297344331799874 0 0.031761238446880682 0.096775836826631101 0 0.047326984266982543 0.098297344331799874 0 0.031761238446880682 0.096775836826631101 0 0.039687759252118093 0.092500410801849786 0 0.047326984266982543 0.098297344331799874 0 0.031761238446880682 0.096775836826631101 0 0.032510615547548742 0.10261633826750551 0 0.043678864345366303 0.1230522574692401 0 0.042457241474105269 0.1116230922557807 0 0.027981663621304029 0.1199228722274485 0 0.032510615547548742 0.10261633826750551 0 0.042457241474105269 0.1116230922557807 0 0.027981663621304029 0.1199228722274485 0 0.050019384779381851 0.1169945047809985 0 0.043678864345366303 0.1230522574692401 0 0.042457241474105269 0.1116230922557807 0 0.062226300778223588 0.063659228363162998 0 0.060087887110408432 0.079364792144382079 0 0.036745802469353328 0.070956315522245531 0 0.060087887110408432 0.079364792144382079 0 0.036745802469353328 0.070956315522245531 0 0.065378478009223057 0.093035306549158314 0 0.047326984266982543 0.098297344331799874 0 0.04991477884955095 0.089548931318297845 0 0.060087887110408432 0.079364792144382079 0 0.04991477884955095 0.089548931318297845 0 0.037984520236608643 0.073010360240553213 0 0.065378478009223057 0.093035306549158314 0 0.060087887110408432 0.079364792144382079 0 0.04991477884955095 0.089548931318297845 0 0.04991477884955095 0.089548931318297845 0 0.032287463663017053 0.081497162895216482 0 0.02824956611928401 0.073211634122915689 0 0.04991477884955095 0.089548931318297845 0 0.037984520236608643 0.073010360240553213 0 0.02824956611928401 0.073211634122915689 0 0.04991477884955095 0.089548931318297845 0 0.037101031083907443 0.087723980002023499 0 0.032287463663017053 0.081497162895216482 0 0.04991477884955095 0.089548931318297845 0 0.02824956611928401 0.073211634122915689 0 0.047326984266982543 0.098297344331799874 0 0.04991477884955095 0.089548931318297845 0 0.039687759252118093 0.092500410801849786 0 0.04991477884955095 0.089548931318297845 0 0.039687759252118093 0.092500410801849786 0 0.037101031083907443 0.087723980002023499 0 0.039687759252118093 0.092500410801849786 0 0.032479317165600499 0.089964484240120657 0 0.037101031083907443 0.087723980002023499 0 0.031761238446880682 0.096775836826631101 0 0.039687759252118093 0.092500410801849786 0 0.032479317165600499 0.089964484240120657 0 0.032479317165600499 0.089964484240120657 0 0.037101031083907443 0.087723980002023499 0 0.031135836489250571 0.085108910754632727 0 0.037101031083907443 0.087723980002023499 0 0.032287463663017053 0.081497162895216482 0 0.031135836489250571 0.085108910754632727 0 0.060087887110408432 0.079364792144382079 0 0.036745802469353328 0.070956315522245531 0 0.037984520236608643 0.073010360240553213 0 0.036745802469353328 0.070956315522245531 0 0.037984520236608643 0.073010360240553213 0 0.02824956611928401 0.073211634122915689 0 0.036745802469353328 0.070956315522245531 0 0.030860827439113281 0.068836381689233728 0 0.02824956611928401 0.073211634122915689 0 0.036745802469353328 0.070956315522245531 0 0.037984520236608643 0.073010360240553213 0 0.036745802469353328 0.070956315522245531 0 0.030860827439113281 0.068836381689233728 0 0.0065843533890169014 0.056874336927533638 0 0.02824956611928401 0.073211634122915689 0 0.01215692475392297 0.066998071562974507 0 0.0065843533890169014 0.056874336927533638 0 0.02824956611928401 0.073211634122915689 0 0.02824956611928401 0.073211634122915689 0 0.018450153716404929 0.073992148640110805 0 0.01215692475392297 0.066998071562974507 0 0.0065843533890169014 0.056874336927533638 0 0.02473194611532769 0.065537508598785446 0 0.02824956611928401 0.073211634122915689 0 0.02473194611532769 0.065537508598785446 0 0.030860827439113281 0.068836381689233728 0 0.02824956611928401 0.073211634122915689 0 0.032287463663017053 0.081497162895216482 0 0.02824956611928401 0.073211634122915689 0 0.02587794872381053 0.078913771211261349 0 0.02824956611928401 0.073211634122915689 0 0.020957157652685139 0.077868279321067796 0 0.02587794872381053 0.078913771211261349 0 0.018450153716404929 0.073992148640110805 0 0.020957157652685139 0.077868279321067796 0 0.012436966339727599 0.077890609553485257 0 0.02824956611928401 0.073211634122915689 0 0.018450153716404929 0.073992148640110805 0 0.020957157652685139 0.077868279321067796 0 0.020957157652685139 0.077868279321067796 0 0.016781701370984541 0.082161566358806865 0 0.012436966339727599 0.077890609553485257 0 0.016781701370984541 0.082161566358806865 0 0.020067284861418989 0.086474770601523476 0 0.016181299025372069 0.086097661834652728 0 0.016781701370984541 0.082161566358806865 0 0.0225035917280107 0.082541145937402111 0 0.020067284861418989 0.086474770601523476 0 0.0225035917280107 0.082541145937402111 0 0.024433012300969881 0.086926167336376731 0 0.020067284861418989 0.086474770601523476 0 0.020957157652685139 0.077868279321067796 0 0.0225035917280107 0.082541145937402111 0 0.02587794872381053 0.078913771211261349 0 0.020957157652685139 0.077868279321067796 0 0.016781701370984541 0.082161566358806865 0 0.0225035917280107 0.082541145937402111 0 0.0225035917280107 0.082541145937402111 0 0.02587794872381053 0.078913771211261349 0 0.026904445458195151 0.082902320795376599 0 0.032287463663017053 0.081497162895216482 0 0.02587794872381053 0.078913771211261349 0 0.026904445458195151 0.082902320795376599 0 0.032287463663017053 0.081497162895216482 0 0.031135836489250571 0.085108910754632727 0 0.026904445458195151 0.082902320795376599 0 0.031135836489250571 0.085108910754632727 0 0.026904445458195151 0.082902320795376599 0 0.028436753644750831 0.08725567045504147 0 0.0225035917280107 0.082541145937402111 0 0.026904445458195151 0.082902320795376599 0 0.024433012300969881 0.086926167336376731 0 0.026904445458195151 0.082902320795376599 0 0.024433012300969881 0.086926167336376731 0 0.028436753644750831 0.08725567045504147 0 0.024433012300969881 0.086926167336376731 0 0.028436753644750831 0.08725567045504147 0 0.027231156809738071 0.091376469148700651 0 0.032479317165600499 0.089964484240120657 0 0.031135836489250571 0.085108910754632727 0 0.028436753644750831 0.08725567045504147 0 0.032479317165600499 0.089964484240120657 0 0.028436753644750831 0.08725567045504147 0 0.027231156809738071 0.091376469148700651 0 0.031761238446880682 0.096775836826631101 0 0.032479317165600499 0.089964484240120657 0 0.027231156809738071 0.091376469148700651 0 0.024433012300969881 0.086926167336376731 0 0.027231156809738071 0.091376469148700651 0 0.021910100357956021 0.091553401807323326 0 0.027231156809738071 0.091376469148700651 0 0.021910100357956021 0.091553401807323326 0 0.02492327956745154 0.097651736392399824 0 0.024433012300969881 0.086926167336376731 0 0.021910100357956021 0.091553401807323326 0 0.020067284861418989 0.086474770601523476 0 0.020067284861418989 0.086474770601523476 0 0.016181299025372069 0.086097661834652728 0 0.01593063560634456 0.091030737842585543 0 0.021910100357956021 0.091553401807323326 0 0.020067284861418989 0.086474770601523476 0 0.01593063560634456 0.091030737842585543 0 0.021910100357956021 0.091553401807323326 0 0.01593063560634456 0.091030737842585543 0 0.018432319414470429 0.096653040101029153 0 0.0015840102750627151 0.086596665437876572 0 0.0044834815646254481 0.086400000020197945 0 0.017694246828114591 0.1069353322032099 0 0.01593063560634456 0.091030737842585543 0 0.0044834815646254481 0.086400000020197945 0 0.018432319414470429 0.096653040101029153 0 0.01593063560634456 0.091030737842585543 0 0.0044834815646254481 0.086400000020197945 0 0.0095738794316568773 0.085800779423167051 0 0.01593063560634456 0.091030737842585543 0 0.01315030996073854 0.086341648670523505 0 0.0095738794316568773 0.085800779423167051 0 0.016181299025372069 0.086097661834652728 0 0.01593063560634456 0.091030737842585543 0 0.01315030996073854 0.086341648670523505 0 0.0015840102750627151 0.086596665437876572 0 0.0044834815646254481 0.086400000020197945 0 0.0015840102750627151 0.086596665437876572 0 0.0044834815646254481 0.086400000020197945 0 0.0023564420774942361 0.076512728404814642 0 0.0044834815646254481 0.086400000020197945 0 0.0079532390386169612 0.081808306596670724 0 0.0095738794316568773 0.085800779423167051 0 0.0079532390386169612 0.081808306596670724 0 0.012436966339727599 0.077890609553485257 0 0.0023564420774942361 0.076512728404814642 0 0.0044834815646254481 0.086400000020197945 0 0.0079532390386169612 0.081808306596670724 0 0.0023564420774942361 0.076512728404814642 0 0.0079532390386169612 0.081808306596670724 0 0.012679565861182761 0.083350095406217697 0 0.012436966339727599 0.077890609553485257 0 0.0079532390386169612 0.081808306596670724 0 0.0095738794316568773 0.085800779423167051 0 0.012679565861182761 0.083350095406217697 0 0.016781701370984541 0.082161566358806865 0 0.016181299025372069 0.086097661834652728 0 0.012679565861182761 0.083350095406217697 0 0.01315030996073854 0.086341648670523505 0 0.0095738794316568773 0.085800779423167051 0 0.012679565861182761 0.083350095406217697 0 0.016181299025372069 0.086097661834652728 0 0.01315030996073854 0.086341648670523505 0 0.012679565861182761 0.083350095406217697 0 0.016781701370984541 0.082161566358806865 0 0.012679565861182761 0.083350095406217697 0 0.012436966339727599 0.077890609553485257 0 0.018450153716404929 0.073992148640110805 0 0.012436966339727599 0.077890609553485257 0 0.01215692475392297 0.066998071562974507 0 0.012436966339727599 0.077890609553485257 0 0.0023564420774942361 0.076512728404814642 0 0.01215692475392297 0.066998071562974507 0 -0.003137787526490379 0.062521167176500969 0 0.0023564420774942361 0.076512728404814642 0 0.01215692475392297 0.066998071562974507 0 -0.003137787526490379 0.062521167176500969 0 0.01215692475392297 0.066998071562974507 0 0.032510615547548742 0.10261633826750551 0 0.027981663621304029 0.1199228722274485 0 0.017694246828114591 0.1069353322032099 0 0.027981663621304029 0.1199228722274485 0 0.017694246828114591 0.1069353322032099 0 0.0087792745487023267 0.1228019865252658 0 0.027981663621304029 0.1199228722274485 0 0.017694246828114591 0.1069353322032099 0 0.032510615547548742 0.10261633826750551 0 0.017694246828114591 0.1069353322032099 0 0.032510615547548742 0.10261633826750551 0 0.02492327956745154 0.097651736392399824 0 0.017694246828114591 0.1069353322032099 0 0.031761238446880682 0.096775836826631101 0 0.027231156809738071 0.091376469148700651 0 0.02492327956745154 0.097651736392399824 0 0.031761238446880682 0.096775836826631101 0 0.032510615547548742 0.10261633826750551 0 0.02492327956745154 0.097651736392399824 0 0.02492327956745154 0.097651736392399824 0 0.018432319414470429 0.096653040101029153 0 0.017694246828114591 0.1069353322032099 0 0.021910100357956021 0.091553401807323326 0 0.02492327956745154 0.097651736392399824 0 0.018432319414470429 0.096653040101029153 0 -0.0074694708824928138 0.1142705940511041 0 0.0015840102750627151 0.086596665437876572 0 0.017694246828114591 0.1069353322032099 0 0.0015840102750627151 0.086596665437876572 0 0.017694246828114591 0.1069353322032099 0 0.0044834815646254481 0.086400000020197945 0 0.018432319414470429 0.096653040101029153 0 0.017694246828114591 0.1069353322032099 0 -0.0074694708824928138 0.1142705940511041 0 0.017694246828114591 0.1069353322032099 0 0.0087792745487023267 0.1228019865252658 0 -0.0074694708824928138 0.1142705940511041 0 0.017694246828114591 0.1069353322032099 0 -0.0050733015910006882 0.13156669209468241 0 0.0087792745487023267 0.1228019865252658 0 0.010763234767585761 0.14131444204988469 0 0.027981663621304029 0.1199228722274485 0 0.010763234767585761 0.14131444204988469 0 0.038269080414491119 0.13291041225168909 0 0.027981663621304029 0.1199228722274485 0 0.0087792745487023267 0.1228019865252658 0 0.010763234767585761 0.14131444204988469 0 0.010763234767585761 0.14131444204988469 0 0.038269080414491119 0.13291041225168909 0 0.0059516873759019248 0.15350785084126731 0 0.028645985631124801 0.15729722983446021 0 0.010763234767585761 0.14131444204988469 0 0.028645985631124801 0.15729722983446021 0 0.038269080414491119 0.13291041225168909 0 0.0059516873759019248 0.15350785084126731 0 0.010763234767585761 0.14131444204988469 0 0.028645985631124801 0.15729722983446021 0 -0.0048761696063712393 0.16501736167893261 0 0.0059516873759019248 0.15350785084126731 0 0.012284968004978509 0.1787382990757897 0 0.012284968004978509 0.1787382990757897 0 0.02375080669594155 0.18046424795594759 0 0.028030486495620299 0.16898305017007589 0 0.012284968004978509 0.1787382990757897 0 0.02375080669594155 0.18046424795594759 0 0.016970666978359729 0.1922037977163778 0 0.02375080669594155 0.18046424795594759 0 0.028030486495620299 0.16898305017007589 0 0.033315378002350772 0.1805593221233118 0 0.0059516873759019248 0.15350785084126731 0 0.012284968004978509 0.1787382990757897 0 0.028645985631124801 0.15729722983446021 0 0.012284968004978509 0.1787382990757897 0 0.028030486495620299 0.16898305017007589 0 0.028645985631124801 0.15729722983446021 0 0.012284968004978509 0.1787382990757897 0 0.028645985631124801 0.15729722983446021 0 0.028030486495620299 0.16898305017007589 0 0.030888895986625309 0.16227042358617369 0 0.028645985631124801 0.15729722983446021 0 0.030888895986625309 0.16227042358617369 0 0.028645985631124801 0.15729722983446021 0 0.031245003311546959 0.15773120064467711 0 0.028645985631124801 0.15729722983446021 0 0.031245003311546959 0.15773120064467711 0 0.043712165639839658 0.16129220593872531 0 0.03905479223956982 0.17290757803543921 0 0.054168737940629617 0.18083751366900649 0 0.031245003311546959 0.15773120064467711 0 0.035634108508208868 0.16507021369548139 0 0.043712165639839658 0.16129220593872531 0 0.030888895986625309 0.16227042358617369 0 0.031245003311546959 0.15773120064467711 0 0.035634108508208868 0.16507021369548139 0 0.028030486495620299 0.16898305017007589 0 0.035634108508208868 0.16507021369548139 0 0.03905479223956982 0.17290757803543921 0 0.028030486495620299 0.16898305017007589 0 0.030888895986625309 0.16227042358617369 0 0.035634108508208868 0.16507021369548139 0 0.035634108508208868 0.16507021369548139 0 0.043712165639839658 0.16129220593872531 0 0.03905479223956982 0.17290757803543921 0 0.033315378002350772 0.1805593221233118 0 0.03905479223956982 0.17290757803543921 0 0.03755020641952115 0.18913581859039069 0 0.03905479223956982 0.17290757803543921 0 0.054168737940629617 0.18083751366900649 0 0.03755020641952115 0.18913581859039069 0 0.02375080669594155 0.18046424795594759 0 0.033315378002350772 0.1805593221233118 0 0.03755020641952115 0.18913581859039069 0 0.028030486495620299 0.16898305017007589 0 0.033315378002350772 0.1805593221233118 0 0.03905479223956982 0.17290757803543921 0 0.054168737940629617 0.18083751366900649 0 0.060921598231813243 0.18365413076343179 0 0.056695662568592813 0.15541290321517151 0 0.060921598231813243 0.18365413076343179 0 0.056695662568592813 0.15541290321517151 0 0.066999435800068716 0.16918158197116909 0 0.060921598231813243 0.18365413076343179 0 0.056695662568592813 0.15541290321517151 0 0.054168737940629617 0.18083751366900649 0 0.056695662568592813 0.15541290321517151 0 0.043712165639839658 0.16129220593872531 0 0.054168737940629617 0.18083751366900649 0 0.056695662568592813 0.15541290321517151 0 0.056695662568592813 0.15541290321517151 0 0.066999435800068716 0.16918158197116909 0 0.056695662568592813 0.15541290321517151 0 0.063463456826712991 0.15520105448139099 0 0.066999435800068716 0.16918158197116909 0 0.060699941098876831 0.1489915042349329 0 0.056695662568592813 0.15541290321517151 0 0.058782884849915271 0.13441235066763249 0 0.056695662568592813 0.15541290321517151 0 0.058782884849915271 0.13441235066763249 0 0.059423756316153889 0.15398899537628891 0 0.056695662568592813 0.15541290321517151 0 0.063463456826712991 0.15520105448139099 0 0.059423756316153889 0.15398899537628891 0 0.060699941098876831 0.1489915042349329 0 0.063463456826712991 0.15520105448139099 0 0.056695662568592813 0.15541290321517151 0 0.042845813553675942 0.13868839384031359 0 0.056695662568592813 0.15541290321517151 0 0.053712347178484207 0.13547590097597931 0 0.042845813553675942 0.13868839384031359 0 0.056695662568592813 0.15541290321517151 0 0.058782884849915271 0.13441235066763249 0 0.053712347178484207 0.13547590097597931 0 0.043712165639839658 0.16129220593872531 0 0.056695662568592813 0.15541290321517151 0 0.042845813553675942 0.13868839384031359 0 0.059423756316153889 0.15398899537628891 0 0.060699941098876831 0.1489915042349329 0 0.056695662568592813 0.15541290321517151 0 0.056695662568592813 0.15541290321517151 0 0.053712347178484207 0.13547590097597931 0 0.060699941098876831 0.1489915042349329 0 0.058782884849915271 0.13441235066763249 0 0.064854555245333331 0.14608477038392681 0 0.073688932706138466 0.12208836744246809 0 0.052024026791648283 0.12666037027577559 0 0.04998672534727519 0.12933024829513179 0 0.073688932706138466 0.12208836744246809 0 0.04998672534727519 0.12933024829513179 0 0.073688932706138466 0.12208836744246809 0 0.058782884849915271 0.13441235066763249 0 0.04998672534727519 0.12933024829513179 0 0.043678864345366303 0.1230522574692401 0 0.052024026791648283 0.12666037027577559 0 0.04998672534727519 0.12933024829513179 0 0.052024026791648283 0.12666037027577559 0 0.04998672534727519 0.12933024829513179 0 0.058782884849915271 0.13441235066763249 0 0.04998672534727519 0.12933024829513179 0 0.053712347178484207 0.13547590097597931 0 0.04998672534727519 0.12933024829513179 0 0.053712347178484207 0.13547590097597931 0 0.042845813553675942 0.13868839384031359 0 0.04998672534727519 0.12933024829513179 0 0.042845813553675942 0.13868839384031359 0 0.04998672534727519 0.12933024829513179 0 0.042845813553675942 0.13868839384031359 0 0.038269080414491119 0.13291041225168909 0 0.043678864345366303 0.1230522574692401 0 0.027981663621304029 0.1199228722274485 0 0.038269080414491119 0.13291041225168909 0 0.042845813553675942 0.13868839384031359 0 0.038269080414491119 0.13291041225168909 0 0.04998672534727519 0.12933024829513179 0 0.038269080414491119 0.13291041225168909 0 0.043678864345366303 0.1230522574692401 0 0.04998672534727519 0.12933024829513179 0 0.038269080414491119 0.13291041225168909 0 0.027981663621304029 0.1199228722274485 0 0.038269080414491119 0.13291041225168909 0 0.028645985631124801 0.15729722983446021 0 0.042845813553675942 0.13868839384031359 0 0.038269080414491119 0.13291041225168909 0 0.028645985631124801 0.15729722983446021 0 0.031245003311546959 0.15773120064467711 0 0.042845813553675942 0.13868839384031359 0 0.031245003311546959 0.15773120064467711 0 0.043712165639839658 0.16129220593872531 0 0.042845813553675942 0.13868839384031359 0 0.028645985631124801 0.15729722983446021 0 0.042845813553675942 0.13868839384031359 0 0.02310550339109262 0.2411255218466857 0 0.033266235374096252 0.23340162587348251 0 0.035598449415234837 0.2495524571064667 0 0.02310550339109262 0.2411255218466857 0 0.035598449415234837 0.2495524571064667 0 0.027206279367625669 0.25373786143723448 0 0.02310550339109262 0.2411255218466857 0 0.015096421446432079 0.25209654690509331 0 0.027206279367625669 0.25373786143723448 0 0.02310550339109262 0.2411255218466857 0 0.0084792465519147632 0.23863263955916281 0 0.015096421446432079 0.25209654690509331 0 0.0084792465519147632 0.23863263955916281 0 0.015096421446432079 0.25209654690509331 0 0.00052355941179598429 0.25579479798048171 0 -0.001542110983380432 0.22401166836485309 0 0.0084792465519147632 0.23863263955916281 0 0.018986388191252122 0.2193320001986748 0 0.02310550339109262 0.2411255218466857 0 0.018986388191252122 0.2193320001986748 0 0.033266235374096252 0.23340162587348251 0 0.02310550339109262 0.2411255218466857 0 0.0084792465519147632 0.23863263955916281 0 0.018986388191252122 0.2193320001986748 0 0.018986388191252122 0.2193320001986748 0 0.034500458171956461 0.22211718429766469 0 0.033266235374096252 0.23340162587348251 0 0.018986388191252122 0.2193320001986748 0 0.033266235374096252 0.23340162587348251 0 0.018986388191252122 0.2193320001986748 0 0.036500005272805711 0.20539978635814979 0 0.034500458171956461 0.22211718429766469 0 0.018986388191252122 0.2193320001986748 0 0.017017291797971099 0.20338524356172499 0 0.036500005272805711 0.20539978635814979 0 -0.0040760496211680944 0.20017936831711891 0 0.018986388191252122 0.2193320001986748 0 0.017017291797971099 0.20338524356172499 0 -0.0040760496211680944 0.20017936831711891 0 -0.001542110983380432 0.22401166836485309 0 0.018986388191252122 0.2193320001986748 0 -0.0040760496211680944 0.20017936831711891 0 0.012284968004978509 0.1787382990757897 0 0.016970666978359729 0.1922037977163778 0 -0.0040760496211680944 0.20017936831711891 0 0.012284968004978509 0.1787382990757897 0 -0.0040760496211680944 0.20017936831711891 0 0.017017291797971099 0.20338524356172499 0 0.016970666978359729 0.1922037977163778 0 0.02375080669594155 0.18046424795594759 0 0.016970666978359729 0.1922037977163778 0 0.036500005272805711 0.20539978635814979 0 0.02375080669594155 0.18046424795594759 0 0.036500005272805711 0.20539978635814979 0 0.017017291797971099 0.20338524356172499 0 0.016970666978359729 0.1922037977163778 0 0.036500005272805711 0.20539978635814979 0 0.03755020641952115 0.18913581859039069 0 0.04498198013202679 0.19523988445805651 0 0.036500005272805711 0.20539978635814979 0 0.054168737940629617 0.18083751366900649 0 0.03755020641952115 0.18913581859039069 0 0.04498198013202679 0.19523988445805651 0 0.02375080669594155 0.18046424795594759 0 0.03755020641952115 0.18913581859039069 0 0.036500005272805711 0.20539978635814979 0 0.04498198013202679 0.19523988445805651 0 0.051708970895150683 0.2055864192146791 0 0.036500005272805711 0.20539978635814979 0 0.054168737940629617 0.18083751366900649 0 0.060921598231813243 0.18365413076343179 0 0.051708970895150683 0.2055864192146791 0 0.054168737940629617 0.18083751366900649 0 0.051708970895150683 0.2055864192146791 0 0.060921598231813243 0.18365413076343179 0 0.051708970895150683 0.2055864192146791 0 0.065007231693190837 0.21095774195320441 0 0.054168737940629617 0.18083751366900649 0 0.04498198013202679 0.19523988445805651 0 0.051708970895150683 0.2055864192146791 0 0.051708970895150683 0.2055864192146791 0 0.06158757816472793 0.22183335530028911 0 0.065007231693190837 0.21095774195320441 0 0.051708970895150683 0.2055864192146791 0 0.049249203849670853 0.23033532476035151 0 0.036500005272805711 0.20539978635814979 0 0.049249203849670853 0.23033532476035151 0 0.051708970895150683 0.2055864192146791 0 0.036500005272805711 0.20539978635814979 0 0.049249203849670853 0.23033532476035151 0 0.034500458171956461 0.22211718429766469 0 0.033266235374096252 0.23340162587348251 0 0.049249203849670853 0.23033532476035151 0 0.036500005272805711 0.20539978635814979 0 0.034500458171956461 0.22211718429766469 0 0.049249203849670853 0.23033532476035151 0 0.049249203849670853 0.23033532476035151 0 0.06158757816472793 0.22183335530028911 0 0.070416207555479435 0.23167157756297771 0 0.051708970895150683 0.2055864192146791 0 0.049249203849670853 0.23033532476035151 0 0.06158757816472793 0.22183335530028911 0 0.049249203849670853 0.23033532476035151 0 0.047546082556938617 0.24747125154829211 0 0.049249203849670853 0.23033532476035151 0 0.070610784923539879 0.2441657739946789 0 0.061072009066903667 0.25345897537562068 0 0.049249203849670853 0.23033532476035151 0 0.061072009066903667 0.25345897537562068 0 0.049249203849670853 0.23033532476035151 0 0.047546082556938617 0.24747125154829211 0 0.061072009066903667 0.25345897537562068 0 0.033266235374096252 0.23340162587348251 0 0.047546082556938617 0.24747125154829211 0 0.035598449415234837 0.2495524571064667 0 0.033266235374096252 0.23340162587348251 0 0.049249203849670853 0.23033532476035151 0 0.047546082556938617 0.24747125154829211 0 0.033266235374096252 0.23340162587348251 0 0.047546082556938617 0.24747125154829211 0 0.084435907882457292 0.23900008921134 0 0.096639130049948313 0.24797278035889231 0 0.084825475029785158 0.25213258584012982 0 0.084435907882457292 0.23900008921134 0 0.09845639102600906 0.23360986253631411 0 0.096639130049948313 0.24797278035889231 0 0.084435907882457292 0.23900008921134 0 0.070610784923539879 0.2441657739946789 0 0.084825475029785158 0.25213258584012982 0 0.049249203849670853 0.23033532476035151 0 0.070610784923539879 0.2441657739946789 0 0.070416207555479435 0.23167157756297771 0 0.084435907882457292 0.23900008921134 0 0.070610784923539879 0.2441657739946789 0 0.070416207555479435 0.23167157756297771 0 0.070416207555479435 0.23167157756297771 0 0.072164845214347365 0.2193266861242936 0 0.086329511913765561 0.2222609297038444 0 0.06158757816472793 0.22183335530028911 0 0.070416207555479435 0.23167157756297771 0 0.072164845214347365 0.2193266861242936 0 0.084435907882457292 0.23900008921134 0 0.070416207555479435 0.23167157756297771 0 0.086329511913765561 0.2222609297038444 0 0.084435907882457292 0.23900008921134 0 0.086329511913765561 0.2222609297038444 0 0.09845639102600906 0.23360986253631411 0 0.086329511913765561 0.2222609297038444 0 0.077483696744573061 0.20990982610115241 0 0.087739252688294272 0.20091529521787119 0 0.086329511913765561 0.2222609297038444 0 0.087739252688294272 0.20091529521787119 0 0.1031458700614233 0.20499216946464449 0 0.072164845214347365 0.2193266861242936 0 0.086329511913765561 0.2222609297038444 0 0.077483696744573061 0.20990982610115241 0 0.072164845214347365 0.2193266861242936 0 0.065007231693190837 0.21095774195320441 0 0.077483696744573061 0.20990982610115241 0 0.065007231693190837 0.21095774195320441 0 0.077483696744573061 0.20990982610115241 0 0.074763470134491333 0.19486447927898731 0 0.06158757816472793 0.22183335530028911 0 0.072164845214347365 0.2193266861242936 0 0.065007231693190837 0.21095774195320441 0 0.060921598231813243 0.18365413076343179 0 0.065007231693190837 0.21095774195320441 0 0.060921598231813243 0.18365413076343179 0 0.065007231693190837 0.21095774195320441 0 0.074763470134491333 0.19486447927898731 0 0.074763470134491333 0.19486447927898731 0 0.087739252688294272 0.20091529521787119 0 0.085664481939038195 0.18630533217141851 0 0.074763470134491333 0.19486447927898731 0 0.074386953328845803 0.1817008718770618 0 0.085664481939038195 0.18630533217141851 0 0.077483696744573061 0.20990982610115241 0 0.074763470134491333 0.19486447927898731 0 0.087739252688294272 0.20091529521787119 0 0.087739252688294272 0.20091529521787119 0 0.09993471853520533 0.18973909221545601 0 0.085664481939038195 0.18630533217141851 0 0.087739252688294272 0.20091529521787119 0 0.09993471853520533 0.18973909221545601 0 0.1031458700614233 0.20499216946464449 0 0.09993471853520533 0.18973909221545601 0 0.1146745714123306 0.19255259202266689 0 0.1031458700614233 0.20499216946464449 0 0.1146745714123306 0.19255259202266689 0 0.1217121076741302 0.20464914832351649 0 0.1031458700614233 0.20499216946464449 0 0.1146745714123306 0.19255259202266689 0 0.1247629011716563 0.18252623740547949 0 0.12728455581207029 0.1941324991983357 0 0.1146745714123306 0.19255259202266689 0 0.1217121076741302 0.20464914832351649 0 0.12728455581207029 0.1941324991983357 0 0.1217121076741302 0.20464914832351649 0 0.1150430269998147 0.22078887204207451 0 0.1356718933844854 0.2087472974103857 0 0.1217121076741302 0.20464914832351649 0 0.1031458700614233 0.20499216946464449 0 0.1150430269998147 0.22078887204207451 0 0.086329511913765561 0.2222609297038444 0 0.1031458700614233 0.20499216946464449 0 0.1150430269998147 0.22078887204207451 0 0.086329511913765561 0.2222609297038444 0 0.09845639102600906 0.23360986253631411 0 0.1150430269998147 0.22078887204207451 0 0.09845639102600906 0.23360986253631411 0 0.1150430269998147 0.22078887204207451 0 0.1098343782840594 0.23802664136541901 0 0.086329511913765561 0.2222609297038444 0 0.1150430269998147 0.22078887204207451 0 0.1150430269998147 0.22078887204207451 0 0.1098343782840594 0.23802664136541901 0 0.1246815833938911 0.242072742896983 0 0.1150430269998147 0.22078887204207451 0 0.1246815833938911 0.242072742896983 0 0.13403997968651671 0.23209776897886311 0 0.1098343782840594 0.23802664136541901 0 0.1246815833938911 0.242072742896983 0 0.1108366062957163 0.25664873547543587 0 0.1098343782840594 0.23802664136541901 0 0.096639130049948313 0.24797278035889231 0 0.1108366062957163 0.25664873547543587 0 0.09845639102600906 0.23360986253631411 0 0.1098343782840594 0.23802664136541901 0 0.096639130049948313 0.24797278035889231 0 0.086158375875735618 0.15430960725411619 0 0.095790685194319769 0.16240748000082539 0 0.09632623810466745 0.14649236180105199 0 0.086158375875735618 0.15430960725411619 0 0.077261041054400001 0.1446830337506857 0 0.09632623810466745 0.14649236180105199 0 0.086158375875735618 0.15430960725411619 0 0.077261041054400001 0.1446830337506857 0 0.072929514522698247 0.1552786878655403 0 0.077261041054400001 0.1446830337506857 0 0.09686179101501495 0.13057724360127851 0 0.083567606064033184 0.13009304620436929 0 0.077261041054400001 0.1446830337506857 0 0.09686179101501495 0.13057724360127851 0 0.077261041054400001 0.1446830337506857 0 0.09632623810466745 0.14649236180105199 0 0.09686179101501495 0.13057724360127851 0 0.097391140065000922 0.1148464865898018 0 0.083567606064033184 0.13009304620436929 0 0.09686179101501495 0.13057724360127851 0 0.071291842960313379 0.13407523897076901 0 0.068047581027490492 0.13981384844325351 0 0.077261041054400001 0.1446830337506857 0 0.083567606064033184 0.13009304620436929 0 0.071291842960313379 0.13407523897076901 0 0.077261041054400001 0.1446830337506857 0 0.073688932706138466 0.12208836744246809 0 0.083567606064033184 0.13009304620436929 0 0.071291842960313379 0.13407523897076901 0 0.073688932706138466 0.12208836744246809 0 0.058782884849915271 0.13441235066763249 0 0.071291842960313379 0.13407523897076901 0 0.058782884849915271 0.13441235066763249 0 0.068047581027490492 0.13981384844325351 0 0.064854555245333331 0.14608477038392681 0 0.058782884849915271 0.13441235066763249 0 0.071291842960313379 0.13407523897076901 0 0.068047581027490492 0.13981384844325351 0 0.068047581027490492 0.13981384844325351 0 0.064854555245333331 0.14608477038392681 0 0.077261041054400001 0.1446830337506857 0 0.064854555245333331 0.14608477038392681 0 0.077261041054400001 0.1446830337506857 0 0.072929514522698247 0.1552786878655403 0 0.060699941098876831 0.1489915042349329 0 0.064854555245333331 0.14608477038392681 0 0.063463456826712991 0.15520105448139099 0 0.064854555245333331 0.14608477038392681 0 0.072929514522698247 0.1552786878655403 0 0.063463456826712991 0.15520105448139099 0 0.072929514522698247 0.1552786878655403 0 0.063463456826712991 0.15520105448139099 0 0.066999435800068716 0.16918158197116909 0 0.066999435800068716 0.16918158197116909 0 0.083585780538817461 0.17449883520030221 0 0.080820885314450655 0.16335417491301041 0 0.072929514522698247 0.1552786878655403 0 0.066999435800068716 0.16918158197116909 0 0.080820885314450655 0.16335417491301041 0 0.066999435800068716 0.16918158197116909 0 0.074386953328845803 0.1817008718770618 0 0.083585780538817461 0.17449883520030221 0 0.060921598231813243 0.18365413076343179 0 0.074763470134491333 0.19486447927898731 0 0.074386953328845803 0.1817008718770618 0 0.060921598231813243 0.18365413076343179 0 0.066999435800068716 0.16918158197116909 0 0.074386953328845803 0.1817008718770618 0 0.074386953328845803 0.1817008718770618 0 0.085664481939038195 0.18630533217141851 0 0.083585780538817461 0.17449883520030221 0 0.085664481939038195 0.18630533217141851 0 0.083585780538817461 0.17449883520030221 0 0.097541396791599996 0.17657195984690541 0 0.086158375875735618 0.15430960725411619 0 0.072929514522698247 0.1552786878655403 0 0.080820885314450655 0.16335417491301041 0 0.083585780538817461 0.17449883520030221 0 0.080820885314450655 0.16335417491301041 0 0.095790685194319769 0.16240748000082539 0 0.083585780538817461 0.17449883520030221 0 0.095790685194319769 0.16240748000082539 0 0.097541396791599996 0.17657195984690541 0 0.086158375875735618 0.15430960725411619 0 0.080820885314450655 0.16335417491301041 0 0.095790685194319769 0.16240748000082539 0 0.095790685194319769 0.16240748000082539 0 0.097541396791599996 0.17657195984690541 0 0.1094959644040419 0.16497881237272891 0 0.095790685194319769 0.16240748000082539 0 0.1094959644040419 0.16497881237272891 0 0.107104664515052 0.1537240233176328 0 0.09993471853520533 0.18973909221545601 0 0.085664481939038195 0.18630533217141851 0 0.097541396791599996 0.17657195984690541 0 0.097541396791599996 0.17657195984690541 0 0.1113768628329108 0.17963593739628861 0 0.1094959644040419 0.16497881237272891 0 0.09993471853520533 0.18973909221545601 0 0.097541396791599996 0.17657195984690541 0 0.1113768628329108 0.17963593739628861 0 0.09993471853520533 0.18973909221545601 0 0.1146745714123306 0.19255259202266689 0 0.1113768628329108 0.17963593739628861 0 0.1146745714123306 0.19255259202266689 0 0.1113768628329108 0.17963593739628861 0 0.1247629011716563 0.18252623740547949 0 0.1113768628329108 0.17963593739628861 0 0.1247629011716563 0.18252623740547949 0 0.12278637866743509 0.16954306406122929 0 0.1094959644040419 0.16497881237272891 0 0.1205664309923916 0.15539833251043059 0 0.107104664515052 0.1537240233176328 0 0.1113768628329108 0.17963593739628861 0 0.1094959644040419 0.16497881237272891 0 0.12278637866743509 0.16954306406122929 0 0.1094959644040419 0.16497881237272891 0 0.12278637866743509 0.16954306406122929 0 0.1205664309923916 0.15539833251043059 0 0.1205664309923916 0.15539833251043059 0 0.1133440038798393 0.13934312990312711 0 0.1316364341413572 0.1470981432857284 0 0.1205664309923916 0.15539833251043059 0 0.107104664515052 0.1537240233176328 0 0.1133440038798393 0.13934312990312711 0 0.095790685194319769 0.16240748000082539 0 0.107104664515052 0.1537240233176328 0 0.09632623810466745 0.14649236180105199 0 0.107104664515052 0.1537240233176328 0 0.09632623810466745 0.14649236180105199 0 0.1133440038798393 0.13934312990312711 0 0.095790685194319769 0.16240748000082539 0 0.09632623810466745 0.14649236180105199 0 0.1136454455756077 0.1184987920293956 0 0.09686179101501495 0.13057724360127851 0 0.1133440038798393 0.13934312990312711 0 0.09632623810466745 0.14649236180105199 0 0.09686179101501495 0.13057724360127851 0 0.09632623810466745 0.14649236180105199 0 0.09686179101501495 0.13057724360127851 0 0.1133440038798393 0.13934312990312711 0 0.1136454455756077 0.1184987920293956 0 0.1133440038798393 0.13934312990312711 0 0.1311219964085299 0.13107921951882709 0 0.1133440038798393 0.13934312990312711 0 0.1311219964085299 0.13107921951882709 0 0.1316364341413572 0.1470981432857284 0 0.1311219964085299 0.13107921951882709 0 0.14985725038834341 0.1450419626290915 0 0.14610784646156841 0.1232675220587309 0 0.14985725038834341 0.1450419626290915 0 0.16087236332234431 0.1292463525528601 0 0.14610784646156841 0.1232675220587309 0 0.14985725038834341 0.1450419626290915 0 0.13639393954907489 0.16150891682688809 0 0.1515298598489476 0.16111589230701151 0 0.14985725038834341 0.1450419626290915 0 0.1515298598489476 0.16111589230701151 0 0.16699213679669661 0.15217923310974371 0 0.1311219964085299 0.13107921951882709 0 0.14985725038834341 0.1450419626290915 0 0.1316364341413572 0.1470981432857284 0 0.14985725038834341 0.1450419626290915 0 0.1316364341413572 0.1470981432857284 0 0.13639393954907489 0.16150891682688809 0 0.1205664309923916 0.15539833251043059 0 0.1316364341413572 0.1470981432857284 0 0.13639393954907489 0.16150891682688809 0 0.12278637866743509 0.16954306406122929 0 0.1205664309923916 0.15539833251043059 0 0.13639393954907489 0.16150891682688809 0 0.12278637866743509 0.16954306406122929 0 0.13639393954907489 0.16150891682688809 0 0.13398509158050559 0.17539179753736631 0 0.13639393954907489 0.16150891682688809 0 0.13398509158050559 0.17539179753736631 0 0.1452374968360966 0.1738755765172324 0 0.1247629011716563 0.18252623740547949 0 0.12278637866743509 0.16954306406122929 0 0.13398509158050559 0.17539179753736631 0 0.13398509158050559 0.17539179753736631 0 0.1452374968360966 0.1738755765172324 0 0.14024451151143261 0.18766367568080439 0 0.1247629011716563 0.18252623740547949 0 0.13398509158050559 0.17539179753736631 0 0.14024451151143261 0.18766367568080439 0 0.1452374968360966 0.1738755765172324 0 0.1538993677142321 0.18287297859118321 0 0.14024451151143261 0.18766367568080439 0 0.1452374968360966 0.1738755765172324 0 0.1538993677142321 0.18287297859118321 0 0.1556128515444338 0.17146869793205741 0 0.13639393954907489 0.16150891682688809 0 0.1452374968360966 0.1738755765172324 0 0.1515298598489476 0.16111589230701151 0 0.1452374968360966 0.1738755765172324 0 0.1556128515444338 0.17146869793205741 0 0.1515298598489476 0.16111589230701151 0 0.16379591623538181 0.16535953132205361 0 0.17645881225596349 0.1678221639566683 0 0.16699213679669661 0.15217923310974371 0 0.1515298598489476 0.16111589230701151 0 0.16379591623538181 0.16535953132205361 0 0.16699213679669661 0.15217923310974371 0 0.1556128515444338 0.17146869793205741 0 0.1515298598489476 0.16111589230701151 0 0.16379591623538181 0.16535953132205361 0 0.1556128515444338 0.17146869793205741 0 0.16379591623538181 0.16535953132205361 0 0.16751851321947511 0.17812140202757679 0 0.16379591623538181 0.16535953132205361 0 0.16751851321947511 0.17812140202757679 0 0.17645881225596349 0.1678221639566683 0 0.1538993677142321 0.18287297859118321 0 0.16751851321947511 0.17812140202757679 0 0.1618867028730088 0.19110925875369281 0 0.1538993677142321 0.18287297859118321 0 0.1556128515444338 0.17146869793205741 0 0.16751851321947511 0.17812140202757679 0 0.16751851321947511 0.17812140202757679 0 0.1618867028730088 0.19110925875369281 0 0.17299158257718469 0.1897459835461171 0 0.16751851321947511 0.17812140202757679 0 0.1854140593691733 0.18261438002969979 0 0.17645881225596349 0.1678221639566683 0 0.16751851321947511 0.17812140202757679 0 0.1854140593691733 0.18261438002969979 0 0.17299158257718469 0.1897459835461171 0 0.17645881225596349 0.1678221639566683 0 0.18335134468828149 0.1493948982179332 0 0.1911360549195264 0.1625946941467557 0 0.1854140593691733 0.18261438002969979 0 0.17645881225596349 0.1678221639566683 0 0.1911360549195264 0.1625946941467557 0 0.17645881225596349 0.1678221639566683 0 0.18164170809707911 0.1398775024788185 0 0.17645881225596349 0.1678221639566683 0 0.18164170809707911 0.1398775024788185 0 0.16699213679669661 0.15217923310974371 0 0.17645881225596349 0.1678221639566683 0 0.18335134468828149 0.1493948982179332 0 0.18164170809707911 0.1398775024788185 0 0.18164170809707911 0.1398775024788185 0 0.16870940060688441 0.1396081281139516 0 0.16699213679669661 0.15217923310974371 0 0.18164170809707911 0.1398775024788185 0 0.1929676199926546 0.13143408262577039 0 0.18682460393819469 0.1119328410009689 0 0.18164170809707911 0.1398775024788185 0 0.1730945517163176 0.12565831839266209 0 0.18682460393819469 0.1119328410009689 0 0.18335134468828149 0.1493948982179332 0 0.18164170809707911 0.1398775024788185 0 0.1929676199926546 0.13143408262577039 0 0.18164170809707911 0.1398775024788185 0 0.18682460393819469 0.1119328410009689 0 0.18164170809707911 0.1398775024788185 0 0.1730945517163176 0.12565831839266209 0 0.16870940060688441 0.1396081281139516 0 0.14985725038834341 0.1450419626290915 0 0.16870940060688441 0.1396081281139516 0 0.16087236332234431 0.1292463525528601 0 0.1730945517163176 0.12565831839266209 0 0.16870940060688441 0.1396081281139516 0 0.16087236332234431 0.1292463525528601 0 0.14985725038834341 0.1450419626290915 0 0.16870940060688441 0.1396081281139516 0 0.16699213679669661 0.15217923310974371 0 0.15361580262973931 0.24023224597704529 0 0.14027572627916499 0.24411909677404031 0 0.1520623545728659 0.25113852338775589 0 0.15361580262973931 0.24023224597704529 0 0.14724261383378101 0.23449265740476541 0 0.1577302448249974 0.2315391611674292 0 0.15361580262973931 0.24023224597704529 0 0.14724261383378101 0.23449265740476541 0 0.14027572627916499 0.24411909677404031 0 0.1246815833938911 0.242072742896983 0 0.14027572627916499 0.24411909677404031 0 0.1336233243165916 0.26342578592320198 0 0.1246815833938911 0.242072742896983 0 0.14027572627916499 0.24411909677404031 0 0.13403997968651671 0.23209776897886311 0 0.14724261383378101 0.23449265740476541 0 0.14027572627916499 0.24411909677404031 0 0.13403997968651671 0.23209776897886311 0 0.1150430269998147 0.22078887204207451 0 0.13863161805749841 0.22169601508083939 0 0.143756542085864 0.21931681438030509 0 0.13403997968651671 0.23209776897886311 0 0.13863161805749841 0.22169601508083939 0 0.14397397701739381 0.22681954311602731 0 0.1150430269998147 0.22078887204207451 0 0.13403997968651671 0.23209776897886311 0 0.13863161805749841 0.22169601508083939 0 0.1150430269998147 0.22078887204207451 0 0.143756542085864 0.21931681438030509 0 0.13863161805749841 0.22169601508083939 0 0.143756542085864 0.21931681438030509 0 0.143756542085864 0.21931681438030509 0 0.15032145436668001 0.22331237755152941 0 0.16526741924007241 0.21821401482994149 0 0.13863161805749841 0.22169601508083939 0 0.143756542085864 0.21931681438030509 0 0.14397397701739381 0.22681954311602731 0 0.143756542085864 0.21931681438030509 0 0.16526741924007241 0.21821401482994149 0 0.14397397701739381 0.22681954311602731 0 0.15095692234204439 0.22819847814453331 0 0.15032145436668001 0.22331237755152941 0 0.143756542085864 0.21931681438030509 0 0.14397397701739381 0.22681954311602731 0 0.15032145436668001 0.22331237755152941 0 0.14724261383378101 0.23449265740476541 0 0.13403997968651671 0.23209776897886311 0 0.14397397701739381 0.22681954311602731 0 0.14724261383378101 0.23449265740476541 0 0.14397397701739381 0.22681954311602731 0 0.15095692234204439 0.22819847814453331 0 0.14724261383378101 0.23449265740476541 0 0.15095692234204439 0.22819847814453331 0 0.1577302448249974 0.2315391611674292 0 0.15095692234204439 0.22819847814453331 0 0.15551632166736989 0.22482865148291539 0 0.1577302448249974 0.2315391611674292 0 0.15095692234204439 0.22819847814453331 0 0.15551632166736989 0.22482865148291539 0 0.15032145436668001 0.22331237755152941 0 0.143756542085864 0.21931681438030509 0 0.14973941532143639 0.20868179918330479 0 0.1617243029523418 0.21097544014647421 0 0.143756542085864 0.21931681438030509 0 0.1617243029523418 0.21097544014647421 0 0.14973941532143639 0.20868179918330479 0 0.14995646517949721 0.20135219700923271 0 0.1574546439178626 0.20133113236492811 0 0.14973941532143639 0.20868179918330479 0 0.14317910063925071 0.20440219304263049 0 0.14314361010917009 0.2107912880315958 0 0.14973941532143639 0.20868179918330479 0 0.14317910063925071 0.20440219304263049 0 0.14995646517949721 0.20135219700923271 0 0.14317910063925071 0.20440219304263049 0 0.14314361010917009 0.2107912880315958 0 0.1356718933844854 0.2087472974103857 0 0.143756542085864 0.21931681438030509 0 0.14314361010917009 0.2107912880315958 0 0.1356718933844854 0.2087472974103857 0 0.143756542085864 0.21931681438030509 0 0.14973941532143639 0.20868179918330479 0 0.14314361010917009 0.2107912880315958 0 0.1150430269998147 0.22078887204207451 0 0.143756542085864 0.21931681438030509 0 0.1356718933844854 0.2087472974103857 0 0.1217121076741302 0.20464914832351649 0 0.1356718933844854 0.2087472974103857 0 0.135453295114804 0.1989605539776455 0 0.14317910063925071 0.20440219304263049 0 0.1356718933844854 0.2087472974103857 0 0.135453295114804 0.1989605539776455 0 0.1217121076741302 0.20464914832351649 0 0.135453295114804 0.1989605539776455 0 0.12728455581207029 0.1941324991983357 0 0.1247629011716563 0.18252623740547949 0 0.12728455581207029 0.1941324991983357 0 0.14024451151143261 0.18766367568080439 0 0.135453295114804 0.1989605539776455 0 0.12728455581207029 0.1941324991983357 0 0.14024451151143261 0.18766367568080439 0 0.135453295114804 0.1989605539776455 0 0.14024451151143261 0.18766367568080439 0 0.1446012565823889 0.19761393375379629 0 0.14024451151143261 0.18766367568080439 0 0.1446012565823889 0.19761393375379629 0 0.15236630234668139 0.19345470003035661 0 0.14317910063925071 0.20440219304263049 0 0.135453295114804 0.1989605539776455 0 0.1446012565823889 0.19761393375379629 0 0.14317910063925071 0.20440219304263049 0 0.1446012565823889 0.19761393375379629 0 0.14995646517949721 0.20135219700923271 0 0.14995646517949721 0.20135219700923271 0 0.15236630234668139 0.19345470003035661 0 0.1574546439178626 0.20133113236492811 0 0.1446012565823889 0.19761393375379629 0 0.14995646517949721 0.20135219700923271 0 0.15236630234668139 0.19345470003035661 0 0.1538993677142321 0.18287297859118321 0 0.14024451151143261 0.18766367568080439 0 0.15236630234668139 0.19345470003035661 0 0.1538993677142321 0.18287297859118321 0 0.15236630234668139 0.19345470003035661 0 0.1618867028730088 0.19110925875369281 0 0.15236630234668139 0.19345470003035661 0 0.1618867028730088 0.19110925875369281 0 0.1574546439178626 0.20133113236492811 0 0.1618867028730088 0.19110925875369281 0 0.1574546439178626 0.20133113236492811 0 0.167085924171262 0.19871296113224399 0 0.1618867028730088 0.19110925875369281 0 0.167085924171262 0.19871296113224399 0 0.17299158257718469 0.1897459835461171 0 0.1854140593691733 0.18261438002969979 0 0.17969206381881969 0.20263406591264371 0 0.1949305726652186 0.19555972281569589 0 0.1854140593691733 0.18261438002969979 0 0.17299158257718469 0.1897459835461171 0 0.17969206381881969 0.20263406591264371 0 0.1854140593691733 0.18261438002969979 0 0.17969206381881969 0.20263406591264371 0 0.17969206381881969 0.20263406591264371 0 0.1949305726652186 0.19555972281569589 0 0.167085924171262 0.19871296113224399 0 0.17299158257718469 0.1897459835461171 0 0.17969206381881969 0.20263406591264371 0 0.17969206381881969 0.20263406591264371 0 0.1617243029523418 0.21097544014647421 0 0.17468688902613999 0.22014579346589291 0 0.17969206381881969 0.20263406591264371 0 0.17468688902613999 0.22014579346589291 0 0.17969206381881969 0.20263406591264371 0 0.17468688902613999 0.22014579346589291 0 0.1941192311305176 0.21308704591579511 0 0.17969206381881969 0.20263406591264371 0 0.1617243029523418 0.21097544014647421 0 0.167085924171262 0.19871296113224399 0 0.17969206381881969 0.20263406591264371 0 0.1617243029523418 0.21097544014647421 0 0.143756542085864 0.21931681438030509 0 0.16526741924007241 0.21821401482994149 0 0.1617243029523418 0.21097544014647421 0 0.16526741924007241 0.21821401482994149 0 0.1617243029523418 0.21097544014647421 0 0.17468688902613999 0.22014579346589291 0 0.1574546439178626 0.20133113236492811 0 0.167085924171262 0.19871296113224399 0 0.1617243029523418 0.21097544014647421 0 0.14973941532143639 0.20868179918330479 0 0.1574546439178626 0.20133113236492811 0 0.1617243029523418 0.21097544014647421 0 0.1673983105436963 0.22584846041184589 0 0.17468688902613999 0.22014579346589291 0 0.16968171423345929 0.23765752101914181 0 0.15551632166736989 0.22482865148291539 0 0.16526741924007241 0.21821401482994149 0 0.16195215186254849 0.2246721166961316 0 0.15551632166736989 0.22482865148291539 0 0.15032145436668001 0.22331237755152941 0 0.16526741924007241 0.21821401482994149 0 0.15551632166736989 0.22482865148291539 0 0.16195215186254849 0.2246721166961316 0 0.1577302448249974 0.2315391611674292 0 0.1577302448249974 0.2315391611674292 0 0.16505116488072191 0.23237246403359041 0 0.1632916252549198 0.23843431390121811 0 0.1577302448249974 0.2315391611674292 0 0.16358973946541591 0.22814259070409301 0 0.16505116488072191 0.23237246403359041 0 0.16195215186254849 0.2246721166961316 0 0.1577302448249974 0.2315391611674292 0 0.16358973946541591 0.22814259070409301 0 0.16505116488072191 0.23237246403359041 0 0.1673983105436963 0.22584846041184589 0 0.16968171423345929 0.23765752101914181 0 0.16358973946541591 0.22814259070409301 0 0.16505116488072191 0.23237246403359041 0 0.1673983105436963 0.22584846041184589 0 0.16526741924007241 0.21821401482994149 0 0.1673983105436963 0.22584846041184589 0 0.17468688902613999 0.22014579346589291 0 0.16526741924007241 0.21821401482994149 0 0.16195215186254849 0.2246721166961316 0 0.1673983105436963 0.22584846041184589 0 0.16195215186254849 0.2246721166961316 0 0.16358973946541591 0.22814259070409301 0 0.1673983105436963 0.22584846041184589 0 0.17468688902613999 0.22014579346589291 0 0.16968171423345929 0.23765752101914181 0 0.19768351339787121 0.23425356242806411 0 0.17468688902613999 0.22014579346589291 0 0.16968171423345929 0.23765752101914181 0 0.16968171423345929 0.23765752101914181 0 0.19768351339787121 0.23425356242806411 0 0.18276014028142329 0.25616471926899897 0 0.16968171423345929 0.23765752101914181 0 0.19768351339787121 0.23425356242806411 0 0.16968171423345929 0.23765752101914181 0 0.1632916252549198 0.23843431390121811 0 0.1618767332304652 0.26496499908816251 0 0.16968171423345929 0.23765752101914181 0 0.1632916252549198 0.23843431390121811 0 0.16505116488072191 0.23237246403359041 0 0.16968171423345929 0.23765752101914181 0 0.1632916252549198 0.23843431390121811 0 0.15361580262973931 0.24023224597704529 0 0.1577302448249974 0.2315391611674292 0 0.1632916252549198 0.23843431390121811 0 0.15361580262973931 0.24023224597704529 0 0.1632916252549198 0.23843431390121811 0 0.1520623545728659 0.25113852338775589 0 0.21269313292684 0.24545189561992939 0 0.19768351339787121 0.23425356242806411 0 0.20060002443300079 0.25362908350645108 0 0.21269313292684 0.24545189561992939 0 0.19768351339787121 0.23425356242806411 0 0.22568531256228311 0.23084960383698649 0 0.19768351339787121 0.23425356242806411 0 0.18276014028142329 0.25616471926899897 0 0.20060002443300079 0.25362908350645108 0 0.19768351339787121 0.23425356242806411 0 0.21170975540280859 0.21974512032920321 0 0.1941192311305176 0.21308704591579511 0 0.17468688902613999 0.22014579346589291 0 0.19768351339787121 0.23425356242806411 0 0.1941192311305176 0.21308704591579511 0 0.19768351339787121 0.23425356242806411 0 0.22568531256228311 0.23084960383698649 0 0.19768351339787121 0.23425356242806411 0 0.21170975540280859 0.21974512032920321 0 0.22568531256228311 0.23084960383698649 0 0.21170975540280859 0.21974512032920321 0 0.20808481385876809 0.20404570290421731 0 0.1941192311305176 0.21308704591579511 0 0.21170975540280859 0.21974512032920321 0 0.20808481385876809 0.20404570290421731 0 0.21921932990660331 0.209866240906732 0 0.20808481385876809 0.20404570290421731 0 0.21969629415881939 0.1977996135282751 0 0.21921932990660331 0.209866240906732 0 0.17969206381881969 0.20263406591264371 0 0.1941192311305176 0.21308704591579511 0 0.1949305726652186 0.19555972281569589 0 0.20808481385876809 0.20404570290421731 0 0.1941192311305176 0.21308704591579511 0 0.1949305726652186 0.19555972281569589 0 0.1854140593691733 0.18261438002969979 0 0.1949305726652186 0.19555972281569589 0 0.198184433870156 0.18516682505180049 0 0.1949305726652186 0.19555972281569589 0 0.21016908151161781 0.1884853797187489 0 0.198184433870156 0.18516682505180049 0 0.1949305726652186 0.19555972281569589 0 0.21016908151161781 0.1884853797187489 0 0.20808481385876809 0.20404570290421731 0 0.1949305726652186 0.19555972281569589 0 0.21016908151161781 0.1884853797187489 0 0.20808481385876809 0.20404570290421731 0 0.21016908151161781 0.1884853797187489 0 0.21969629415881939 0.1977996135282751 0 0.21016908151161781 0.1884853797187489 0 0.21969629415881939 0.1977996135282751 0 0.2240751778714983 0.18511240687216859 0 0.21969629415881939 0.1977996135282751 0 0.230130432770665 0.19437574399779239 0 0.2240751778714983 0.18511240687216859 0 0.21969629415881939 0.1977996135282751 0 0.230130432770665 0.19437574399779239 0 0.22970384492890719 0.20555758066394189 0 0.230130432770665 0.19437574399779239 0 0.24013346252851719 0.19854860089564089 0 0.22970384492890719 0.20555758066394189 0 0.230130432770665 0.19437574399779239 0 0.2240751778714983 0.18511240687216859 0 0.23721006323004001 0.18395832323446321 0 0.24876004431712601 0.19146109645531589 0 0.24013346252851719 0.19854860089564089 0 0.23721006323004001 0.18395832323446321 0 0.230130432770665 0.19437574399779239 0 0.24013346252851719 0.19854860089564089 0 0.23721006323004001 0.18395832323446321 0 0.24876004431712601 0.19146109645531589 0 0.24013346252851719 0.19854860089564089 0 0.25014587321706061 0.20332338773671221 0 0.24013346252851719 0.19854860089564089 0 0.24086429282351021 0.21100335730596731 0 0.22970384492890719 0.20555758066394189 0 0.24013346252851719 0.19854860089564089 0 0.24086429282351021 0.21100335730596731 0 0.25014587321706061 0.20332338773671221 0 0.24086429282351021 0.21100335730596731 0 0.25211219122479772 0.21539887619163911 0 0.25014587321706061 0.20332338773671221 0 0.24086429282351021 0.21100335730596731 0 0.24052004511954039 0.22067850476574419 0 0.25211219122479772 0.21539887619163911 0 0.24086429282351021 0.21100335730596731 0 0.22899394789752359 0.21798178444318991 0 0.24052004511954039 0.22067850476574419 0 0.24086429282351021 0.21100335730596731 0 0.22899394789752359 0.21798178444318991 0 0.22970384492890719 0.20555758066394189 0 0.21170975540280859 0.21974512032920321 0 0.22899394789752359 0.21798178444318991 0 0.21921932990660331 0.209866240906732 0 0.21969629415881939 0.1977996135282751 0 0.22970384492890719 0.20555758066394189 0 0.21921932990660331 0.209866240906732 0 0.22899394789752359 0.21798178444318991 0 0.22970384492890719 0.20555758066394189 0 0.21921932990660331 0.209866240906732 0 0.21170975540280859 0.21974512032920321 0 0.22899394789752359 0.21798178444318991 0 0.22568531256228311 0.23084960383698649 0 0.22899394789752359 0.21798178444318991 0 0.22568531256228311 0.23084960383698649 0 0.24052004511954039 0.22067850476574419 0 0.22568531256228311 0.23084960383698649 0 0.24052004511954039 0.22067850476574419 0 0.25368711172669489 0.22744564524590891 0 0.22568531256228311 0.23084960383698649 0 0.25368711172669489 0.22744564524590891 0 0.24052004511954039 0.22067850476574419 0 0.25368711172669489 0.22744564524590891 0 0.25211219122479772 0.21539887619163911 0 0.22568531256228311 0.23084960383698649 0 0.24183819042719651 0.2457468380927334 0 0.25368711172669489 0.22744564524590891 0 0.24183819042719651 0.2457468380927334 0 0.23155823319848901 0.2434254289707001 0 0.23139783464498431 0.25143329747616178 0 0.24183819042719651 0.2457468380927334 0 0.23155823319848901 0.2434254289707001 0 0.24183819042719651 0.2457468380927334 0 0.23139783464498431 0.25143329747616178 0 0.22568531256228311 0.23084960383698649 0 0.24183819042719651 0.2457468380927334 0 0.23155823319848901 0.2434254289707001 0 0.23155823319848901 0.2434254289707001 0 0.22348263930331591 0.2464400267148367 0 0.23139783464498431 0.25143329747616178 0 0.22568531256228311 0.23084960383698649 0 0.23155823319848901 0.2434254289707001 0 0.22348263930331591 0.2464400267148367 0 0.21269313292684 0.24545189561992939 0 0.22568531256228311 0.23084960383698649 0 0.22348263930331591 0.2464400267148367 0 0.2129487117940364 0.14389601358541179 0 0.20220026374617481 0.15648981153844549 0 0.21305312509966309 0.16237739515072111 0 0.2129487117940364 0.14389601358541179 0 0.21305312509966309 0.16237739515072111 0 0.2224830957758791 0.15607515156997681 0 0.2129487117940364 0.14389601358541179 0 0.20427673045774619 0.135665905826692 0 0.2006049430631606 0.14460364104888429 0 0.2129487117940364 0.14389601358541179 0 0.2006049430631606 0.14460364104888429 0 0.20220026374617481 0.15648981153844549 0 0.2129487117940364 0.14389601358541179 0 0.21366541505620301 0.132384607510457 0 0.22062283881040129 0.1361223010114784 0 0.21366541505620301 0.132384607510457 0 0.2209656712416683 0.12738385069044039 0 0.22062283881040129 0.1361223010114784 0 0.21366541505620301 0.132384607510457 0 0.2209656712416683 0.12738385069044039 0 0.21066846561752811 0.12453088953678 0 0.21366541505620301 0.132384607510457 0 0.20427673045774619 0.135665905826692 0 0.21066846561752811 0.12453088953678 0 0.2129487117940364 0.14389601358541179 0 0.21366541505620301 0.132384607510457 0 0.20427673045774619 0.135665905826692 0 0.20427673045774619 0.135665905826692 0 0.1929676199926546 0.13143408262577039 0 0.2006049430631606 0.14460364104888429 0 0.20427673045774619 0.135665905826692 0 0.1929676199926546 0.13143408262577039 0 0.21066846561752811 0.12453088953678 0 0.18335134468828149 0.1493948982179332 0 0.1929676199926546 0.13143408262577039 0 0.18335134468828149 0.1493948982179332 0 0.1929676199926546 0.13143408262577039 0 0.1932347256660481 0.15145930765584281 0 0.1929676199926546 0.13143408262577039 0 0.2006049430631606 0.14460364104888429 0 0.1932347256660481 0.15145930765584281 0 0.2006049430631606 0.14460364104888429 0 0.1932347256660481 0.15145930765584281 0 0.20220026374617481 0.15648981153844549 0 0.18335134468828149 0.1493948982179332 0 0.1932347256660481 0.15145930765584281 0 0.1911360549195264 0.1625946941467557 0 0.1911360549195264 0.1625946941467557 0 0.20220026374617481 0.15648981153844549 0 0.20222402193461431 0.17400781764305731 0 0.1932347256660481 0.15145930765584281 0 0.1911360549195264 0.1625946941467557 0 0.20220026374617481 0.15648981153844549 0 0.1854140593691733 0.18261438002969979 0 0.20222402193461431 0.17400781764305731 0 0.198184433870156 0.18516682505180049 0 0.1854140593691733 0.18261438002969979 0 0.1911360549195264 0.1625946941467557 0 0.20222402193461431 0.17400781764305731 0 0.1854140593691733 0.18261438002969979 0 0.1911360549195264 0.1625946941467557 0 0.21016908151161781 0.1884853797187489 0 0.20222402193461431 0.17400781764305731 0 0.198184433870156 0.18516682505180049 0 0.21016908151161781 0.1884853797187489 0 0.20222402193461431 0.17400781764305731 0 0.21670463503905699 0.17509024169332271 0 0.21016908151161781 0.1884853797187489 0 0.21670463503905699 0.17509024169332271 0 0.2240751778714983 0.18511240687216859 0 0.20220026374617481 0.15648981153844549 0 0.20222402193461431 0.17400781764305731 0 0.21305312509966309 0.16237739515072111 0 0.20222402193461431 0.17400781764305731 0 0.21670463503905699 0.17509024169332271 0 0.21305312509966309 0.16237739515072111 0 0.21670463503905699 0.17509024169332271 0 0.21305312509966309 0.16237739515072111 0 0.2226576496139335 0.16588613717978451 0 0.2226576496139335 0.16588613717978451 0 0.233910663753544 0.1603966270902081 0 0.2224830957758791 0.15607515156997681 0 0.21305312509966309 0.16237739515072111 0 0.2226576496139335 0.16588613717978451 0 0.2224830957758791 0.15607515156997681 0 0.21670463503905699 0.17509024169332271 0 0.2226576496139335 0.16588613717978451 0 0.23012507169300669 0.1726781404441019 0 0.2226576496139335 0.16588613717978451 0 0.233910663753544 0.1603966270902081 0 0.23012507169300669 0.1726781404441019 0 0.21670463503905699 0.17509024169332271 0 0.2240751778714983 0.18511240687216859 0 0.23012507169300669 0.1726781404441019 0 0.2240751778714983 0.18511240687216859 0 0.23012507169300669 0.1726781404441019 0 0.23721006323004001 0.18395832323446321 0 0.23012507169300669 0.1726781404441019 0 0.23721006323004001 0.18395832323446321 0 0.23953385134921329 0.17196074172665449 0 0.23721006323004001 0.18395832323446321 0 0.23953385134921329 0.17196074172665449 0 0.24766329858608541 0.17908959816882719 0 0.23953385134921329 0.17196074172665449 0 0.24766329858608541 0.17908959816882719 0 0.24784934954833149 0.16614280917059021 0 0.24876004431712601 0.19146109645531589 0 0.23721006323004001 0.18395832323446321 0 0.24766329858608541 0.17908959816882719 0 0.233910663753544 0.1603966270902081 0 0.23012507169300669 0.1726781404441019 0 0.23953385134921329 0.17196074172665449 0 0.233910663753544 0.1603966270902081 0 0.23953385134921329 0.17196074172665449 0 0.24784934954833149 0.16614280917059021 0 0.233910663753544 0.1603966270902081 0 0.24784934954833149 0.16614280917059021 0 0.24925024078985389 0.15478675394773139 0 0.24925024078985389 0.15478675394773139 0 0.23926948986503629 0.14361530378287621 0 0.22513031442654149 0.14477802623592609 0 0.24925024078985389 0.15478675394773139 0 0.22513031442654149 0.14477802623592609 0 0.233910663753544 0.1603966270902081 0 0.24925024078985389 0.15478675394773139 0 0.22513031442654149 0.14477802623592609 0 0.24925024078985389 0.15478675394773139 0 0.23926948986503629 0.14361530378287621 0 0.252293322710193 0.14272742791269041 0 0.233910663753544 0.1603966270902081 0 0.22513031442654149 0.14477802623592609 0 0.2224830957758791 0.15607515156997681 0 0.2129487117940364 0.14389601358541179 0 0.22513031442654149 0.14477802623592609 0 0.2224830957758791 0.15607515156997681 0 0.2129487117940364 0.14389601358541179 0 0.22513031442654149 0.14477802623592609 0 0.22062283881040129 0.1361223010114784 0 0.2209656712416683 0.12738385069044039 0 0.23040408153355721 0.13216900703515669 0 0.22882459510145051 0.1160382210136286 0 0.2209656712416683 0.12738385069044039 0 0.22062283881040129 0.1361223010114784 0 0.23040408153355721 0.13216900703515669 0 0.22513031442654149 0.14477802623592609 0 0.22062283881040129 0.1361223010114784 0 0.23040408153355721 0.13216900703515669 0 0.23926948986503629 0.14361530378287621 0 0.22513031442654149 0.14477802623592609 0 0.23040408153355721 0.13216900703515669 0 0.23926948986503629 0.14361530378287621 0 0.23040408153355721 0.13216900703515669 0 0.252293322710193 0.14272742791269041 0 0.23040408153355721 0.13216900703515669 0 0.24509620270052029 0.12967906857116551 0 0.252293322710193 0.14272742791269041 0 0.23040408153355721 0.13216900703515669 0 0.252293322710193 0.14272742791269041 0 0.23040408153355721 0.13216900703515669 0 0.24509620270052029 0.12967906857116551 0 0.22882459510145051 0.1160382210136286 0 0.24003717726993551 0.099918932080049289 0 0.22882459510145051 0.1160382210136286 0 0.25506529490587471 0.118603174993655 0 0.22882459510145051 0.1160382210136286 0 0.25506529490587471 0.118603174993655 0 0.24509620270052029 0.12967906857116551 0 0.22882459510145051 0.1160382210136286 0 0.25506529490587471 0.118603174993655 0 0.24003717726993551 0.099918932080049289 0 0.22653616624584819 0.1016821550729031 0 0.22882459510145051 0.1160382210136286 0 0.22653616624584819 0.1016821550729031 0 0.21332754047055921 0.093406804329313559 0 0.2292277911365336 0.088641479150997626 0 0.24003717726993551 0.099918932080049289 0 0.22653616624584819 0.1016821550729031 0 0.2292277911365336 0.088641479150997626 0 0.22653616624584819 0.1016821550729031 0 0.22882459510145051 0.1160382210136286 0 0.2182009023867259 0.1066229148543814 0 0.22653616624584819 0.1016821550729031 0 0.2182009023867259 0.1066229148543814 0 0.21332754047055921 0.093406804329313559 0 0.2209656712416683 0.12738385069044039 0 0.22882459510145051 0.1160382210136286 0 0.21066846561752811 0.12453088953678 0 0.22882459510145051 0.1160382210136286 0 0.20258389529702611 0.11347326703360699 0 0.22882459510145051 0.1160382210136286 0 0.2182009023867259 0.1066229148543814 0 0.20258389529702611 0.11347326703360699 0 0.22882459510145051 0.1160382210136286 0 0.21066846561752811 0.12453088953678 0 0.20258389529702611 0.11347326703360699 0 0.20258389529702611 0.11347326703360699 0 0.21332754047055921 0.093406804329313559 0 0.19973951844623861 0.096421681041723384 0 0.20258389529702611 0.11347326703360699 0 0.21332754047055921 0.093406804329313559 0 0.2182009023867259 0.1066229148543814 0 0.20258389529702611 0.11347326703360699 0 0.21332754047055921 0.093406804329313559 0 0.19018889364999891 0.093793572917675747 0 0.19474286718464021 0.10370571131946769 0 0.18682460393819469 0.1119328410009689 0 0.19973951844623861 0.096421681041723384 0 0.19474286718464021 0.10370571131946769 0 0.20258389529702611 0.11347326703360699 0 0.19018889364999891 0.093793572917675747 0 0.18682460393819469 0.1119328410009689 0 0.19973951844623861 0.096421681041723384 0 0.19018889364999891 0.093793572917675747 0 0.19474286718464021 0.10370571131946769 0 0.1929676199926546 0.13143408262577039 0 0.20258389529702611 0.11347326703360699 0 0.18682460393819469 0.1119328410009689 0 0.20258389529702611 0.11347326703360699 0 0.18682460393819469 0.1119328410009689 0 0.1929676199926546 0.13143408262577039 0 0.20258389529702611 0.11347326703360699 0 0.1929676199926546 0.13143408262577039 0 0.21066846561752811 0.12453088953678 0 0.20258389529702611 0.11347326703360699 0 0.19474286718464021 0.10370571131946769 0 0.20258389529702611 0.11347326703360699 0 0.18682460393819469 0.1119328410009689 0 0.1995690445507847 0.065873816972442018 0 0.1896738203090888 0.076312207569898163 0 0.1960327403331118 0.054949391077104393 0 0.1896738203090888 0.076312207569898163 0 0.1960327403331118 0.054949391077104393 0 0.2009276149853185 0.077335597431510181 0 0.1995690445507847 0.065873816972442018 0 0.19355318336180311 0.07565430483438261 0 0.2009276149853185 0.077335597431510181 0 0.1995690445507847 0.065873816972442018 0 0.20867958993093649 0.0748202509900638 0 0.1995690445507847 0.065873816972442018 0 0.1896738203090888 0.076312207569898163 0 0.19355318336180311 0.07565430483438261 0 0.19018889364999891 0.093793572917675747 0 0.1896738203090888 0.076312207569898163 0 0.18331490028506539 0.097675024062691712 0 0.19018889364999891 0.093793572917675747 0 0.1896738203090888 0.076312207569898163 0 0.19355318336180311 0.07565430483438261 0 0.19018889364999891 0.093793572917675747 0 0.19355318336180311 0.07565430483438261 0 0.19625631066718871 0.0826746966695453 0 0.19018889364999891 0.093793572917675747 0 0.19355318336180311 0.07565430483438261 0 0.19018889364999891 0.093793572917675747 0 0.1971525286170209 0.089513252087134149 0 0.19625631066718871 0.0826746966695453 0 0.19973951844623861 0.096421681041723384 0 0.1971525286170209 0.089513252087134149 0 0.20242539170465751 0.085163057719592178 0 0.19973951844623861 0.096421681041723384 0 0.19018889364999891 0.093793572917675747 0 0.1971525286170209 0.089513252087134149 0 0.2009276149853185 0.077335597431510181 0 0.19625631066718871 0.0826746966695453 0 0.20242539170465751 0.085163057719592178 0 0.2009276149853185 0.077335597431510181 0 0.19355318336180311 0.07565430483438261 0 0.19625631066718871 0.0826746966695453 0 0.1971525286170209 0.089513252087134149 0 0.19625631066718871 0.0826746966695453 0 0.20242539170465751 0.085163057719592178 0 0.20242539170465751 0.085163057719592178 0 0.21332754047055921 0.093406804329313559 0 0.20867958993093649 0.0748202509900638 0 0.2009276149853185 0.077335597431510181 0 0.20242539170465751 0.085163057719592178 0 0.20867958993093649 0.0748202509900638 0 0.21332754047055921 0.093406804329313559 0 0.22407118564409079 0.073340341625019151 0 0.21332754047055921 0.093406804329313559 0 0.20867958993093649 0.0748202509900638 0 0.22407118564409079 0.073340341625019151 0 0.19973951844623861 0.096421681041723384 0 0.20242539170465751 0.085163057719592178 0 0.21332754047055921 0.093406804329313559 0 0.20867958993093649 0.0748202509900638 0 0.21002620416496889 0.06328565506698075 0 0.22407118564409079 0.073340341625019151 0 0.1995690445507847 0.065873816972442018 0 0.20867958993093649 0.0748202509900638 0 0.21002620416496889 0.06328565506698075 0 0.22407118564409079 0.073340341625019151 0 0.2409659187322033 0.078141118072394308 0 0.2348148308176225 0.053273878920724743 0 0.22407118564409079 0.073340341625019151 0 0.2348148308176225 0.053273878920724743 0 0.22407118564409079 0.073340341625019151 0 0.2292277911365336 0.088641479150997626 0 0.2409659187322033 0.078141118072394308 0 0.21332754047055921 0.093406804329313559 0 0.22407118564409079 0.073340341625019151 0 0.2292277911365336 0.088641479150997626 0 0.24003717726993551 0.099918932080049289 0 0.2292277911365336 0.088641479150997626 0 0.2409659187322033 0.078141118072394308 0 0.24003717726993551 0.099918932080049289 0 0.2409659187322033 0.078141118072394308 0 0.25814072779734848 0.095593975415470503 0 0.2409659187322033 0.078141118072394308 0 0.2348148308176225 0.053273878920724743 0 0.25133989080314079 0.059719491021616368 0 0.2348148308176225 0.053273878920724743 0 0.25029940785347599 0.047571772133718992 0 0.25133989080314079 0.059719491021616368 0 0.2348148308176225 0.053273878920724743 0 0.24555847599115399 0.033207416216430273 0 0.2348148308176225 0.053273878920724743 0 0.24555847599115399 0.033207416216430273 0 0.23233653027902909 0.03822630228610973 0 0.2348148308176225 0.053273878920724743 0 0.24555847599115399 0.033207416216430273 0 0.25029940785347599 0.047571772133718992 0 0.24555847599115399 0.033207416216430273 0 0.24744119228347231 0.029690969456284209 0 0.24555847599115399 0.033207416216430273 0 0.23233653027902909 0.03822630228610973 0 0.2382402572385274 0.029124570584695031 0 0.23233653027902909 0.03822630228610973 0 0.2382402572385274 0.029124570584695031 0 0.2212906269819209 0.02808117103842343 0 0.2348148308176225 0.053273878920724743 0 0.23233653027902909 0.03822630228610973 0 0.2217784603659208 0.047444474670274753 0 0.23233653027902909 0.03822630228610973 0 0.2217784603659208 0.047444474670274753 0 0.2212906269819209 0.02808117103842343 0 0.22407118564409079 0.073340341625019151 0 0.2348148308176225 0.053273878920724743 0 0.2217784603659208 0.047444474670274753 0 0.24093385669049561 0.015210147916720771 0 0.22770851530255631 0.0083928414719516876 0 0.24005759833730889 -0.00091445705150014652 0 0.24093385669049561 0.015210147916720771 0 0.25843576353106312 0.0091558391233349454 0 0.24005759833730889 -0.00091445705150014652 0 0.24093385669049561 0.015210147916720771 0 0.24744119228347231 0.029690969456284209 0 0.25843576353106312 0.0091558391233349454 0 0.24555847599115399 0.033207416216430273 0 0.24744119228347231 0.029690969456284209 0 0.2382402572385274 0.029124570584695031 0 0.24093385669049561 0.015210147916720771 0 0.24744119228347231 0.029690969456284209 0 0.2382402572385274 0.029124570584695031 0 0.24744119228347231 0.029690969456284209 0 0.2382402572385274 0.029124570584695031 0 0.24555847599115399 0.033207416216430273 0 0.2382402572385274 0.029124570584695031 0 0.2382402572385274 0.029124570584695031 0 0.2212906269819209 0.02808117103842343 0 0.22358048947354919 0.02094586333299113 0 0.24093385669049561 0.015210147916720771 0 0.2382402572385274 0.029124570584695031 0 0.22358048947354919 0.02094586333299113 0 0.2382402572385274 0.029124570584695031 0 0.2212906269819209 0.02808117103842343 0 0.2382402572385274 0.029124570584695031 0 0.22358048947354919 0.02094586333299113 0 0.2212906269819209 0.02808117103842343 0 0.22358048947354919 0.02094586333299113 0 0.2133090341045272 0.020438410915845959 0 0.24093385669049561 0.015210147916720771 0 0.22358048947354919 0.02094586333299113 0 0.22770851530255631 0.0083928414719516876 0 0.22770851530255631 0.0083928414719516876 0 0.20892072170857109 0.012767156081287029 0 0.2250499103028572 -0.0060445029197408878 0 0.22358048947354919 0.02094586333299113 0 0.22770851530255631 0.0083928414719516876 0 0.20892072170857109 0.012767156081287029 0 0.22770851530255631 0.0083928414719516876 0 0.24005759833730889 -0.00091445705150014652 0 0.2250499103028572 -0.0060445029197408878 0 0.20892072170857109 0.012767156081287029 0 0.2250499103028572 -0.0060445029197408878 0 0.21205365186150391 0.001127076637653511 0 0.20892072170857109 0.012767156081287029 0 0.2250499103028572 -0.0060445029197408878 0 0.204306859725019 0.0021511387259922541 0 0.21205365186150391 0.001127076637653511 0 0.20892072170857109 0.012767156081287029 0 0.21205365186150391 0.001127076637653511 0 0.20892072170857109 0.012767156081287029 0 0.2212906269819209 0.02808117103842343 0 0.2133090341045272 0.020438410915845959 0 0.20434099672531431 0.027037771492151409 0 0.2212906269819209 0.02808117103842343 0 0.20434099672531431 0.027037771492151409 0 0.20892072170857109 0.012767156081287029 0 0.20434099672531431 0.027037771492151409 0 0.19706886986630101 0.02659010781157238 0 0.20892072170857109 0.012767156081287029 0 0.2133090341045272 0.020438410915845959 0 0.20434099672531431 0.027037771492151409 0 0.20892072170857109 0.012767156081287029 0 0.20434099672531431 0.027037771492151409 0 0.22358048947354919 0.02094586333299113 0 0.20892072170857109 0.012767156081287029 0 0.2133090341045272 0.020438410915845959 0 0.22358048947354919 0.02094586333299113 0 0.20892072170857109 0.012767156081287029 0 0.20434099672531431 0.027037771492151409 0 0.19706886986630101 0.02659010781157238 0 0.18584722908846579 0.039678037096461748 0 0.19706886986630101 0.02659010781157238 0 0.1793489050894036 0.025499287367217131 0 0.19706886986630101 0.02659010781157238 0 0.18886261666727239 0.017781810293305961 0 0.1793489050894036 0.025499287367217131 0 0.20434099672531431 0.027037771492151409 0 0.19706886986630101 0.02659010781157238 0 0.19706886986630101 0.02659010781157238 0 0.18886261666727239 0.017781810293305961 0 0.19930568838653551 0.01554774923698905 0 0.20892072170857109 0.012767156081287029 0 0.19706886986630101 0.02659010781157238 0 0.20892072170857109 0.012767156081287029 0 0.19706886986630101 0.02659010781157238 0 0.19930568838653551 0.01554774923698905 0 0.20892072170857109 0.012767156081287029 0 0.1938796680963169 0.0043757288619775247 0 0.20892072170857109 0.012767156081287029 0 0.19930568838653551 0.01554774923698905 0 0.1938796680963169 0.0043757288619775247 0 0.18886261666727239 0.017781810293305961 0 0.19930568838653551 0.01554774923698905 0 0.1938796680963169 0.0043757288619775247 0 0.204306859725019 0.0021511387259922541 0 0.20892072170857109 0.012767156081287029 0 0.1938796680963169 0.0043757288619775247 0 0.2217784603659208 0.047444474670274753 0 0.2108607061015669 0.039378202069488437 0 0.1960327403331118 0.054949391077104393 0 0.21002620416496889 0.06328565506698075 0 0.2217784603659208 0.047444474670274753 0 0.1960327403331118 0.054949391077104393 0 0.2217784603659208 0.047444474670274753 0 0.1960327403331118 0.054949391077104393 0 0.21002620416496889 0.06328565506698075 0 0.22407118564409079 0.073340341625019151 0 0.2217784603659208 0.047444474670274753 0 0.2217784603659208 0.047444474670274753 0 0.2212906269819209 0.02808117103842343 0 0.2108607061015669 0.039378202069488437 0 0.2212906269819209 0.02808117103842343 0 0.20434099672531431 0.027037771492151409 0 0.2108607061015669 0.039378202069488437 0 0.20434099672531431 0.027037771492151409 0 0.2108607061015669 0.039378202069488437 0 0.1960327403331118 0.054949391077104393 0 0.20434099672531431 0.027037771492151409 0 0.1960327403331118 0.054949391077104393 0 0.20434099672531431 0.027037771492151409 0 0.1960327403331118 0.054949391077104393 0 0.18584722908846579 0.039678037096461748 0 0.19706886986630101 0.02659010781157238 0 0.18584722908846579 0.039678037096461748 0 0.1995690445507847 0.065873816972442018 0 0.21002620416496889 0.06328565506698075 0 0.1960327403331118 0.054949391077104393 0 0.1960327403331118 0.054949391077104393 0 0.1746255883106308 0.052765966381351101 0 0.17163692998096569 0.062060806766251642 0 0.1960327403331118 0.054949391077104393 0 0.1746255883106308 0.052765966381351101 0 0.18584722908846579 0.039678037096461748 0 0.1960327403331118 0.054949391077104393 0 0.17163692998096569 0.062060806766251642 0 0.1746255883106308 0.052765966381351101 0 0.18584722908846579 0.039678037096461748 0 0.18584722908846579 0.039678037096461748 0 0.17106570266099719 0.037692703549262331 0 0.1793489050894036 0.025499287367217131 0 0.1746255883106308 0.052765966381351101 0 0.18584722908846579 0.039678037096461748 0 0.17106570266099719 0.037692703549262331 0 0.17106570266099719 0.037692703549262331 0 0.16525880824784889 0.023599248423987959 0 0.155277780545339 0.036726375296258343 0 0.17106570266099719 0.037692703549262331 0 0.16586313708802489 0.047532501458816309 0 0.155277780545339 0.036726375296258343 0 0.16586313708802489 0.047532501458816309 0 0.15586797499423979 0.052588317029067473 0 0.155277780545339 0.036726375296258343 0 0.1746255883106308 0.052765966381351101 0 0.17106570266099719 0.037692703549262331 0 0.16586313708802489 0.047532501458816309 0 0.17163692998096569 0.062060806766251642 0 0.16586313708802489 0.047532501458816309 0 0.15586797499423979 0.052588317029067473 0 0.17163692998096569 0.062060806766251642 0 0.15586797499423979 0.052588317029067473 0 0.14724111962881961 0.069172222455399196 0 0.1746255883106308 0.052765966381351101 0 0.17163692998096569 0.062060806766251642 0 0.16586313708802489 0.047532501458816309 0 0.18886261666727239 0.017781810293305961 0 0.1938796680963169 0.0043757288619775247 0 0.17537224354991091 0.010850892601100479 0 0.1938796680963169 0.0043757288619775247 0 0.17537224354991091 0.010850892601100479 0 0.17912323869707381 -0.003856906065920949 0 0.1938796680963169 0.0043757288619775247 0 0.17912323869707381 -0.003856906065920949 0 0.19706886986630101 0.02659010781157238 0 0.18584722908846579 0.039678037096461748 0 0.1793489050894036 0.025499287367217131 0 0.17537224354991091 0.010850892601100479 0 0.1793489050894036 0.025499287367217131 0 0.16525880824784889 0.023599248423987959 0 0.18886261666727239 0.017781810293305961 0 0.17537224354991091 0.010850892601100479 0 0.1793489050894036 0.025499287367217131 0 0.17106570266099719 0.037692703549262331 0 0.1793489050894036 0.025499287367217131 0 0.16525880824784889 0.023599248423987959 0 0.16525880824784889 0.023599248423987959 0 0.1516511660130683 0.021966999119350319 0 0.155277780545339 0.036726375296258343 0 0.16525880824784889 0.023599248423987959 0 0.15764205944865481 0.0083270856753996751 0 0.1516511660130683 0.021966999119350319 0 0.17537224354991091 0.010850892601100479 0 0.15764205944865481 0.0083270856753996751 0 0.16310660367626731 -0.0083879180435666549 0 0.17537224354991091 0.010850892601100479 0 0.16525880824784889 0.023599248423987959 0 0.15764205944865481 0.0083270856753996751 0 0.15764205944865481 0.0083270856753996751 0 0.14041294484288791 0.01224106892269761 0 0.1443933526966239 -0.0053404741926335233 0 0.15764205944865481 0.0083270856753996751 0 0.1516511660130683 0.021966999119350319 0 0.14041294484288791 0.01224106892269761 0 0.1516511660130683 0.021966999119350319 0 0.1396642369806107 0.028941217278408031 0 0.14041294484288791 0.01224106892269761 0 0.1516511660130683 0.021966999119350319 0 0.1396642369806107 0.028941217278408031 0 0.155277780545339 0.036726375296258343 0 0.12401493039047071 0.020319397639299529 0 0.1396642369806107 0.028941217278408031 0 0.14041294484288791 0.01224106892269761 0 0.12401493039047071 0.020319397639299529 0 0.1396642369806107 0.028941217278408031 0 0.12590570183597469 0.035936875787285161 0 0.12313387866373759 0.0035515711970952281 0 0.14041294484288791 0.01224106892269761 0 0.1443933526966239 -0.0053404741926335233 0 0.12401493039047071 0.020319397639299529 0 0.12313387866373759 0.0035515711970952281 0 0.14041294484288791 0.01224106892269761 0 0.15586797499423979 0.052588317029067473 0 0.13994254830725381 0.046775972621773153 0 0.14724111962881961 0.069172222455399196 0 0.1396642369806107 0.028941217278408031 0 0.155277780545339 0.036726375296258343 0 0.13994254830725381 0.046775972621773153 0 0.15586797499423979 0.052588317029067473 0 0.155277780545339 0.036726375296258343 0 0.13994254830725381 0.046775972621773153 0 0.12084946676276651 0.051920765802114653 0 0.13994254830725381 0.046775972621773153 0 0.12590570183597469 0.035936875787285161 0 0.1396642369806107 0.028941217278408031 0 0.13994254830725381 0.046775972621773153 0 0.12590570183597469 0.035936875787285161 0 0.12084946676276651 0.051920765802114653 0 0.13994254830725381 0.046775972621773153 0 0.14724111962881961 0.069172222455399196 0 0.12084946676276651 0.051920765802114653 0 0.1228453092766736 0.076283638144546695 0 0.14724111962881961 0.069172222455399196 0 0.1228453092766736 0.076283638144546695 0 0.14724111962881961 0.069172222455399196 0 0.1228453092766736 0.076283638144546695 0 0.14724111962881961 0.069172222455399196 0 0.14634680338186221 0.08472444087822889 0 0.14724111962881961 0.069172222455399196 0 0.14634680338186221 0.08472444087822889 0 0.1628819387299254 0.079953855936591933 0 0.14634680338186221 0.08472444087822889 0 0.15639292478588979 0.09681930926516806 0 0.1628819387299254 0.079953855936591933 0 0.14634680338186221 0.08472444087822889 0 0.1416551878783204 0.098341423160604985 0 0.15639292478588979 0.09681930926516806 0 0.14634680338186221 0.08472444087822889 0 0.13332427816065981 0.091465475151634515 0 0.1416551878783204 0.098341423160604985 0 0.1234856839472072 0.093079819220779875 0 0.1228453092766736 0.076283638144546695 0 0.13332427816065981 0.091465475151634515 0 0.1228453092766736 0.076283638144546695 0 0.14634680338186221 0.08472444087822889 0 0.13332427816065981 0.091465475151634515 0 0.1234856839472072 0.093079819220779875 0 0.13332427816065981 0.091465475151634515 0 0.12939896873949361 0.099253187387794956 0 0.124516223342394 0.102573694320021 0 0.1234856839472072 0.093079819220779875 0 0.12939896873949361 0.099253187387794956 0 0.13332427816065981 0.091465475151634515 0 0.12939896873949361 0.099253187387794956 0 0.13470892670643281 0.098145382386264135 0 0.12629269148191641 0.106016018243555 0 0.13042910013620129 0.10642034045751381 0 0.13445727204725691 0.1035214438450215 0 0.12629269148191641 0.106016018243555 0 0.13445727204725691 0.1035214438450215 0 0.124516223342394 0.102573694320021 0 0.12939896873949361 0.099253187387794956 0 0.12629269148191641 0.106016018243555 0 0.12939896873949361 0.099253187387794956 0 0.12629269148191641 0.106016018243555 0 0.13445727204725691 0.1035214438450215 0 0.12629269148191641 0.106016018243555 0 0.13042910013620129 0.10642034045751381 0 0.13042910013620129 0.10642034045751381 0 0.13445727204725691 0.1035214438450215 0 0.13445727204725691 0.1035214438450215 0 0.1416551878783204 0.098341423160604985 0 0.13445727204725691 0.1035214438450215 0 0.13470892670643281 0.098145382386264135 0 0.1416551878783204 0.098341423160604985 0 0.13332427816065981 0.091465475151634515 0 0.13470892670643281 0.098145382386264135 0 0.1416551878783204 0.098341423160604985 0 0.12939896873949361 0.099253187387794956 0 0.13445727204725691 0.1035214438450215 0 0.13470892670643281 0.098145382386264135 0 0.1311219964085299 0.13107921951882709 0 0.13042910013620129 0.10642034045751381 0 0.14610784646156841 0.1232675220587309 0 0.1136454455756077 0.1184987920293956 0 0.1311219964085299 0.13107921951882709 0 0.13042910013620129 0.10642034045751381 0 0.13042910013620129 0.10642034045751381 0 0.14610784646156841 0.1232675220587309 0 0.15862685203719781 0.1091765907292425 0 0.16087236332234431 0.1292463525528601 0 0.14610784646156841 0.1232675220587309 0 0.15862685203719781 0.1091765907292425 0 0.13042910013620129 0.10642034045751381 0 0.13445727204725691 0.1035214438450215 0 0.15862685203719781 0.1091765907292425 0 0.13445727204725691 0.1035214438450215 0 0.1416551878783204 0.098341423160604985 0 0.15639292478588979 0.09681930926516806 0 0.13445727204725691 0.1035214438450215 0 0.15639292478588979 0.09681930926516806 0 0.15862685203719781 0.1091765907292425 0 0.13042910013620129 0.10642034045751381 0 0.15862685203719781 0.1091765907292425 0 0.13445727204725691 0.1035214438450215 0 0.15639292478588979 0.09681930926516806 0 0.15862685203719781 0.1091765907292425 0 0.16989094328234061 0.1011077375373983 0 0.18682460393819469 0.1119328410009689 0 0.15639292478588979 0.09681930926516806 0 0.16989094328234061 0.1011077375373983 0 0.178328577524523 0.090117174685315285 0 0.15639292478588979 0.09681930926516806 0 0.15862685203719781 0.1091765907292425 0 0.16989094328234061 0.1011077375373983 0 0.1730945517163176 0.12565831839266209 0 0.16087236332234431 0.1292463525528601 0 0.15862685203719781 0.1091765907292425 0 0.15862685203719781 0.1091765907292425 0 0.18682460393819469 0.1119328410009689 0 0.1730945517163176 0.12565831839266209 0 0.15862685203719781 0.1091765907292425 0 0.18682460393819469 0.1119328410009689 0 0.19018889364999891 0.093793572917675747 0 0.18682460393819469 0.1119328410009689 0 0.18331490028506539 0.097675024062691712 0 0.16989094328234061 0.1011077375373983 0 0.18682460393819469 0.1119328410009689 0 0.1769415099635574 0.097887606769155019 0 0.16989094328234061 0.1011077375373983 0 0.1769415099635574 0.097887606769155019 0 0.178328577524523 0.090117174685315285 0 0.1769415099635574 0.097887606769155019 0 0.18331490028506539 0.097675024062691712 0 0.178328577524523 0.090117174685315285 0 0.18682460393819469 0.1119328410009689 0 0.1769415099635574 0.097887606769155019 0 0.18331490028506539 0.097675024062691712 0 0.1896738203090888 0.076312207569898163 0 0.18331490028506539 0.097675024062691712 0 0.18331490028506539 0.097675024062691712 0 0.178328577524523 0.090117174685315285 0 0.1818373739731898 0.085321539146003447 0 0.1896738203090888 0.076312207569898163 0 0.18331490028506539 0.097675024062691712 0 0.1818373739731898 0.085321539146003447 0 0.178328577524523 0.090117174685315285 0 0.1818373739731898 0.085321539146003447 0 0.17603219777408219 0.077181750266108684 0 0.178328577524523 0.090117174685315285 0 0.17603219777408219 0.077181750266108684 0 0.1628819387299254 0.079953855936591933 0 0.1896738203090888 0.076312207569898163 0 0.1818373739731898 0.085321539146003447 0 0.17603219777408219 0.077181750266108684 0 0.1896738203090888 0.076312207569898163 0 0.17163692998096569 0.062060806766251642 0 0.17603219777408219 0.077181750266108684 0 0.1896738203090888 0.076312207569898163 0 0.1960327403331118 0.054949391077104393 0 0.17163692998096569 0.062060806766251642 0 0.17163692998096569 0.062060806766251642 0 0.17603219777408219 0.077181750266108684 0 0.1628819387299254 0.079953855936591933 0 0.17163692998096569 0.062060806766251642 0 0.14724111962881961 0.069172222455399196 0 0.1628819387299254 0.079953855936591933 0 0.17163692998096569 0.062060806766251642 0 0.14724111962881961 0.069172222455399196 0 0.15639292478588979 0.09681930926516806 0 0.178328577524523 0.090117174685315285 0 0.1628819387299254 0.079953855936591933 0 0.15639292478588979 0.09681930926516806 0 0.178328577524523 0.090117174685315285 0 0.1064642695094989 0.47665876851161731 0 0.1153009038496213 0.5 0 0.089539576259972276 0.5 0 0.1064642695094989 0.47665876851161731 0 0.088576602776384489 0.48099300239631659 0 0.089539576259972276 0.5 0 0.1064642695094989 0.47665876851161731 0 0.1153009038496213 0.5 0 0.1344799913076026 0.47921315784804291 0 0.1064642695094989 0.47665876851161731 0 0.1278977511759336 0.45842631569609049 0 0.1344799913076026 0.47921315784804291 0 0.1064642695094989 0.47665876851161731 0 0.10638163176300761 0.45524890958736619 0 0.1278977511759336 0.45842631569609049 0 0.12131551104426461 0.43763947354413812 0 0.10638163176300761 0.45524890958736619 0 0.1278977511759336 0.45842631569609049 0 0.12131551104426461 0.43763947354413812 0 0.1278977511759336 0.45842631569609049 0 0.095526410633707565 0.43870059007458351 0 0.10638163176300761 0.45524890958736619 0 0.08070421645163299 0.46481940011040129 0 0.12131551104426461 0.43763947354413812 0 0.095526410633707565 0.43870059007458351 0 0.10638163176300761 0.45524890958736619 0 0.1064642695094989 0.47665876851161731 0 0.10638163176300761 0.45524890958736619 0 0.08070421645163299 0.46481940011040129 0 0.095526410633707565 0.43870059007458351 0 0.08070421645163299 0.46481940011040129 0 0.078099157297793792 0.440445808541017 0 0.08070421645163299 0.46481940011040129 0 0.078099157297793792 0.440445808541017 0 0.066389714838403918 0.45309971317951958 0 0.078099157297793792 0.440445808541017 0 0.066389714838403918 0.45309971317951958 0 0.063977228270350392 0.43263328419191732 0 0.08070421645163299 0.46481940011040129 0 0.066389714838403918 0.45309971317951958 0 0.057096325155191981 0.46804233190681782 0 0.08070421645163299 0.46481940011040129 0 0.072060391741020621 0.48304480064329941 0 0.057096325155191981 0.46804233190681782 0 0.08070421645163299 0.46481940011040129 0 0.072060391741020621 0.48304480064329941 0 0.088576602776384489 0.48099300239631659 0 0.1064642695094989 0.47665876851161731 0 0.08070421645163299 0.46481940011040129 0 0.088576602776384489 0.48099300239631659 0 0.072060391741020621 0.48304480064329941 0 0.088576602776384489 0.48099300239631659 0 0.089539576259972276 0.5 0 0.072060391741020621 0.48304480064329941 0 0.089539576259972276 0.5 0 0.06377824867032339 0.5 0 0.072060391741020621 0.48304480064329941 0 0.06377824867032339 0.5 0 0.052180159396324512 0.48446254210955381 0 0.06377824867032339 0.5 0 0.052180159396324512 0.48446254210955381 0 0.038016921080674497 0.5 0 0.072060391741020621 0.48304480064329941 0 0.052180159396324512 0.48446254210955381 0 0.057096325155191981 0.46804233190681782 0 0.052180159396324512 0.48446254210955381 0 0.043290205718736638 0.47286710429814588 0 0.057096325155191981 0.46804233190681782 0 0.052180159396324512 0.48446254210955381 0 0.043290205718736638 0.47286710429814588 0 0.036247041080798348 0.48456414866912412 0 0.043290205718736638 0.47286710429814588 0 0.036247041080798348 0.48456414866912412 0 0.030942504690626989 0.47597456970631319 0 0.036247041080798348 0.48456414866912412 0 0.027832576773274581 0.48257174432414057 0 0.030942504690626989 0.47597456970631319 0 0.043290205718736638 0.47286710429814588 0 0.030942504690626989 0.47597456970631319 0 0.032391195287627912 0.46380111001184121 0 0.052180159396324512 0.48446254210955381 0 0.036247041080798348 0.48456414866912412 0 0.038016921080674497 0.5 0 0.036247041080798348 0.48456414866912412 0 0.038016921080674497 0.5 0 0.02521987882515286 0.49150893157659098 0 0.038016921080674497 0.5 0 0.02521987882515286 0.49150893157659098 0 0.01225559349102562 0.5 0 0.02521987882515286 0.49150893157659098 0 0.01225559349102562 0.5 0 0.01340480907097895 0.4874299313747133 0 0.021360537255457831 0.48505781559699601 0 0.02521987882515286 0.49150893157659098 0 0.01340480907097895 0.4874299313747133 0 0.021360537255457831 0.48505781559699601 0 0.02521987882515286 0.49150893157659098 0 0.027832576773274581 0.48257174432414057 0 0.036247041080798348 0.48456414866912412 0 0.02521987882515286 0.49150893157659098 0 0.027832576773274581 0.48257174432414057 0 0.027832576773274581 0.48257174432414057 0 0.030942504690626989 0.47597456970631319 0 0.021191738914219369 0.47749559469277658 0 0.021360537255457831 0.48505781559699601 0 0.027832576773274581 0.48257174432414057 0 0.021191738914219369 0.47749559469277658 0 0.02072615032942926 0.47531170678851148 0 0.032391195287627912 0.46380111001184121 0 0.030942504690626989 0.47597456970631319 0 0.02072615032942926 0.47531170678851148 0 0.032391195287627912 0.46380111001184121 0 0.030942504690626989 0.47597456970631319 0 0.02072615032942926 0.47531170678851148 0 0.021191738914219369 0.47749559469277658 0 0.02072615032942926 0.47531170678851148 0 0.021191738914219369 0.47749559469277658 0 0.021360537255457831 0.48505781559699601 0 0.021191738914219369 0.47749559469277658 0 0.01340480907097895 0.4874299313747133 0 0.02072615032942926 0.47531170678851148 0 0.021191738914219369 0.47749559469277658 0 0.01340480907097895 0.4874299313747133 0 0.02072615032942926 0.47531170678851148 0 0.0080216253579254212 0.47624624169120339 0 0.00047754122158997348 0.49529221912806559 0 0.02072615032942926 0.47531170678851148 0 0.0080216253579254212 0.47624624169120339 0 0.0070915896478249809 0.46407540904328187 0 -0.0046263563138369129 0.47472740336317082 0 0.0080216253579254212 0.47624624169120339 0 0.0070915896478249809 0.46407540904328187 0 -0.0015562876768971451 0.48331675208623398 0 -0.0046263563138369129 0.47472740336317082 0 0.0080216253579254212 0.47624624169120339 0 -0.0015562876768971451 0.48331675208623398 0 0.0080216253579254212 0.47624624169120339 0 0.00047754122158997348 0.49529221912806559 0 0.02072615032942926 0.47531170678851148 0 0.00047754122158997348 0.49529221912806559 0 0.02072615032942926 0.47531170678851148 0 0.00047754122158997348 0.49529221912806559 0 0.01340480907097895 0.4874299313747133 0 0.00047754122158997348 0.49529221912806559 0 0.01225559349102562 0.5 0 0.01340480907097895 0.4874299313747133 0 -0.0093705465621650112 0.44912781746802999 0 0.014834025034906601 0.44767412807311707 0 0.00070246242907472112 0.4356242166470069 0 0.02072615032942926 0.47531170678851148 0 0.014834025034906601 0.44767412807311707 0 0.0070915896478249809 0.46407540904328187 0 -0.0093705465621650112 0.44912781746802999 0 0.014834025034906601 0.44767412807311707 0 0.0070915896478249809 0.46407540904328187 0 0.02072615032942926 0.47531170678851148 0 0.014834025034906601 0.44767412807311707 0 0.032391195287627912 0.46380111001184121 0 0.02072615032942926 0.47531170678851148 0 0.014834025034906601 0.44767412807311707 0 0.014834025034906601 0.44767412807311707 0 0.03065489434706261 0.45059900282980819 0 0.032391195287627912 0.46380111001184121 0 0.014834025034906601 0.44767412807311707 0 0.031338116819889357 0.43863025999910382 0 0.024043356041985889 0.42702135517020778 0 0.014834025034906601 0.44767412807311707 0 0.03065489434706261 0.45059900282980819 0 0.031338116819889357 0.43863025999910382 0 0.031338116819889357 0.43863025999910382 0 0.044056240245826578 0.452290513235171 0 0.041947732939803348 0.42279117811590528 0 0.044056240245826578 0.452290513235171 0 0.041947732939803348 0.42279117811590528 0 0.03065489434706261 0.45059900282980819 0 0.031338116819889357 0.43863025999910382 0 0.044056240245826578 0.452290513235171 0 0.044056240245826578 0.452290513235171 0 0.032391195287627912 0.46380111001184121 0 0.03065489434706261 0.45059900282980819 0 0.044056240245826578 0.452290513235171 0 0.032391195287627912 0.46380111001184121 0 0.044056240245826578 0.452290513235171 0 0.032391195287627912 0.46380111001184121 0 0.044660587259281098 0.46074570569634898 0 0.044056240245826578 0.452290513235171 0 0.044660587259281098 0.46074570569634898 0 0.043290205718736638 0.47286710429814588 0 0.032391195287627912 0.46380111001184121 0 0.044660587259281098 0.46074570569634898 0 0.043290205718736638 0.47286710429814588 0 0.044660587259281098 0.46074570569634898 0 0.057096325155191981 0.46804233190681782 0 0.044056240245826578 0.452290513235171 0 0.044660587259281098 0.46074570569634898 0 0.055236019153810802 0.45336230964195501 0 0.044660587259281098 0.46074570569634898 0 0.055236019153810802 0.45336230964195501 0 0.057096325155191981 0.46804233190681782 0 0.066389714838403918 0.45309971317951958 0 0.055236019153810802 0.45336230964195501 0 0.057096325155191981 0.46804233190681782 0 0.066389714838403918 0.45309971317951958 0 0.055236019153810802 0.45336230964195501 0 0.063977228270350392 0.43263328419191732 0 0.044056240245826578 0.452290513235171 0 0.055236019153810802 0.45336230964195501 0 0.063977228270350392 0.43263328419191732 0 0.044056240245826578 0.452290513235171 0 0.063977228270350392 0.43263328419191732 0 0.044056240245826578 0.452290513235171 0 0.041947732939803348 0.42279117811590528 0 0.063977228270350392 0.43263328419191732 0 0.06079548108225364 0.41017969837043389 0 0.041947732939803348 0.42279117811590528 0 0.063977228270350392 0.43263328419191732 0 0.06079548108225364 0.41017969837043389 0 0.041947732939803348 0.42279117811590528 0 0.039839225633780243 0.39329184299663977 0 0.041947732939803348 0.42279117811590528 0 0.023155005674946341 0.40597466030519003 0 0.039839225633780243 0.39329184299663977 0 0.041947732939803348 0.42279117811590528 0 0.039839225633780243 0.39329184299663977 0 0.031338116819889357 0.43863025999910382 0 0.041947732939803348 0.42279117811590528 0 0.024043356041985889 0.42702135517020778 0 0.014834025034906601 0.44767412807311707 0 0.024043356041985889 0.42702135517020778 0 0.0089418997403838164 0.42003654935772261 0 0.041947732939803348 0.42279117811590528 0 0.024043356041985889 0.42702135517020778 0 0.023155005674946341 0.40597466030519003 0 0.024043356041985889 0.42702135517020778 0 0.0089418997403838164 0.42003654935772261 0 0.023155005674946341 0.40597466030519003 0 -0.0033560911855174251 0.4100707043998737 0 0.0089418997403838164 0.42003654935772261 0 0.003049774445861032 0.39239897064232809 0 0.014834025034906601 0.44767412807311707 0 0.0089418997403838164 0.42003654935772261 0 0.014834025034906601 0.44767412807311707 0 0.0089418997403838164 0.42003654935772261 0 0.00070246242907472112 0.4356242166470069 0 -0.0031907760215338348 0.38094285235515429 0 0.003049774445861032 0.39239897064232809 0 0.019022490955649628 0.38390163027806729 0 -0.0031907760215338348 0.38094285235515429 0 0.019022490955649628 0.38390163027806729 0 0.013550997673091951 0.36700894749171747 0 0.003049774445861032 0.39239897064232809 0 0.023155005674946341 0.40597466030519003 0 0.019022490955649628 0.38390163027806729 0 0.0089418997403838164 0.42003654935772261 0 0.003049774445861032 0.39239897064232809 0 0.023155005674946341 0.40597466030519003 0 0.0089418997403838164 0.42003654935772261 0 0.003049774445861032 0.39239897064232809 0 0.023155005674946341 0.40597466030519003 0 0.019022490955649628 0.38390163027806729 0 0.039839225633780243 0.39329184299663977 0 0.019022490955649628 0.38390163027806729 0 0.039839225633780243 0.39329184299663977 0 0.037730718327752093 0.3637925078773746 0 0.039839225633780243 0.39329184299663977 0 0.037730718327752093 0.3637925078773746 0 0.039839225633780243 0.39329184299663977 0 0.052895904244040143 0.37618504541454878 0 0.037730718327752093 0.3637925078773746 0 0.06079548108225364 0.41017969837043389 0 0.039839225633780243 0.39329184299663977 0 0.067135407186936377 0.38864723161718229 0 0.039839225633780243 0.39329184299663977 0 0.052895904244040143 0.37618504541454878 0 0.067135407186936377 0.38864723161718229 0 0.087047445244074623 0.37911733500321182 0 0.083898216294874095 0.41297605514866348 0 0.1038192043193978 0.39331882610540958 0 0.067135407186936377 0.38864723161718229 0 0.087047445244074623 0.37911733500321182 0 0.083898216294874095 0.41297605514866348 0 0.067135407186936377 0.38864723161718229 0 0.087047445244074623 0.37911733500321182 0 0.065219665079130837 0.36013586773043083 0 0.06079548108225364 0.41017969837043389 0 0.067135407186936377 0.38864723161718229 0 0.083898216294874095 0.41297605514866348 0 0.06079548108225364 0.41017969837043389 0 0.063977228270350392 0.43263328419191732 0 0.083898216294874095 0.41297605514866348 0 0.078099157297793792 0.440445808541017 0 0.063977228270350392 0.43263328419191732 0 0.083898216294874095 0.41297605514866348 0 0.063977228270350392 0.43263328419191732 0 0.083898216294874095 0.41297605514866348 0 0.095526410633707565 0.43870059007458351 0 0.078099157297793792 0.440445808541017 0 0.083898216294874095 0.41297605514866348 0 0.083898216294874095 0.41297605514866348 0 0.114470326864687 0.41556032037417961 0 0.1038192043193978 0.39331882610540958 0 0.095526410633707565 0.43870059007458351 0 0.083898216294874095 0.41297605514866348 0 0.114470326864687 0.41556032037417961 0 0.12131551104426461 0.43763947354413812 0 0.114470326864687 0.41556032037417961 0 0.13545573333377081 0.42744960681673111 0 0.12131551104426461 0.43763947354413812 0 0.095526410633707565 0.43870059007458351 0 0.114470326864687 0.41556032037417961 0 0.114470326864687 0.41556032037417961 0 0.1248040273615745 0.39426397529669138 0 0.1038192043193978 0.39331882610540958 0 0.1248040273615745 0.39426397529669138 0 0.1038192043193978 0.39331882610540958 0 0.1237401923439215 0.37366159706215579 0 0.1038192043193978 0.39331882610540958 0 0.1055026024639584 0.3710799146381617 0 0.1237401923439215 0.37366159706215579 0 0.1038192043193978 0.39331882610540958 0 0.1237401923439215 0.37366159706215579 0 0.087047445244074623 0.37911733500321182 0 0.1038192043193978 0.39331882610540958 0 0.1055026024639584 0.3710799146381617 0 0.083898216294874095 0.41297605514866348 0 0.1038192043193978 0.39331882610540958 0 0.12019755858188839 0.35282258743654399 0 0.10745660952205401 0.33672956511806951 0 0.092708611830509643 0.35647922758348738 0 0.12019755858188839 0.35282258743654399 0 0.092708611830509643 0.35647922758348738 0 0.1055026024639584 0.3710799146381617 0 0.12019755858188839 0.35282258743654399 0 0.092708611830509643 0.35647922758348738 0 0.087047445244074623 0.37911733500321182 0 0.1055026024639584 0.3710799146381617 0 0.092708611830509643 0.35647922758348738 0 0.1055026024639584 0.3710799146381617 0 0.1237401923439215 0.37366159706215579 0 0.12019755858188839 0.35282258743654399 0 0.12019755858188839 0.35282258743654399 0 0.10745660952205401 0.33672956511806951 0 0.12822311230229611 0.33267102260534198 0 0.1178418837420498 0.3212742172592557 0 0.10745660952205401 0.33672956511806951 0 0.12822311230229611 0.33267102260534198 0 0.1178418837420498 0.3212742172592557 0 0.1037272511331867 0.31820530559976401 0 0.1175151721489681 0.30506634405420768 0 0.1178418837420498 0.3212742172592557 0 0.1175151721489681 0.30506634405420768 0 0.13228727360374379 0.31369884891889549 0 0.1178418837420498 0.3212742172592557 0 0.1037272511331867 0.31820530559976401 0 0.10745660952205401 0.33672956511806951 0 0.10745660952205401 0.33672956511806951 0 0.085071315374679629 0.33407853086780392 0 0.092708611830509643 0.35647922758348738 0 0.1037272511331867 0.31820530559976401 0 0.10745660952205401 0.33672956511806951 0 0.085071315374679629 0.33407853086780392 0 0.085071315374679629 0.33407853086780392 0 0.06848497676158645 0.31529679547880041 0 0.087539601033616271 0.31076469726459371 0 0.1037272511331867 0.31820530559976401 0 0.085071315374679629 0.33407853086780392 0 0.087539601033616271 0.31076469726459371 0 0.085071315374679629 0.33407853086780392 0 0.06848497676158645 0.31529679547880041 0 0.058196173403724683 0.3383236311089331 0 0.085071315374679629 0.33407853086780392 0 0.065219665079130837 0.36013586773043083 0 0.058196173403724683 0.3383236311089331 0 0.092708611830509643 0.35647922758348738 0 0.065219665079130837 0.36013586773043083 0 0.085071315374679629 0.33407853086780392 0 0.092708611830509643 0.35647922758348738 0 0.065219665079130837 0.36013586773043083 0 0.087047445244074623 0.37911733500321182 0 0.092708611830509643 0.35647922758348738 0 0.065219665079130837 0.36013586773043083 0 0.052895904244040143 0.37618504541454878 0 0.067135407186936377 0.38864723161718229 0 0.065219665079130837 0.36013586773043083 0 0.052895904244040143 0.37618504541454878 0 0.065219665079130837 0.36013586773043083 0 0.037730718327752093 0.3637925078773746 0 0.065219665079130837 0.36013586773043083 0 0.037730718327752093 0.3637925078773746 0 0.065219665079130837 0.36013586773043083 0 0.037730718327752093 0.3637925078773746 0 0.058196173403724683 0.3383236311089331 0 0.037730718327752093 0.3637925078773746 0 0.035626830094632668 0.33435779647508052 0 0.037730718327752093 0.3637925078773746 0 0.035626830094632668 0.33435779647508052 0 0.058196173403724683 0.3383236311089331 0 0.037730718327752093 0.3637925078773746 0 0.013550997673091951 0.36700894749171747 0 0.019022490955649628 0.38390163027806729 0 0.037730718327752093 0.3637925078773746 0 0.013550997673091951 0.36700894749171747 0 0.037730718327752093 0.3637925078773746 0 0.013667537737262319 0.34686808482662967 0 0.013550997673091951 0.36700894749171747 0 0.037730718327752093 0.3637925078773746 0 0.013667537737262319 0.34686808482662967 0 0.035626830094632668 0.33435779647508052 0 -0.002301468281773961 0.35105905958958589 0 0.013667537737262319 0.34686808482662967 0 0.013667537737262319 0.34686808482662967 0 0.013550997673091951 0.36700894749171747 0 0.0017598356757351249 0.35970487886607511 0 -0.0027275111302669762 0.33917893461267751 0 -0.002301468281773961 0.35105905958958589 0 0.013667537737262319 0.34686808482662967 0 -0.002301468281773961 0.35105905958958589 0 0.013667537737262319 0.34686808482662967 0 0.0017598356757351249 0.35970487886607511 0 -0.01062872298156819 0.37022538710606068 0 0.013550997673091951 0.36700894749171747 0 -0.01062872298156819 0.37022538710606068 0 0.013550997673091951 0.36700894749171747 0 0.0017598356757351249 0.35970487886607511 0 -0.0074649973427216437 0.32553759514413338 0 0.0099458108876561181 0.30752992596193612 0 -0.0074649973427216437 0.32553759514413338 0 0.011186771252963711 0.32818244582930323 0 0.0099458108876561181 0.30752992596193612 0 0.011186771252963711 0.32818244582930323 0 0.02257058852419017 0.3187483133347766 0 0.0099458108876561181 0.30752992596193612 0 -0.0027275111302669762 0.33917893461267751 0 -0.0074649973427216437 0.32553759514413338 0 0.011186771252963711 0.32818244582930323 0 -0.0027275111302669762 0.33917893461267751 0 0.013667537737262319 0.34686808482662967 0 0.011186771252963711 0.32818244582930323 0 0.013667537737262319 0.34686808482662967 0 0.011186771252963711 0.32818244582930323 0 0.035626830094632668 0.33435779647508052 0 0.011186771252963711 0.32818244582930323 0 0.02257058852419017 0.3187483133347766 0 0.035626830094632668 0.33435779647508052 0 0.02257058852419017 0.3187483133347766 0 0.035626830094632668 0.33435779647508052 0 0.033522941861508199 0.3049230850727867 0 0.035626830094632668 0.33435779647508052 0 0.050583367404711171 0.31799307838170382 0 0.033522941861508199 0.3049230850727867 0 0.035626830094632668 0.33435779647508052 0 0.033522941861508199 0.3049230850727867 0 0.035626830094632668 0.33435779647508052 0 0.058196173403724683 0.3383236311089331 0 0.050583367404711171 0.31799307838170382 0 0.06848497676158645 0.31529679547880041 0 0.058196173403724683 0.3383236311089331 0 0.050583367404711171 0.31799307838170382 0 0.06848497676158645 0.31529679547880041 0 0.050583367404711171 0.31799307838170382 0 0.057085914902103838 0.29706408377291799 0 0.050583367404711171 0.31799307838170382 0 0.057085914902103838 0.29706408377291799 0 0.033522941861508199 0.3049230850727867 0 0.057085914902103838 0.29706408377291799 0 0.044483982715641759 0.28760289495066921 0 0.062389469804621012 0.27548666367454527 0 0.044483982715641759 0.28760289495066921 0 0.027356619118033901 0.28952225677973881 0 0.044767427348412221 0.27151458759754188 0 0.057085914902103838 0.29706408377291799 0 0.044483982715641759 0.28760289495066921 0 0.033522941861508199 0.3049230850727867 0 0.044483982715641759 0.28760289495066921 0 0.033522941861508199 0.3049230850727867 0 0.027356619118033901 0.28952225677973881 0 0.027356619118033901 0.28952225677973881 0 0.0099458108876561181 0.30752992596193612 0 0.033522941861508199 0.3049230850727867 0 0.027356619118033901 0.28952225677973881 0 0.0099458108876561181 0.30752992596193612 0 0.02257058852419017 0.3187483133347766 0 0.033522941861508199 0.3049230850727867 0 0.0099458108876561181 0.30752992596193612 0 0.027356619118033901 0.28952225677973881 0 0.0092751585124298732 0.2885309868865864 0 0.015712342419492011 0.27405135326386221 0 -0.001578176680146459 0.27507181497635702 0 -0.0056734005591082184 0.29844779389953791 0 0.0092751585124298732 0.2885309868865864 0 0.027356619118033901 0.28952225677973881 0 0.0092751585124298732 0.2885309868865864 0 0.0099458108876561181 0.30752992596193612 0 -0.0056734005591082184 0.29844779389953791 0 0.0092751585124298732 0.2885309868865864 0 0.0099458108876561181 0.30752992596193612 0 -0.001578176680146459 0.27507181497635702 0 0.0099098419912429878 0.26365487840773483 0 0.00052355941179598429 0.25579479798048171 0 0.0099098419912429878 0.26365487840773483 0 0.015096421446432079 0.25209654690509331 0 0.01979506335864133 0.26125987891287972 0 0.0099098419912429878 0.26365487840773483 0 0.015096421446432079 0.25209654690509331 0 0.00052355941179598429 0.25579479798048171 0 -0.001578176680146459 0.27507181497635702 0 0.0099098419912429878 0.26365487840773483 0 0.015712342419492011 0.27405135326386221 0 -0.001578176680146459 0.27507181497635702 0 0.0092751585124298732 0.2885309868865864 0 0.015712342419492011 0.27405135326386221 0 0.0099098419912429878 0.26365487840773483 0 0.015712342419492011 0.27405135326386221 0 0.01979506335864133 0.26125987891287972 0 0.015712342419492011 0.27405135326386221 0 0.027448562580092869 0.26802105039543228 0 0.01979506335864133 0.26125987891287972 0 0.027356619118033901 0.28952225677973881 0 0.015712342419492011 0.27405135326386221 0 0.027448562580092869 0.26802105039543228 0 0.027356619118033901 0.28952225677973881 0 0.027448562580092869 0.26802105039543228 0 0.038431876658968432 0.27008653012970391 0 0.027448562580092869 0.26802105039543228 0 0.027206279367625669 0.25373786143723448 0 0.035430745663873033 0.2603881365480713 0 0.027448562580092869 0.26802105039543228 0 0.01979506335864133 0.26125987891287972 0 0.027206279367625669 0.25373786143723448 0 0.015096421446432079 0.25209654690509331 0 0.01979506335864133 0.26125987891287972 0 0.027206279367625669 0.25373786143723448 0 0.035598449415234837 0.2495524571064667 0 0.027206279367625669 0.25373786143723448 0 0.035430745663873033 0.2603881365480713 0 0.035430745663873033 0.2603881365480713 0 0.046196578722919449 0.26104926210950002 0 0.038431876658968432 0.27008653012970391 0 0.047546082556938617 0.24747125154829211 0 0.035598449415234837 0.2495524571064667 0 0.046196578722919449 0.26104926210950002 0 0.035598449415234837 0.2495524571064667 0 0.035430745663873033 0.2603881365480713 0 0.046196578722919449 0.26104926210950002 0 0.047546082556938617 0.24747125154829211 0 0.046196578722919449 0.26104926210950002 0 0.027356619118033901 0.28952225677973881 0 0.044767427348412221 0.27151458759754188 0 0.027356619118033901 0.28952225677973881 0 0.038431876658968432 0.27008653012970391 0 0.044767427348412221 0.27151458759754188 0 0.027448562580092869 0.26802105039543228 0 0.035430745663873033 0.2603881365480713 0 0.038431876658968432 0.27008653012970391 0 0.046196578722919449 0.26104926210950002 0 0.038431876658968432 0.27008653012970391 0 0.044767427348412221 0.27151458759754188 0 0.038431876658968432 0.27008653012970391 0 0.044767427348412221 0.27151458759754188 0 0.044767427348412221 0.27151458759754188 0 0.062389469804621012 0.27548666367454527 0 0.058028282024128817 0.2577991367744793 0 0.044767427348412221 0.27151458759754188 0 0.062389469804621012 0.27548666367454527 0 0.044483982715641759 0.28760289495066921 0 0.044767427348412221 0.27151458759754188 0 0.062389469804621012 0.27548666367454527 0 0.047546082556938617 0.24747125154829211 0 0.058028282024128817 0.2577991367744793 0 0.047546082556938617 0.24747125154829211 0 0.046196578722919449 0.26104926210950002 0 0.058028282024128817 0.2577991367744793 0 0.046196578722919449 0.26104926210950002 0 0.044767427348412221 0.27151458759754188 0 0.058028282024128817 0.2577991367744793 0 0.044767427348412221 0.27151458759754188 0 0.058028282024128817 0.2577991367744793 0 0.060789523616018221 0.25494323689545412 0 0.058028282024128817 0.2577991367744793 0 0.061072009066903667 0.25345897537562068 0 0.047546082556938617 0.24747125154829211 0 0.058028282024128817 0.2577991367744793 0 0.061072009066903667 0.25345897537562068 0 0.060789523616018221 0.25494323689545412 0 0.058028282024128817 0.2577991367744793 0 0.070610784923539879 0.2441657739946789 0 0.061072009066903667 0.25345897537562068 0 0.072856792737802545 0.25660343021552873 0 0.072856792737802545 0.25660343021552873 0 0.090131343139204109 0.26441229451162318 0 0.069019897142478498 0.26862893826301398 0 0.060789523616018221 0.25494323689545412 0 0.061072009066903667 0.25345897537562068 0 0.072856792737802545 0.25660343021552873 0 0.058028282024128817 0.2577991367744793 0 0.069019897142478498 0.26862893826301398 0 0.060789523616018221 0.25494323689545412 0 0.072856792737802545 0.25660343021552873 0 0.069019897142478498 0.26862893826301398 0 0.060789523616018221 0.25494323689545412 0 0.058028282024128817 0.2577991367744793 0 0.069019897142478498 0.26862893826301398 0 0.070610784923539879 0.2441657739946789 0 0.072856792737802545 0.25660343021552873 0 0.084825475029785158 0.25213258584012982 0 0.072856792737802545 0.25660343021552873 0 0.090131343139204109 0.26441229451162318 0 0.084825475029785158 0.25213258584012982 0 0.096639130049948313 0.24797278035889231 0 0.090131343139204109 0.26441229451162318 0 0.084825475029785158 0.25213258584012982 0 0.090131343139204109 0.26441229451162318 0 0.080011512260830253 0.27945873975154673 0 0.069019897142478498 0.26862893826301398 0 0.090131343139204109 0.26441229451162318 0 0.080011512260830253 0.27945873975154673 0 0.109029133406435 0.2859994230492065 0 0.062389469804621012 0.27548666367454527 0 0.080011512260830253 0.27945873975154673 0 0.06838342515590963 0.28709767512252948 0 0.080011512260830253 0.27945873975154673 0 0.069019897142478498 0.26862893826301398 0 0.062389469804621012 0.27548666367454527 0 0.080011512260830253 0.27945873975154673 0 0.069019897142478498 0.26862893826301398 0 0.062389469804621012 0.27548666367454527 0 0.058028282024128817 0.2577991367744793 0 0.069019897142478498 0.26862893826301398 0 0.062389469804621012 0.27548666367454527 0 0.080011512260830253 0.27945873975154673 0 0.080011512260830253 0.27945873975154673 0 0.074046803656083585 0.29638121329110712 0 0.06838342515590963 0.28709767512252948 0 0.057085914902103838 0.29706408377291799 0 0.062389469804621012 0.27548666367454527 0 0.06838342515590963 0.28709767512252948 0 0.057085914902103838 0.29706408377291799 0 0.074046803656083585 0.29638121329110712 0 0.06838342515590963 0.28709767512252948 0 0.06848497676158645 0.31529679547880041 0 0.074046803656083585 0.29638121329110712 0 0.087539601033616271 0.31076469726459371 0 0.06848497676158645 0.31529679547880041 0 0.057085914902103838 0.29706408377291799 0 0.074046803656083585 0.29638121329110712 0 0.074046803656083585 0.29638121329110712 0 0.087539601033616271 0.31076469726459371 0 0.090409382195944493 0.28970353690722878 0 0.087539601033616271 0.31076469726459371 0 0.090409382195944493 0.28970353690722878 0 0.10164410798363011 0.30194786137500013 0 0.080011512260830253 0.27945873975154673 0 0.074046803656083585 0.29638121329110712 0 0.090409382195944493 0.28970353690722878 0 0.080011512260830253 0.27945873975154673 0 0.090409382195944493 0.28970353690722878 0 0.109029133406435 0.2859994230492065 0 0.080011512260830253 0.27945873975154673 0 0.090409382195944493 0.28970353690722878 0 0.080011512260830253 0.27945873975154673 0 0.109029133406435 0.2859994230492065 0 0.090409382195944493 0.28970353690722878 0 0.109029133406435 0.2859994230492065 0 0.10164410798363011 0.30194786137500013 0 0.1037272511331867 0.31820530559976401 0 0.087539601033616271 0.31076469726459371 0 0.10164410798363011 0.30194786137500013 0 0.1037272511331867 0.31820530559976401 0 0.10164410798363011 0.30194786137500013 0 0.1175151721489681 0.30506634405420768 0 0.109029133406435 0.2859994230492065 0 0.10164410798363011 0.30194786137500013 0 0.1175151721489681 0.30506634405420768 0 0.109029133406435 0.2859994230492065 0 0.13804675455203999 0.29254010634686561 0 0.109029133406435 0.2859994230492065 0 0.1175151721489681 0.30506634405420768 0 0.13804675455203999 0.29254010634686561 0 0.109029133406435 0.2859994230492065 0 0.1108366062957163 0.25664873547543587 0 0.1336233243165916 0.26342578592320198 0 0.1246815833938911 0.242072742896983 0 0.1108366062957163 0.25664873547543587 0 0.1336233243165916 0.26342578592320198 0 0.096639130049948313 0.24797278035889231 0 0.090131343139204109 0.26441229451162318 0 0.1108366062957163 0.25664873547543587 0 0.090131343139204109 0.26441229451162318 0 0.109029133406435 0.2859994230492065 0 0.1108366062957163 0.25664873547543587 0 0.1336233243165916 0.26342578592320198 0 0.13804675455203999 0.29254010634686561 0 0.1618767332304652 0.26496499908816251 0 0.14027572627916499 0.24411909677404031 0 0.1520623545728659 0.25113852338775589 0 0.1336233243165916 0.26342578592320198 0 0.1520623545728659 0.25113852338775589 0 0.1336233243165916 0.26342578592320198 0 0.1618767332304652 0.26496499908816251 0 0.109029133406435 0.2859994230492065 0 0.1336233243165916 0.26342578592320198 0 0.13804675455203999 0.29254010634686561 0 0.13804675455203999 0.29254010634686561 0 0.16706437569764479 0.29908078964452472 0 0.1618767332304652 0.26496499908816251 0 0.1175151721489681 0.30506634405420768 0 0.13804675455203999 0.29254010634686561 0 0.13228727360374379 0.31369884891889549 0 0.13804675455203999 0.29254010634686561 0 0.14640968842967589 0.3077808068667765 0 0.13228727360374379 0.31369884891889549 0 0.13804675455203999 0.29254010634686561 0 0.14640968842967589 0.3077808068667765 0 0.16706437569764479 0.29908078964452472 0 0.13804675455203999 0.29254010634686561 0 0.16706437569764479 0.29908078964452472 0 0.16706437569764479 0.29908078964452472 0 0.18461864979132731 0.27994994062915912 0 0.1618767332304652 0.26496499908816251 0 0.14640968842967589 0.3077808068667765 0 0.1712458426364627 0.30670113990448111 0 0.15853480362576741 0.31768468044606002 0 0.14640968842967589 0.3077808068667765 0 0.16706437569764479 0.29908078964452472 0 0.1712458426364627 0.30670113990448111 0 0.14640968842967589 0.3077808068667765 0 0.1712458426364627 0.30670113990448111 0 0.16706437569764479 0.29908078964452472 0 0.1712458426364627 0.30670113990448111 0 0.19608199684324951 0.30562147294218472 0 0.16706437569764479 0.29908078964452472 0 0.19608199684324951 0.30562147294218472 0 0.1712458426364627 0.30670113990448111 0 0.19608199684324951 0.30562147294218472 0 0.18604836880892239 0.32438752676663152 0 0.1712458426364627 0.30670113990448111 0 0.19608199684324951 0.30562147294218472 0 0.16706437569764479 0.29908078964452472 0 0.18461864979132731 0.27994994062915912 0 0.19608199684324951 0.30562147294218472 0 0.18461864979132731 0.27994994062915912 0 0.1618767332304652 0.26496499908816251 0 0.18276014028142329 0.25616471926899897 0 0.1632916252549198 0.23843431390121811 0 0.1520623545728659 0.25113852338775589 0 0.1618767332304652 0.26496499908816251 0 0.16968171423345929 0.23765752101914181 0 0.1618767332304652 0.26496499908816251 0 0.16968171423345929 0.23765752101914181 0 0.1618767332304652 0.26496499908816251 0 0.18276014028142329 0.25616471926899897 0 0.18276014028142329 0.25616471926899897 0 0.20060002443300079 0.25362908350645108 0 0.2019016877234629 0.26912202811877028 0 0.18461864979132731 0.27994994062915912 0 0.18276014028142329 0.25616471926899897 0 0.2019016877234629 0.26912202811877028 0 0.18461864979132731 0.27994994062915912 0 0.2019016877234629 0.26912202811877028 0 0.20566140158946961 0.28734907871808968 0 0.2019016877234629 0.26912202811877028 0 0.22395186718982871 0.27754642971052601 0 0.20566140158946961 0.28734907871808968 0 0.2019016877234629 0.26912202811877028 0 0.21832711130035901 0.25942656833452249 0 0.22395186718982871 0.27754642971052601 0 0.21269313292684 0.24545189561992939 0 0.20060002443300079 0.25362908350645108 0 0.21832711130035901 0.25942656833452249 0 0.20060002443300079 0.25362908350645108 0 0.2019016877234629 0.26912202811877028 0 0.21832711130035901 0.25942656833452249 0 0.21269313292684 0.24545189561992939 0 0.22348263930331591 0.2464400267148367 0 0.21832711130035901 0.25942656833452249 0 0.22348263930331591 0.2464400267148367 0 0.21832711130035901 0.25942656833452249 0 0.23139783464498431 0.25143329747616178 0 0.21832711130035901 0.25942656833452249 0 0.23139783464498431 0.25143329747616178 0 0.2310228435293861 0.26353882921184563 0 0.21832711130035901 0.25942656833452249 0 0.2310228435293861 0.26353882921184563 0 0.22395186718982871 0.27754642971052601 0 0.2310228435293861 0.26353882921184563 0 0.22395186718982871 0.27754642971052601 0 0.2450857944433146 0.27030788438377867 0 0.22395186718982871 0.27754642971052601 0 0.2450857944433146 0.27030788438377867 0 0.23956717808636549 0.28739138189209501 0 0.2450857944433146 0.27030788438377867 0 0.23956717808636549 0.28739138189209501 0 0.2616507532446114 0.28546331061322289 0 0.2450857944433146 0.27030788438377867 0 0.24161625020094579 0.25832902884627951 0 0.25118401839053822 0.25829087403604301 0 0.24183819042719651 0.2457468380927334 0 0.24161625020094579 0.25832902884627951 0 0.25118401839053822 0.25829087403604301 0 0.23139783464498431 0.25143329747616178 0 0.2310228435293861 0.26353882921184563 0 0.24161625020094579 0.25832902884627951 0 0.24183819042719651 0.2457468380927334 0 0.23139783464498431 0.25143329747616178 0 0.24161625020094579 0.25832902884627951 0 0.2310228435293861 0.26353882921184563 0 0.2450857944433146 0.27030788438377867 0 0.24161625020094579 0.25832902884627951 0 0.23607509692364689 0.31204232112263169 0 0.24742361595570961 0.30338957143742967 0 0.22175280639947961 0.3045055221898077 0 0.24742361595570961 0.30338957143742967 0 0.23956717808636549 0.28739138189209501 0 0.22175280639947961 0.3045055221898077 0 0.24742361595570961 0.30338957143742967 0 0.22175280639947961 0.3045055221898077 0 0.23607509692364689 0.31204232112263169 0 0.24742361595570961 0.30338957143742967 0 0.24909357857261069 0.3143195866460467 0 0.24742361595570961 0.30338957143742967 0 0.23956717808636549 0.28739138189209501 0 0.2616507532446114 0.28546331061322289 0 0.22395186718982871 0.27754642971052601 0 0.23956717808636549 0.28739138189209501 0 0.22175280639947961 0.3045055221898077 0 0.23607509692364689 0.31204232112263169 0 0.22175280639947961 0.3045055221898077 0 0.22544187819860381 0.31223930300615182 0 0.22175280639947961 0.3045055221898077 0 0.20566140158946961 0.28734907871808968 0 0.19608199684324951 0.30562147294218472 0 0.22544187819860381 0.31223930300615182 0 0.19608199684324951 0.30562147294218472 0 0.22175280639947961 0.3045055221898077 0 0.22544187819860381 0.31223930300615182 0 0.19608199684324951 0.30562147294218472 0 0.22175280639947961 0.3045055221898077 0 0.19608199684324951 0.30562147294218472 0 0.22395186718982871 0.27754642971052601 0 0.22175280639947961 0.3045055221898077 0 0.20566140158946961 0.28734907871808968 0 0.18461864979132731 0.27994994062915912 0 0.20566140158946961 0.28734907871808968 0 0.19608199684324951 0.30562147294218472 0 0.19608199684324951 0.30562147294218472 0 0.2086398508622675 0.32288228891122189 0 0.18604836880892239 0.32438752676663152 0 0.20266439883602461 0.34185266699571393 0 0.1751754520846458 0.34550930714265732 0 0.20266439883602461 0.34185266699571393 0 0.2086398508622675 0.32288228891122189 0 0.18604836880892239 0.32438752676663152 0 0.20266439883602461 0.34185266699571393 0 0.1751754520846458 0.34550930714265732 0 0.18604836880892239 0.32438752676663152 0 0.20266439883602461 0.34185266699571393 0 0.2086398508622675 0.32288228891122189 0 0.22260052100417849 0.33585889806748692 0 0.22544187819860381 0.31223930300615182 0 0.19608199684324951 0.30562147294218472 0 0.2086398508622675 0.32288228891122189 0 0.2086398508622675 0.32288228891122189 0 0.22365318776767459 0.32309718075580801 0 0.22260052100417849 0.33585889806748692 0 0.22544187819860381 0.31223930300615182 0 0.2086398508622675 0.32288228891122189 0 0.22365318776767459 0.32309718075580801 0 0.22544187819860381 0.31223930300615182 0 0.23179149852310321 0.31801806617674849 0 0.22365318776767459 0.32309718075580801 0 0.23607509692364689 0.31204232112263169 0 0.22544187819860381 0.31223930300615182 0 0.23179149852310321 0.31801806617674849 0 0.23179149852310321 0.31801806617674849 0 0.2297921902502201 0.32648734761743092 0 0.24094720389237489 0.31978187727960611 0 0.23179149852310321 0.31801806617674849 0 0.2297921902502201 0.32648734761743092 0 0.22365318776767459 0.32309718075580801 0 0.2297921902502201 0.32648734761743092 0 0.22365318776767459 0.32309718075580801 0 0.22260052100417849 0.33585889806748692 0 0.22260052100417849 0.33585889806748692 0 0.23572030114411771 0.3361838727949214 0 0.23709370763267359 0.34834228800926792 0 0.2297921902502201 0.32648734761743092 0 0.22260052100417849 0.33585889806748692 0 0.23572030114411771 0.3361838727949214 0 0.2297921902502201 0.32648734761743092 0 0.23572030114411771 0.3361838727949214 0 0.24254776796155969 0.32975328033525719 0 0.23572030114411771 0.3361838727949214 0 0.2454433179995788 0.34064303552443082 0 0.24254776796155969 0.32975328033525719 0 0.23572030114411771 0.3361838727949214 0 0.2454433179995788 0.34064303552443082 0 0.23709370763267359 0.34834228800926792 0 0.2454433179995788 0.34064303552443082 0 0.24254776796155969 0.32975328033525719 0 0.25368736998104258 0.33396041038714808 0 0.24254776796155969 0.32975328033525719 0 0.24879734118681349 0.32316930840062541 0 0.25368736998104258 0.33396041038714808 0 0.24254776796155969 0.32975328033525719 0 0.24879734118681349 0.32316930840062541 0 0.24094720389237489 0.31978187727960611 0 0.24879734118681349 0.32316930840062541 0 0.24909357857261069 0.3143195866460467 0 0.24094720389237489 0.31978187727960611 0 0.23607509692364689 0.31204232112263169 0 0.23179149852310321 0.31801806617674849 0 0.24094720389237489 0.31978187727960611 0 0.23607509692364689 0.31204232112263169 0 0.24909357857261069 0.3143195866460467 0 0.24094720389237489 0.31978187727960611 0 0.2297921902502201 0.32648734761743092 0 0.24254776796155969 0.32975328033525719 0 0.24094720389237489 0.31978187727960611 0 0.2432837744142313 0.3599619814363646 0 0.23056971389864031 0.37058390479554398 0 0.24994444510306871 0.37636341328293732 0 0.2432837744142313 0.3599619814363646 0 0.23709370763267359 0.34834228800926792 0 0.22521817207321851 0.35449170552762832 0 0.2432837744142313 0.3599619814363646 0 0.24773370951071341 0.34939505946418481 0 0.23709370763267359 0.34834228800926792 0 0.2432837744142313 0.3599619814363646 0 0.24773370951071341 0.34939505946418481 0 0.25425457857839617 0.35319856858963428 0 0.2454433179995788 0.34064303552443082 0 0.24773370951071341 0.34939505946418481 0 0.23709370763267359 0.34834228800926792 0 0.2454433179995788 0.34064303552443082 0 0.24773370951071341 0.34939505946418481 0 0.25284652517593192 0.34486049319971879 0 0.22260052100417849 0.33585889806748692 0 0.23709370763267359 0.34834228800926792 0 0.22521817207321851 0.35449170552762832 0 0.22521817207321851 0.35449170552762832 0 0.23056971389864031 0.37058390479554398 0 0.21279694779643429 0.36748535200109161 0 0.2432837744142313 0.3599619814363646 0 0.22521817207321851 0.35449170552762832 0 0.23056971389864031 0.37058390479554398 0 0.20266439883602461 0.34185266699571393 0 0.22521817207321851 0.35449170552762832 0 0.21279694779643429 0.36748535200109161 0 0.20266439883602461 0.34185266699571393 0 0.22260052100417849 0.33585889806748692 0 0.22521817207321851 0.35449170552762832 0 0.20266439883602461 0.34185266699571393 0 0.21279694779643429 0.36748535200109161 0 0.19331622636792439 0.36224884768439009 0 0.20266439883602461 0.34185266699571393 0 0.19331622636792439 0.36224884768439009 0 0.1751754520846458 0.34550930714265732 0 0.21279694779643429 0.36748535200109161 0 0.19331622636792439 0.36224884768439009 0 0.19464781328503039 0.38809946308323201 0 0.15917064206687179 0.36426154375648251 0 0.1751754520846458 0.34550930714265732 0 0.17624271007644551 0.3768052056293939 0 0.19331622636792439 0.36224884768439009 0 0.1751754520846458 0.34550930714265732 0 0.17624271007644551 0.3768052056293939 0 0.15917064206687179 0.36426154375648251 0 0.14742880319492629 0.38387530475883108 0 0.17624271007644551 0.3768052056293939 0 0.15917064206687179 0.36426154375648251 0 0.1751754520846458 0.34550930714265732 0 0.14768650533326719 0.34916594728960071 0 0.1751754520846458 0.34550930714265732 0 0.14768650533326719 0.34916594728960071 0 0.1751754520846458 0.34550930714265732 0 0.18604836880892239 0.32438752676663152 0 0.17120184582259701 0.32139823533525957 0 0.1712458426364627 0.30670113990448111 0 0.18604836880892239 0.32438752676663152 0 0.17120184582259701 0.32139823533525957 0 0.1712458426364627 0.30670113990448111 0 0.17120184582259701 0.32139823533525957 0 0.15853480362576741 0.31768468044606002 0 0.17120184582259701 0.32139823533525957 0 0.15853480362576741 0.31768468044606002 0 0.15962334786992299 0.33024206008647861 0 0.1751754520846458 0.34550930714265732 0 0.17120184582259701 0.32139823533525957 0 0.15962334786992299 0.33024206008647861 0 0.1751754520846458 0.34550930714265732 0 0.15962334786992299 0.33024206008647861 0 0.14768650533326719 0.34916594728960071 0 0.15962334786992299 0.33024206008647861 0 0.14419329337017819 0.32230116003730402 0 0.14768650533326719 0.34916594728960071 0 0.14640968842967589 0.3077808068667765 0 0.15853480362576741 0.31768468044606002 0 0.14419329337017819 0.32230116003730402 0 0.15853480362576741 0.31768468044606002 0 0.15962334786992299 0.33024206008647861 0 0.14419329337017819 0.32230116003730402 0 0.14640968842967589 0.3077808068667765 0 0.14419329337017819 0.32230116003730402 0 0.13228727360374379 0.31369884891889549 0 0.1178418837420498 0.3212742172592557 0 0.13228727360374379 0.31369884891889549 0 0.12822311230229611 0.33267102260534198 0 0.14419329337017819 0.32230116003730402 0 0.13228727360374379 0.31369884891889549 0 0.12822311230229611 0.33267102260534198 0 0.14419329337017819 0.32230116003730402 0 0.12822311230229611 0.33267102260534198 0 0.14768650533326719 0.34916594728960071 0 0.12019755858188839 0.35282258743654399 0 0.12822311230229611 0.33267102260534198 0 0.14768650533326719 0.34916594728960071 0 0.12019755858188839 0.35282258743654399 0 0.14111663798938151 0.36669588775060591 0 0.14768650533326719 0.34916594728960071 0 0.12019755858188839 0.35282258743654399 0 0.14768650533326719 0.34916594728960071 0 0.1237401923439215 0.37366159706215579 0 0.12019755858188839 0.35282258743654399 0 0.14111663798938151 0.36669588775060591 0 0.1237401923439215 0.37366159706215579 0 0.14111663798938151 0.36669588775060591 0 0.14742880319492629 0.38387530475883108 0 0.15917064206687179 0.36426154375648251 0 0.14111663798938151 0.36669588775060591 0 0.14768650533326719 0.34916594728960071 0 0.15917064206687179 0.36426154375648251 0 0.14111663798938151 0.36669588775060591 0 0.14742880319492629 0.38387530475883108 0 0.14742880319492629 0.38387530475883108 0 0.1390004183949041 0.40860521843398218 0 0.16843741877476481 0.40483938671403119 0 0.1248040273615745 0.39426397529669138 0 0.1237401923439215 0.37366159706215579 0 0.14742880319492629 0.38387530475883108 0 0.1248040273615745 0.39426397529669138 0 0.14742880319492629 0.38387530475883108 0 0.1390004183949041 0.40860521843398218 0 0.114470326864687 0.41556032037417961 0 0.1248040273615745 0.39426397529669138 0 0.1390004183949041 0.40860521843398218 0 0.114470326864687 0.41556032037417961 0 0.1390004183949041 0.40860521843398218 0 0.13545573333377081 0.42744960681673111 0 0.12131551104426461 0.43763947354413812 0 0.13545573333377081 0.42744960681673111 0 0.14186028289191421 0.4425694539326871 0 0.13545573333377081 0.42744960681673111 0 0.1606321274730842 0.43287356779866842 0 0.14186028289191421 0.4425694539326871 0 0.1390004183949041 0.40860521843398218 0 0.13545573333377081 0.42744960681673111 0 0.1606321274730842 0.43287356779866842 0 0.1390004183949041 0.40860521843398218 0 0.1606321274730842 0.43287356779866842 0 0.16843741877476481 0.40483938671403119 0 0.1606321274730842 0.43287356779866842 0 0.18349986471478091 0.42571601208412929 0 0.16843741877476481 0.40483938671403119 0 0.1606321274730842 0.43287356779866842 0 0.16843741877476481 0.40483938671403119 0 0.18349986471478091 0.42571601208412929 0 0.16843741877476481 0.40483938671403119 0 0.20022189815564151 0.41048296023633629 0 0.1606321274730842 0.43287356779866842 0 0.18349986471478091 0.42571601208412929 0 0.18799266165097259 0.44761311357569938 0 0.16843741877476481 0.40483938671403119 0 0.17624271007644551 0.3768052056293939 0 0.14742880319492629 0.38387530475883108 0 0.16843741877476481 0.40483938671403119 0 0.17624271007644551 0.3768052056293939 0 0.16843741877476481 0.40483938671403119 0 0.17624271007644551 0.3768052056293939 0 0.19464781328503039 0.38809946308323201 0 0.16843741877476481 0.40483938671403119 0 0.19464781328503039 0.38809946308323201 0 0.20022189815564151 0.41048296023633629 0 0.19331622636792439 0.36224884768439009 0 0.17624271007644551 0.3768052056293939 0 0.19464781328503039 0.38809946308323201 0 0.19464781328503039 0.38809946308323201 0 0.21852103649538701 0.39091574921934058 0 0.20022189815564151 0.41048296023633629 0 0.21852103649538701 0.39091574921934058 0 0.22026629491229821 0.41108188215453251 0 0.20022189815564151 0.41048296023633629 0 0.21279694779643429 0.36748535200109161 0 0.19464781328503039 0.38809946308323201 0 0.21852103649538701 0.39091574921934058 0 0.23056971389864031 0.37058390479554398 0 0.21852103649538701 0.39091574921934058 0 0.23781071186957581 0.3845610556172242 0 0.23056971389864031 0.37058390479554398 0 0.21279694779643429 0.36748535200109161 0 0.21852103649538701 0.39091574921934058 0 0.21852103649538701 0.39091574921934058 0 0.23471539603886171 0.40390538998486908 0 0.22026629491229821 0.41108188215453251 0 0.21852103649538701 0.39091574921934058 0 0.23471539603886171 0.40390538998486908 0 0.23781071186957581 0.3845610556172242 0 0.23471539603886171 0.40390538998486908 0 0.23781071186957581 0.3845610556172242 0 0.23471539603886171 0.40390538998486908 0 0.24985620661731231 0.39952604056457169 0 0.23781071186957581 0.3845610556172242 0 0.24985620661731231 0.39952604056457169 0 0.23781071186957581 0.3845610556172242 0 0.24994444510306871 0.37636341328293732 0 0.23056971389864031 0.37058390479554398 0 0.23781071186957581 0.3845610556172242 0 0.24994444510306871 0.37636341328293732 0 0.2427092401615151 0.42278671651753319 0 0.23162008020814709 0.42324972435251412 0 0.2289343327983295 0.44003443995633268 0 0.2427092401615151 0.42278671651753319 0 0.2289343327983295 0.44003443995633268 0 0.24200394983854201 0.42730501108156799 0 0.22786259452879151 0.44673232300752058 0 0.2427092401615151 0.42278671651753319 0 0.24200394983854201 0.42730501108156799 0 0.2289343327983295 0.44003443995633268 0 0.2427092401615151 0.42278671651753319 0 0.25648414752470178 0.40553899307873442 0 0.24200394983854201 0.42730501108156799 0 0.25614530514829098 0.40787769915561428 0 0.24985620661731231 0.39952604056457169 0 0.23162008020814709 0.42324972435251412 0 0.24985620661731231 0.39952604056457169 0 0.2427092401615151 0.42278671651753319 0 0.25648414752470178 0.40553899307873442 0 0.24985620661731231 0.39952604056457169 0 0.2427092401615151 0.42278671651753319 0 0.23162008020814709 0.42324972435251412 0 0.23471539603886171 0.40390538998486908 0 0.24985620661731231 0.39952604056457169 0 0.23162008020814709 0.42324972435251412 0 0.2427092401615151 0.42278671651753319 0 0.24200394983854201 0.42730501108156799 0 0.25614530514829098 0.40787769915561428 0 0.22026629491229821 0.41108188215453251 0 0.23162008020814709 0.42324972435251412 0 0.21507967951117529 0.42520557227840478 0 0.23471539603886171 0.40390538998486908 0 0.23162008020814709 0.42324972435251412 0 0.23471539603886171 0.40390538998486908 0 0.22026629491229821 0.41108188215453251 0 0.23162008020814709 0.42324972435251412 0 0.23162008020814709 0.42324972435251412 0 0.21672031892656901 0.44263307458978279 0 0.2289343327983295 0.44003443995633268 0 0.23162008020814709 0.42324972435251412 0 0.21672031892656901 0.44263307458978279 0 0.23162008020814709 0.42324972435251412 0 0.2289343327983295 0.44003443995633268 0 0.23162008020814709 0.42324972435251412 0 0.21507967951117529 0.42520557227840478 0 0.21672031892656901 0.44263307458978279 0 0.21507967951117529 0.42520557227840478 0 0.20022189815564151 0.41048296023633629 0 0.20093756142228361 0.43066014949310999 0 0.21507967951117529 0.42520557227840478 0 0.20093756142228361 0.43066014949310999 0 0.21672031892656901 0.44263307458978279 0 0.22026629491229821 0.41108188215453251 0 0.21507967951117529 0.42520557227840478 0 0.20022189815564151 0.41048296023633629 0 0.18349986471478091 0.42571601208412929 0 0.20093756142228361 0.43066014949310999 0 0.18799266165097259 0.44761311357569938 0 0.18349986471478091 0.42571601208412929 0 0.20022189815564151 0.41048296023633629 0 0.20093756142228361 0.43066014949310999 0 0.20093756142228361 0.43066014949310999 0 0.18799266165097259 0.44761311357569938 0 0.21672031892656901 0.44263307458978279 0 0.18799266165097259 0.44761311357569938 0 0.20182055764499249 0.46201642482705257 0 0.21672031892656901 0.44263307458978279 0 0.18799266165097259 0.44761311357569938 0 0.20182055764499249 0.46201642482705257 0 0.1729766813812279 0.46105026014700701 0 0.18799266165097259 0.44761311357569938 0 0.20182055764499249 0.46201642482705257 0 0.20182055764499249 0.46201642482705257 0 0.20703805097417011 0.46745103182760522 0 0.19967683878323311 0.47666809214576777 0 0.21798619188624929 0.45374273589196851 0 0.22786259452879151 0.44673232300752058 0 0.2103045517676673 0.47085346034253078 0 0.20703805097417011 0.46745103182760522 0 0.21798619188624929 0.45374273589196851 0 0.2103045517676673 0.47085346034253078 0 0.20182055764499249 0.46201642482705257 0 0.20703805097417011 0.46745103182760522 0 0.21798619188624929 0.45374273589196851 0 0.20182055764499249 0.46201642482705257 0 0.20703805097417011 0.46745103182760522 0 0.20703805097417011 0.46745103182760522 0 0.21798619188624929 0.45374273589196851 0 0.20182055764499249 0.46201642482705257 0 0.21672031892656901 0.44263307458978279 0 0.20182055764499249 0.46201642482705257 0 0.21798619188624929 0.45374273589196851 0 0.21672031892656901 0.44263307458978279 0 0.24200394983854201 0.42730501108156799 0 0.2289343327983295 0.44003443995633268 0 0.22786259452879151 0.44673232300752058 0 0.2289343327983295 0.44003443995633268 0 0.22786259452879151 0.44673232300752058 0 0.21798619188624929 0.45374273589196851 0 0.2289343327983295 0.44003443995633268 0 0.22786259452879151 0.44673232300752058 0 0.21798619188624929 0.45374273589196851 0 0.21672031892656901 0.44263307458978279 0 0.2289343327983295 0.44003443995633268 0 0.21798619188624929 0.45374273589196851 0 0.2289343327983295 0.44003443995633268 0 0.22786259452879151 0.44673232300752058 0 0.22495429221354771 0.46490790685908862 0 0.2455982333906237 0.45143945378670242 0 0.22786259452879151 0.44673232300752058 0 0.22495429221354771 0.46490790685908862 0 0.22786259452879151 0.44673232300752058 0 0.2103045517676673 0.47085346034253078 0 0.22786259452879151 0.44673232300752058 0 0.22495429221354771 0.46490790685908862 0 0.2103045517676673 0.47085346034253078 0 0.2455982333906237 0.45143945378670242 0 0.24205976586770761 0.46909560375318798 0 0.2620014036598437 0.45966417087171929 0 0.22495429221354771 0.46490790685908862 0 0.2455982333906237 0.45143945378670242 0 0.24205976586770761 0.46909560375318798 0 0.24200394983854201 0.42730501108156799 0 0.22786259452879151 0.44673232300752058 0 0.2455982333906237 0.45143945378670242 0 0.24200394983854201 0.42730501108156799 0 0.2455982333906237 0.45143945378670242 0 0.25699255592125192 0.43840673530346591 0 0.23828668114997781 0.50000000000000056 0 0.24679633081225291 0.48874361315514597 0 0.26460013732901227 0.5 0 0.24679633081225291 0.48874361315514597 0 0.24187808117930759 0.48000330474503089 0 0.23341056709411059 0.48455789314910258 0 0.23828668114997781 0.50000000000000056 0 0.24679633081225291 0.48874361315514597 0 0.23341056709411059 0.48455789314910258 0 0.24679633081225291 0.48874361315514597 0 0.24187808117930759 0.48000330474503089 0 0.2553882950345352 0.47961560205184239 0 0.24205976586770761 0.46909560375318798 0 0.24187808117930759 0.48000330474503089 0 0.2553882950345352 0.47961560205184239 0 0.24205976586770761 0.46909560375318798 0 0.24187808117930759 0.48000330474503089 0 0.2317354470879319 0.47800381161587591 0 0.24187808117930759 0.48000330474503089 0 0.2317354470879319 0.47800381161587591 0 0.23341056709411059 0.48455789314910258 0 0.2317354470879319 0.47800381161587591 0 0.22564609400028951 0.48683340464843589 0 0.23341056709411059 0.48455789314910258 0 0.22495429221354771 0.46490790685908862 0 0.2317354470879319 0.47800381161587591 0 0.22204598989830659 0.48308349071065693 0 0.22495429221354771 0.46490790685908862 0 0.22204598989830659 0.48308349071065693 0 0.22495429221354771 0.46490790685908862 0 0.24205976586770761 0.46909560375318798 0 0.2317354470879319 0.47800381161587591 0 0.22495429221354771 0.46490790685908862 0 0.22204598989830659 0.48308349071065693 0 0.2103045517676673 0.47085346034253078 0 0.2317354470879319 0.47800381161587591 0 0.22204598989830659 0.48308349071065693 0 0.22564609400028951 0.48683340464843589 0 0.22204598989830659 0.48308349071065693 0 0.22123930831147781 0.48812488848627678 0 0.21653375840417949 0.48325971788699962 0 0.22204598989830659 0.48308349071065693 0 0.22123930831147781 0.48812488848627678 0 0.22123930831147781 0.48812488848627678 0 0.22564609400028951 0.48683340464843589 0 0.2193391539840486 0.50000000000000355 0 0.23828668114997781 0.50000000000000056 0 0.22564609400028951 0.48683340464843589 0 0.2193391539840486 0.50000000000000355 0 0.22123930831147781 0.48812488848627678 0 0.22564609400028951 0.48683340464843589 0 0.22204598989830659 0.48308349071065693 0 0.22123930831147781 0.48812488848627678 0 0.22564609400028951 0.48683340464843589 0 0.22204598989830659 0.48308349071065693 0 0.22564609400028951 0.48683340464843589 0 0.22564609400028951 0.48683340464843589 0 0.23341056709411059 0.48455789314910258 0 0.23828668114997781 0.50000000000000056 0 0.22564609400028951 0.48683340464843589 0 0.23341056709411059 0.48455789314910258 0 0.23828668114997781 0.50000000000000056 0 0.22564609400028951 0.48683340464843589 0 0.22123930831147781 0.48812488848627678 0 0.2193391539840486 0.50000000000000355 0 0.2193391539840486 0.50000000000000355 0 0.2000291744832631 0.5 0 0.20097925164697719 0.49406244424313639 0 0.22123930831147781 0.48812488848627678 0 0.2193391539840486 0.50000000000000355 0 0.20097925164697719 0.49406244424313639 0 0.22123930831147781 0.48812488848627678 0 0.21082812611657381 0.48387374162485403 0 0.20097925164697719 0.49406244424313639 0 0.22123930831147781 0.48812488848627678 0 0.20097925164697719 0.49406244424313639 0 0.22123930831147781 0.48812488848627678 0 0.21653375840417949 0.48325971788699962 0 0.21082812611657381 0.48387374162485403 0 0.21082812611657381 0.48387374162485403 0 0.20286219472076211 0.48396284092794611 0 0.20097925164697719 0.49406244424313639 0 0.22204598989830659 0.48308349071065693 0 0.2120216092903589 0.47795675072621091 0 0.21653375840417949 0.48325971788699962 0 0.22204598989830659 0.48308349071065693 0 0.2103045517676673 0.47085346034253078 0 0.22204598989830659 0.48308349071065693 0 0.2120216092903589 0.47795675072621091 0 0.2103045517676673 0.47085346034253078 0 0.2120216092903589 0.47795675072621091 0 0.21653375840417949 0.48325971788699962 0 0.21082812611657381 0.48387374162485403 0 0.21082812611657381 0.48387374162485403 0 0.20698591157877619 0.47950867657794111 0 0.20286219472076211 0.48396284092794611 0 0.20698591157877619 0.47950867657794111 0 0.19967683878323311 0.47666809214576777 0 0.20286219472076211 0.48396284092794611 0 0.2120216092903589 0.47795675072621091 0 0.20698591157877619 0.47950867657794111 0 0.2088903457859787 0.47279628831990872 0 0.2120216092903589 0.47795675072621091 0 0.21082812611657381 0.48387374162485403 0 0.20698591157877619 0.47950867657794111 0 0.20698591157877619 0.47950867657794111 0 0.2088903457859787 0.47279628831990872 0 0.19967683878323311 0.47666809214576777 0 0.20703805097417011 0.46745103182760522 0 0.2088903457859787 0.47279628831990872 0 0.19967683878323311 0.47666809214576777 0 0.20703805097417011 0.46745103182760522 0 0.19967683878323311 0.47666809214576777 0 0.2120216092903589 0.47795675072621091 0 0.2088903457859787 0.47279628831990872 0 0.2103045517676673 0.47085346034253078 0 0.20703805097417011 0.46745103182760522 0 0.2088903457859787 0.47279628831990872 0 0.2103045517676673 0.47085346034253078 0 0.20703805097417011 0.46745103182760522 0 0.2103045517676673 0.47085346034253078 0 0.2088903457859787 0.47279628831990872 0 0.2103045517676673 0.47085346034253078 0 0.20182055764499249 0.46201642482705257 0 0.18722178612793411 0.48100821241353248 0 0.20182055764499249 0.46201642482705257 0 0.19967683878323311 0.47666809214576777 0 0.18722178612793411 0.48100821241353248 0 0.19967683878323311 0.47666809214576777 0 0.20286219472076211 0.48396284092794611 0 0.19584084547825001 0.48570125004803089 0 0.19967683878323311 0.47666809214576777 0 0.19584084547825001 0.48570125004803089 0 0.18722178612793411 0.48100821241353248 0 0.20097925164697719 0.49406244424313639 0 0.1807191949824776 0.49999999999999961 0 0.1871700839968061 0.49171668608094982 0 0.20097925164697719 0.49406244424313639 0 0.1807191949824776 0.49999999999999961 0 0.2000291744832631 0.5 0 0.20097925164697719 0.49406244424313639 0 0.1807191949824776 0.49999999999999961 0 0.20286219472076211 0.48396284092794611 0 0.20097925164697719 0.49406244424313639 0 0.19584084547825001 0.48570125004803089 0 0.19584084547825001 0.48570125004803089 0 0.1871700839968061 0.49171668608094982 0 0.18722178612793411 0.48100821241353248 0 0.20097925164697719 0.49406244424313639 0 0.19584084547825001 0.48570125004803089 0 0.1871700839968061 0.49171668608094982 0 0.1726230146108719 0.50000000000000977 0 0.18722178612793411 0.48100821241353248 0 0.1726230146108719 0.50000000000000977 0 0.16473281881799129 0.47943708427404508 0 0.18722178612793411 0.48100821241353248 0 0.1807191949824776 0.49999999999999961 0 0.1871700839968061 0.49171668608094982 0 0.1726230146108719 0.50000000000000977 0 0.1871700839968061 0.49171668608094982 0 0.1726230146108719 0.50000000000000977 0 0.18722178612793411 0.48100821241353248 0 0.1726230146108719 0.50000000000000977 0 0.1568426230250711 0.5 0 0.16473281881799129 0.47943708427404508 0 0.1568426230250711 0.5 0 0.16473281881799129 0.47943708427404508 0 0.14998890015226771 0.48391159820107882 0 0.16473281881799129 0.47943708427404508 0 0.18722178612793411 0.48100821241353248 0 0.1729766813812279 0.46105026014700701 0 0.20182055764499249 0.46201642482705257 0 0.18722178612793411 0.48100821241353248 0 0.1729766813812279 0.46105026014700701 0 0.1606321274730842 0.43287356779866842 0 0.18799266165097259 0.44761311357569938 0 0.1729766813812279 0.46105026014700701 0 0.1606321274730842 0.43287356779866842 0 0.1729766813812279 0.46105026014700701 0 0.15282683617140361 0.46090774888330588 0 0.1606321274730842 0.43287356779866842 0 0.15282683617140361 0.46090774888330588 0 0.16473281881799129 0.47943708427404508 0 0.1729766813812279 0.46105026014700701 0 0.15282683617140361 0.46090774888330588 0 0.15282683617140361 0.46090774888330588 0 0.14186028289191421 0.4425694539326871 0 0.1278977511759336 0.45842631569609049 0 0.1606321274730842 0.43287356779866842 0 0.15282683617140361 0.46090774888330588 0 0.14186028289191421 0.4425694539326871 0 0.12131551104426461 0.43763947354413812 0 0.14186028289191421 0.4425694539326871 0 0.1278977511759336 0.45842631569609049 0 0.15282683617140361 0.46090774888330588 0 0.1278977511759336 0.45842631569609049 0 0.1344799913076026 0.47921315784804291 0 0.1278977511759336 0.45842631569609049 0 0.1344799913076026 0.47921315784804291 0 0.1344799913076026 0.47921315784804291 0 0.14106223143927021 0.49999999999999573 0 0.1153009038496213 0.5 0 0.1344799913076026 0.47921315784804291 0 0.14106223143927021 0.49999999999999573 0 0.1344799913076026 0.47921315784804291 0 0.14106223143927021 0.49999999999999573 0 0.14998890015226771 0.48391159820107882 0 0.1568426230250711 0.5 0 0.14106223143927021 0.49999999999999573 0 0.14998890015226771 0.48391159820107882 0 0.16473281881799129 0.47943708427404508 0 0.15282683617140361 0.46090774888330588 0 0.14998890015226771 0.48391159820107882 0 0.15282683617140361 0.46090774888330588 0 0.1344799913076026 0.47921315784804291 0 0.14998890015226771 0.48391159820107882 0 0.34627523667157101 0.48213249998926672 0 0.36387763328550737 0.48008113127634777 0 0.34688229003554111 0.46387074050112431 0 0.34627523667157101 0.48213249998926672 0 0.3549185142812149 0.5 0 0.36387763328550737 0.48008113127634777 0 0.3549185142812149 0.5 0 0.36387763328550737 0.48008113127634777 0 0.3802897614485849 0.5 0 0.36387763328550737 0.48008113127634777 0 0.36843703055511617 0.45445870904313002 0 0.38580411359204531 0.48077386434603941 0 0.36387763328550737 0.48008113127634777 0 0.36843703055511617 0.45445870904313002 0 0.34688229003554111 0.46387074050112431 0 0.36843703055511617 0.45445870904313002 0 0.36416890344821268 0.4270724543000024 0 0.38122367912334232 0.43895175051498048 0 0.36843703055511617 0.45445870904313002 0 0.34609454587534139 0.43979329865219458 0 0.36416890344821268 0.4270724543000024 0 0.36843703055511617 0.45445870904313002 0 0.34609454587534139 0.43979329865219458 0 0.34688229003554111 0.46387074050112431 0 0.34688229003554111 0.46387074050112431 0 0.32118149782121141 0.45193366914510952 0 0.32678949338531749 0.47735279272355419 0 0.34609454587534139 0.43979329865219458 0 0.32118149782121141 0.45193366914510952 0 0.32749210712865279 0.42785799156019172 0 0.34609454587534139 0.43979329865219458 0 0.34688229003554111 0.46387074050112431 0 0.32118149782121141 0.45193366914510952 0 0.32118149782121141 0.45193366914510952 0 0.32678949338531749 0.47735279272355419 0 0.29868208511479472 0.4760437081826816 0 0.34627523667157101 0.48213249998926672 0 0.34688229003554111 0.46387074050112431 0 0.32678949338531749 0.47735279272355419 0 0.34627523667157101 0.48213249998926672 0 0.32678949338531749 0.47735279272355419 0 0.32954726711384491 0.5 0 0.34627523667157101 0.48213249998926672 0 0.3549185142812149 0.5 0 0.32954726711384491 0.5 0 0.32678949338531749 0.47735279272355419 0 0.32954726711384491 0.5 0 0.30417601994647492 0.49999999999999861 0 0.32678949338531749 0.47735279272355419 0 0.30417601994647492 0.49999999999999861 0 0.29868208511479472 0.4760437081826816 0 0.30417601994647492 0.49999999999999861 0 0.29868208511479472 0.4760437081826816 0 0.29091359350804702 0.50000000000000022 0 0.30417601994647492 0.49999999999999861 0 0.29868208511479472 0.4760437081826816 0 0.29868208511479472 0.4760437081826816 0 0.2764574985839453 0.47983208543585992 0 0.27922447889225022 0.46258382419178218 0 0.29091359350804702 0.50000000000000022 0 0.2764574985839453 0.47983208543585992 0 0.29868208511479472 0.4760437081826816 0 0.29091359350804702 0.50000000000000022 0 0.2764574985839453 0.47983208543585992 0 0.29091359350804702 0.50000000000000022 0 0.2764574985839453 0.47983208543585992 0 0.26460013732901227 0.5 0 0.2764574985839453 0.47983208543585992 0 0.2620014036598437 0.45966417087171929 0 0.2764574985839453 0.47983208543585992 0 0.2553882950345352 0.47961560205184239 0 0.2620014036598437 0.45966417087171929 0 0.24205976586770761 0.46909560375318798 0 0.2553882950345352 0.47961560205184239 0 0.2620014036598437 0.45966417087171929 0 0.24679633081225291 0.48874361315514597 0 0.2553882950345352 0.47961560205184239 0 0.26460013732901227 0.5 0 0.2764574985839453 0.47983208543585992 0 0.2553882950345352 0.47961560205184239 0 0.26460013732901227 0.5 0 0.2455982333906237 0.45143945378670242 0 0.25699255592125192 0.43840673530346591 0 0.2620014036598437 0.45966417087171929 0 0.25699255592125192 0.43840673530346591 0 0.2620014036598437 0.45966417087171929 0 0.2743789456573999 0.44382454968378532 0 0.2764574985839453 0.47983208543585992 0 0.2620014036598437 0.45966417087171929 0 0.27922447889225022 0.46258382419178218 0 0.2620014036598437 0.45966417087171929 0 0.27922447889225022 0.46258382419178218 0 0.2743789456573999 0.44382454968378532 0 0.27922447889225022 0.46258382419178218 0 0.2743789456573999 0.44382454968378532 0 0.29318815028311418 0.45208741636536492 0 0.2743789456573999 0.44382454968378532 0 0.29318815028311418 0.45208741636536492 0 0.28769421545143359 0.42813112454804803 0 0.29318815028311418 0.45208741636536492 0 0.28769421545143359 0.42813112454804803 0 0.29868208511479472 0.4760437081826816 0 0.27922447889225022 0.46258382419178218 0 0.29318815028311418 0.45208741636536492 0 0.29868208511479472 0.4760437081826816 0 0.29318815028311418 0.45208741636536492 0 0.32118149782121141 0.45193366914510952 0 0.29868208511479472 0.4760437081826816 0 0.29318815028311418 0.45208741636536492 0 0.32118149782121141 0.45193366914510952 0 0.29318815028311418 0.45208741636536492 0 0.30720304585612529 0.4298293703334386 0 0.30720304585612529 0.4298293703334386 0 0.29769594512633091 0.40944652592720809 0 0.28769421545143359 0.42813112454804803 0 0.30720304585612529 0.4298293703334386 0 0.29769594512633091 0.40944652592720809 0 0.31596635932600908 0.40951949445470959 0 0.28769421545143359 0.42813112454804803 0 0.28220028061975311 0.40417483273073118 0 0.28769421545143359 0.42813112454804803 0 0.27701943256974038 0.41461861001642031 0 0.28220028061975311 0.40417483273073118 0 0.29769594512633091 0.40944652592720809 0 0.28769421545143359 0.42813112454804803 0 0.28220028061975311 0.40417483273073118 0 0.29318815028311418 0.45208741636536492 0 0.30720304585612529 0.4298293703334386 0 0.28769421545143359 0.42813112454804803 0 0.28769421545143359 0.42813112454804803 0 0.26764172366417549 0.42300327695322038 0 0.27701943256974038 0.41461861001642031 0 0.25699255592125192 0.43840673530346591 0 0.2743789456573999 0.44382454968378532 0 0.26764172366417549 0.42300327695322038 0 0.2743789456573999 0.44382454968378532 0 0.28769421545143359 0.42813112454804803 0 0.26764172366417549 0.42300327695322038 0 0.26764172366417549 0.42300327695322038 0 0.27701943256974038 0.41461861001642031 0 0.27293239059273527 0.40370028787478213 0 0.27701943256974038 0.41461861001642031 0 0.27293239059273527 0.40370028787478213 0 0.28220028061975311 0.40417483273073118 0 0.24200394983854201 0.42730501108156799 0 0.26764172366417549 0.42300327695322038 0 0.25614530514829098 0.40787769915561428 0 0.26764172366417549 0.42300327695322038 0 0.25614530514829098 0.40787769915561428 0 0.27293239059273527 0.40370028787478213 0 0.2427092401615151 0.42278671651753319 0 0.25614530514829098 0.40787769915561428 0 0.25648414752470178 0.40553899307873442 0 0.24200394983854201 0.42730501108156799 0 0.25699255592125192 0.43840673530346591 0 0.26764172366417549 0.42300327695322038 0 0.24985620661731231 0.39952604056457169 0 0.26809233302647961 0.37580235677663099 0 0.24985620661731231 0.39952604056457169 0 0.27028666045804017 0.38845038722966058 0 0.26809233302647961 0.37580235677663099 0 0.24985620661731231 0.39952604056457169 0 0.24994444510306871 0.37636341328293732 0 0.26809233302647961 0.37580235677663099 0 0.25648414752470178 0.40553899307873442 0 0.27028666045804017 0.38845038722966058 0 0.25614530514829098 0.40787769915561428 0 0.25648414752470178 0.40553899307873442 0 0.27028666045804017 0.38845038722966058 0 0.25614530514829098 0.40787769915561428 0 0.27028666045804017 0.38845038722966058 0 0.24985620661731231 0.39952604056457169 0 0.25648414752470178 0.40553899307873442 0 0.27028666045804017 0.38845038722966058 0 0.27293239059273527 0.40370028787478213 0 0.27028666045804017 0.38845038722966058 0 0.27660389545147918 0.37977180642613029 0 0.28220028061975311 0.40417483273073118 0 0.27293239059273527 0.40370028787478213 0 0.27028666045804017 0.38845038722966058 0 0.28220028061975311 0.40417483273073118 0 0.27028666045804017 0.38845038722966058 0 0.27187836784725727 0.3862637088478611 0 0.28220028061975311 0.40417483273073118 0 0.25614530514829098 0.40787769915561428 0 0.27293239059273527 0.40370028787478213 0 0.27028666045804017 0.38845038722966058 0 0.27187836784725727 0.3862637088478611 0 0.27660389545147918 0.37977180642613029 0 0.28220028061975311 0.40417483273073118 0 0.27187836784725727 0.3862637088478611 0 0.27660389545147918 0.37977180642613029 0 0.27028666045804017 0.38845038722966058 0 0.27187836784725727 0.3862637088478611 0 0.26809233302647961 0.37580235677663099 0 0.27028666045804017 0.38845038722966058 0 0.27187836784725727 0.3862637088478611 0 0.27187836784725727 0.3862637088478611 0 0.26809233302647961 0.37580235677663099 0 0.27660389545147918 0.37977180642613029 0 0.27028666045804017 0.38845038722966058 0 0.26809233302647961 0.37580235677663099 0 0.30444061152336682 0.39118099734922668 0 0.28769421810890622 0.36453598546653831 0 0.27660389545147918 0.37977180642613029 0 0.28800663694376749 0.39627190438954008 0 0.30444061152336682 0.39118099734922668 0 0.27660389545147918 0.37977180642613029 0 0.30444061152336682 0.39118099734922668 0 0.28769421810890622 0.36453598546653831 0 0.28800663694376749 0.39627190438954008 0 0.30444061152336682 0.39118099734922668 0 0.29769594512633091 0.40944652592720809 0 0.28800663694376749 0.39627190438954008 0 0.30444061152336682 0.39118099734922668 0 0.27660389545147918 0.37977180642613029 0 0.28220028061975311 0.40417483273073118 0 0.28800663694376749 0.39627190438954008 0 0.29769594512633091 0.40944652592720809 0 0.28220028061975311 0.40417483273073118 0 0.28800663694376749 0.39627190438954008 0 0.29769594512633091 0.40944652592720809 0 0.30444061152336682 0.39118099734922668 0 0.31596635932600908 0.40951949445470959 0 0.30444061152336682 0.39118099734922668 0 0.31596635932600908 0.40951949445470959 0 0.30444061152336682 0.39118099734922668 0 0.33138159001921208 0.38283523677663128 0 0.31101285831576531 0.3688781314997378 0 0.30444061152336682 0.39118099734922668 0 0.33138159001921208 0.38283523677663128 0 0.33138159001921208 0.38283523677663128 0 0.33711552014263041 0.40669005555343279 0 0.34498487371609121 0.39229343844263981 0 0.33138159001921208 0.38283523677663128 0 0.31596635932600908 0.40951949445470959 0 0.33711552014263041 0.40669005555343279 0 0.30444061152336682 0.39118099734922668 0 0.33138159001921208 0.38283523677663128 0 0.31596635932600908 0.40951949445470959 0 0.31596635932600908 0.40951949445470959 0 0.32749210712865279 0.42785799156019172 0 0.33711552014263041 0.40669005555343279 0 0.31596635932600908 0.40951949445470959 0 0.32749210712865279 0.42785799156019172 0 0.30720304585612529 0.4298293703334386 0 0.31596635932600908 0.40951949445470959 0 0.32749210712865279 0.42785799156019172 0 0.32118149782121141 0.45193366914510952 0 0.30720304585612529 0.4298293703334386 0 0.32749210712865279 0.42785799156019172 0 0.34609454587534139 0.43979329865219458 0 0.32749210712865279 0.42785799156019172 0 0.34672802511537559 0.42156661173448062 0 0.32749210712865279 0.42785799156019172 0 0.33711552014263041 0.40669005555343279 0 0.34672802511537559 0.42156661173448062 0 0.34672802511537559 0.42156661173448062 0 0.35486045380865749 0.4070024858934711 0 0.36416890344821268 0.4270724543000024 0 0.33711552014263041 0.40669005555343279 0 0.34672802511537559 0.42156661173448062 0 0.35486045380865749 0.4070024858934711 0 0.34609454587534139 0.43979329865219458 0 0.34672802511537559 0.42156661173448062 0 0.36416890344821268 0.4270724543000024 0 0.35486045380865749 0.4070024858934711 0 0.36416890344821268 0.4270724543000024 0 0.37151667547236522 0.40731593792463089 0 0.36416890344821268 0.4270724543000024 0 0.37151667547236522 0.40731593792463089 0 0.38488852484373909 0.42186566976482193 0 0.35486045380865749 0.4070024858934711 0 0.37151667547236522 0.40731593792463089 0 0.35833980182733599 0.39085331528004352 0 0.37151667547236522 0.40731593792463089 0 0.35833980182733599 0.39085331528004352 0 0.37515320112216599 0.39444110959527667 0 0.37456973803530302 0.38139199705956128 0 0.35833980182733599 0.39085331528004352 0 0.37515320112216599 0.39444110959527667 0 0.37456973803530302 0.38139199705956128 0 0.35833980182733599 0.39085331528004352 0 0.35832256851505939 0.37448947620404199 0 0.34498487371609121 0.39229343844263981 0 0.35833980182733599 0.39085331528004352 0 0.35832256851505939 0.37448947620404199 0 0.33138159001921208 0.38283523677663128 0 0.34498487371609121 0.39229343844263981 0 0.35832256851505939 0.37448947620404199 0 0.33138159001921208 0.38283523677663128 0 0.35832256851505939 0.37448947620404199 0 0.35833980182733599 0.39085331528004352 0 0.35832256851505939 0.37448947620404199 0 0.35486045380865749 0.4070024858934711 0 0.34498487371609121 0.39229343844263981 0 0.35833980182733599 0.39085331528004352 0 0.33711552014263041 0.40669005555343279 0 0.35486045380865749 0.4070024858934711 0 0.34498487371609121 0.39229343844263981 0 0.34586600449482408 0.34951065881178589 0 0.35830788398646018 0.36054582689055381 0 0.33005589633097571 0.3546697071405468 0 0.35830788398646018 0.36054582689055381 0 0.33005589633097571 0.3546697071405468 0 0.34586600449482408 0.34951065881178589 0 0.35830788398646018 0.36054582689055381 0 0.35828349006117061 0.33738264957627268 0 0.35830788398646018 0.36054582689055381 0 0.35828349006117061 0.33738264957627268 0 0.33138159001921208 0.38283523677663128 0 0.35832256851505939 0.37448947620404199 0 0.34211718915799039 0.36753471024790169 0 0.35832256851505939 0.37448947620404199 0 0.35830788398646018 0.36054582689055381 0 0.34211718915799039 0.36753471024790169 0 0.35832256851505939 0.37448947620404199 0 0.35830788398646018 0.36054582689055381 0 0.35832256851505939 0.37448947620404199 0 0.35830788398646018 0.36054582689055381 0 0.38524691998039923 0.36614886634323102 0 0.35830788398646018 0.36054582689055381 0 0.38524691998039923 0.36614886634323102 0 0.35832256851505939 0.37448947620404199 0 0.38524691998039923 0.36614886634323102 0 0.37456973803530302 0.38139199705956128 0 0.35832256851505939 0.37448947620404199 0 0.38524691998039923 0.36614886634323102 0 0.35830788398646018 0.36054582689055381 0 0.37148228865019978 0.35115512767359319 0 0.35828349006117061 0.33738264957627268 0 0.35830788398646018 0.36054582689055381 0 0.37148228865019978 0.35115512767359319 0 0.38524691998039923 0.36614886634323102 0 0.37148228865019978 0.35115512767359319 0 0.37360930816772697 0.33500334687362232 0 0.35828349006117061 0.33738264957627268 0 0.37360930816772697 0.33500334687362232 0 0.36859239944596278 0.32553583407693681 0 0.37960851528568879 0.32580096223681221 0 0.37360930816772697 0.33500334687362232 0 0.36859239944596278 0.32553583407693681 0 0.35828349006117061 0.33738264957627268 0 0.37360930816772697 0.33500334687362232 0 0.35828349006117061 0.33738264957627268 0 0.36859239944596278 0.32553583407693681 0 0.35826305370689687 0.31797737174628171 0 0.35828349006117061 0.33738264957627268 0 0.37355828893919801 0.31406904318946938 0 0.36859239944596278 0.32553583407693681 0 0.37960851528568879 0.32580096223681221 0 0.37355828893919801 0.31406904318946938 0 0.36859239944596278 0.32553583407693681 0 0.35826305370689687 0.31797737174628171 0 0.35826305370689687 0.31797737174628171 0 0.35828349006117061 0.33738264957627268 0 0.35826305370689687 0.31797737174628171 0 0.34485447000264041 0.3210894262725596 0 0.35828349006117061 0.33738264957627268 0 0.35826305370689687 0.31797737174628171 0 0.34485447000264041 0.3210894262725596 0 0.34666974786746518 0.30991229339078502 0 0.34586600449482408 0.34951065881178589 0 0.35828349006117061 0.33738264957627268 0 0.33124831362481788 0.34157980681215722 0 0.35828349006117061 0.33738264957627268 0 0.33124831362481788 0.34157980681215722 0 0.34485447000264041 0.3210894262725596 0 0.35828349006117061 0.33738264957627268 0 0.33539002386225208 0.32829275944936331 0 0.35828349006117061 0.33738264957627268 0 0.33539002386225208 0.32829275944936331 0 0.33124831362481788 0.34157980681215722 0 0.33539002386225208 0.32829275944936331 0 0.33124831362481788 0.34157980681215722 0 0.32590498686407621 0.33327706948955621 0 0.33539002386225208 0.32829275944936331 0 0.32820870379776462 0.32448319178788509 0 0.32590498686407621 0.33327706948955621 0 0.34485447000264041 0.3210894262725596 0 0.33573931357382258 0.31349544014444092 0 0.34666974786746518 0.30991229339078502 0 0.34485447000264041 0.3210894262725596 0 0.33347722584237749 0.31956909473381939 0 0.33573931357382258 0.31349544014444092 0 0.34485447000264041 0.3210894262725596 0 0.33539002386225208 0.32829275944936331 0 0.33347722584237749 0.31956909473381939 0 0.33539002386225208 0.32829275944936331 0 0.32820870379776462 0.32448319178788509 0 0.33347722584237749 0.31956909473381939 0 0.32820870379776462 0.32448319178788509 0 0.33347722584237749 0.31956909473381939 0 0.3263478024623151 0.31741904511029462 0 0.33124360227541849 0.31442764345776991 0 0.3263478024623151 0.31741904511029462 0 0.32941006722315891 0.30722699384252472 0 0.33347722584237749 0.31956909473381939 0 0.33124360227541849 0.31442764345776991 0 0.3263478024623151 0.31741904511029462 0 0.33347722584237749 0.31956909473381939 0 0.33124360227541849 0.31442764345776991 0 0.33573931357382258 0.31349544014444092 0 0.3263478024623151 0.31741904511029462 0 0.31519714809528632 0.3267526197268541 0 0.32941006722315891 0.30722699384252472 0 0.31519714809528632 0.3267526197268541 0 0.30803157192662911 0.3238447286521593 0 0.32941006722315891 0.30722699384252472 0 0.31519714809528632 0.3267526197268541 0 0.32941006722315891 0.30722699384252472 0 0.3263478024623151 0.31741904511029462 0 0.3210727586670476 0.3246668338033496 0 0.31519714809528632 0.3267526197268541 0 0.32820870379776462 0.32448319178788509 0 0.3210727586670476 0.3246668338033496 0 0.32590498686407621 0.33327706948955621 0 0.32820870379776462 0.32448319178788509 0 0.3263478024623151 0.31741904511029462 0 0.3210727586670476 0.3246668338033496 0 0.3210727586670476 0.3246668338033496 0 0.30421313718846488 0.34577696404803948 0 0.33124831362481788 0.34157980681215722 0 0.32590498686407621 0.33327706948955621 0 0.30421313718846488 0.34577696404803948 0 0.3210727586670476 0.3246668338033496 0 0.31519714809528632 0.3267526197268541 0 0.30421313718846488 0.34577696404803948 0 0.33124831362481788 0.34157980681215722 0 0.30421313718846488 0.34577696404803948 0 0.3210727586670476 0.3246668338033496 0 0.32590498686407621 0.33327706948955621 0 0.30421313718846488 0.34577696404803948 0 0.33005589633097571 0.3546697071405468 0 0.31101285831576531 0.3688781314997378 0 0.30180390867549101 0.34879358739054073 0 0.33005589633097571 0.3546697071405468 0 0.30180390867549101 0.34879358739054073 0 0.33124831362481788 0.34157980681215722 0 0.33005589633097571 0.3546697071405468 0 0.30421313718846488 0.34577696404803948 0 0.34586600449482408 0.34951065881178589 0 0.33124831362481788 0.34157980681215722 0 0.33005589633097571 0.3546697071405468 0 0.35830788398646018 0.36054582689055381 0 0.33005589633097571 0.3546697071405468 0 0.34211718915799039 0.36753471024790169 0 0.33138159001921208 0.38283523677663128 0 0.33005589633097571 0.3546697071405468 0 0.34211718915799039 0.36753471024790169 0 0.33138159001921208 0.38283523677663128 0 0.33005589633097571 0.3546697071405468 0 0.31101285831576531 0.3688781314997378 0 0.30444061152336682 0.39118099734922668 0 0.31101285831576531 0.3688781314997378 0 0.28769421810890622 0.36453598546653831 0 0.31101285831576531 0.3688781314997378 0 0.30180390867549101 0.34879358739054073 0 0.28769421810890622 0.36453598546653831 0 0.33005589633097571 0.3546697071405468 0 0.30180390867549101 0.34879358739054073 0 0.30421313718846488 0.34577696404803948 0 0.29950181594027059 0.34831477603210581 0 0.29452879359991918 0.34728043908039452 0 0.30180390867549101 0.34879358739054073 0 0.29950181594027059 0.34831477603210581 0 0.30180390867549101 0.34879358739054073 0 0.29950181594027059 0.34831477603210581 0 0.30098422896741472 0.34627824561118409 0 0.29950181594027059 0.34831477603210581 0 0.30098422896741472 0.34627824561118409 0 0.29950181594027059 0.34831477603210581 0 0.30098422896741472 0.34627824561118409 0 0.29452879359991918 0.34728043908039452 0 0.30098422896741472 0.34627824561118409 0 0.29452879359991918 0.34728043908039452 0 0.30180390867549101 0.34879358739054073 0 0.30098422896741472 0.34627824561118409 0 0.30421313718846488 0.34577696404803948 0 0.30098422896741472 0.34627824561118409 0 0.30421313718846488 0.34577696404803948 0 0.30180390867549101 0.34879358739054073 0 0.30421313718846488 0.34577696404803948 0 0.2906387453579814 0.34647134948352531 0 0.27394691218276562 0.36818603621057122 0 0.29950181594027059 0.34831477603210581 0 0.28769421810890622 0.36453598546653831 0 0.30180390867549101 0.34879358739054073 0 0.28769421810890622 0.36453598546653831 0 0.29950181594027059 0.34831477603210581 0 0.29164189260858608 0.35197543745330162 0 0.28769421810890622 0.36453598546653831 0 0.2906387453579814 0.34647134948352531 0 0.28351319099031541 0.35788359682979981 0 0.27394691218276562 0.36818603621057122 0 0.30180390867549101 0.34879358739054073 0 0.29950181594027059 0.34831477603210581 0 0.28769421810890622 0.36453598546653831 0 0.29950181594027059 0.34831477603210581 0 0.29452879359991918 0.34728043908039452 0 0.29164189260858608 0.35197543745330162 0 0.30098422896741472 0.34627824561118409 0 0.2906387453579814 0.34647134948352531 0 0.29452879359991918 0.34728043908039452 0 0.2906387453579814 0.34647134948352531 0 0.29452879359991918 0.34728043908039452 0 0.2906387453579814 0.34647134948352531 0 0.29452879359991918 0.34728043908039452 0 0.29164189260858608 0.35197543745330162 0 0.2906387453579814 0.34647134948352531 0 0.29164189260858608 0.35197543745330162 0 0.28351319099031541 0.35788359682979981 0 0.29164189260858608 0.35197543745330162 0 0.28351319099031541 0.35788359682979981 0 0.28769421810890622 0.36453598546653831 0 0.28351319099031541 0.35788359682979981 0 0.28769421810890622 0.36453598546653831 0 0.27394691218276562 0.36818603621057122 0 0.28351319099031541 0.35788359682979981 0 0.28769421810890622 0.36453598546653831 0 0.27660389545147918 0.37977180642613029 0 0.28769421810890622 0.36453598546653831 0 0.26809233302647961 0.37580235677663099 0 0.27394691218276562 0.36818603621057122 0 0.2631136498099288 0.34710539203319618 0 0.27660389545147918 0.37977180642613029 0 0.28769421810890622 0.36453598546653831 0 0.27394691218276562 0.36818603621057122 0 0.27660389545147918 0.37977180642613029 0 0.27394691218276562 0.36818603621057122 0 0.26809233302647961 0.37580235677663099 0 0.27660389545147918 0.37977180642613029 0 0.27394691218276562 0.36818603621057122 0 0.26809233302647961 0.37580235677663099 0 0.27394691218276562 0.36818603621057122 0 0.27394691218276562 0.36818603621057122 0 0.2631136498099288 0.34710539203319618 0 0.26788156272430519 0.34173809205898509 0 0.2906387453579814 0.34647134948352531 0 0.27394691218276562 0.36818603621057122 0 0.26788156272430519 0.34173809205898509 0 0.27394691218276562 0.36818603621057122 0 0.26788156272430519 0.34173809205898509 0 0.2906387453579814 0.34647134948352531 0 0.26788156272430519 0.34173809205898509 0 0.2631136498099288 0.34710539203319618 0 0.25425457857839617 0.35319856858963428 0 0.2576302396975203 0.3626825246625407 0 0.2631136498099288 0.34710539203319618 0 0.26200766509687112 0.34073053287126631 0 0.2631136498099288 0.34710539203319618 0 0.25284652517593192 0.34486049319971879 0 0.25425457857839617 0.35319856858963428 0 0.24773370951071341 0.34939505946418481 0 0.25284652517593192 0.34486049319971879 0 0.25425457857839617 0.35319856858963428 0 0.2432837744142313 0.3599619814363646 0 0.25425457857839617 0.35319856858963428 0 0.2576302396975203 0.3626825246625407 0 0.24994444510306871 0.37636341328293732 0 0.26809233302647961 0.37580235677663099 0 0.2576302396975203 0.3626825246625407 0 0.2432837744142313 0.3599619814363646 0 0.24994444510306871 0.37636341328293732 0 0.2576302396975203 0.3626825246625407 0 0.26809233302647961 0.37580235677663099 0 0.2631136498099288 0.34710539203319618 0 0.2576302396975203 0.3626825246625407 0 0.26809233302647961 0.37580235677663099 0 0.2631136498099288 0.34710539203319618 0 0.26404745166916482 0.32501945849104352 0 0.26021334061402152 0.30830082492310262 0 0.26404745166916482 0.32501945849104352 0 0.25813496659337493 0.31840842728976188 0 0.26021334061402152 0.30830082492310262 0 0.26404745166916482 0.32501945849104352 0 0.25813496659337493 0.31840842728976188 0 0.26200766509687112 0.34073053287126631 0 0.24909357857261069 0.3143195866460467 0 0.25813496659337493 0.31840842728976188 0 0.26021334061402152 0.30830082492310262 0 0.24879734118681349 0.32316930840062541 0 0.24909357857261069 0.3143195866460467 0 0.25813496659337493 0.31840842728976188 0 0.24879734118681349 0.32316930840062541 0 0.25813496659337493 0.31840842728976188 0 0.25368736998104258 0.33396041038714808 0 0.25813496659337493 0.31840842728976188 0 0.25368736998104258 0.33396041038714808 0 0.26200766509687112 0.34073053287126631 0 0.25813496659337493 0.31840842728976188 0 0.26200766509687112 0.34073053287126631 0 0.26404745166916482 0.32501945849104352 0 0.26200766509687112 0.34073053287126631 0 0.26788156272430519 0.34173809205898509 0 0.2631136498099288 0.34710539203319618 0 0.25284652517593192 0.34486049319971879 0 0.25368736998104258 0.33396041038714808 0 0.2454433179995788 0.34064303552443082 0 0.25284652517593192 0.34486049319971879 0 0.25368736998104258 0.33396041038714808 0 0.2631136498099288 0.34710539203319618 0 0.25368736998104258 0.33396041038714808 0 0.26200766509687112 0.34073053287126631 0 0.26200766509687112 0.34073053287126631 0 0.26788156272430519 0.34173809205898509 0 0.2631136498099288 0.34710539203319618 0 0.26200766509687112 0.34073053287126631 0 0.26788156272430519 0.34173809205898509 0 0.26404745166916482 0.32501945849104352 0 0.26788156272430519 0.34173809205898509 0 0.2906387453579814 0.34647134948352531 0 0.26788156272430519 0.34173809205898509 0 0.27614976826783338 0.33158032963958189 0 0.26404745166916482 0.32501945849104352 0 0.26788156272430519 0.34173809205898509 0 0.27614976826783338 0.33158032963958189 0 0.27614976826783338 0.33158032963958189 0 0.27465772849379699 0.32327872664032908 0 0.28559690454049219 0.32146566629293599 0 0.26404745166916482 0.32501945849104352 0 0.27283678949769741 0.31504945213775509 0 0.26021334061402152 0.30830082492310262 0 0.26404745166916482 0.32501945849104352 0 0.27465772849379699 0.32327872664032908 0 0.27283678949769741 0.31504945213775509 0 0.26404745166916482 0.32501945849104352 0 0.27614976826783338 0.33158032963958189 0 0.27465772849379699 0.32327872664032908 0 0.27465772849379699 0.32327872664032908 0 0.27283678949769741 0.31504945213775509 0 0.28559690454049219 0.32146566629293599 0 0.27283678949769741 0.31504945213775509 0 0.28559690454049219 0.32146566629293599 0 0.28257333865457468 0.30998660226210423 0 0.2906387453579814 0.34647134948352531 0 0.28559690454049219 0.32146566629293599 0 0.30803157192662911 0.3238447286521593 0 0.2906387453579814 0.34647134948352531 0 0.27614976826783338 0.33158032963958189 0 0.28559690454049219 0.32146566629293599 0 0.31519714809528632 0.3267526197268541 0 0.30098422896741472 0.34627824561118409 0 0.30803157192662911 0.3238447286521593 0 0.31519714809528632 0.3267526197268541 0 0.30098422896741472 0.34627824561118409 0 0.30421313718846488 0.34577696404803948 0 0.2906387453579814 0.34647134948352531 0 0.30803157192662911 0.3238447286521593 0 0.30098422896741472 0.34627824561118409 0 0.2906387453579814 0.34647134948352531 0 0.30803157192662911 0.3238447286521593 0 0.31519714809528632 0.3267526197268541 0 0.30098422896741472 0.34627824561118409 0 0.28559690454049219 0.32146566629293599 0 0.30803157192662911 0.3238447286521593 0 0.29876523506816971 0.30115766993267379 0 0.29876523506816971 0.30115766993267379 0 0.32443604462439968 0.3000417191802946 0 0.30803157192662911 0.3238447286521593 0 0.29876523506816971 0.30115766993267379 0 0.32443604462439968 0.3000417191802946 0 0.2890204212871017 0.28659767383957457 0 0.31600866174563053 0.29001102290859371 0 0.29876523506816971 0.30115766993267379 0 0.2890204212871017 0.28659767383957457 0 0.31600866174563053 0.29001102290859371 0 0.2890204212871017 0.28659767383957457 0 0.30539289208996462 0.2773755982888616 0 0.31600866174563053 0.29001102290859371 0 0.30539289208996462 0.2773755982888616 0 0.31600866174563053 0.29001102290859371 0 0.29876523506816971 0.30115766993267379 0 0.2890204212871017 0.28659767383957457 0 0.27309442551193958 0.30227362068505181 0 0.29876523506816971 0.30115766993267379 0 0.27309442551193958 0.30227362068505181 0 0.28559690454049219 0.32146566629293599 0 0.29876523506816971 0.30115766993267379 0 0.28257333865457468 0.30998660226210423 0 0.29876523506816971 0.30115766993267379 0 0.28257333865457468 0.30998660226210423 0 0.27309442551193958 0.30227362068505181 0 0.27283678949769741 0.31504945213775509 0 0.28257333865457468 0.30998660226210423 0 0.27309442551193958 0.30227362068505181 0 0.27283678949769741 0.31504945213775509 0 0.27309442551193958 0.30227362068505181 0 0.26021334061402152 0.30830082492310262 0 0.27309442551193958 0.30227362068505181 0 0.27535624986120372 0.28553194964108669 0 0.2616507532446114 0.28546331061322289 0 0.2890204212871017 0.28659767383957457 0 0.27309442551193958 0.30227362068505181 0 0.27535624986120372 0.28553194964108669 0 0.2890204212871017 0.28659767383957457 0 0.27535624986120372 0.28553194964108669 0 0.27704232197650452 0.27347437854435119 0 0.27535624986120372 0.28553194964108669 0 0.2616507532446114 0.28546331061322289 0 0.27704232197650452 0.27347437854435119 0 0.24742361595570961 0.30338957143742967 0 0.27309442551193958 0.30227362068505181 0 0.26021334061402152 0.30830082492310262 0 0.24742361595570961 0.30338957143742967 0 0.27309442551193958 0.30227362068505181 0 0.2616507532446114 0.28546331061322289 0 0.24742361595570961 0.30338957143742967 0 0.27309442551193958 0.30227362068505181 0 0.24742361595570961 0.30338957143742967 0 0.24909357857261069 0.3143195866460467 0 0.26021334061402152 0.30830082492310262 0 0.24183819042719651 0.2457468380927334 0 0.26465850061080509 0.25090009652069561 0 0.25118401839053822 0.25829087403604301 0 0.2450857944433146 0.27030788438377867 0 0.25118401839053822 0.25829087403604301 0 0.26272135627042897 0.26617052233672728 0 0.26465850061080509 0.25090009652069561 0 0.25118401839053822 0.25829087403604301 0 0.26272135627042897 0.26617052233672728 0 0.2450857944433146 0.27030788438377867 0 0.2616507532446114 0.28546331061322289 0 0.26272135627042897 0.26617052233672728 0 0.2616507532446114 0.28546331061322289 0 0.26272135627042897 0.26617052233672728 0 0.27704232197650452 0.27347437854435119 0 0.26272135627042897 0.26617052233672728 0 0.27704232197650452 0.27347437854435119 0 0.27531375717850548 0.2623804633376941 0 0.27704232197650452 0.27347437854435119 0 0.27531375717850548 0.2623804633376941 0 0.28466779624037419 0.26530396433804049 0 0.26465850061080509 0.25090009652069561 0 0.28747881079441429 0.25605335494865578 0 0.26465850061080509 0.25090009652069561 0 0.27531375717850548 0.2623804633376941 0 0.28747881079441429 0.25605335494865578 0 0.26465850061080509 0.25090009652069561 0 0.26272135627042897 0.26617052233672728 0 0.27531375717850548 0.2623804633376941 0 0.28747881079441429 0.25605335494865578 0 0.30607067953178091 0.25253179152387178 0 0.29622194496412108 0.24800439574613639 0 0.27531375717850548 0.2623804633376941 0 0.28747881079441429 0.25605335494865578 0 0.28466779624037419 0.26530396433804049 0 0.28747881079441429 0.25605335494865578 0 0.28466779624037419 0.26530396433804049 0 0.29477712243429888 0.26474017366912928 0 0.28747881079441429 0.25605335494865578 0 0.29477712243429888 0.26474017366912928 0 0.2890204212871017 0.28659767383957457 0 0.29088457933687739 0.27208597279078089 0 0.30539289208996462 0.2773755982888616 0 0.2890204212871017 0.28659767383957457 0 0.27704232197650452 0.27347437854435119 0 0.29088457933687739 0.27208597279078089 0 0.27704232197650452 0.27347437854435119 0 0.28466779624037419 0.26530396433804049 0 0.29088457933687739 0.27208597279078089 0 0.28466779624037419 0.26530396433804049 0 0.29477712243429888 0.26474017366912928 0 0.29088457933687739 0.27208597279078089 0 0.29477712243429888 0.26474017366912928 0 0.30539289208996462 0.2773755982888616 0 0.3225024263958039 0.26684560479604952 0 0.29477712243429888 0.26474017366912928 0 0.3225024263958039 0.26684560479604952 0 0.29477712243429888 0.26474017366912928 0 0.30539289208996462 0.2773755982888616 0 0.29477712243429888 0.26474017366912928 0 0.29088457933687739 0.27208597279078089 0 0.30539289208996462 0.2773755982888616 0 0.28747881079441429 0.25605335494865578 0 0.30607067953178091 0.25253179152387178 0 0.31318273839018951 0.26185778882570931 0 0.29477712243429888 0.26474017366912928 0 0.31318273839018951 0.26185778882570931 0 0.3225024263958039 0.26684560479604952 0 0.28747881079441429 0.25605335494865578 0 0.29477712243429888 0.26474017366912928 0 0.31318273839018951 0.26185778882570931 0 0.28747881079441429 0.25605335494865578 0 0.31318273839018951 0.26185778882570931 0 0.31318273839018951 0.26185778882570931 0 0.33885438183696498 0.26808735550939272 0 0.30607067953178091 0.25253179152387178 0 0.3191259817613481 0.25540705495601701 0 0.31318273839018951 0.26185778882570931 0 0.31318273839018951 0.26185778882570931 0 0.33885438183696498 0.26808735550939272 0 0.3225024263958039 0.26684560479604952 0 0.30607067953178091 0.25253179152387178 0 0.3191259817613481 0.25540705495601701 0 0.31617596768273748 0.24862092986720671 0 0.31318273839018951 0.26185778882570931 0 0.32761136606282282 0.25777802355240531 0 0.33885438183696498 0.26808735550939272 0 0.3191259817613481 0.25540705495601701 0 0.31318273839018951 0.26185778882570931 0 0.32761136606282282 0.25777802355240531 0 0.3191259817613481 0.25540705495601701 0 0.32761136606282282 0.25777802355240531 0 0.3286309626952284 0.2434480298853621 0 0.32761136606282282 0.25777802355240531 0 0.33695847385438371 0.25848859673387808 0 0.3286309626952284 0.2434480298853621 0 0.32761136606282282 0.25777802355240531 0 0.33695847385438371 0.25848859673387808 0 0.33885438183696498 0.26808735550939272 0 0.33695847385438371 0.25848859673387808 0 0.33885438183696498 0.26808735550939272 0 0.34545280513403431 0.26099883918469308 0 0.33695847385438371 0.25848859673387808 0 0.34299065606626278 0.25131321409070428 0 0.3286309626952284 0.2434480298853621 0 0.33695847385438371 0.25848859673387808 0 0.34299065606626278 0.25131321409070428 0 0.34545280513403431 0.26099883918469308 0 0.32552324176346298 0.27990615997693069 0 0.33244154856593039 0.29208937918437378 0 0.35022773035730892 0.26895103592297109 0 0.33885438183696498 0.26808735550939272 0 0.3225024263958039 0.26684560479604952 0 0.33885438183696498 0.26808735550939272 0 0.32552324176346298 0.27990615997693069 0 0.35022773035730892 0.26895103592297109 0 0.33885438183696498 0.26808735550939272 0 0.32552324176346298 0.27990615997693069 0 0.3225024263958039 0.26684560479604952 0 0.33244154856593039 0.29208937918437378 0 0.35022773035730892 0.26895103592297109 0 0.30539289208996462 0.2773755982888616 0 0.32552324176346298 0.27990615997693069 0 0.3225024263958039 0.26684560479604952 0 0.32552324176346298 0.27990615997693069 0 0.31600866174563053 0.29001102290859371 0 0.33244154856593039 0.29208937918437378 0 0.30539289208996462 0.2773755982888616 0 0.32552324176346298 0.27990615997693069 0 0.31600866174563053 0.29001102290859371 0 0.31600866174563053 0.29001102290859371 0 0.32443604462439968 0.3000417191802946 0 0.33244154856593039 0.29208937918437378 0 0.31600866174563053 0.29001102290859371 0 0.33244154856593039 0.29208937918437378 0 0.31600866174563053 0.29001102290859371 0 0.32443604462439968 0.3000417191802946 0 0.30803157192662911 0.3238447286521593 0 0.32443604462439968 0.3000417191802946 0 0.30803157192662911 0.3238447286521593 0 0.32443604462439968 0.3000417191802946 0 0.32941006722315891 0.30722699384252472 0 0.29876523506816971 0.30115766993267379 0 0.31600866174563053 0.29001102290859371 0 0.32443604462439968 0.3000417191802946 0 0.32639410588498952 0.29995659915584622 0 0.32443604462439968 0.3000417191802946 0 0.33244154856593039 0.29208937918437378 0 0.32639410588498952 0.29995659915584622 0 0.32443604462439968 0.3000417191802946 0 0.32639410588498952 0.29995659915584622 0 0.34231836161880652 0.29926434653606898 0 0.32639410588498952 0.29995659915584622 0 0.34231836161880652 0.29926434653606898 0 0.33244154856593039 0.29208937918437378 0 0.32639410588498952 0.29995659915584622 0 0.33456071553786132 0.30431427628352192 0 0.34231836161880652 0.29926434653606898 0 0.33573931357382258 0.31349544014444092 0 0.32443604462439968 0.3000417191802946 0 0.33573931357382258 0.31349544014444092 0 0.32443604462439968 0.3000417191802946 0 0.32941006722315891 0.30722699384252472 0 0.33573931357382258 0.31349544014444092 0 0.32443604462439968 0.3000417191802946 0 0.33456071553786132 0.30431427628352192 0 0.33124360227541849 0.31442764345776991 0 0.33573931357382258 0.31349544014444092 0 0.32941006722315891 0.30722699384252472 0 0.32639410588498952 0.29995659915584622 0 0.32443604462439968 0.3000417191802946 0 0.33456071553786132 0.30431427628352192 0 0.33456071553786132 0.30431427628352192 0 0.34231836161880652 0.29926434653606898 0 0.34666974786746518 0.30991229339078502 0 0.33573931357382258 0.31349544014444092 0 0.33456071553786132 0.30431427628352192 0 0.34666974786746518 0.30991229339078502 0 0.32639410588498952 0.29995659915584622 0 0.33244154856593039 0.29208937918437378 0 0.34231836161880652 0.29926434653606898 0 0.33244154856593039 0.29208937918437378 0 0.35823922632220823 0.29535215133462311 0 0.35823922632220823 0.29535215133462311 0 0.35821206095287778 0.26955735779366019 0 0.33244154856593039 0.29208937918437378 0 0.35823922632220823 0.29535215133462311 0 0.33244154856593039 0.29208937918437378 0 0.35823922632220823 0.29535215133462311 0 0.35022773035730892 0.26895103592297109 0 0.34231836161880652 0.29926434653606898 0 0.35823922632220823 0.29535215133462311 0 0.35824261735262353 0.2985720939162908 0 0.35826305370689687 0.31797737174628171 0 0.34666974786746518 0.30991229339078502 0 0.35824261735262353 0.2985720939162908 0 0.34231836161880652 0.29926434653606898 0 0.34666974786746518 0.30991229339078502 0 0.35824261735262353 0.2985720939162908 0 0.35826305370689687 0.31797737174628171 0 0.35824261735262353 0.2985720939162908 0 0.34231836161880652 0.29926434653606898 0 0.35824261735262353 0.2985720939162908 0 0.35823922632220823 0.29535215133462311 0 0.35824261735262353 0.2985720939162908 0 0.35824261735262353 0.2985720939162908 0 0.36489310987453338 0.29619370405695189 0 0.38530062484196742 0.29739583947252168 0 0.37355828893919801 0.31406904318946938 0 0.35824261735262353 0.2985720939162908 0 0.38530062484196742 0.29739583947252168 0 0.35824261735262353 0.2985720939162908 0 0.38530062484196742 0.29739583947252168 0 0.37355828893919801 0.31406904318946938 0 0.35826305370689687 0.31797737174628171 0 0.35824261735262353 0.2985720939162908 0 0.35823922632220823 0.29535215133462311 0 0.36559308939395813 0.28328420626751072 0 0.35821206095287778 0.26955735779366019 0 0.35823922632220823 0.29535215133462311 0 0.36559308939395813 0.28328420626751072 0 0.36489310987453338 0.29619370405695189 0 0.35823922632220823 0.29535215133462311 0 0.36489310987453338 0.29619370405695189 0 0.35823922632220823 0.29535215133462311 0 0.35824261735262353 0.2985720939162908 0 0.36489310987453338 0.29619370405695189 0 0.36559308939395813 0.28328420626751072 0 0.36489310987453338 0.29619370405695189 0 0.37748990794392862 0.28748647681792888 0 0.35821206095287778 0.26955735779366019 0 0.38224350058891821 0.27138228065491421 0 0.37466402894604239 0.25663903199270788 0 0.35821206095287778 0.26955735779366019 0 0.38224350058891821 0.27138228065491421 0 0.36559308939395813 0.28328420626751072 0 0.35821206095287778 0.26955735779366019 0 0.38224350058891821 0.27138228065491421 0 0.37466402894604239 0.25663903199270788 0 0.35820049940624799 0.25857912647314701 0 0.35821206095287778 0.26955735779366019 0 0.37466402894604239 0.25663903199270788 0 0.35820049940624799 0.25857912647314701 0 0.3723050453064225 0.240230285310258 0 0.34299065606626278 0.25131321409070428 0 0.35820049940624799 0.25857912647314701 0 0.3470821380133452 0.2412510483538059 0 0.35820049940624799 0.25857912647314701 0 0.35821206095287778 0.26955735779366019 0 0.35820049940624799 0.25857912647314701 0 0.35022773035730892 0.26895103592297109 0 0.34299065606626278 0.25131321409070428 0 0.35820049940624799 0.25857912647314701 0 0.34545280513403431 0.26099883918469308 0 0.35820049940624799 0.25857912647314701 0 0.34545280513403431 0.26099883918469308 0 0.35022773035730892 0.26895103592297109 0 0.33885438183696498 0.26808735550939272 0 0.35022773035730892 0.26895103592297109 0 0.33885438183696498 0.26808735550939272 0 0.34545280513403431 0.26099883918469308 0 0.35022773035730892 0.26895103592297109 0 0.35823922632220823 0.29535215133462311 0 0.35022773035730892 0.26895103592297109 0 0.35821206095287778 0.26955735779366019 0 0.35820049940624799 0.25857912647314701 0 0.35022773035730892 0.26895103592297109 0 0.35821206095287778 0.26955735779366019 0 0.35022773035730892 0.26895103592297109 0 0.35821206095287778 0.26955735779366019 0 0.40534162597018197 0.27176225368828177 0 0.38224350058891821 0.27138228065491421 0 0.39756955503893288 0.28466984631635489 0 0.40534162597018197 0.27176225368828177 0 0.3987046988472237 0.2591012138895944 0 0.38224350058891821 0.27138228065491421 0 0.40534162597018197 0.27176225368828177 0 0.3987046988472237 0.2591012138895944 0 0.41465733722559611 0.25736223411530967 0 0.3987046988472237 0.2591012138895944 0 0.39488500936975263 0.24532584809717059 0 0.40701393632937788 0.24838861756848099 0 0.37466402894604239 0.25663903199270788 0 0.3987046988472237 0.2591012138895944 0 0.39488500936975263 0.24532584809717059 0 0.37466402894604239 0.25663903199270788 0 0.3987046988472237 0.2591012138895944 0 0.38224350058891821 0.27138228065491421 0 0.38224350058891821 0.27138228065491421 0 0.37748990794392862 0.28748647681792888 0 0.39756955503893288 0.28466984631635489 0 0.36559308939395813 0.28328420626751072 0 0.38224350058891821 0.27138228065491421 0 0.37748990794392862 0.28748647681792888 0 0.36489310987453338 0.29619370405695189 0 0.37748990794392862 0.28748647681792888 0 0.38530062484196742 0.29739583947252168 0 0.37748990794392862 0.28748647681792888 0 0.38530062484196742 0.29739583947252168 0 0.39756955503893288 0.28466984631635489 0 0.37355828893919801 0.31406904318946938 0 0.38530062484196742 0.29739583947252168 0 0.39099523915189621 0.31971442110025788 0 0.38530062484196742 0.29739583947252168 0 0.4123586323313112 0.29621958502875168 0 0.40340273595425341 0.31559659934648798 0 0.38530062484196742 0.29739583947252168 0 0.40340273595425341 0.31559659934648798 0 0.39099523915189621 0.31971442110025788 0 0.38530062484196742 0.29739583947252168 0 0.39756955503893288 0.28466984631635489 0 0.4123586323313112 0.29621958502875168 0 0.38530062484196742 0.29739583947252168 0 0.4123586323313112 0.29621958502875168 0 0.4123586323313112 0.29621958502875168 0 0.42068333352655141 0.27820822720815069 0 0.39756955503893288 0.28466984631635489 0 0.4123586323313112 0.29621958502875168 0 0.42068333352655141 0.27820822720815069 0 0.4123586323313112 0.29621958502875168 0 0.42383495187878317 0.31556067175743879 0 0.40340273595425341 0.31559659934648798 0 0.4123586323313112 0.29621958502875168 0 0.40340273595425341 0.31559659934648798 0 0.43406415216573602 0.29527601170136342 0 0.44290015824061157 0.31588511156537158 0 0.42383495187878317 0.31556067175743879 0 0.43406415216573602 0.29527601170136342 0 0.42383495187878317 0.31556067175743879 0 0.4123586323313112 0.29621958502875168 0 0.43406415216573602 0.29527601170136342 0 0.42383495187878317 0.31556067175743879 0 0.4123586323313112 0.29621958502875168 0 0.43406415216573602 0.29527601170136342 0 0.42068333352655141 0.27820822720815069 0 0.43406415216573602 0.29527601170136342 0 0.43168657359780582 0.27313006506669779 0 0.42068333352655141 0.27820822720815069 0 0.43406415216573602 0.29527601170136342 0 0.43168657359780582 0.27313006506669779 0 0.4421427610191298 0.27925600723184318 0 0.4123586323313112 0.29621958502875168 0 0.43406415216573602 0.29527601170136342 0 0.43168657359780582 0.27313006506669779 0 0.42197875017009162 0.26655524539489889 0 0.43504823485866528 0.26133645920022941 0 0.43168657359780582 0.27313006506669779 0 0.42197875017009162 0.26655524539489889 0 0.42068333352655141 0.27820822720815069 0 0.40534162597018197 0.27176225368828177 0 0.39756955503893288 0.28466984631635489 0 0.42068333352655141 0.27820822720815069 0 0.40534162597018197 0.27176225368828177 0 0.42197875017009162 0.26655524539489889 0 0.42068333352655141 0.27820822720815069 0 0.3987046988472237 0.2591012138895944 0 0.41465733722559611 0.25736223411530967 0 0.40701393632937788 0.24838861756848099 0 0.40534162597018197 0.27176225368828177 0 0.42197875017009162 0.26655524539489889 0 0.41465733722559611 0.25736223411530967 0 0.40534162597018197 0.27176225368828177 0 0.41465733722559611 0.25736223411530967 0 0.42197875017009162 0.26655524539489889 0 0.41465733722559611 0.25736223411530967 0 0.42659905199128428 0.25466336600345729 0 0.41465733722559611 0.25736223411530967 0 0.42397304848100981 0.2429622145423376 0 0.41465733722559611 0.25736223411530967 0 0.42659905199128428 0.25466336600345729 0 0.42397304848100981 0.2429622145423376 0 0.42659905199128428 0.25466336600345729 0 0.43504823485866528 0.26133645920022941 0 0.44670741272494002 0.25014944309200082 0 0.42197875017009162 0.26655524539489889 0 0.42659905199128428 0.25466336600345729 0 0.43504823485866528 0.26133645920022941 0 0.43504823485866528 0.26133645920022941 0 0.45022136987251349 0.26323600276231812 0 0.44670741272494002 0.25014944309200082 0 0.45022136987251349 0.26323600276231812 0 0.45543009270220658 0.25290702601315013 0 0.45022136987251349 0.26323600276231812 0 0.44670741272494002 0.25014944309200082 0 0.45022136987251349 0.26323600276231812 0 0.44670741272494002 0.25014944309200082 0 0.45543009270220658 0.25290702601315013 0 0.44670741272494002 0.25014944309200082 0 0.45543009270220658 0.25290702601315013 0 0.45022136987251349 0.26323600276231812 0 0.4421427610191298 0.27925600723184318 0 0.45438016016841209 0.27872402810753932 0 0.43168657359780582 0.27313006506669779 0 0.45022136987251349 0.26323600276231812 0 0.4421427610191298 0.27925600723184318 0 0.43168657359780582 0.27313006506669779 0 0.43504823485866528 0.26133645920022941 0 0.45022136987251349 0.26323600276231812 0 0.45022136987251349 0.26323600276231812 0 0.4421427610191298 0.27925600723184318 0 0.45022136987251349 0.26323600276231812 0 0.45438016016841209 0.27872402810753932 0 0.45438016016841209 0.27872402810753932 0 0.46173964970624198 0.26675904913524601 0 0.47095157943697319 0.27897601063177341 0 0.45022136987251349 0.26323600276231812 0 0.45438016016841209 0.27872402810753932 0 0.46173964970624198 0.26675904913524601 0 0.45543009270220658 0.25290702601315013 0 0.47771504635110412 0.25995217816144911 0 0.45543009270220658 0.25290702601315013 0 0.47771504635110412 0.25995217816144911 0 0.46950086217180798 0.24660621613382361 0 0.46173964970624198 0.26675904913524601 0 0.45543009270220658 0.25290702601315013 0 0.47771504635110412 0.25995217816144911 0 0.45022136987251349 0.26323600276231812 0 0.46173964970624198 0.26675904913524601 0 0.45543009270220658 0.25290702601315013 0 0.46173964970624198 0.26675904913524601 0 0.47771504635110412 0.25995217816144911 0 0.47095157943697319 0.27897601063177341 0 0.47771504635110412 0.25995217816144911 0 0.47095157943697319 0.27897601063177341 0 0.4862344054678045 0.27844940804874602 0 0.50000000000000133 0.26699733030974848 0 0.4862344054678045 0.27844940804874602 0 0.49999999999999539 0.29240967595771278 0 0.47771504635110412 0.25995217816144911 0 0.50000000000000133 0.26699733030974848 0 0.4862344054678045 0.27844940804874602 0 0.47771504635110412 0.25995217816144911 0 0.50000000000000133 0.26699733030974848 0 0.47771504635110412 0.25995217816144911 0 0.50000000000000133 0.26699733030974848 0 0.5 0.24683478028199449 0 0.49999999999999539 0.29240967595771278 0 0.47926947523215618 0.29331086470523487 0 0.48213457459829112 0.31214622902563871 0 0.49999999999999539 0.29240967595771278 0 0.48213457459829112 0.31214622902563871 0 0.5 0.3193209602778716 0 0.49999999999999539 0.29240967595771278 0 0.47926947523215618 0.29331086470523487 0 0.4862344054678045 0.27844940804874602 0 0.49999999999999539 0.29240967595771278 0 0.47926947523215618 0.29331086470523487 0 0.47095157943697319 0.27897601063177341 0 0.47926947523215618 0.29331086470523487 0 0.45853895046431709 0.29421205345275869 0 0.47926947523215618 0.29331086470523487 0 0.45853895046431709 0.29421205345275869 0 0.47095157943697319 0.27897601063177341 0 0.4862344054678045 0.27844940804874602 0 0.47926947523215618 0.29331086470523487 0 0.47926947523215618 0.29331086470523487 0 0.48213457459829112 0.31214622902563871 0 0.46290568611590022 0.31047450181771469 0 0.46290568611590022 0.31047450181771469 0 0.45853895046431709 0.29421205345275869 0 0.47926947523215618 0.29331086470523487 0 0.46290568611590022 0.31047450181771469 0 0.45853895046431709 0.29421205345275869 0 0.46290568611590022 0.31047450181771469 0 0.45853895046431709 0.29421205345275869 0 0.44960223674664113 0.30396191963430019 0 0.45438016016841209 0.27872402810753932 0 0.47095157943697319 0.27897601063177341 0 0.45853895046431709 0.29421205345275869 0 0.45438016016841209 0.27872402810753932 0 0.45853895046431709 0.29421205345275869 0 0.43406415216573602 0.29527601170136342 0 0.4421427610191298 0.27925600723184318 0 0.4421427610191298 0.27925600723184318 0 0.45438016016841209 0.27872402810753932 0 0.45853895046431709 0.29421205345275869 0 0.43406415216573602 0.29527601170136342 0 0.4421427610191298 0.27925600723184318 0 0.45853895046431709 0.29421205345275869 0 0.43406415216573602 0.29527601170136342 0 0.45853895046431709 0.29421205345275869 0 0.43406415216573602 0.29527601170136342 0 0.44960223674664113 0.30396191963430019 0 0.44290015824061157 0.31588511156537158 0 0.46290568611590022 0.31047450181771469 0 0.44960223674664113 0.30396191963430019 0 0.44290015824061157 0.31588511156537158 0 0.43406415216573602 0.29527601170136342 0 0.45853895046431709 0.29421205345275869 0 0.44960223674664113 0.30396191963430019 0 0.44290015824061157 0.31588511156537158 0 0.44194958552009972 0.33728940838239108 0 0.42791621726700169 0.32879143304134523 0 0.44290015824061157 0.31588511156537158 0 0.44194958552009972 0.33728940838239108 0 0.45375918679186172 0.32524175631901092 0 0.44194958552009972 0.33728940838239108 0 0.45580322483011732 0.33649289964709522 0 0.45375918679186172 0.32524175631901092 0 0.44194958552009972 0.33728940838239108 0 0.45580322483011732 0.33649289964709522 0 0.45110215894823358 0.34699004005998518 0 0.45580322483011732 0.33649289964709522 0 0.4672724217674904 0.32673695018266868 0 0.46371805799502458 0.34603103462540552 0 0.45580322483011732 0.33649289964709522 0 0.46371805799502458 0.34603103462540552 0 0.45110215894823358 0.34699004005998518 0 0.45580322483011732 0.33649289964709522 0 0.45375918679186172 0.32524175631901092 0 0.4672724217674904 0.32673695018266868 0 0.46290568611590022 0.31047450181771469 0 0.4672724217674904 0.32673695018266868 0 0.46290568611590022 0.31047450181771469 0 0.45375918679186172 0.32524175631901092 0 0.4672724217674904 0.32673695018266868 0 0.46290568611590022 0.31047450181771469 0 0.44290015824061157 0.31588511156537158 0 0.45375918679186172 0.32524175631901092 0 0.48213457459829112 0.31214622902563871 0 0.4672724217674904 0.32673695018266868 0 0.48393361351104902 0.33051935588691322 0 0.48213457459829112 0.31214622902563871 0 0.46290568611590022 0.31047450181771469 0 0.4672724217674904 0.32673695018266868 0 0.4672724217674904 0.32673695018266868 0 0.48393361351104902 0.33051935588691322 0 0.47841289750494997 0.34666762720258182 0 0.4672724217674904 0.32673695018266868 0 0.47841289750494997 0.34666762720258182 0 0.46371805799502458 0.34603103462540552 0 0.48393361351104902 0.33051935588691322 0 0.5 0.3193209602778716 0 0.5 0.34623224459803043 0 0.48393361351104902 0.33051935588691322 0 0.5 0.34623224459803043 0 0.47841289750494997 0.34666762720258182 0 0.48213457459829112 0.31214622902563871 0 0.48393361351104902 0.33051935588691322 0 0.5 0.3193209602778716 0 0.48496930933626381 0.36567786141122771 0 0.5 0.37314352891818908 0 0.5 0.34623224459803043 0 0.48496930933626381 0.36567786141122771 0 0.5 0.37314352891818908 0 0.48049935295033619 0.38227310855918822 0 0.48496930933626381 0.36567786141122771 0 0.5 0.34623224459803043 0 0.47841289750494997 0.34666762720258182 0 0.47841289750494997 0.34666762720258182 0 0.46808887461129578 0.36252891116089259 0 0.46371805799502458 0.34603103462540552 0 0.48496930933626381 0.36567786141122771 0 0.47841289750494997 0.34666762720258182 0 0.46808887461129578 0.36252891116089259 0 0.48496930933626381 0.36567786141122771 0 0.48049935295033619 0.38227310855918822 0 0.48496930933626381 0.36567786141122771 0 0.47229015429969962 0.37473130044258118 0 0.48049935295033619 0.38227310855918822 0 0.48496930933626381 0.36567786141122771 0 0.47229015429969962 0.37473130044258118 0 0.46808887461129578 0.36252891116089259 0 0.46808887461129578 0.36252891116089259 0 0.45469107073808868 0.36648145615220251 0 0.46033483767153838 0.37614347190105257 0 0.47229015429969962 0.37473130044258118 0 0.46808887461129578 0.36252891116089259 0 0.46033483767153838 0.37614347190105257 0 0.45469107073808868 0.36648145615220251 0 0.45769588754370172 0.35601399370068187 0 0.44783726048551359 0.35864257681002432 0 0.46808887461129578 0.36252891116089259 0 0.45469107073808868 0.36648145615220251 0 0.45769588754370172 0.35601399370068187 0 0.45469107073808868 0.36648145615220251 0 0.45139417975576102 0.37595483366699839 0 0.46033483767153838 0.37614347190105257 0 0.46808887461129578 0.36252891116089259 0 0.46371805799502458 0.34603103462540552 0 0.45769588754370172 0.35601399370068187 0 0.46371805799502458 0.34603103462540552 0 0.45769588754370172 0.35601399370068187 0 0.45110215894823358 0.34699004005998518 0 0.45110215894823358 0.34699004005998518 0 0.44783726048551359 0.35864257681002432 0 0.44235124358090377 0.35049759555824739 0 0.45769588754370172 0.35601399370068187 0 0.45110215894823358 0.34699004005998518 0 0.44783726048551359 0.35864257681002432 0 0.44783726048551359 0.35864257681002432 0 0.44235124358090377 0.35049759555824739 0 0.43734774707678331 0.36122028519247551 0 0.44235124358090377 0.35049759555824739 0 0.43734774707678331 0.36122028519247551 0 0.43343891469457602 0.3493620906398312 0 0.44194958552009972 0.33728940838239108 0 0.45110215894823358 0.34699004005998518 0 0.44235124358090377 0.35049759555824739 0 0.44194958552009972 0.33728940838239108 0 0.44235124358090377 0.35049759555824739 0 0.43343891469457602 0.3493620906398312 0 0.45469107073808868 0.36648145615220251 0 0.44383545502537092 0.3706520901965536 0 0.45139417975576102 0.37595483366699839 0 0.45469107073808868 0.36648145615220251 0 0.44783726048551359 0.35864257681002432 0 0.44383545502537092 0.3706520901965536 0 0.44783726048551359 0.35864257681002432 0 0.44383545502537092 0.3706520901965536 0 0.43734774707678331 0.36122028519247551 0 0.43734774707678331 0.36122028519247551 0 0.42780257137082961 0.35665965104122049 0 0.42835325183149769 0.38110003570901407 0 0.41464232463172002 0.3677117124311341 0 0.42780257137082961 0.35665965104122049 0 0.42835325183149769 0.38110003570901407 0 0.44383545502537092 0.3706520901965536 0 0.43734774707678331 0.36122028519247551 0 0.42835325183149769 0.38110003570901407 0 0.42780257137082961 0.35665965104122049 0 0.42835325183149769 0.38110003570901407 0 0.41464232463172002 0.3677117124311341 0 0.42077278933928558 0.35514368329658669 0 0.40300985465984268 0.36064627481990991 0 0.41464232463172002 0.3677117124311341 0 0.42077278933928558 0.35514368329658669 0 0.42780257137082961 0.35665965104122049 0 0.41464232463172002 0.3677117124311341 0 0.40206241129070891 0.37136570532197027 0 0.40300985465984268 0.36064627481990991 0 0.41464232463172002 0.3677117124311341 0 0.40206241129070891 0.37136570532197027 0 0.40738125773306721 0.38200395520979658 0 0.42077278933928558 0.35514368329658669 0 0.41579906914660308 0.34558863425836939 0 0.40300985465984268 0.36064627481990991 0 0.42077278933928558 0.35514368329658669 0 0.40300985465984268 0.36064627481990991 0 0.41579906914660308 0.34558863425836939 0 0.41028542932793183 0.34061696112786211 0 0.40370242556569791 0.34616854713700729 0 0.41579906914660308 0.34558863425836939 0 0.40300985465984268 0.36064627481990991 0 0.40370242556569791 0.34616854713700729 0 0.42077278933928558 0.35514368329658669 0 0.41579906914660308 0.34558863425836939 0 0.4256199020127252 0.34972394478380209 0 0.41579906914660308 0.34558863425836939 0 0.4256199020127252 0.34972394478380209 0 0.42674279640308832 0.34105196318636161 0 0.4256199020127252 0.34972394478380209 0 0.43343891469457602 0.3493620906398312 0 0.42674279640308832 0.34105196318636161 0 0.4256199020127252 0.34972394478380209 0 0.42780257137082961 0.35665965104122049 0 0.43343891469457602 0.3493620906398312 0 0.42077278933928558 0.35514368329658669 0 0.4256199020127252 0.34972394478380209 0 0.42780257137082961 0.35665965104122049 0 0.43734774707678331 0.36122028519247551 0 0.42780257137082961 0.35665965104122049 0 0.43343891469457602 0.3493620906398312 0 0.44194958552009972 0.33728940838239108 0 0.43343891469457602 0.3493620906398312 0 0.42674279640308832 0.34105196318636161 0 0.44194958552009972 0.33728940838239108 0 0.42791621726700169 0.32879143304134523 0 0.42674279640308832 0.34105196318636161 0 0.42791621726700169 0.32879143304134523 0 0.42674279640308832 0.34105196318636161 0 0.41573308977752438 0.33555626801243049 0 0.44290015824061157 0.31588511156537158 0 0.42791621726700169 0.32879143304134523 0 0.42383495187878317 0.31556067175743879 0 0.42383495187878317 0.31556067175743879 0 0.41055087124743173 0.32600375581109792 0 0.40340273595425341 0.31559659934648798 0 0.42791621726700169 0.32879143304134523 0 0.42383495187878317 0.31556067175743879 0 0.41055087124743173 0.32600375581109792 0 0.42791621726700169 0.32879143304134523 0 0.41055087124743173 0.32600375581109792 0 0.41573308977752438 0.33555626801243049 0 0.41579906914660308 0.34558863425836939 0 0.42674279640308832 0.34105196318636161 0 0.41573308977752438 0.33555626801243049 0 0.41055087124743173 0.32600375581109792 0 0.41573308977752438 0.33555626801243049 0 0.40542178435513643 0.33655290389702941 0 0.41573308977752438 0.33555626801243049 0 0.41028542932793183 0.34061696112786211 0 0.40542178435513643 0.33655290389702941 0 0.41579906914660308 0.34558863425836939 0 0.41573308977752438 0.33555626801243049 0 0.41028542932793183 0.34061696112786211 0 0.41028542932793183 0.34061696112786211 0 0.40542178435513643 0.33655290389702941 0 0.40370242556569791 0.34616854713700729 0 0.41055087124743173 0.32600375581109792 0 0.40542178435513643 0.33655290389702941 0 0.39444683957720361 0.33497361366422801 0 0.40542178435513643 0.33655290389702941 0 0.39958209753026019 0.34049415776887137 0 0.39444683957720361 0.33497361366422801 0 0.40542178435513643 0.33655290389702941 0 0.39958209753026019 0.34049415776887137 0 0.40370242556569791 0.34616854713700729 0 0.39444683957720361 0.33497361366422801 0 0.39099523915189621 0.31971442110025788 0 0.38893512627428278 0.33262404417096869 0 0.39958209753026019 0.34049415776887137 0 0.39444683957720361 0.33497361366422801 0 0.39561922283928558 0.34635012702981838 0 0.39444683957720361 0.33497361366422801 0 0.40340273595425341 0.31559659934648798 0 0.39099523915189621 0.31971442110025788 0 0.39444683957720361 0.33497361366422801 0 0.40340273595425341 0.31559659934648798 0 0.41055087124743173 0.32600375581109792 0 0.39444683957720361 0.33497361366422801 0 0.40340273595425341 0.31559659934648798 0 0.37355828893919801 0.31406904318946938 0 0.39099523915189621 0.31971442110025788 0 0.37960851528568879 0.32580096223681221 0 0.39099523915189621 0.31971442110025788 0 0.37960851528568879 0.32580096223681221 0 0.38893512627428278 0.33262404417096869 0 0.39444683957720361 0.33497361366422801 0 0.38262086571026638 0.34175907232497499 0 0.38549094320015392 0.35435062798196792 0 0.37148228865019978 0.35115512767359319 0 0.37360930816772697 0.33500334687362232 0 0.38262086571026638 0.34175907232497499 0 0.39444683957720361 0.33497361366422801 0 0.38893512627428278 0.33262404417096869 0 0.38262086571026638 0.34175907232497499 0 0.37360930816772697 0.33500334687362232 0 0.37960851528568879 0.32580096223681221 0 0.38893512627428278 0.33262404417096869 0 0.37360930816772697 0.33500334687362232 0 0.38893512627428278 0.33262404417096869 0 0.37360930816772697 0.33500334687362232 0 0.38893512627428278 0.33262404417096869 0 0.38262086571026638 0.34175907232497499 0 0.39444683957720361 0.33497361366422801 0 0.38549094320015392 0.35435062798196792 0 0.37148228865019978 0.35115512767359319 0 0.38262086571026638 0.34175907232497499 0 0.38549094320015392 0.35435062798196792 0 0.38549094320015392 0.35435062798196792 0 0.38524691998039923 0.36614886634323102 0 0.39461387324907587 0.35473288866238661 0 0.37148228865019978 0.35115512767359319 0 0.38549094320015392 0.35435062798196792 0 0.38524691998039923 0.36614886634323102 0 0.37456973803530302 0.38139199705956128 0 0.38524691998039923 0.36614886634323102 0 0.38595184066193511 0.37617012105883108 0 0.38524691998039923 0.36614886634323102 0 0.39074560802765779 0.36729253629762798 0 0.38595184066193511 0.37617012105883108 0 0.39074560802765779 0.36729253629762798 0 0.39453301140125679 0.37917404785138281 0 0.38595184066193511 0.37617012105883108 0 0.38524691998039923 0.36614886634323102 0 0.39074560802765779 0.36729253629762798 0 0.38524691998039923 0.36614886634323102 0 0.39074560802765779 0.36729253629762798 0 0.40300985465984268 0.36064627481990991 0 0.38524691998039923 0.36614886634323102 0 0.40300985465984268 0.36064627481990991 0 0.39461387324907587 0.35473288866238661 0 0.38524691998039923 0.36614886634323102 0 0.40300985465984268 0.36064627481990991 0 0.39074560802765779 0.36729253629762798 0 0.40206241129070891 0.37136570532197027 0 0.39453301140125679 0.37917404785138281 0 0.39074560802765779 0.36729253629762798 0 0.40206241129070891 0.37136570532197027 0 0.40300985465984268 0.36064627481990991 0 0.39444683957720361 0.33497361366422801 0 0.38549094320015392 0.35435062798196792 0 0.39561922283928558 0.34635012702981838 0 0.40300985465984268 0.36064627481990991 0 0.40370242556569791 0.34616854713700729 0 0.39461387324907587 0.35473288866238661 0 0.39958209753026019 0.34049415776887137 0 0.40370242556569791 0.34616854713700729 0 0.39561922283928558 0.34635012702981838 0 0.40370242556569791 0.34616854713700729 0 0.39561922283928558 0.34635012702981838 0 0.39461387324907587 0.35473288866238661 0 0.38549094320015392 0.35435062798196792 0 0.39561922283928558 0.34635012702981838 0 0.39461387324907587 0.35473288866238661 0 0.39124364271818668 0.40322707466369889 0 0.39755850096232093 0.3898493031590537 0 0.38466392586505782 0.38684315774235423 0 0.39124364271818668 0.40322707466369889 0 0.39755850096232093 0.3898493031590537 0 0.40997066709403562 0.39799828032803569 0 0.39755850096232093 0.3898493031590537 0 0.40997066709403562 0.39799828032803569 0 0.40738125773306721 0.38200395520979658 0 0.39453301140125679 0.37917404785138281 0 0.39755850096232093 0.3898493031590537 0 0.40738125773306721 0.38200395520979658 0 0.40206241129070891 0.37136570532197027 0 0.39453301140125679 0.37917404785138281 0 0.40738125773306721 0.38200395520979658 0 0.39453301140125679 0.37917404785138281 0 0.39755850096232093 0.3898493031590537 0 0.38466392586505782 0.38684315774235423 0 0.39453301140125679 0.37917404785138281 0 0.38466392586505782 0.38684315774235423 0 0.38595184066193511 0.37617012105883108 0 0.37456973803530302 0.38139199705956128 0 0.38466392586505782 0.38684315774235423 0 0.38595184066193511 0.37617012105883108 0 0.37456973803530302 0.38139199705956128 0 0.38466392586505782 0.38684315774235423 0 0.37515320112216599 0.39444110959527667 0 0.37151667547236522 0.40731593792463089 0 0.39124364271818668 0.40322707466369889 0 0.37515320112216599 0.39444110959527667 0 0.39124364271818668 0.40322707466369889 0 0.38466392586505782 0.38684315774235423 0 0.37515320112216599 0.39444110959527667 0 0.37151667547236522 0.40731593792463089 0 0.39124364271818668 0.40322707466369889 0 0.38488852484373909 0.42186566976482193 0 0.36416890344821268 0.4270724543000024 0 0.38488852484373909 0.42186566976482193 0 0.38122367912334232 0.43895175051498048 0 0.38488852484373909 0.42186566976482193 0 0.39647284998262428 0.43646603895773511 0 0.38122367912334232 0.43895175051498048 0 0.38488852484373909 0.42186566976482193 0 0.39647284998262428 0.43646603895773511 0 0.4080287477857536 0.41989713052501931 0 0.39647284998262428 0.43646603895773511 0 0.4080287477857536 0.41989713052501931 0 0.41174527726749138 0.44240293731337382 0 0.39124364271818668 0.40322707466369889 0 0.4080287477857536 0.41989713052501931 0 0.40997066709403562 0.39799828032803569 0 0.39124364271818668 0.40322707466369889 0 0.38488852484373909 0.42186566976482193 0 0.4080287477857536 0.41989713052501931 0 0.4080287477857536 0.41989713052501931 0 0.428903932292166 0.40554042037680749 0 0.40997066709403562 0.39799828032803569 0 0.4080287477857536 0.41989713052501931 0 0.4294546127528342 0.42998080504460112 0 0.41174527726749138 0.44240293731337382 0 0.4080287477857536 0.41989713052501931 0 0.4294546127528342 0.42998080504460112 0 0.428903932292166 0.40554042037680749 0 0.4294546127528342 0.42998080504460112 0 0.428903932292166 0.40554042037680749 0 0.4294546127528342 0.42998080504460112 0 0.428903932292166 0.40554042037680749 0 0.44072555405538411 0.42151859950197529 0 0.428903932292166 0.40554042037680749 0 0.42835325183149769 0.38110003570901407 0 0.44440571646814891 0.39720030853198091 0 0.428903932292166 0.40554042037680749 0 0.42835325183149769 0.38110003570901407 0 0.428903932292166 0.40554042037680749 0 0.40997066709403562 0.39799828032803569 0 0.42835325183149769 0.38110003570901407 0 0.41464232463172002 0.3677117124311341 0 0.40738125773306721 0.38200395520979658 0 0.42835325183149769 0.38110003570901407 0 0.40997066709403562 0.39799828032803569 0 0.40738125773306721 0.38200395520979658 0 0.42835325183149769 0.38110003570901407 0 0.42835325183149769 0.38110003570901407 0 0.44458204416943481 0.38231751391918373 0 0.44440571646814891 0.39720030853198091 0 0.44383545502537092 0.3706520901965536 0 0.42835325183149769 0.38110003570901407 0 0.44458204416943481 0.38231751391918373 0 0.44458204416943481 0.38231751391918373 0 0.44440571646814891 0.39720030853198091 0 0.45552192554761489 0.38659078054893647 0 0.44383545502537092 0.3706520901965536 0 0.44458204416943481 0.38231751391918373 0 0.45139417975576102 0.37595483366699839 0 0.44458204416943481 0.38231751391918373 0 0.45139417975576102 0.37595483366699839 0 0.45552192554761489 0.38659078054893647 0 0.428903932292166 0.40554042037680749 0 0.44440571646814891 0.39720030853198091 0 0.45101709272496981 0.41129906930395599 0 0.44440571646814891 0.39720030853198091 0 0.45897381758733069 0.39802416669118662 0 0.45552192554761489 0.38659078054893647 0 0.44440571646814891 0.39720030853198091 0 0.45897381758733069 0.39802416669118662 0 0.45101709272496981 0.41129906930395599 0 0.45897381758733069 0.39802416669118662 0 0.4675583969290637 0.38703314918054488 0 0.4760293965644089 0.39886835570714868 0 0.45897381758733069 0.39802416669118662 0 0.4760293965644089 0.39886835570714868 0 0.45101709272496981 0.41129906930395599 0 0.45897381758733069 0.39802416669118662 0 0.4760293965644089 0.39886835570714868 0 0.45139417975576102 0.37595483366699839 0 0.46033483767153838 0.37614347190105257 0 0.45552192554761489 0.38659078054893647 0 0.45897381758733069 0.39802416669118662 0 0.45552192554761489 0.38659078054893647 0 0.4675583969290637 0.38703314918054488 0 0.46033483767153838 0.37614347190105257 0 0.45552192554761489 0.38659078054893647 0 0.4675583969290637 0.38703314918054488 0 0.47229015429969962 0.37473130044258118 0 0.46033483767153838 0.37614347190105257 0 0.4675583969290637 0.38703314918054488 0 0.48049935295033619 0.38227310855918822 0 0.4760293965644089 0.39886835570714868 0 0.4675583969290637 0.38703314918054488 0 0.48049935295033619 0.38227310855918822 0 0.4760293965644089 0.39886835570714868 0 0.47229015429969962 0.37473130044258118 0 0.4675583969290637 0.38703314918054488 0 0.48049935295033619 0.38227310855918822 0 0.48049935295033619 0.38227310855918822 0 0.4760293965644089 0.39886835570714868 0 0.50000000000000111 0.40005481323834791 0 0.4760293965644089 0.39886835570714868 0 0.50000000000000111 0.40005481323834791 0 0.48606240699301201 0.41259198193004371 0 0.4760293965644089 0.39886835570714868 0 0.50000000000000111 0.40005481323834791 0 0.5 0.37314352891818908 0 0.48049935295033619 0.38227310855918822 0 0.50000000000000111 0.40005481323834791 0 0.5 0.42358394439302338 0 0.46822023140763802 0.42786081438165469 0 0.48260152579442089 0.44488975888157212 0 0.5 0.42358394439302338 0 0.48606240699301201 0.41259198193004371 0 0.46822023140763802 0.42786081438165469 0 0.50000000000000111 0.40005481323834791 0 0.5 0.42358394439302338 0 0.48606240699301201 0.41259198193004371 0 0.4760293965644089 0.39886835570714868 0 0.48606240699301201 0.41259198193004371 0 0.46822023140763802 0.42786081438165469 0 0.4760293965644089 0.39886835570714868 0 0.46822023140763802 0.42786081438165469 0 0.46822023140763802 0.42786081438165469 0 0.45101709272496981 0.41129906930395599 0 0.44795563360275109 0.435010729537466 0 0.4760293965644089 0.39886835570714868 0 0.46822023140763802 0.42786081438165469 0 0.45101709272496981 0.41129906930395599 0 0.428903932292166 0.40554042037680749 0 0.44072555405538411 0.42151859950197529 0 0.45101709272496981 0.41129906930395599 0 0.44072555405538411 0.42151859950197529 0 0.45101709272496981 0.41129906930395599 0 0.44795563360275109 0.435010729537466 0 0.45101709272496981 0.41129906930395599 0 0.44795563360275109 0.435010729537466 0 0.4294546127528342 0.42998080504460112 0 0.44072555405538411 0.42151859950197529 0 0.44795563360275109 0.435010729537466 0 0.44795563360275109 0.435010729537466 0 0.44489417448053259 0.4587223897709759 0 0.43000529321350239 0.45442118971239448 0 0.44795563360275109 0.435010729537466 0 0.44489417448053259 0.4587223897709759 0 0.44795563360275109 0.435010729537466 0 0.44489417448053259 0.4587223897709759 0 0.46041106625086742 0.45685327305616069 0 0.44489417448053259 0.4587223897709759 0 0.46041106625086742 0.45685327305616069 0 0.45260190109409759 0.48584573173066692 0 0.46822023140763802 0.42786081438165469 0 0.44795563360275109 0.435010729537466 0 0.46041106625086742 0.45685327305616069 0 0.46822023140763802 0.42786081438165469 0 0.46041106625086742 0.45685327305616069 0 0.46822023140763802 0.42786081438165469 0 0.46041106625086742 0.45685327305616069 0 0.48260152579442089 0.44488975888157212 0 0.46041106625086742 0.45685327305616069 0 0.48437633131359692 0.4690376870293218 0 0.46653549032143837 0.47567474758177342 0 0.46041106625086742 0.45685327305616069 0 0.48260152579442089 0.44488975888157212 0 0.48437633131359692 0.4690376870293218 0 0.48260152579442089 0.44488975888157212 0 0.50000000000000133 0.44711307554769891 0 0.48437633131359692 0.4690376870293218 0 0.50000000000000133 0.44711307554769891 0 0.48437633131359692 0.4690376870293218 0 0.5 0.42358394439302338 0 0.48260152579442089 0.44488975888157212 0 0.50000000000000133 0.44711307554769891 0 0.50000000000000133 0.44711307554769891 0 0.5 0.5 0 0.48437633131359692 0.4690376870293218 0 0.5 0.5 0 0.48104914342719152 0.4948578278360895 0 0.46231231800033129 0.50000000000000078 0 0.5 0.5 0 0.48437633131359692 0.4690376870293218 0 0.48104914342719152 0.4948578278360895 0 0.48437633131359692 0.4690376870293218 0 0.46875266262719151 0.49096229851094408 0 0.48437633131359692 0.4690376870293218 0 0.46875266262719151 0.49096229851094408 0 0.46653549032143837 0.47567474758177342 0 0.46875266262719151 0.49096229851094408 0 0.48104914342719152 0.4948578278360895 0 0.46231231800033129 0.50000000000000078 0 0.48437633131359692 0.4690376870293218 0 0.46875266262719151 0.49096229851094408 0 0.48104914342719152 0.4948578278360895 0 0.46875266262719151 0.49096229851094408 0 0.48104914342719152 0.4948578278360895 0 0.46875266262719151 0.49096229851094408 0 0.45260190109409759 0.48584573173066692 0 0.46875266262719151 0.49096229851094408 0 0.46231231800033129 0.50000000000000078 0 0.46875266262719151 0.49096229851094408 0 0.46231231800033129 0.50000000000000078 0 0.45260190109409759 0.48584573173066692 0 0.46231231800033129 0.50000000000000078 0 0.44878942627678781 0.49999999999999772 0 0.45260190109409759 0.48584573173066692 0 0.46041106625086742 0.45685327305616069 0 0.45260190109409759 0.48584573173066692 0 0.46041106625086742 0.45685327305616069 0 0.46653549032143837 0.47567474758177342 0 0.45260190109409759 0.48584573173066692 0 0.46875266262719151 0.49096229851094408 0 0.46653549032143837 0.47567474758177342 0 0.45260190109409759 0.48584573173066692 0 0.44489417448053259 0.4587223897709759 0 0.44183271535831381 0.4824340500044858 0 0.45260190109409759 0.48584573173066692 0 0.44489417448053259 0.4587223897709759 0 0.44183271535831381 0.4824340500044858 0 0.43055597367417209 0.47886157438018812 0 0.44489417448053259 0.4587223897709759 0 0.44183271535831381 0.4824340500044858 0 0.44183271535831381 0.4824340500044858 0 0.45260190109409759 0.48584573173066692 0 0.44878942627678781 0.49999999999999772 0 0.44042983317417378 0.493299674652732 0 0.43103225578332482 0.49999999999999623 0 0.44878942627678781 0.49999999999999772 0 0.45260190109409759 0.48584573173066692 0 0.44878942627678781 0.49999999999999772 0 0.45260190109409759 0.48584573173066692 0 0.44042983317417378 0.493299674652732 0 0.44183271535831381 0.4824340500044858 0 0.45260190109409759 0.48584573173066692 0 0.44042983317417378 0.493299674652732 0 0.44183271535831381 0.4824340500044858 0 0.44042983317417378 0.493299674652732 0 0.44183271535831381 0.4824340500044858 0 0.44042983317417378 0.493299674652732 0 0.43055597367417209 0.47886157438018812 0 0.43103225578332482 0.49999999999999623 0 0.41812124575827719 0.48906341359345118 0 0.43055597367417209 0.47886157438018812 0 0.44042983317417378 0.493299674652732 0 0.43103225578332482 0.49999999999999623 0 0.43055597367417209 0.47886157438018812 0 0.43103225578332482 0.49999999999999623 0 0.43055597367417209 0.47886157438018812 0 0.43103225578332482 0.49999999999999623 0 0.41812124575827719 0.48906341359345118 0 0.40566100861595489 0.5 0 0.41812124575827719 0.48906341359345118 0 0.40566100861595489 0.5 0 0.40267391251257562 0.47002852786329319 0 0.43055597367417209 0.47886157438018812 0 0.40267391251257562 0.47002852786329319 0 0.43055597367417209 0.47886157438018812 0 0.41435907308321529 0.45875657913127987 0 0.40267391251257562 0.47002852786329319 0 0.41812124575827719 0.48906341359345118 0 0.43055597367417209 0.47886157438018812 0 0.40267391251257562 0.47002852786329319 0 0.44183271535831381 0.4824340500044858 0 0.43055597367417209 0.47886157438018812 0 0.43055597367417209 0.47886157438018812 0 0.43000529321350239 0.45442118971239448 0 0.43055597367417209 0.47886157438018812 0 0.43000529321350239 0.45442118971239448 0 0.41435907308321529 0.45875657913127987 0 0.44489417448053259 0.4587223897709759 0 0.43055597367417209 0.47886157438018812 0 0.43000529321350239 0.45442118971239448 0 0.4294546127528342 0.42998080504460112 0 0.43000529321350239 0.45442118971239448 0 0.4294546127528342 0.42998080504460112 0 0.44795563360275109 0.435010729537466 0 0.43000529321350239 0.45442118971239448 0 0.4294546127528342 0.42998080504460112 0 0.43000529321350239 0.45442118971239448 0 0.41174527726749138 0.44240293731337382 0 0.41174527726749138 0.44240293731337382 0 0.41435907308321529 0.45875657913127987 0 0.39273337127440822 0.454805413873486 0 0.43000529321350239 0.45442118971239448 0 0.41174527726749138 0.44240293731337382 0 0.41435907308321529 0.45875657913127987 0 0.39273337127440822 0.454805413873486 0 0.38580411359204531 0.48077386434603941 0 0.40267391251257562 0.47002852786329319 0 0.41435907308321529 0.45875657913127987 0 0.39273337127440822 0.454805413873486 0 0.40267391251257562 0.47002852786329319 0 0.39647284998262428 0.43646603895773511 0 0.41174527726749138 0.44240293731337382 0 0.39273337127440822 0.454805413873486 0 0.36843703055511617 0.45445870904313002 0 0.39273337127440822 0.454805413873486 0 0.38122367912334232 0.43895175051498048 0 0.39647284998262428 0.43646603895773511 0 0.39273337127440822 0.454805413873486 0 0.38122367912334232 0.43895175051498048 0 0.36843703055511617 0.45445870904313002 0 0.39273337127440822 0.454805413873486 0 0.38580411359204531 0.48077386434603941 0 0.38580411359204531 0.48077386434603941 0 0.3802897614485849 0.5 0 0.40566100861595489 0.5 0 0.36387763328550737 0.48008113127634777 0 0.38580411359204531 0.48077386434603941 0 0.3802897614485849 0.5 0 0.38580411359204531 0.48077386434603941 0 0.40566100861595489 0.5 0 0.40267391251257562 0.47002852786329319 0 0.33595220392303538 0.093262129509420311 0 0.3372819207801474 0.073972342496736981 0 0.35527870269098649 0.09267011997643114 0 0.33595220392303538 0.093262129509420311 0 0.3372819207801474 0.073972342496736981 0 0.32577354779779888 0.077805172178716714 0 0.3372819207801474 0.073972342496736981 0 0.31928513886930882 0.055274565017042303 0 0.3372819207801474 0.073972342496736981 0 0.31911186149721121 0.06761578123084383 0 0.31928513886930882 0.055274565017042303 0 0.3372819207801474 0.073972342496736981 0 0.32577354779779888 0.077805172178716714 0 0.31911186149721121 0.06761578123084383 0 0.31911186149721121 0.06761578123084383 0 0.31928513886930882 0.055274565017042303 0 0.30873334197797608 0.067865007252106493 0 0.31911186149721121 0.06761578123084383 0 0.31319194554837082 0.077100357113636775 0 0.30873334197797608 0.067865007252106493 0 0.32577354779779888 0.077805172178716714 0 0.31911186149721121 0.06761578123084383 0 0.31319194554837082 0.077100357113636775 0 0.32577354779779888 0.077805172178716714 0 0.31319194554837082 0.077100357113636775 0 0.31943642685580131 0.087861765893510232 0 0.33595220392303538 0.093262129509420311 0 0.32577354779779888 0.077805172178716714 0 0.31943642685580131 0.087861765893510232 0 0.31943642685580131 0.087861765893510232 0 0.31796875054163148 0.100365609951686 0 0.30429568646816962 0.090775560714091347 0 0.31796875054163148 0.100365609951686 0 0.3203035702638044 0.1165863940065279 0 0.30438628220225239 0.10645711740955589 0 0.33595220392303538 0.093262129509420311 0 0.31943642685580131 0.087861765893510232 0 0.31796875054163148 0.100365609951686 0 0.3203035702638044 0.1165863940065279 0 0.30359597155328372 0.12282326774352879 0 0.32431048765461618 0.13097412205690609 0 0.31796875054163148 0.100365609951686 0 0.3203035702638044 0.1165863940065279 0 0.33710215149459388 0.114868033997594 0 0.3203035702638044 0.1165863940065279 0 0.33710215149459388 0.114868033997594 0 0.32431048765461618 0.13097412205690609 0 0.33595220392303538 0.093262129509420311 0 0.31796875054163148 0.100365609951686 0 0.33710215149459388 0.114868033997594 0 0.33595220392303538 0.093262129509420311 0 0.33710215149459388 0.114868033997594 0 0.3551951861000982 0.11168727411896159 0 0.33595220392303538 0.093262129509420311 0 0.3551951861000982 0.11168727411896159 0 0.35527870269098649 0.09267011997643114 0 0.33710215149459388 0.114868033997594 0 0.3551951861000982 0.11168727411896159 0 0.3552353390837853 0.1311211250796985 0 0.3551951861000982 0.11168727411896159 0 0.37327548460182558 0.1113678974561253 0 0.37255982364045082 0.13075991920717381 0 0.3551951861000982 0.11168727411896159 0 0.3552353390837853 0.1311211250796985 0 0.37255982364045082 0.13075991920717381 0 0.37327548460182558 0.1113678974561253 0 0.35527870269098649 0.09267011997643114 0 0.3551951861000982 0.11168727411896159 0 0.37327548460182558 0.1113678974561253 0 0.35527870269098649 0.09267011997643114 0 0.37327548460182558 0.1113678974561253 0 0.35527870269098649 0.09267011997643114 0 0.38014645982606732 0.09027587587142484 0 0.36069574398586229 0.07290716682734652 0 0.37830890906235759 0.075109030043237643 0 0.38014645982606732 0.09027587587142484 0 0.36069574398586229 0.07290716682734652 0 0.38014645982606732 0.09027587587142484 0 0.35527870269098649 0.09267011997643114 0 0.36069574398586229 0.07290716682734652 0 0.38014645982606732 0.09027587587142484 0 0.3372819207801474 0.073972342496736981 0 0.35527870269098649 0.09267011997643114 0 0.3372819207801474 0.073972342496736981 0 0.35527870269098649 0.09267011997643114 0 0.36069574398586229 0.07290716682734652 0 0.36069574398586229 0.07290716682734652 0 0.34124502814565749 0.055538457783268207 0 0.3372819207801474 0.073972342496736981 0 0.36069574398586229 0.07290716682734652 0 0.34124502814565749 0.055538457783268207 0 0.36069574398586229 0.07290716682734652 0 0.37830890906235759 0.075109030043237643 0 0.37861700854773539 0.056586702579697792 0 0.36123578576608151 0.056790014374085859 0 0.35605506134215431 0.044400213490005308 0 0.37861700854773539 0.056586702579697792 0 0.36069574398586229 0.07290716682734652 0 0.36123578576608151 0.056790014374085859 0 0.37861700854773539 0.056586702579697792 0 0.36345759320570542 0.032507030264914138 0 0.37861700854773539 0.056586702579697792 0 0.36345759320570542 0.032507030264914138 0 0.37830796774458419 0.036928202919997058 0 0.37861700854773539 0.056586702579697792 0 0.36345759320570542 0.032507030264914138 0 0.35605506134215431 0.044400213490005308 0 0.37861700854773539 0.056586702579697792 0 0.35605506134215431 0.044400213490005308 0 0.34358143221371518 0.048180872308715157 0 0.34032096977880649 0.033147382795080768 0 0.36345759320570542 0.032507030264914138 0 0.35605506134215431 0.044400213490005308 0 0.34032096977880649 0.033147382795080768 0 0.36069574398586229 0.07290716682734652 0 0.36123578576608151 0.056790014374085859 0 0.35256261029069419 0.055563344956684232 0 0.35605506134215431 0.044400213490005308 0 0.35256261029069419 0.055563344956684232 0 0.34358143221371518 0.048180872308715157 0 0.35256261029069419 0.055563344956684232 0 0.34124502814565749 0.055538457783268207 0 0.34358143221371518 0.048180872308715157 0 0.36069574398586229 0.07290716682734652 0 0.35256261029069419 0.055563344956684232 0 0.34124502814565749 0.055538457783268207 0 0.36123578576608151 0.056790014374085859 0 0.35605506134215431 0.044400213490005308 0 0.35256261029069419 0.055563344956684232 0 0.37447597730174847 0.0095799553022342526 0 0.34829817786367551 0.0084273579501304846 0 0.35931857102837611 -0.010168671154215349 0 0.36345759320570542 0.032507030264914138 0 0.37447597730174847 0.0095799553022342526 0 0.37830796774458419 0.036928202919997058 0 0.36345759320570542 0.032507030264914138 0 0.37447597730174847 0.0095799553022342526 0 0.34829817786367551 0.0084273579501304846 0 0.36345759320570542 0.032507030264914138 0 0.34829817786367551 0.0084273579501304846 0 0.36345759320570542 0.032507030264914138 0 0.34829817786367551 0.0084273579501304846 0 0.34032096977880649 0.033147382795080768 0 0.34829817786367551 0.0084273579501304846 0 0.33031478758935878 0.021463516130418879 0 0.31839539554110913 0.0037088833068538809 0 0.34829817786367551 0.0084273579501304846 0 0.33031478758935878 0.021463516130418879 0 0.34032096977880649 0.033147382795080768 0 0.33031478758935878 0.021463516130418879 0 0.34032096977880649 0.033147382795080768 0 0.32842142987820239 0.032376670609310321 0 0.33031478758935878 0.021463516130418879 0 0.3194165026362884 0.028966150309424569 0 0.32842142987820239 0.032376670609310321 0 0.3194165026362884 0.028966150309424569 0 0.31485103925962238 0.018783785903549201 0 0.30799760042916619 0.029049738847059279 0 0.33031478758935878 0.021463516130418879 0 0.3194165026362884 0.028966150309424569 0 0.31485103925962238 0.018783785903549201 0 0.33031478758935878 0.021463516130418879 0 0.31485103925962238 0.018783785903549201 0 0.31839539554110913 0.0037088833068538809 0 0.34358143221371518 0.048180872308715157 0 0.31928513886930882 0.055274565017042303 0 0.3372819207801474 0.073972342496736981 0 0.34124502814565749 0.055538457783268207 0 0.31928513886930882 0.055274565017042303 0 0.34358143221371518 0.048180872308715157 0 0.32486243109622548 0.048465372471063362 0 0.31928513886930882 0.055274565017042303 0 0.34124502814565749 0.055538457783268207 0 0.34358143221371518 0.048180872308715157 0 0.31928513886930882 0.055274565017042303 0 0.34358143221371518 0.048180872308715157 0 0.33030572593673468 0.04118883260294437 0 0.32486243109622548 0.048465372471063362 0 0.34358143221371518 0.048180872308715157 0 0.34032096977880649 0.033147382795080768 0 0.33030572593673468 0.04118883260294437 0 0.34032096977880649 0.033147382795080768 0 0.32842142987820239 0.032376670609310321 0 0.33030572593673468 0.04118883260294437 0 0.33030572593673468 0.04118883260294437 0 0.32225035308107408 0.043892111516705537 0 0.32184183198527372 0.038067575541186872 0 0.33030572593673468 0.04118883260294437 0 0.32225035308107408 0.043892111516705537 0 0.32486243109622548 0.048465372471063362 0 0.32842142987820239 0.032376670609310321 0 0.33030572593673468 0.04118883260294437 0 0.32184183198527372 0.038067575541186872 0 0.3194165026362884 0.028966150309424569 0 0.32842142987820239 0.032376670609310321 0 0.32184183198527372 0.038067575541186872 0 0.3194165026362884 0.028966150309424569 0 0.32184183198527372 0.038067575541186872 0 0.31329473116118772 0.036335865223032088 0 0.3194165026362884 0.028966150309424569 0 0.31329473116118772 0.036335865223032088 0 0.30799760042916619 0.029049738847059279 0 0.32184183198527372 0.038067575541186872 0 0.31329473116118772 0.036335865223032088 0 0.31608846144422881 0.043318400234978773 0 0.32225035308107408 0.043892111516705537 0 0.31608846144422881 0.043318400234978773 0 0.31815331494290777 0.048420376733354309 0 0.32225035308107408 0.043892111516705537 0 0.32184183198527372 0.038067575541186872 0 0.31608846144422881 0.043318400234978773 0 0.31329473116118772 0.036335865223032088 0 0.31608846144422881 0.043318400234978773 0 0.31006600963431158 0.043019648965111623 0 0.31707215932042859 0.052975387343108561 0 0.31815331494290777 0.048420376733354309 0 0.31036015736888112 0.049557674022507943 0 0.31608846144422881 0.043318400234978773 0 0.31815331494290777 0.048420376733354309 0 0.31036015736888112 0.049557674022507943 0 0.31968368489557258 0.051288521624634688 0 0.31707215932042859 0.052975387343108561 0 0.31815331494290777 0.048420376733354309 0 0.31968368489557258 0.051288521624634688 0 0.31707215932042859 0.052975387343108561 0 0.31928513886930882 0.055274565017042303 0 0.31707215932042859 0.052975387343108561 0 0.31928513886930882 0.055274565017042303 0 0.31968368489557258 0.051288521624634688 0 0.31815331494290777 0.048420376733354309 0 0.32486243109622548 0.048465372471063362 0 0.32225035308107408 0.043892111516705537 0 0.31815331494290777 0.048420376733354309 0 0.32486243109622548 0.048465372471063362 0 0.31968368489557258 0.051288521624634688 0 0.32486243109622548 0.048465372471063362 0 0.31928513886930882 0.055274565017042303 0 0.31707215932042859 0.052975387343108561 0 0.31928513886930882 0.055274565017042303 0 0.29201026972960947 0.063237900724025645 0 0.31036015736888112 0.049557674022507943 0 0.30520691267028688 0.046698957123246503 0 0.29201026972960947 0.063237900724025645 0 0.30520691267028688 0.046698957123246503 0 0.300066229102954 0.044836298186194168 0 0.29201026972960947 0.063237900724025645 0 0.31928513886930882 0.055274565017042303 0 0.29201026972960947 0.063237900724025645 0 0.30873334197797608 0.067865007252106493 0 0.31707215932042859 0.052975387343108561 0 0.31036015736888112 0.049557674022507943 0 0.29201026972960947 0.063237900724025645 0 0.31928513886930882 0.055274565017042303 0 0.29201026972960947 0.063237900724025645 0 0.31608846144422881 0.043318400234978773 0 0.31036015736888112 0.049557674022507943 0 0.31006600963431158 0.043019648965111623 0 0.31329473116118772 0.036335865223032088 0 0.31006600963431158 0.043019648965111623 0 0.30537978552697342 0.039187348221792817 0 0.31006600963431158 0.043019648965111623 0 0.30537978552697342 0.039187348221792817 0 0.30520691267028688 0.046698957123246503 0 0.31036015736888112 0.049557674022507943 0 0.31006600963431158 0.043019648965111623 0 0.30520691267028688 0.046698957123246503 0 0.31329473116118772 0.036335865223032088 0 0.30537978552697342 0.039187348221792817 0 0.30799760042916619 0.029049738847059279 0 0.30537978552697342 0.039187348221792817 0 0.29571549408532882 0.038404429493695519 0 0.30799760042916619 0.029049738847059279 0 0.30537978552697342 0.039187348221792817 0 0.300066229102954 0.044836298186194168 0 0.29571549408532882 0.038404429493695519 0 0.30537978552697342 0.039187348221792817 0 0.30520691267028688 0.046698957123246503 0 0.300066229102954 0.044836298186194168 0 0.28958303197759527 0.032285172146856597 0 0.29571549408532882 0.038404429493695519 0 0.28493576973993973 0.043074939078468343 0 0.28958303197759527 0.032285172146856597 0 0.28493576973993973 0.043074939078468343 0 0.27575360852511072 0.039531336107618283 0 0.28493576973993973 0.043074939078468343 0 0.27530526052127341 0.04980319360198484 0 0.29201026972960947 0.063237900724025645 0 0.300066229102954 0.044836298186194168 0 0.29571549408532882 0.038404429493695519 0 0.29201026972960947 0.063237900724025645 0 0.29571549408532882 0.038404429493695519 0 0.28493576973993973 0.043074939078468343 0 0.29201026972960947 0.063237900724025645 0 0.29571549408532882 0.038404429493695519 0 0.29201026972960947 0.063237900724025645 0 0.31839539554110913 0.0037088833068538809 0 0.29942071844104678 0.01357095826336532 0 0.30312594279676469 -0.01126251296696487 0 0.29942071844104678 0.01357095826336532 0 0.30312594279676469 -0.01126251296696487 0 0.31485103925962238 0.018783785903549201 0 0.31839539554110913 0.0037088833068538809 0 0.29942071844104678 0.01357095826336532 0 0.29571549408532882 0.038404429493695519 0 0.29942071844104678 0.01357095826336532 0 0.29571549408532882 0.038404429493695519 0 0.29942071844104678 0.01357095826336532 0 0.30799760042916619 0.029049738847059279 0 0.31485103925962238 0.018783785903549201 0 0.29942071844104678 0.01357095826336532 0 0.30799760042916619 0.029049738847059279 0 0.28958303197759527 0.032285172146856597 0 0.29942071844104678 0.01357095826336532 0 0.27933685592591417 0.014749632179179911 0 0.28958303197759527 0.032285172146856597 0 0.29571549408532882 0.038404429493695519 0 0.29942071844104678 0.01357095826336532 0 0.29942071844104678 0.01357095826336532 0 0.27933685592591417 0.014749632179179911 0 0.28624791255345389 -0.0025993173291637851 0 0.27933685592591417 0.014749632179179911 0 0.26943033477865169 -0.01137929120961546 0 0.28624791255345389 -0.0025993173291637851 0 0.27933685592591417 0.014749632179179911 0 0.25843576353106312 0.0091558391233349454 0 0.26943033477865169 -0.01137929120961546 0 0.27933685592591417 0.014749632179179911 0 0.2674592406239597 0.01941164915598733 0 0.25843576353106312 0.0091558391233349454 0 0.28958303197759527 0.032285172146856597 0 0.27933685592591417 0.014749632179179911 0 0.26851211213053378 0.030988070801569911 0 0.27933685592591417 0.014749632179179911 0 0.2674592406239597 0.01941164915598733 0 0.26851211213053378 0.030988070801569911 0 0.24744119228347231 0.029690969456284209 0 0.26851211213053378 0.030988070801569911 0 0.24744119228347231 0.029690969456284209 0 0.26851211213053378 0.030988070801569911 0 0.26025939886539401 0.022374318938269331 0 0.24744119228347231 0.029690969456284209 0 0.25843576353106312 0.0091558391233349454 0 0.24744119228347231 0.029690969456284209 0 0.26025939886539401 0.022374318938269331 0 0.25843576353106312 0.0091558391233349454 0 0.2674592406239597 0.01941164915598733 0 0.26851211213053378 0.030988070801569911 0 0.26025939886539401 0.022374318938269331 0 0.2674592406239597 0.01941164915598733 0 0.26025939886539401 0.022374318938269331 0 0.25843576353106312 0.0091558391233349454 0 0.25843576353106312 0.0091558391233349454 0 0.25421330537797993 -0.0064747013630946093 0 0.24005759833730889 -0.00091445705150014652 0 0.27530526052127341 0.04980319360198484 0 0.26159613889583522 0.053672227563851788 0 0.26648809423090591 0.070689509398208325 0 0.27530526052127341 0.04980319360198484 0 0.26648809423090591 0.070689509398208325 0 0.29201026972960947 0.063237900724025645 0 0.27530526052127341 0.04980319360198484 0 0.2604318682562114 0.041505304909211699 0 0.26159613889583522 0.053672227563851788 0 0.28493576973993973 0.043074939078468343 0 0.27530526052127341 0.04980319360198484 0 0.27575360852511072 0.039531336107618283 0 0.28958303197759527 0.032285172146856597 0 0.26851211213053378 0.030988070801569911 0 0.27575360852511072 0.039531336107618283 0 0.28958303197759527 0.032285172146856597 0 0.26851211213053378 0.030988070801569911 0 0.26851211213053378 0.030988070801569911 0 0.27575360852511072 0.039531336107618283 0 0.2604318682562114 0.041505304909211699 0 0.27530526052127341 0.04980319360198484 0 0.2604318682562114 0.041505304909211699 0 0.27530526052127341 0.04980319360198484 0 0.27575360852511072 0.039531336107618283 0 0.2604318682562114 0.041505304909211699 0 0.24744119228347231 0.029690969456284209 0 0.26851211213053378 0.030988070801569911 0 0.2604318682562114 0.041505304909211699 0 0.24555847599115399 0.033207416216430273 0 0.2604318682562114 0.041505304909211699 0 0.24555847599115399 0.033207416216430273 0 0.24744119228347231 0.029690969456284209 0 0.2604318682562114 0.041505304909211699 0 0.24555847599115399 0.033207416216430273 0 0.2604318682562114 0.041505304909211699 0 0.25029940785347599 0.047571772133718992 0 0.2604318682562114 0.041505304909211699 0 0.25029940785347599 0.047571772133718992 0 0.26159613889583522 0.053672227563851788 0 0.26159613889583522 0.053672227563851788 0 0.25133989080314079 0.059719491021616368 0 0.26648809423090591 0.070689509398208325 0 0.25029940785347599 0.047571772133718992 0 0.26159613889583522 0.053672227563851788 0 0.25133989080314079 0.059719491021616368 0 0.2409659187322033 0.078141118072394308 0 0.25133989080314079 0.059719491021616368 0 0.26648809423090591 0.070689509398208325 0 0.2409659187322033 0.078141118072394308 0 0.26648809423090591 0.070689509398208325 0 0.2409659187322033 0.078141118072394308 0 0.26648809423090591 0.070689509398208325 0 0.25814072779734848 0.095593975415470503 0 0.27488608452821128 0.093618264237804311 0 0.26648809423090591 0.070689509398208325 0 0.28884900033212541 0.084425630560851256 0 0.27488608452821128 0.093618264237804311 0 0.26648809423090591 0.070689509398208325 0 0.25814072779734848 0.095593975415470503 0 0.26648809423090591 0.070689509398208325 0 0.29201026972960947 0.063237900724025645 0 0.29201026972960947 0.063237900724025645 0 0.28884900033212541 0.084425630560851256 0 0.26648809423090591 0.070689509398208325 0 0.29201026972960947 0.063237900724025645 0 0.28884900033212541 0.084425630560851256 0 0.29201026972960947 0.063237900724025645 0 0.28884900033212541 0.084425630560851256 0 0.30088002793281088 0.076854301933372449 0 0.28884900033212541 0.084425630560851256 0 0.30429568646816962 0.090775560714091347 0 0.28568773093463989 0.1056133603976767 0 0.28884900033212541 0.084425630560851256 0 0.30429568646816962 0.090775560714091347 0 0.30088002793281088 0.076854301933372449 0 0.31319194554837082 0.077100357113636775 0 0.30429568646816962 0.090775560714091347 0 0.30088002793281088 0.076854301933372449 0 0.31319194554837082 0.077100357113636775 0 0.31943642685580131 0.087861765893510232 0 0.30429568646816962 0.090775560714091347 0 0.29201026972960947 0.063237900724025645 0 0.30873334197797608 0.067865007252106493 0 0.30088002793281088 0.076854301933372449 0 0.31319194554837082 0.077100357113636775 0 0.30873334197797608 0.067865007252106493 0 0.30088002793281088 0.076854301933372449 0 0.30359597155328372 0.12282326774352879 0 0.30438628220225239 0.10645711740955589 0 0.28568773093463989 0.1056133603976767 0 0.3203035702638044 0.1165863940065279 0 0.30359597155328372 0.12282326774352879 0 0.30438628220225239 0.10645711740955589 0 0.30429568646816962 0.090775560714091347 0 0.30438628220225239 0.10645711740955589 0 0.28568773093463989 0.1056133603976767 0 0.31796875054163148 0.100365609951686 0 0.30429568646816962 0.090775560714091347 0 0.30438628220225239 0.10645711740955589 0 0.28884900033212541 0.084425630560851256 0 0.28568773093463989 0.1056133603976767 0 0.27488608452821128 0.093618264237804311 0 0.28884900033212541 0.084425630560851256 0 0.28568773093463989 0.1056133603976767 0 0.28568773093463989 0.1056133603976767 0 0.28252646153715449 0.12680109023450209 0 0.30359597155328372 0.12282326774352879 0 0.28568773093463989 0.1056133603976767 0 0.28252646153715449 0.12680109023450209 0 0.28568773093463989 0.1056133603976767 0 0.26980799928098798 0.11484587969162389 0 0.28252646153715449 0.12680109023450209 0 0.27488608452821128 0.093618264237804311 0 0.28568773093463989 0.1056133603976767 0 0.26980799928098798 0.11484587969162389 0 0.27488608452821128 0.093618264237804311 0 0.26980799928098798 0.11484587969162389 0 0.25814072779734848 0.095593975415470503 0 0.24003717726993551 0.099918932080049289 0 0.25814072779734848 0.095593975415470503 0 0.25506529490587471 0.118603174993655 0 0.26980799928098798 0.11484587969162389 0 0.25814072779734848 0.095593975415470503 0 0.25506529490587471 0.118603174993655 0 0.26980799928098798 0.11484587969162389 0 0.25506529490587471 0.118603174993655 0 0.2577633164002 0.13052228886072589 0 0.2577633164002 0.13052228886072589 0 0.26976896942005463 0.13505840934678759 0 0.252293322710193 0.14272742791269041 0 0.24509620270052029 0.12967906857116551 0 0.25506529490587471 0.118603174993655 0 0.2577633164002 0.13052228886072589 0 0.24509620270052029 0.12967906857116551 0 0.2577633164002 0.13052228886072589 0 0.252293322710193 0.14272742791269041 0 0.26980799928098798 0.11484587969162389 0 0.26976896942005463 0.13505840934678759 0 0.28252646153715449 0.12680109023450209 0 0.26980799928098798 0.11484587969162389 0 0.2577633164002 0.13052228886072589 0 0.26976896942005463 0.13505840934678759 0 0.26976896942005463 0.13505840934678759 0 0.28252646153715449 0.12680109023450209 0 0.28224508650419078 0.14095612381612491 0 0.26976896942005463 0.13505840934678759 0 0.27418256388682882 0.15328584879022419 0 0.28224508650419078 0.14095612381612491 0 0.27418256388682882 0.15328584879022419 0 0.252293322710193 0.14272742791269041 0 0.24925024078985389 0.15478675394773139 0 0.27418256388682882 0.15328584879022419 0 0.252293322710193 0.14272742791269041 0 0.26976896942005463 0.13505840934678759 0 0.27418256388682882 0.15328584879022419 0 0.252293322710193 0.14272742791269041 0 0.24925024078985389 0.15478675394773139 0 0.25625769999760112 0.16697938644338561 0 0.26348700835945699 0.16686864507211749 0 0.24925024078985389 0.15478675394773139 0 0.26348700835945699 0.16686864507211749 0 0.27337016715316631 0.16479548165953661 0 0.24784934954833149 0.16614280917059021 0 0.24925024078985389 0.15478675394773139 0 0.25625769999760112 0.16697938644338561 0 0.24925024078985389 0.15478675394773139 0 0.27337016715316631 0.16479548165953661 0 0.24925024078985389 0.15478675394773139 0 0.27418256388682882 0.15328584879022419 0 0.27337016715316631 0.16479548165953661 0 0.25625769999760112 0.16697938644338561 0 0.25553829716495569 0.1748177732503223 0 0.26161231562463427 0.17249967829312871 0 0.24784934954833149 0.16614280917059021 0 0.25625769999760112 0.16697938644338561 0 0.25553829716495569 0.1748177732503223 0 0.25625769999760112 0.16697938644338561 0 0.26348700835945699 0.16686864507211749 0 0.26161231562463427 0.17249967829312871 0 0.26348700835945699 0.16686864507211749 0 0.26161231562463427 0.17249967829312871 0 0.26819930752265342 0.17343785053084851 0 0.24876004431712601 0.19146109645531589 0 0.24766329858608541 0.17908959816882719 0 0.25633911546594729 0.18435234298515099 0 0.24766329858608541 0.17908959816882719 0 0.24784934954833149 0.16614280917059021 0 0.25553829716495569 0.1748177732503223 0 0.24766329858608541 0.17908959816882719 0 0.25633911546594729 0.18435234298515099 0 0.25553829716495569 0.1748177732503223 0 0.25553829716495569 0.1748177732503223 0 0.26161231562463427 0.17249967829312871 0 0.26350800376713468 0.17984282444085101 0 0.25633911546594729 0.18435234298515099 0 0.25553829716495569 0.1748177732503223 0 0.26350800376713468 0.17984282444085101 0 0.26161231562463427 0.17249967829312871 0 0.26350800376713468 0.17984282444085101 0 0.26819930752265342 0.17343785053084851 0 0.25633911546594729 0.18435234298515099 0 0.26350800376713468 0.17984282444085101 0 0.26351851259685311 0.18732917652601741 0 0.26350800376713468 0.17984282444085101 0 0.26351851259685311 0.18732917652601741 0 0.27020234473533011 0.18521209001234859 0 0.26350800376713468 0.17984282444085101 0 0.27020234473533011 0.18521209001234859 0 0.27066669734496968 0.17910095843286969 0 0.27020234473533011 0.18521209001234859 0 0.27066669734496968 0.17910095843286969 0 0.27628948998810188 0.18331311537517461 0 0.27066669734496968 0.17910095843286969 0 0.2727079790138579 0.17478855905979909 0 0.27661430710453078 0.17778807995783469 0 0.26350800376713468 0.17984282444085101 0 0.27066669734496968 0.17910095843286969 0 0.26819930752265342 0.17343785053084851 0 0.2727079790138579 0.17478855905979909 0 0.27551714943074651 0.17284223541063931 0 0.27156376634413171 0.16990534085174711 0 0.26819930752265342 0.17343785053084851 0 0.2727079790138579 0.17478855905979909 0 0.27156376634413171 0.16990534085174711 0 0.27066669734496968 0.17910095843286969 0 0.26819930752265342 0.17343785053084851 0 0.2727079790138579 0.17478855905979909 0 0.2727079790138579 0.17478855905979909 0 0.27551714943074651 0.17284223541063931 0 0.27661430710453078 0.17778807995783469 0 0.27551714943074651 0.17284223541063931 0 0.28037423465397388 0.17480485770465981 0 0.2774420927347751 0.171036485938728 0 0.27551714943074651 0.17284223541063931 0 0.28037423465397388 0.17480485770465981 0 0.27661430710453078 0.17778807995783469 0 0.28037423465397388 0.17480485770465981 0 0.27661430710453078 0.17778807995783469 0 0.28151149929727021 0.1804678872082808 0 0.27066669734496968 0.17910095843286969 0 0.27661430710453078 0.17778807995783469 0 0.27628948998810188 0.18331311537517461 0 0.27661430710453078 0.17778807995783469 0 0.27628948998810188 0.18331311537517461 0 0.28151149929727021 0.1804678872082808 0 0.27628948998810188 0.18331311537517461 0 0.28167095190631869 0.18627951096883461 0 0.28151149929727021 0.1804678872082808 0 0.27628948998810188 0.18331311537517461 0 0.28167095190631869 0.18627951096883461 0 0.2770711395401923 0.19103016567087919 0 0.27020234473533011 0.18521209001234859 0 0.27628948998810188 0.18331311537517461 0 0.2770711395401923 0.19103016567087919 0 0.26348700835945699 0.16686864507211749 0 0.27156376634413171 0.16990534085174711 0 0.27337016715316631 0.16479548165953661 0 0.26348700835945699 0.16686864507211749 0 0.26819930752265342 0.17343785053084851 0 0.27156376634413171 0.16990534085174711 0 0.27337016715316631 0.16479548165953661 0 0.2774420927347751 0.171036485938728 0 0.28638514609185689 0.1728345140670573 0 0.27551714943074651 0.17284223541063931 0 0.27156376634413171 0.16990534085174711 0 0.2774420927347751 0.171036485938728 0 0.27156376634413171 0.16990534085174711 0 0.27337016715316631 0.16479548165953661 0 0.2774420927347751 0.171036485938728 0 0.27418256388682882 0.15328584879022419 0 0.27337016715316631 0.16479548165953661 0 0.27691989803504402 0.1653271624912428 0 0.27337016715316631 0.16479548165953661 0 0.29749009351647859 0.17480420937134181 0 0.27337016715316631 0.16479548165953661 0 0.27691989803504402 0.1653271624912428 0 0.29749009351647859 0.17480420937134181 0 0.27418256388682882 0.15328584879022419 0 0.27691989803504402 0.1653271624912428 0 0.2960718050634647 0.16384426966775789 0 0.27691989803504402 0.1653271624912428 0 0.30163874584938882 0.1729682505898899 0 0.27691989803504402 0.1653271624912428 0 0.29749009351647859 0.17480420937134181 0 0.30163874584938882 0.1729682505898899 0 0.27337016715316631 0.16479548165953661 0 0.28638514609185689 0.1728345140670573 0 0.29749009351647859 0.17480420937134181 0 0.27418256388682882 0.15328584879022419 0 0.2960718050634647 0.16384426966775789 0 0.27691989803504402 0.1653271624912428 0 0.2960718050634647 0.16384426966775789 0 0.30163874584938882 0.1729682505898899 0 0.28167095190631869 0.18627951096883461 0 0.28773161686977428 0.18345490406533049 0 0.28626551431008929 0.19236377766216881 0 0.28151149929727021 0.1804678872082808 0 0.28773161686977428 0.18345490406533049 0 0.28612245688397542 0.1773824420141436 0 0.28167095190631869 0.18627951096883461 0 0.28151149929727021 0.1804678872082808 0 0.28773161686977428 0.18345490406533049 0 0.28773161686977428 0.18345490406533049 0 0.28612245688397542 0.1773824420141436 0 0.29102986326720198 0.17834456013456201 0 0.28037423465397388 0.17480485770465981 0 0.2774420927347751 0.171036485938728 0 0.28638514609185689 0.1728345140670573 0 0.28612245688397542 0.1773824420141436 0 0.29102986326720198 0.17834456013456201 0 0.28928342589079031 0.17578939633847951 0 0.28037423465397388 0.17480485770465981 0 0.28151149929727021 0.1804678872082808 0 0.28612245688397542 0.1773824420141436 0 0.28037423465397388 0.17480485770465981 0 0.28612245688397542 0.1773824420141436 0 0.28638514609185689 0.1728345140670573 0 0.28612245688397542 0.1773824420141436 0 0.28638514609185689 0.1728345140670573 0 0.28928342589079031 0.17578939633847951 0 0.28638514609185689 0.1728345140670573 0 0.29241897025176161 0.17568049253407089 0 0.29749009351647859 0.17480420937134181 0 0.28638514609185689 0.1728345140670573 0 0.29241897025176161 0.17568049253407089 0 0.28928342589079031 0.17578939633847951 0 0.29241897025176161 0.17568049253407089 0 0.29555178835575041 0.17879862955074591 0 0.29102986326720198 0.17834456013456201 0 0.29241897025176161 0.17568049253407089 0 0.29555178835575041 0.17879862955074591 0 0.29749009351647859 0.17480420937134181 0 0.29241897025176161 0.17568049253407089 0 0.29102986326720198 0.17834456013456201 0 0.28928342589079031 0.17578939633847951 0 0.28773161686977428 0.18345490406533049 0 0.29102986326720198 0.17834456013456201 0 0.29299054334323599 0.1823371679495005 0 0.29555178835575041 0.17879862955074591 0 0.29299054334323599 0.1823371679495005 0 0.29746879890441641 0.1836354761932078 0 0.29555178835575041 0.17879862955074591 0 0.29102986326720198 0.17834456013456201 0 0.29299054334323599 0.1823371679495005 0 0.29299054334323599 0.1823371679495005 0 0.29317064931903691 0.1874522698036564 0 0.29746879890441641 0.1836354761932078 0 0.29317064931903691 0.1874522698036564 0 0.29746879890441641 0.1836354761932078 0 0.2985194550196324 0.18911451256912501 0 0.28773161686977428 0.18345490406533049 0 0.29299054334323599 0.1823371679495005 0 0.29317064931903691 0.1874522698036564 0 0.30163874584938882 0.1729682505898899 0 0.30916246790256641 0.18084103588051739 0 0.32635759366373351 0.18060933868853701 0 0.3044331499013625 0.1855483436217483 0 0.29746879890441641 0.1836354761932078 0 0.2985194550196324 0.18911451256912501 0 0.29555178835575041 0.17879862955074591 0 0.29746879890441641 0.1836354761932078 0 0.30062621554241881 0.1794136432408831 0 0.3044331499013625 0.1855483436217483 0 0.29746879890441641 0.1836354761932078 0 0.30062621554241881 0.1794136432408831 0 0.30062621554241881 0.1794136432408831 0 0.30163874584938882 0.1729682505898899 0 0.30916246790256641 0.18084103588051739 0 0.29555178835575041 0.17879862955074591 0 0.30062621554241881 0.1794136432408831 0 0.29749009351647859 0.17480420937134181 0 0.30062621554241881 0.1794136432408831 0 0.29749009351647859 0.17480420937134181 0 0.30163874584938882 0.1729682505898899 0 0.3044331499013625 0.1855483436217483 0 0.30916246790256641 0.18084103588051739 0 0.31275663455592873 0.1856656032615287 0 0.3044331499013625 0.1855483436217483 0 0.30876490561131442 0.1901901959717954 0 0.31275663455592873 0.1856656032615287 0 0.3044331499013625 0.1855483436217483 0 0.30062621554241881 0.1794136432408831 0 0.30916246790256641 0.18084103588051739 0 0.2960718050634647 0.16384426966775789 0 0.31064842415502431 0.16203969671399129 0 0.31796104624010069 0.17440269054529181 0 0.2960718050634647 0.16384426966775789 0 0.31796104624010069 0.17440269054529181 0 0.2960718050634647 0.16384426966775789 0 0.30163874584938882 0.1729682505898899 0 0.31796104624010069 0.17440269054529181 0 0.2960718050634647 0.16384426966775789 0 0.31064842415502431 0.16203969671399129 0 0.30307318472485512 0.15294507089645551 0 0.31064842415502431 0.16203969671399129 0 0.30307318472485512 0.15294507089645551 0 0.31636513732471289 0.15390152427372039 0 0.30307318472485512 0.15294507089645551 0 0.31168603585884141 0.1410068674984237 0 0.29492336220522858 0.13920952351576771 0 0.30307318472485512 0.15294507089645551 0 0.31168603585884141 0.1410068674984237 0 0.31636513732471289 0.15390152427372039 0 0.30359597155328372 0.12282326774352879 0 0.31168603585884141 0.1410068674984237 0 0.29492336220522858 0.13920952351576771 0 0.30359597155328372 0.12282326774352879 0 0.29492336220522858 0.13920952351576771 0 0.28252646153715449 0.12680109023450209 0 0.29492336220522858 0.13920952351576771 0 0.28252646153715449 0.12680109023450209 0 0.28224508650419078 0.14095612381612491 0 0.27418256388682882 0.15328584879022419 0 0.28224508650419078 0.14095612381612491 0 0.2898240754716872 0.15042574719334309 0 0.27418256388682882 0.15328584879022419 0 0.2960718050634647 0.16384426966775789 0 0.2898240754716872 0.15042574719334309 0 0.29492336220522858 0.13920952351576771 0 0.28224508650419078 0.14095612381612491 0 0.2898240754716872 0.15042574719334309 0 0.2960718050634647 0.16384426966775789 0 0.30307318472485512 0.15294507089645551 0 0.2898240754716872 0.15042574719334309 0 0.30307318472485512 0.15294507089645551 0 0.29492336220522858 0.13920952351576771 0 0.2898240754716872 0.15042574719334309 0 0.28747881079441429 0.25605335494865578 0 0.27073394493800118 0.23612277081212929 0 0.26528831460587121 0.24252146347076059 0 0.28747881079441429 0.25605335494865578 0 0.27073394493800118 0.23612277081212929 0 0.26465850061080509 0.25090009652069561 0 0.28747881079441429 0.25605335494865578 0 0.26528831460587121 0.24252146347076059 0 0.27073394493800118 0.23612277081212929 0 0.26528831460587121 0.24252146347076059 0 0.26176355065915152 0.23489426237378269 0 0.24183819042719651 0.2457468380927334 0 0.26465850061080509 0.25090009652069561 0 0.24183819042719651 0.2457468380927334 0 0.26176355065915152 0.23489426237378269 0 0.25368711172669489 0.22744564524590891 0 0.24183819042719651 0.2457468380927334 0 0.26528831460587121 0.24252146347076059 0 0.26176355065915152 0.23489426237378269 0 0.24183819042719651 0.2457468380927334 0 0.26176355065915152 0.23489426237378269 0 0.24183819042719651 0.2457468380927334 0 0.26465850061080509 0.25090009652069561 0 0.26528831460587121 0.24252146347076059 0 0.25368711172669489 0.22744564524590891 0 0.26470620776890691 0.2180955866504245 0 0.25211219122479772 0.21539887619163911 0 0.27073394493800118 0.23612277081212929 0 0.28168891089110681 0.2240416866548324 0 0.2865903529475799 0.23612691064947991 0 0.27073394493800118 0.23612277081212929 0 0.26176355065915152 0.23489426237378269 0 0.28168891089110681 0.2240416866548324 0 0.26176355065915152 0.23489426237378269 0 0.25368711172669489 0.22744564524590891 0 0.28168891089110681 0.2240416866548324 0 0.25368711172669489 0.22744564524590891 0 0.26470620776890691 0.2180955866504245 0 0.28168891089110681 0.2240416866548324 0 0.25368711172669489 0.22744564524590891 0 0.28168891089110681 0.2240416866548324 0 0.26176355065915152 0.23489426237378269 0 0.28168891089110681 0.2240416866548324 0 0.27346119131552032 0.21286213609323371 0 0.26470620776890691 0.2180955866504245 0 0.28168891089110681 0.2240416866548324 0 0.27346119131552032 0.21286213609323371 0 0.28494368097089112 0.2088468111766198 0 0.28168891089110681 0.2240416866548324 0 0.27382942014743972 0.20541407287957211 0 0.28029816037971678 0.19902339276507849 0 0.28494368097089112 0.2088468111766198 0 0.27346119131552032 0.21286213609323371 0 0.27382942014743972 0.20541407287957211 0 0.28494368097089112 0.2088468111766198 0 0.27382942014743972 0.20541407287957211 0 0.26213773679925712 0.20791252310472 0 0.26798810363701181 0.1961318072285935 0 0.27346119131552032 0.21286213609323371 0 0.27382942014743972 0.20541407287957211 0 0.26213773679925712 0.20791252310472 0 0.27346119131552032 0.21286213609323371 0 0.26470620776890691 0.2180955866504245 0 0.26213773679925712 0.20791252310472 0 0.26470620776890691 0.2180955866504245 0 0.25211219122479772 0.21539887619163911 0 0.26213773679925712 0.20791252310472 0 0.25211219122479772 0.21539887619163911 0 0.25014587321706061 0.20332338773671221 0 0.26213773679925712 0.20791252310472 0 0.25014587321706061 0.20332338773671221 0 0.26213773679925712 0.20791252310472 0 0.25771996735137559 0.20000746662769001 0 0.25771996735137559 0.20000746662769001 0 0.25909419418126511 0.19251359656204681 0 0.26798810363701181 0.1961318072285935 0 0.26213773679925712 0.20791252310472 0 0.25771996735137559 0.20000746662769001 0 0.26798810363701181 0.1961318072285935 0 0.24876004431712601 0.19146109645531589 0 0.25014587321706061 0.20332338773671221 0 0.25771996735137559 0.20000746662769001 0 0.24876004431712601 0.19146109645531589 0 0.25771996735137559 0.20000746662769001 0 0.25909419418126511 0.19251359656204681 0 0.24876004431712601 0.19146109645531589 0 0.25633911546594729 0.18435234298515099 0 0.25909419418126511 0.19251359656204681 0 0.26351851259685311 0.18732917652601741 0 0.25909419418126511 0.19251359656204681 0 0.26798810363701181 0.1961318072285935 0 0.25633911546594729 0.18435234298515099 0 0.26351851259685311 0.18732917652601741 0 0.25909419418126511 0.19251359656204681 0 0.26351851259685311 0.18732917652601741 0 0.27020234473533011 0.18521209001234859 0 0.26798810363701181 0.1961318072285935 0 0.27020234473533011 0.18521209001234859 0 0.26798810363701181 0.1961318072285935 0 0.2770711395401923 0.19103016567087919 0 0.26798810363701181 0.1961318072285935 0 0.28029816037971678 0.19902339276507849 0 0.2770711395401923 0.19103016567087919 0 0.27382942014743972 0.20541407287957211 0 0.26798810363701181 0.1961318072285935 0 0.28029816037971678 0.19902339276507849 0 0.28029816037971678 0.19902339276507849 0 0.2770711395401923 0.19103016567087919 0 0.28626551431008929 0.19236377766216881 0 0.28773161686977428 0.18345490406533049 0 0.29317064931903691 0.1874522698036564 0 0.28626551431008929 0.19236377766216881 0 0.28167095190631869 0.18627951096883461 0 0.2770711395401923 0.19103016567087919 0 0.28626551431008929 0.19236377766216881 0 0.28029816037971678 0.19902339276507849 0 0.28626551431008929 0.19236377766216881 0 0.29026364193081772 0.19937593554012631 0 0.28029816037971678 0.19902339276507849 0 0.29026364193081772 0.19937593554012631 0 0.28494368097089112 0.2088468111766198 0 0.29026364193081772 0.19937593554012631 0 0.29573750555137301 0.19455476070938399 0 0.29961965408357011 0.19984137201799421 0 0.28626551431008929 0.19236377766216881 0 0.29026364193081772 0.19937593554012631 0 0.29573750555137301 0.19455476070938399 0 0.29026364193081772 0.19937593554012631 0 0.29961965408357011 0.19984137201799421 0 0.29496139974334368 0.20495607722469611 0 0.29317064931903691 0.1874522698036564 0 0.28626551431008929 0.19236377766216881 0 0.29573750555137301 0.19455476070938399 0 0.29317064931903691 0.1874522698036564 0 0.29573750555137301 0.19455476070938399 0 0.2985194550196324 0.18911451256912501 0 0.29573750555137301 0.19455476070938399 0 0.2985194550196324 0.18911451256912501 0 0.3026859874002979 0.1928746414229553 0 0.3044331499013625 0.1855483436217483 0 0.2985194550196324 0.18911451256912501 0 0.3026859874002979 0.1928746414229553 0 0.3044331499013625 0.1855483436217483 0 0.3026859874002979 0.1928746414229553 0 0.30876490561131442 0.1901901959717954 0 0.30876490561131442 0.1901901959717954 0 0.30805477903541112 0.19762378197599981 0 0.31705280687611709 0.191253187907198 0 0.3026859874002979 0.1928746414229553 0 0.30876490561131442 0.1901901959717954 0 0.30805477903541112 0.19762378197599981 0 0.30805477903541112 0.19762378197599981 0 0.30450462034665782 0.2040092505042993 0 0.3192676874259428 0.20357397550571579 0 0.3026859874002979 0.1928746414229553 0 0.30805477903541112 0.19762378197599981 0 0.29961965408357011 0.19984137201799421 0 0.29961965408357011 0.19984137201799421 0 0.30450462034665782 0.2040092505042993 0 0.29496139974334368 0.20495607722469611 0 0.30805477903541112 0.19762378197599981 0 0.29961965408357011 0.19984137201799421 0 0.30450462034665782 0.2040092505042993 0 0.29573750555137301 0.19455476070938399 0 0.3026859874002979 0.1928746414229553 0 0.29961965408357011 0.19984137201799421 0 0.30450462034665782 0.2040092505042993 0 0.30047829915852509 0.21380783108027451 0 0.3192676874259428 0.20357397550571579 0 0.30047829915852509 0.21380783108027451 0 0.30488348762263301 0.22122210430342201 0 0.3192676874259428 0.20357397550571579 0 0.30450462034665782 0.2040092505042993 0 0.30047829915852509 0.21380783108027451 0 0.29496139974334368 0.20495607722469611 0 0.30047829915852509 0.21380783108027451 0 0.3192676874259428 0.20357397550571579 0 0.30047829915852509 0.21380783108027451 0 0.28494368097089112 0.2088468111766198 0 0.28168891089110681 0.2240416866548324 0 0.30047829915852509 0.21380783108027451 0 0.29496139974334368 0.20495607722469611 0 0.28494368097089112 0.2088468111766198 0 0.29026364193081772 0.19937593554012631 0 0.29496139974334368 0.20495607722469611 0 0.28494368097089112 0.2088468111766198 0 0.28168891089110681 0.2240416866548324 0 0.29655328010231419 0.2326357623994986 0 0.30488348762263301 0.22122210430342201 0 0.30047829915852509 0.21380783108027451 0 0.28168891089110681 0.2240416866548324 0 0.30488348762263301 0.22122210430342201 0 0.28168891089110681 0.2240416866548324 0 0.30488348762263301 0.22122210430342201 0 0.30047829915852509 0.21380783108027451 0 0.28168891089110681 0.2240416866548324 0 0.28168891089110681 0.2240416866548324 0 0.29655328010231419 0.2326357623994986 0 0.2865903529475799 0.23612691064947991 0 0.30488348762263301 0.22122210430342201 0 0.30716551091625088 0.23362769774943401 0 0.31769130935039969 0.23126250329072959 0 0.29655328010231419 0.2326357623994986 0 0.30488348762263301 0.22122210430342201 0 0.30716551091625088 0.23362769774943401 0 0.29655328010231419 0.2326357623994986 0 0.30403294369684092 0.24256115881848 0 0.2951193522316663 0.2411601050748281 0 0.29655328010231419 0.2326357623994986 0 0.30716551091625088 0.23362769774943401 0 0.30403294369684092 0.24256115881848 0 0.30716551091625088 0.23362769774943401 0 0.30403294369684092 0.24256115881848 0 0.313724087410712 0.24017487013259209 0 0.30403294369684092 0.24256115881848 0 0.31617596768273748 0.24862092986720671 0 0.313724087410712 0.24017487013259209 0 0.30607067953178091 0.25253179152387178 0 0.30403294369684092 0.24256115881848 0 0.31617596768273748 0.24862092986720671 0 0.30403294369684092 0.24256115881848 0 0.29622194496412108 0.24800439574613639 0 0.2951193522316663 0.2411601050748281 0 0.30607067953178091 0.25253179152387178 0 0.30403294369684092 0.24256115881848 0 0.29622194496412108 0.24800439574613639 0 0.28747881079441429 0.25605335494865578 0 0.29622194496412108 0.24800439574613639 0 0.28722888117515649 0.2434935074462459 0 0.27073394493800118 0.23612277081212929 0 0.2865903529475799 0.23612691064947991 0 0.28722888117515649 0.2434935074462459 0 0.28747881079441429 0.25605335494865578 0 0.27073394493800118 0.23612277081212929 0 0.28722888117515649 0.2434935074462459 0 0.29622194496412108 0.24800439574613639 0 0.2951193522316663 0.2411601050748281 0 0.28722888117515649 0.2434935074462459 0 0.29655328010231419 0.2326357623994986 0 0.2951193522316663 0.2411601050748281 0 0.2865903529475799 0.23612691064947991 0 0.2951193522316663 0.2411601050748281 0 0.2865903529475799 0.23612691064947991 0 0.28722888117515649 0.2434935074462459 0 0.3286309626952284 0.2434480298853621 0 0.3404094617023935 0.23022838322495651 0 0.3470821380133452 0.2412510483538059 0 0.34299065606626278 0.25131321409070428 0 0.3286309626952284 0.2434480298853621 0 0.3470821380133452 0.2412510483538059 0 0.3286309626952284 0.2434480298853621 0 0.32862053074600972 0.23076874159190949 0 0.3404094617023935 0.23022838322495651 0 0.3191259817613481 0.25540705495601701 0 0.3286309626952284 0.2434480298853621 0 0.31617596768273748 0.24862092986720671 0 0.3286309626952284 0.2434480298853621 0 0.31617596768273748 0.24862092986720671 0 0.313724087410712 0.24017487013259209 0 0.3286309626952284 0.2434480298853621 0 0.313724087410712 0.24017487013259209 0 0.31769130935039969 0.23126250329072959 0 0.30716551091625088 0.23362769774943401 0 0.313724087410712 0.24017487013259209 0 0.31769130935039969 0.23126250329072959 0 0.3286309626952284 0.2434480298853621 0 0.31769130935039969 0.23126250329072959 0 0.32862053074600972 0.23076874159190949 0 0.30488348762263301 0.22122210430342201 0 0.32807806435415932 0.21840252195201251 0 0.30488348762263301 0.22122210430342201 0 0.31769130935039969 0.23126250329072959 0 0.32807806435415932 0.21840252195201251 0 0.31769130935039969 0.23126250329072959 0 0.32862053074600972 0.23076874159190949 0 0.32807806435415932 0.21840252195201251 0 0.32862053074600972 0.23076874159190949 0 0.3404094617023935 0.23022838322495651 0 0.32807806435415932 0.21840252195201251 0 0.3404094617023935 0.23022838322495651 0 0.32807806435415932 0.21840252195201251 0 0.35127264108568562 0.2155829396006031 0 0.33659909186271447 0.2068122924386899 0 0.32807806435415932 0.21840252195201251 0 0.35127264108568562 0.2155829396006031 0 0.32807806435415932 0.21840252195201251 0 0.35127264108568562 0.2155829396006031 0 0.33659909186271447 0.2068122924386899 0 0.32807806435415932 0.21840252195201251 0 0.3192676874259428 0.20357397550571579 0 0.30488348762263301 0.22122210430342201 0 0.32807806435415932 0.21840252195201251 0 0.3192676874259428 0.20357397550571579 0 0.3192676874259428 0.20357397550571579 0 0.3251837909147885 0.19219415550815189 0 0.33805707569336058 0.19334011993115699 0 0.3192676874259428 0.20357397550571579 0 0.31705280687611709 0.191253187907198 0 0.3251837909147885 0.19219415550815189 0 0.30805477903541112 0.19762378197599981 0 0.3192676874259428 0.20357397550571579 0 0.31705280687611709 0.191253187907198 0 0.30876490561131442 0.1901901959717954 0 0.31705280687611709 0.191253187907198 0 0.31275663455592873 0.1856656032615287 0 0.31705280687611709 0.191253187907198 0 0.3251837909147885 0.19219415550815189 0 0.32635759366373351 0.18060933868853701 0 0.3192676874259428 0.20357397550571579 0 0.33805707569336058 0.19334011993115699 0 0.33659909186271447 0.2068122924386899 0 0.3192676874259428 0.20357397550571579 0 0.33805707569336058 0.19334011993115699 0 0.3251837909147885 0.19219415550815189 0 0.33805707569336058 0.19334011993115699 0 0.32635759366373351 0.18060933868853701 0 0.33659909186271447 0.2068122924386899 0 0.33805707569336058 0.19334011993115699 0 0.34631999075442432 0.20316190520396099 0 0.33805707569336058 0.19334011993115699 0 0.35107644147807832 0.18825042678718409 0 0.34631999075442432 0.20316190520396099 0 0.35107644147807832 0.18825042678718409 0 0.35527467969978133 0.1998328654549309 0 0.34631999075442432 0.20316190520396099 0 0.35107644147807832 0.18825042678718409 0 0.35527467969978133 0.1998328654549309 0 0.36346144909610262 0.20039093583097839 0 0.35527467969978133 0.1998328654549309 0 0.36346144909610262 0.20039093583097839 0 0.35814725648678558 0.20802247479359329 0 0.35107644147807832 0.18825042678718409 0 0.3757952892924229 0.19589151488583131 0 0.35107644147807832 0.18825042678718409 0 0.36610643915245178 0.18333266315472979 0 0.3757952892924229 0.19589151488583131 0 0.35107644147807832 0.18825042678718409 0 0.36346144909610262 0.20039093583097839 0 0.3757952892924229 0.19589151488583131 0 0.36610643915245178 0.18333266315472979 0 0.37740862827749788 0.1837279601486573 0 0.3757952892924229 0.19589151488583131 0 0.36346144909610262 0.20039093583097839 0 0.37282641655597543 0.2109459588253384 0 0.3757952892924229 0.19589151488583131 0 0.36346144909610262 0.20039093583097839 0 0.37282641655597543 0.2109459588253384 0 0.35814725648678558 0.20802247479359329 0 0.37282641655597543 0.2109459588253384 0 0.35814725648678558 0.20802247479359329 0 0.36492610794123181 0.21954776616982549 0 0.35527467969978133 0.1998328654549309 0 0.35814725648678558 0.20802247479359329 0 0.34631999075442432 0.20316190520396099 0 0.35814725648678558 0.20802247479359329 0 0.34631999075442432 0.20316190520396099 0 0.35127264108568562 0.2155829396006031 0 0.33659909186271447 0.2068122924386899 0 0.34631999075442432 0.20316190520396099 0 0.35127264108568562 0.2155829396006031 0 0.35814725648678558 0.20802247479359329 0 0.35817387794651528 0.23330080063337011 0 0.3404094617023935 0.23022838322495651 0 0.35127264108568562 0.2155829396006031 0 0.35817387794651528 0.23330080063337011 0 0.35814725648678558 0.20802247479359329 0 0.35127264108568562 0.2155829396006031 0 0.35817387794651528 0.23330080063337011 0 0.35814725648678558 0.20802247479359329 0 0.35817387794651528 0.23330080063337011 0 0.36492610794123181 0.21954776616982549 0 0.35817387794651528 0.23330080063337011 0 0.36492610794123181 0.21954776616982549 0 0.37055688077565091 0.22592183042700009 0 0.37282641655597543 0.2109459588253384 0 0.36492610794123181 0.21954776616982549 0 0.37055688077565091 0.22592183042700009 0 0.35817387794651528 0.23330080063337011 0 0.37055688077565091 0.22592183042700009 0 0.3723050453064225 0.240230285310258 0 0.35820049940624799 0.25857912647314701 0 0.35817387794651528 0.23330080063337011 0 0.3723050453064225 0.240230285310258 0 0.35820049940624799 0.25857912647314701 0 0.3723050453064225 0.240230285310258 0 0.3404094617023935 0.23022838322495651 0 0.35817387794651528 0.23330080063337011 0 0.3470821380133452 0.2412510483538059 0 0.35820049940624799 0.25857912647314701 0 0.35817387794651528 0.23330080063337011 0 0.3470821380133452 0.2412510483538059 0 0.35820049940624799 0.25857912647314701 0 0.35817387794651528 0.23330080063337011 0 0.33831379872314488 0.15580857018841079 0 0.33894292786629981 0.13673365786463099 0 0.32741919626772348 0.146098269168215 0 0.33831379872314488 0.15580857018841079 0 0.33894292786629981 0.13673365786463099 0 0.34990241808855732 0.14683647533388991 0 0.33831379872314488 0.15580857018841079 0 0.32741919626772348 0.146098269168215 0 0.327504037056076 0.1569513032066597 0 0.33710215149459388 0.114868033997594 0 0.33894292786629981 0.13673365786463099 0 0.32431048765461618 0.13097412205690609 0 0.33894292786629981 0.13673365786463099 0 0.32431048765461618 0.13097412205690609 0 0.32741919626772348 0.146098269168215 0 0.30359597155328372 0.12282326774352879 0 0.31168603585884141 0.1410068674984237 0 0.32431048765461618 0.13097412205690609 0 0.31168603585884141 0.1410068674984237 0 0.32431048765461618 0.13097412205690609 0 0.32741919626772348 0.146098269168215 0 0.31168603585884141 0.1410068674984237 0 0.32741919626772348 0.146098269168215 0 0.31636513732471289 0.15390152427372039 0 0.32741919626772348 0.146098269168215 0 0.31636513732471289 0.15390152427372039 0 0.327504037056076 0.1569513032066597 0 0.31064842415502431 0.16203969671399129 0 0.31636513732471289 0.15390152427372039 0 0.32034701960890433 0.16290412116558739 0 0.31064842415502431 0.16203969671399129 0 0.32034701960890433 0.16290412116558739 0 0.31796104624010069 0.17440269054529181 0 0.32034701960890433 0.16290412116558739 0 0.31796104624010069 0.17440269054529181 0 0.32925645326860759 0.16722539108827389 0 0.32034701960890433 0.16290412116558739 0 0.327504037056076 0.1569513032066597 0 0.32925645326860759 0.16722539108827389 0 0.31636513732471289 0.15390152427372039 0 0.32034701960890433 0.16290412116558739 0 0.327504037056076 0.1569513032066597 0 0.30163874584938882 0.1729682505898899 0 0.31796104624010069 0.17440269054529181 0 0.32635759366373351 0.18060933868853701 0 0.30916246790256641 0.18084103588051739 0 0.31275663455592873 0.1856656032615287 0 0.32635759366373351 0.18060933868853701 0 0.30163874584938882 0.1729682505898899 0 0.32635759366373351 0.18060933868853701 0 0.31705280687611709 0.191253187907198 0 0.31275663455592873 0.1856656032615287 0 0.32635759366373351 0.18060933868853701 0 0.31796104624010069 0.17440269054529181 0 0.32635759366373351 0.18060933868853701 0 0.32925645326860759 0.16722539108827389 0 0.35107644147807832 0.18825042678718409 0 0.32635759366373351 0.18060933868853701 0 0.35107644147807832 0.18825042678718409 0 0.32635759366373351 0.18060933868853701 0 0.3428334268882326 0.17132925570095839 0 0.32635759366373351 0.18060933868853701 0 0.32925645326860759 0.16722539108827389 0 0.3428334268882326 0.17132925570095839 0 0.33805707569336058 0.19334011993115699 0 0.35107644147807832 0.18825042678718409 0 0.32635759366373351 0.18060933868853701 0 0.33831379872314488 0.15580857018841079 0 0.327504037056076 0.1569513032066597 0 0.32925645326860759 0.16722539108827389 0 0.33831379872314488 0.15580857018841079 0 0.32925645326860759 0.16722539108827389 0 0.3428334268882326 0.17132925570095839 0 0.33831379872314488 0.15580857018841079 0 0.3428334268882326 0.17132925570095839 0 0.35522394179636391 0.16191545869965859 0 0.3428334268882326 0.17132925570095839 0 0.35522394179636391 0.16191545869965859 0 0.35657983665461829 0.17538635605791469 0 0.35107644147807832 0.18825042678718409 0 0.3428334268882326 0.17132925570095839 0 0.35657983665461829 0.17538635605791469 0 0.35107644147807832 0.18825042678718409 0 0.35657983665461829 0.17538635605791469 0 0.36610643915245178 0.18333266315472979 0 0.35657983665461829 0.17538635605791469 0 0.36610643915245178 0.18333266315472979 0 0.36925509917921562 0.17220668775327869 0 0.36610643915245178 0.18333266315472979 0 0.36925509917921562 0.17220668775327869 0 0.37740862827749788 0.1837279601486573 0 0.35522394179636391 0.16191545869965859 0 0.36925509917921562 0.17220668775327869 0 0.37525715385503983 0.14997676306661689 0 0.35522394179636391 0.16191545869965859 0 0.35657983665461829 0.17538635605791469 0 0.36925509917921562 0.17220668775327869 0 0.34990241808855732 0.14683647533388991 0 0.3552353390837853 0.1311211250796985 0 0.37525715385503983 0.14997676306661689 0 0.35522394179636391 0.16191545869965859 0 0.34990241808855732 0.14683647533388991 0 0.37525715385503983 0.14997676306661689 0 0.33831379872314488 0.15580857018841079 0 0.35522394179636391 0.16191545869965859 0 0.34990241808855732 0.14683647533388991 0 0.33894292786629981 0.13673365786463099 0 0.34990241808855732 0.14683647533388991 0 0.3552353390837853 0.1311211250796985 0 0.33710215149459388 0.114868033997594 0 0.33894292786629981 0.13673365786463099 0 0.3552353390837853 0.1311211250796985 0 0.3552353390837853 0.1311211250796985 0 0.37255982364045082 0.13075991920717381 0 0.37525715385503983 0.14997676306661689 0 0.37255982364045082 0.13075991920717381 0 0.39562715892620642 0.1308083476196758 0 0.37525715385503983 0.14997676306661689 0 0.39562715892620642 0.1308083476196758 0 0.37525715385503983 0.14997676306661689 0 0.4024907944824101 0.15775459886220439 0 0.37525715385503983 0.14997676306661689 0 0.4024907944824101 0.15775459886220439 0 0.37525715385503983 0.14997676306661689 0 0.38549372808294702 0.17341308227467231 0 0.4024907944824101 0.15775459886220439 0 0.36925509917921562 0.17220668775327869 0 0.37525715385503983 0.14997676306661689 0 0.38549372808294702 0.17341308227467231 0 0.38549372808294702 0.17341308227467231 0 0.37740862827749788 0.1837279601486573 0 0.38796261869834919 0.19129240058697311 0 0.36925509917921562 0.17220668775327869 0 0.38549372808294702 0.17341308227467231 0 0.37740862827749788 0.1837279601486573 0 0.38549372808294702 0.17341308227467231 0 0.40057152188692391 0.17882730829654911 0 0.38796261869834919 0.19129240058697311 0 0.38549372808294702 0.17341308227467231 0 0.40057152188692391 0.17882730829654911 0 0.4024907944824101 0.15775459886220439 0 0.4024907944824101 0.15775459886220439 0 0.41822324565171881 0.18049452560661489 0 0.42972443510978148 0.16553243465778769 0 0.4024907944824101 0.15775459886220439 0 0.42972443510978148 0.16553243465778769 0 0.40057152188692391 0.17882730829654911 0 0.41822324565171881 0.18049452560661489 0 0.40672205619365948 0.19545661655544491 0 0.40057152188692391 0.17882730829654911 0 0.4024907944824101 0.15775459886220439 0 0.41822324565171881 0.18049452560661489 0 0.41822324565171881 0.18049452560661489 0 0.43242688177337257 0.1796050899521674 0 0.42770112017194672 0.20011354474127621 0 0.41822324565171881 0.18049452560661489 0 0.43242688177337257 0.1796050899521674 0 0.42972443510978148 0.16553243465778769 0 0.41822324565171881 0.18049452560661489 0 0.42972443510978148 0.16553243465778769 0 0.42972443510978148 0.16553243465778769 0 0.42414351446746879 0.1401132647628838 0 0.44672246083881167 0.14341941688378379 0 0.42414351446746879 0.1401132647628838 0 0.44298104839699942 0.12309133275351 0 0.42206616576997769 0.1180414050672233 0 0.39562715892620642 0.1308083476196758 0 0.42414351446746879 0.1401132647628838 0 0.42206616576997769 0.1180414050672233 0 0.39562715892620642 0.1308083476196758 0 0.4024907944824101 0.15775459886220439 0 0.42414351446746879 0.1401132647628838 0 0.4024907944824101 0.15775459886220439 0 0.42972443510978148 0.16553243465778769 0 0.42414351446746879 0.1401132647628838 0 0.39488500936975263 0.24532584809717059 0 0.40873184439015159 0.23920623085314091 0 0.40701393632937788 0.24838861756848099 0 0.39488500936975263 0.24532584809717059 0 0.40340281756451352 0.2298486664875439 0 0.40873184439015159 0.23920623085314091 0 0.37466402894604239 0.25663903199270788 0 0.3723050453064225 0.240230285310258 0 0.39488500936975263 0.24532584809717059 0 0.3723050453064225 0.240230285310258 0 0.39488500936975263 0.24532584809717059 0 0.38640959120659413 0.22188144414736691 0 0.3723050453064225 0.240230285310258 0 0.38640959120659413 0.22188144414736691 0 0.37282641655597543 0.2109459588253384 0 0.37055688077565091 0.22592183042700009 0 0.38640959120659413 0.22188144414736691 0 0.37055688077565091 0.22592183042700009 0 0.3723050453064225 0.240230285310258 0 0.38640959120659413 0.22188144414736691 0 0.39488500936975263 0.24532584809717059 0 0.38640959120659413 0.22188144414736691 0 0.40340281756451352 0.2298486664875439 0 0.38640959120659413 0.22188144414736691 0 0.40340281756451352 0.2298486664875439 0 0.40537056847063158 0.21691184532339239 0 0.38640959120659413 0.22188144414736691 0 0.40537056847063158 0.21691184532339239 0 0.40051413710676792 0.20353260298447751 0 0.38640959120659413 0.22188144414736691 0 0.40051413710676792 0.20353260298447751 0 0.38640959120659413 0.22188144414736691 0 0.40051413710676792 0.20353260298447751 0 0.38388635854043951 0.208062880210753 0 0.37282641655597543 0.2109459588253384 0 0.38640959120659413 0.22188144414736691 0 0.38388635854043951 0.208062880210753 0 0.37282641655597543 0.2109459588253384 0 0.38388635854043951 0.208062880210753 0 0.3757952892924229 0.19589151488583131 0 0.40051413710676792 0.20353260298447751 0 0.3757952892924229 0.19589151488583131 0 0.40051413710676792 0.20353260298447751 0 0.38388635854043951 0.208062880210753 0 0.3757952892924229 0.19589151488583131 0 0.40051413710676792 0.20353260298447751 0 0.3757952892924229 0.19589151488583131 0 0.38796261869834919 0.19129240058697311 0 0.37740862827749788 0.1837279601486573 0 0.3757952892924229 0.19589151488583131 0 0.38796261869834919 0.19129240058697311 0 0.38796261869834919 0.19129240058697311 0 0.40672205619365948 0.19545661655544491 0 0.40051413710676792 0.20353260298447751 0 0.38796261869834919 0.19129240058697311 0 0.40672205619365948 0.19545661655544491 0 0.40057152188692391 0.17882730829654911 0 0.38796261869834919 0.19129240058697311 0 0.40672205619365948 0.19545661655544491 0 0.40051413710676792 0.20353260298447751 0 0.40672205619365948 0.19545661655544491 0 0.40672205619365948 0.19545661655544491 0 0.42770112017194672 0.20011354474127621 0 0.40051413710676792 0.20353260298447751 0 0.40672205619365948 0.19545661655544491 0 0.41622519929096979 0.20838920516814269 0 0.40672205619365948 0.19545661655544491 0 0.42770112017194672 0.20011354474127621 0 0.41622519929096979 0.20838920516814269 0 0.41822324565171881 0.18049452560661489 0 0.40672205619365948 0.19545661655544491 0 0.42770112017194672 0.20011354474127621 0 0.41822324565171881 0.18049452560661489 0 0.40672205619365948 0.19545661655544491 0 0.43242688177337257 0.1796050899521674 0 0.42770112017194672 0.20011354474127621 0 0.44425219295815388 0.1875699898503389 0 0.43193626147517211 0.21324580735180701 0 0.41622519929096979 0.20838920516814269 0 0.42770112017194672 0.20011354474127621 0 0.43193626147517211 0.21324580735180701 0 0.44868018415023531 0.20477047292710129 0 0.43193626147517211 0.21324580735180701 0 0.41862627718430329 0.21814473290475569 0 0.41622519929096979 0.20838920516814269 0 0.42770112017194672 0.20011354474127621 0 0.43193626147517211 0.21324580735180701 0 0.41622519929096979 0.20838920516814269 0 0.43193626147517211 0.21324580735180701 0 0.41862627718430329 0.21814473290475569 0 0.42642193570617792 0.2217428569476507 0 0.40537056847063158 0.21691184532339239 0 0.40051413710676792 0.20353260298447751 0 0.41622519929096979 0.20838920516814269 0 0.40051413710676792 0.20353260298447751 0 0.41622519929096979 0.20838920516814269 0 0.40537056847063158 0.21691184532339239 0 0.41862627718430329 0.21814473290475569 0 0.41622519929096979 0.20838920516814269 0 0.40537056847063158 0.21691184532339239 0 0.41862627718430329 0.21814473290475569 0 0.41213622124707588 0.22377781704679969 0 0.40340281756451352 0.2298486664875439 0 0.40537056847063158 0.21691184532339239 0 0.41213622124707588 0.22377781704679969 0 0.40340281756451352 0.2298486664875439 0 0.41399420508405538 0.23158526363219331 0 0.40873184439015159 0.23920623085314091 0 0.40340281756451352 0.2298486664875439 0 0.41213622124707588 0.22377781704679969 0 0.41399420508405538 0.23158526363219331 0 0.41399420508405538 0.23158526363219331 0 0.4196674769157932 0.22480086559074139 0 0.42326848092306069 0.23097323523878241 0 0.41213622124707588 0.22377781704679969 0 0.41399420508405538 0.23158526363219331 0 0.4196674769157932 0.22480086559074139 0 0.41862627718430329 0.21814473290475569 0 0.41213622124707588 0.22377781704679969 0 0.4196674769157932 0.22480086559074139 0 0.41862627718430329 0.21814473290475569 0 0.4196674769157932 0.22480086559074139 0 0.42642193570617792 0.2217428569476507 0 0.4196674769157932 0.22480086559074139 0 0.42642193570617792 0.2217428569476507 0 0.42326848092306069 0.23097323523878241 0 0.42642193570617792 0.2217428569476507 0 0.43632661631562258 0.2238663437347195 0 0.42326848092306069 0.23097323523878241 0 0.43632661631562258 0.2238663437347195 0 0.42326848092306069 0.23097323523878241 0 0.42397304848100981 0.2429622145423376 0 0.43632661631562258 0.2238663437347195 0 0.42397304848100981 0.2429622145423376 0 0.43193626147517211 0.21324580735180701 0 0.42642193570617792 0.2217428569476507 0 0.43632661631562258 0.2238663437347195 0 0.44670741272494002 0.25014944309200082 0 0.42397304848100981 0.2429622145423376 0 0.43632661631562258 0.2238663437347195 0 0.4370064892215873 0.23711536409662931 0 0.42397304848100981 0.2429622145423376 0 0.44670741272494002 0.25014944309200082 0 0.4370064892215873 0.23711536409662931 0 0.42397304848100981 0.2429622145423376 0 0.42659905199128428 0.25466336600345729 0 0.44670741272494002 0.25014944309200082 0 0.42397304848100981 0.2429622145423376 0 0.41465733722559611 0.25736223411530967 0 0.41761589313238973 0.24095246718692229 0 0.40701393632937788 0.24838861756848099 0 0.41465733722559611 0.25736223411530967 0 0.42397304848100981 0.2429622145423376 0 0.41761589313238973 0.24095246718692229 0 0.41399420508405538 0.23158526363219331 0 0.42326848092306069 0.23097323523878241 0 0.41761589313238973 0.24095246718692229 0 0.42397304848100981 0.2429622145423376 0 0.41761589313238973 0.24095246718692229 0 0.42326848092306069 0.23097323523878241 0 0.42397304848100981 0.2429622145423376 0 0.41761589313238973 0.24095246718692229 0 0.41399420508405538 0.23158526363219331 0 0.41761589313238973 0.24095246718692229 0 0.40873184439015159 0.23920623085314091 0 0.41761589313238973 0.24095246718692229 0 0.40873184439015159 0.23920623085314091 0 0.40701393632937788 0.24838861756848099 0 0.45543009270220658 0.25290702601315013 0 0.46383750135509921 0.2362350065304798 0 0.46950086217180798 0.24660621613382361 0 0.45543009270220658 0.25290702601315013 0 0.46383750135509921 0.2362350065304798 0 0.45325052662634718 0.24462693143021669 0 0.45543009270220658 0.25290702601315013 0 0.46383750135509921 0.2362350065304798 0 0.46383750135509921 0.2362350065304798 0 0.45325052662634718 0.24462693143021669 0 0.45076420925285771 0.2370435176832624 0 0.44670741272494002 0.25014944309200082 0 0.45076420925285771 0.2370435176832624 0 0.44041593762659731 0.2267189455557041 0 0.44670741272494002 0.25014944309200082 0 0.4370064892215873 0.23711536409662931 0 0.44041593762659731 0.2267189455557041 0 0.44670741272494002 0.25014944309200082 0 0.44041593762659731 0.2267189455557041 0 0.44670741272494002 0.25014944309200082 0 0.45543009270220658 0.25290702601315013 0 0.45325052662634718 0.24462693143021669 0 0.44670741272494002 0.25014944309200082 0 0.45325052662634718 0.24462693143021669 0 0.45076420925285771 0.2370435176832624 0 0.45076420925285771 0.2370435176832624 0 0.45195056622686669 0.2272594684879255 0 0.44041593762659731 0.2267189455557041 0 0.43632661631562258 0.2238663437347195 0 0.4370064892215873 0.23711536409662931 0 0.44041593762659731 0.2267189455557041 0 0.43632661631562258 0.2238663437347195 0 0.44041593762659731 0.2267189455557041 0 0.4462869729104828 0.21996943690845419 0 0.45195056622686669 0.2272594684879255 0 0.4462869729104828 0.21996943690845419 0 0.45406156023309219 0.2172319538368207 0 0.45195056622686669 0.2272594684879255 0 0.44041593762659731 0.2267189455557041 0 0.4462869729104828 0.21996943690845419 0 0.46383750135509921 0.2362350065304798 0 0.46160563503546431 0.22268661813524859 0 0.47224491000799212 0.21956298704780949 0 0.46383750135509921 0.2362350065304798 0 0.47224491000799212 0.21956298704780949 0 0.45195056622686669 0.2272594684879255 0 0.46160563503546431 0.22268661813524859 0 0.45406156023309219 0.2172319538368207 0 0.46383750135509921 0.2362350065304798 0 0.45076420925285771 0.2370435176832624 0 0.45195056622686669 0.2272594684879255 0 0.46383750135509921 0.2362350065304798 0 0.45195056622686669 0.2272594684879255 0 0.46160563503546431 0.22268661813524859 0 0.46377560428101983 0.20812135109576799 0 0.44868018415023531 0.20477047292710129 0 0.46483959116806672 0.19793548372678541 0 0.46160563503546431 0.22268661813524859 0 0.46377560428101983 0.20812135109576799 0 0.47224491000799212 0.21956298704780949 0 0.46377560428101983 0.20812135109576799 0 0.46483959116806672 0.19793548372678541 0 0.47322143937675182 0.2036093783246912 0 0.46377560428101983 0.20812135109576799 0 0.44868018415023531 0.20477047292710129 0 0.46377560428101983 0.20812135109576799 0 0.45406156023309219 0.2172319538368207 0 0.44868018415023531 0.20477047292710129 0 0.46160563503546431 0.22268661813524859 0 0.46377560428101983 0.20812135109576799 0 0.45406156023309219 0.2172319538368207 0 0.4462869729104828 0.21996943690845419 0 0.45406156023309219 0.2172319538368207 0 0.44868018415023531 0.20477047292710129 0 0.43193626147517211 0.21324580735180701 0 0.43632661631562258 0.2238663437347195 0 0.44868018415023531 0.20477047292710129 0 0.43632661631562258 0.2238663437347195 0 0.4462869729104828 0.21996943690845419 0 0.44868018415023531 0.20477047292710129 0 0.43632661631562258 0.2238663437347195 0 0.44868018415023531 0.20477047292710129 0 0.44868018415023531 0.20477047292710129 0 0.44425219295815388 0.1875699898503389 0 0.46294094531597968 0.18272650502364651 0 0.42770112017194672 0.20011354474127621 0 0.44868018415023531 0.20477047292710129 0 0.44425219295815388 0.1875699898503389 0 0.42770112017194672 0.20011354474127621 0 0.44868018415023531 0.20477047292710129 0 0.44868018415023531 0.20477047292710129 0 0.46483959116806672 0.19793548372678541 0 0.46294094531597968 0.18272650502364651 0 0.44868018415023531 0.20477047292710129 0 0.46294094531597968 0.18272650502364651 0 0.46483959116806672 0.19793548372678541 0 0.47712300867658469 0.19508031153906691 0 0.46294094531597968 0.18272650502364651 0 0.47712300867658469 0.19508031153906691 0 0.49148629281842038 0.2031702184845581 0 0.4829725856368407 0.17966820671487579 0 0.46483959116806672 0.19793548372678541 0 0.47712300867658469 0.19508031153906691 0 0.47322143937675182 0.2036093783246912 0 0.47712300867658469 0.19508031153906691 0 0.48149796834628311 0.20543751599740079 0 0.47322143937675182 0.2036093783246912 0 0.47712300867658469 0.19508031153906691 0 0.49148629281842038 0.2031702184845581 0 0.48149796834628311 0.20543751599740079 0 0.49380131233102759 0.18951468186354609 0 0.49148629281842038 0.2031702184845581 0 0.4829725856368407 0.17966820671487579 0 0.49148629281842038 0.2031702184845581 0 0.4829725856368407 0.17966820671487579 0 0.49380131233102759 0.18951468186354609 0 0.5 0.2019005313271108 0 0.5 0.17712883239998131 0 0.49380131233102759 0.18951468186354609 0 0.5 0.2019005313271108 0 0.49148629281842038 0.2031702184845581 0 0.49148629281842038 0.2031702184845581 0 0.48741477876440797 0.213395681320318 0 0.5 0.22667223025424041 0 0.49148629281842038 0.2031702184845581 0 0.48741477876440797 0.213395681320318 0 0.48149796834628311 0.20543751599740079 0 0.49148629281842038 0.2031702184845581 0 0.5 0.22667223025424041 0 0.5 0.2019005313271108 0 0.49148629281842038 0.2031702184845581 0 0.5 0.22667223025424041 0 0.48741477876440797 0.213395681320318 0 0.47887102441180429 0.21147222926443501 0 0.4844962547061108 0.22283782674501329 0 0.47887102441180429 0.21147222926443501 0 0.47224491000799212 0.21956298704780949 0 0.4844962547061108 0.22283782674501329 0 0.48741477876440797 0.213395681320318 0 0.47887102441180429 0.21147222926443501 0 0.48149796834628311 0.20543751599740079 0 0.47887102441180429 0.21147222926443501 0 0.48149796834628311 0.20543751599740079 0 0.47322143937675182 0.2036093783246912 0 0.46377560428101983 0.20812135109576799 0 0.47887102441180429 0.21147222926443501 0 0.46377560428101983 0.20812135109576799 0 0.47887102441180429 0.21147222926443501 0 0.47322143937675182 0.2036093783246912 0 0.46377560428101983 0.20812135109576799 0 0.47887102441180429 0.21147222926443501 0 0.47224491000799212 0.21956298704780949 0 0.47224491000799212 0.21956298704780949 0 0.4844962547061108 0.22283782674501329 0 0.48102080827882232 0.2373306538302154 0 0.46383750135509921 0.2362350065304798 0 0.47224491000799212 0.21956298704780949 0 0.48102080827882232 0.2373306538302154 0 0.4844962547061108 0.22283782674501329 0 0.5 0.22667223025424041 0 0.48102080827882232 0.2373306538302154 0 0.48741477876440797 0.213395681320318 0 0.4844962547061108 0.22283782674501329 0 0.5 0.22667223025424041 0 0.47771504635110412 0.25995217816144911 0 0.5 0.24683478028199449 0 0.48102080827882232 0.2373306538302154 0 0.5 0.22667223025424041 0 0.5 0.24683478028199449 0 0.48102080827882232 0.2373306538302154 0 0.47771504635110412 0.25995217816144911 0 0.48102080827882232 0.2373306538302154 0 0.46950086217180798 0.24660621613382361 0 0.46383750135509921 0.2362350065304798 0 0.48102080827882232 0.2373306538302154 0 0.46950086217180798 0.24660621613382361 0 0.46088246703661362 0.1515095526543728 0 0.46255284843031819 0.1384328349228468 0 0.44672246083881167 0.14341941688378379 0 0.46088246703661362 0.1515095526543728 0 0.44672246083881167 0.14341941688378379 0 0.45783350323075961 0.16289862331844171 0 0.46088246703661362 0.1515095526543728 0 0.46816700927176258 0.16538473266348719 0 0.47200382120863549 0.14515099919078539 0 0.46088246703661362 0.1515095526543728 0 0.46255284843031819 0.1384328349228468 0 0.47200382120863549 0.14515099919078539 0 0.46255284843031819 0.1384328349228468 0 0.46943500649968672 0.13077780677551121 0 0.46372048656784298 0.1213063991097808 0 0.44672246083881167 0.14341941688378379 0 0.46372048656784298 0.1213063991097808 0 0.46255284843031819 0.1384328349228468 0 0.47200382120863549 0.14515099919078539 0 0.46943500649968672 0.13077780677551121 0 0.46255284843031819 0.1384328349228468 0 0.44672246083881167 0.14341941688378379 0 0.46372048656784298 0.1213063991097808 0 0.44672246083881167 0.14341941688378379 0 0.46372048656784298 0.1213063991097808 0 0.44298104839699942 0.12309133275351 0 0.42414351446746879 0.1401132647628838 0 0.44672246083881167 0.14341941688378379 0 0.44298104839699942 0.12309133275351 0 0.42972443510978148 0.16553243465778769 0 0.44672246083881167 0.14341941688378379 0 0.42972443510978148 0.16553243465778769 0 0.45045463369063071 0.17145290936691809 0 0.42972443510978148 0.16553243465778769 0 0.44672246083881167 0.14341941688378379 0 0.45045463369063071 0.17145290936691809 0 0.44672246083881167 0.14341941688378379 0 0.45045463369063071 0.17145290936691809 0 0.45783350323075961 0.16289862331844171 0 0.43242688177337257 0.1796050899521674 0 0.42972443510978148 0.16553243465778769 0 0.45045463369063071 0.17145290936691809 0 0.43242688177337257 0.1796050899521674 0 0.44425219295815388 0.1875699898503389 0 0.45045463369063071 0.17145290936691809 0 0.44425219295815388 0.1875699898503389 0 0.45045463369063071 0.17145290936691809 0 0.46294094531597968 0.18272650502364651 0 0.45045463369063071 0.17145290936691809 0 0.46294094531597968 0.18272650502364651 0 0.45783350323075961 0.16289862331844171 0 0.46294094531597968 0.18272650502364651 0 0.45783350323075961 0.16289862331844171 0 0.46816700927176258 0.16538473266348719 0 0.46088246703661362 0.1515095526543728 0 0.45783350323075961 0.16289862331844171 0 0.46816700927176258 0.16538473266348719 0 0.46294094531597968 0.18272650502364651 0 0.47720170648172411 0.1606825371201919 0 0.47720170648172411 0.1606825371201919 0 0.4829725856368407 0.17966820671487579 0 0.48908977902383038 0.1648720871719096 0 0.46816700927176258 0.16538473266348719 0 0.47720170648172411 0.1606825371201919 0 0.47200382120863549 0.14515099919078539 0 0.46294094531597968 0.18272650502364651 0 0.46816700927176258 0.16538473266348719 0 0.47720170648172411 0.1606825371201919 0 0.47720170648172411 0.1606825371201919 0 0.48908977902383038 0.1648720871719096 0 0.48465879358115382 0.15145472773636101 0 0.47712300867658469 0.19508031153906691 0 0.46294094531597968 0.18272650502364651 0 0.4829725856368407 0.17966820671487579 0 0.46294094531597968 0.18272650502364651 0 0.47720170648172411 0.1606825371201919 0 0.4829725856368407 0.17966820671487579 0 0.49380131233102759 0.18951468186354609 0 0.4829725856368407 0.17966820671487579 0 0.5 0.17712883239998131 0 0.4829725856368407 0.17966820671487579 0 0.5 0.17712883239998131 0 0.48908977902383038 0.1648720871719096 0 0.5 0.17712883239998131 0 0.48908977902383038 0.1648720871719096 0 0.5 0.15235713347285171 0 0.5 0.15235713347285171 0 0.48465879358115382 0.15145472773636101 0 0.48668310229342238 0.13745390723487319 0 0.48908977902383038 0.1648720871719096 0 0.5 0.15235713347285171 0 0.48465879358115382 0.15145472773636101 0 0.47720170648172411 0.1606825371201919 0 0.48465879358115382 0.15145472773636101 0 0.47200382120863549 0.14515099919078539 0 0.46816700927176258 0.16538473266348719 0 0.47200382120863549 0.14515099919078539 0 0.48465879358115382 0.15145472773636101 0 0.47200382120863549 0.14515099919078539 0 0.48668310229342238 0.13745390723487319 0 0.47200382120863549 0.14515099919078539 0 0.46943500649968672 0.13077780677551121 0 0.47584063314551028 0.12491726571808411 0 0.47200382120863549 0.14515099919078539 0 0.47584063314551028 0.12491726571808411 0 0.47200382120863549 0.14515099919078539 0 0.48668310229342238 0.13745390723487319 0 0.47584063314551028 0.12491726571808411 0 0.46943500649968672 0.13077780677551121 0 0.47584063314551028 0.12491726571808411 0 0.46372048656784298 0.1213063991097808 0 0.46943500649968672 0.13077780677551121 0 0.47584063314551028 0.12491726571808411 0 0.48761101300292148 0.1259555270417545 0 0.48668310229342238 0.13745390723487319 0 0.47584063314551028 0.12491726571808411 0 0.5 0.15235713347285171 0 0.48668310229342238 0.13745390723487319 0 0.5 0.12758543454572219 0 0.48761101300292148 0.1259555270417545 0 0.48668310229342238 0.13745390723487319 0 0.5 0.12758543454572219 0 0.5 0.12758543454572219 0 0.48792031657275509 0.113865500668339 0 0.49999999999999889 0.10281373561859269 0 0.48761101300292148 0.1259555270417545 0 0.5 0.12758543454572219 0 0.48792031657275509 0.113865500668339 0 0.48792031657275509 0.113865500668339 0 0.49219306800038709 0.095788355486638568 0 0.48071851229687401 0.099193381335777667 0 0.48792031657275509 0.113865500668339 0 0.49999999999999889 0.10281373561859269 0 0.49219306800038709 0.095788355486638568 0 0.48792031657275509 0.113865500668339 0 0.49999999999999889 0.10281373561859269 0 0.48071851229687401 0.099193381335777667 0 0.47584063314551028 0.12491726571808411 0 0.46372048656784298 0.1213063991097808 0 0.48071851229687401 0.099193381335777667 0 0.46372048656784298 0.1213063991097808 0 0.48071851229687401 0.099193381335777667 0 0.47584063314551028 0.12491726571808411 0 0.48792031657275509 0.113865500668339 0 0.48071851229687401 0.099193381335777667 0 0.47584063314551028 0.12491726571808411 0 0.48761101300292148 0.1259555270417545 0 0.48792031657275509 0.113865500668339 0 0.47584063314551028 0.12491726571808411 0 0.48792031657275509 0.113865500668339 0 0.47584063314551028 0.12491726571808411 0 0.48588800936725141 0.071931626620953537 0 0.5 0.078976819540325538 0 0.48812912895212229 0.061888965767604942 0 0.5 0.078976819540325538 0 0.49999999999999961 0.055139903462058423 0 0.48812912895212229 0.061888965767604942 0 0.49219306800038709 0.095788355486638568 0 0.49232651113230841 0.084092340270158633 0 0.5 0.078976819540325538 0 0.49999999999999889 0.10281373561859269 0 0.49219306800038709 0.095788355486638568 0 0.5 0.078976819540325538 0 0.48071851229687401 0.099193381335777667 0 0.48588800936725141 0.071931626620953537 0 0.49232651113230841 0.084092340270158633 0 0.48588800936725141 0.071931626620953537 0 0.49232651113230841 0.084092340270158633 0 0.5 0.078976819540325538 0 0.48071851229687401 0.099193381335777667 0 0.49232651113230841 0.084092340270158633 0 0.49219306800038709 0.095788355486638568 0 0.48071851229687401 0.099193381335777667 0 0.49232651113230841 0.084092340270158633 0 0.48071851229687401 0.099193381335777667 0 0.47800576619913698 0.082500842677453973 0 0.46461598541758431 0.093243546250615289 0 0.48071851229687401 0.099193381335777667 0 0.48588800936725141 0.071931626620953537 0 0.48071851229687401 0.099193381335777667 0 0.48588800936725141 0.071931626620953537 0 0.47800576619913698 0.082500842677453973 0 0.47800576619913698 0.082500842677453973 0 0.46255782692479791 0.061101604273109691 0 0.48588800936725141 0.071931626620953537 0 0.47800576619913698 0.082500842677453973 0 0.4777701573142844 0.064609095190841626 0 0.47800576619913698 0.082500842677453973 0 0.4777701573142844 0.064609095190841626 0 0.46255782692479791 0.061101604273109691 0 0.48588800936725141 0.071931626620953537 0 0.4777701573142844 0.064609095190841626 0 0.48812912895212229 0.061888965767604942 0 0.47800576619913698 0.082500842677453973 0 0.46160698997648542 0.077883406194794946 0 0.46255782692479791 0.061101604273109691 0 0.46160698997648542 0.077883406194794946 0 0.44679472411281118 0.073618074925000415 0 0.46255782692479791 0.061101604273109691 0 0.46160698997648542 0.077883406194794946 0 0.46461598541758431 0.093243546250615289 0 0.43955722944780118 0.088307917335773325 0 0.47800576619913698 0.082500842677453973 0 0.46160698997648542 0.077883406194794946 0 0.46461598541758431 0.093243546250615289 0 0.46160698997648542 0.077883406194794946 0 0.43955722944780118 0.088307917335773325 0 0.44679472411281118 0.073618074925000415 0 0.44679472411281118 0.073618074925000415 0 0.44173187600439229 0.058874166018118443 0 0.46255782692479791 0.061101604273109691 0 0.46372048656784298 0.1213063991097808 0 0.4558275424843144 0.1079899078441581 0 0.44298104839699942 0.12309133275351 0 0.48071851229687401 0.099193381335777667 0 0.46372048656784298 0.1213063991097808 0 0.4558275424843144 0.1079899078441581 0 0.48071851229687401 0.099193381335777667 0 0.46461598541758431 0.093243546250615289 0 0.4558275424843144 0.1079899078441581 0 0.46461598541758431 0.093243546250615289 0 0.43955722944780118 0.088307917335773325 0 0.4558275424843144 0.1079899078441581 0 0.43955722944780118 0.088307917335773325 0 0.4558275424843144 0.1079899078441581 0 0.43955722944780118 0.088307917335773325 0 0.4558275424843144 0.1079899078441581 0 0.43817838946269272 0.1071751325990646 0 0.4558275424843144 0.1079899078441581 0 0.43817838946269272 0.1071751325990646 0 0.44298104839699942 0.12309133275351 0 0.43817838946269272 0.1071751325990646 0 0.44298104839699942 0.12309133275351 0 0.42206616576997769 0.1180414050672233 0 0.42206616576997769 0.1180414050672233 0 0.41567974464870011 0.090700572173812194 0 0.39959717566627229 0.1076445849155033 0 0.43817838946269272 0.1071751325990646 0 0.42206616576997769 0.1180414050672233 0 0.41567974464870011 0.090700572173812194 0 0.43955722944780118 0.088307917335773325 0 0.43817838946269272 0.1071751325990646 0 0.41567974464870011 0.090700572173812194 0 0.43955722944780118 0.088307917335773325 0 0.42328691641128791 0.068625926827388481 0 0.43955722944780118 0.088307917335773325 0 0.42328691641128791 0.068625926827388481 0 0.41567974464870011 0.090700572173812194 0 0.43955722944780118 0.088307917335773325 0 0.44679472411281118 0.073618074925000415 0 0.42328691641128791 0.068625926827388481 0 0.44679472411281118 0.073618074925000415 0 0.42328691641128791 0.068625926827388481 0 0.44173187600439229 0.058874166018118443 0 0.42328691641128791 0.068625926827388481 0 0.40709797315305402 0.070283695612366637 0 0.41567974464870011 0.090700572173812194 0 0.42328691641128791 0.068625926827388481 0 0.40709797315305402 0.070283695612366637 0 0.40701660337477469 0.048943936319003713 0 0.40709797315305402 0.070283695612366637 0 0.41567974464870011 0.090700572173812194 0 0.3937764238897653 0.08066637489448146 0 0.41567974464870011 0.090700572173812194 0 0.3937764238897653 0.08066637489448146 0 0.39959717566627229 0.1076445849155033 0 0.3937764238897653 0.08066637489448146 0 0.38014645982606732 0.09027587587142484 0 0.39959717566627229 0.1076445849155033 0 0.40709797315305402 0.070283695612366637 0 0.3937764238897653 0.08066637489448146 0 0.39573017744074179 0.062481667847147329 0 0.3937764238897653 0.08066637489448146 0 0.37861700854773539 0.056586702579697792 0 0.39573017744074179 0.062481667847147329 0 0.3937764238897653 0.08066637489448146 0 0.37830890906235759 0.075109030043237643 0 0.37861700854773539 0.056586702579697792 0 0.3937764238897653 0.08066637489448146 0 0.37861700854773539 0.056586702579697792 0 0.3937764238897653 0.08066637489448146 0 0.37830890906235759 0.075109030043237643 0 0.38014645982606732 0.09027587587142484 0 0.37327548460182558 0.1113678974561253 0 0.38014645982606732 0.09027587587142484 0 0.39959717566627229 0.1076445849155033 0 0.38014645982606732 0.09027587587142484 0 0.39959717566627229 0.1076445849155033 0 0.37327548460182558 0.1113678974561253 0 0.37255982364045082 0.13075991920717381 0 0.39562715892620642 0.1308083476196758 0 0.37327548460182558 0.1113678974561253 0 0.39562715892620642 0.1308083476196758 0 0.39959717566627229 0.1076445849155033 0 0.39562715892620642 0.1308083476196758 0 0.42206616576997769 0.1180414050672233 0 0.39959717566627229 0.1076445849155033 0 0.39232475597749661 0.02371171105288316 0 0.41971732181397742 0.031707038460824788 0 0.39232475597749661 0.02371171105288316 0 0.40524025350360809 0.030384401577744719 0 0.41971732181397742 0.031707038460824788 0 0.39232475597749661 0.02371171105288316 0 0.40118826695778631 0.01441060991133215 0 0.41251797132155821 0.02063972707934085 0 0.39232475597749661 0.02371171105288316 0 0.39074629033826158 0.02926194581061899 0 0.39829565565118658 0.029584308085361749 0 0.39232475597749661 0.02371171105288316 0 0.39829565565118658 0.029584308085361749 0 0.40524025350360809 0.030384401577744719 0 0.39232475597749661 0.02371171105288316 0 0.40118826695778631 0.01441060991133215 0 0.39256602844795502 0.0050409065536643829 0 0.40118826695778631 0.01441060991133215 0 0.39256602844795502 0.0050409065536643829 0 0.41128474674939258 0.0074945688116730847 0 0.37447597730174847 0.0095799553022342526 0 0.39232475597749661 0.02371171105288316 0 0.39256602844795502 0.0050409065536643829 0 0.37447597730174847 0.0095799553022342526 0 0.39256602844795502 0.0050409065536643829 0 0.37831225193001822 -0.0089308101349801338 0 0.37447597730174847 0.0095799553022342526 0 0.39232475597749661 0.02371171105288316 0 0.39074629033826158 0.02926194581061899 0 0.37447597730174847 0.0095799553022342526 0 0.39074629033826158 0.02926194581061899 0 0.37447597730174847 0.0095799553022342526 0 0.39074629033826158 0.02926194581061899 0 0.37830796774458419 0.036928202919997058 0 0.39074629033826158 0.02926194581061899 0 0.37830796774458419 0.036928202919997058 0 0.39001976127463039 0.047058748246765383 0 0.37830796774458419 0.036928202919997058 0 0.39001976127463039 0.047058748246765383 0 0.37861700854773539 0.056586702579697792 0 0.39001976127463039 0.047058748246765383 0 0.37861700854773539 0.056586702579697792 0 0.39573017744074179 0.062481667847147329 0 0.40709797315305402 0.070283695612366637 0 0.39573017744074179 0.062481667847147329 0 0.40701660337477469 0.048943936319003713 0 0.39001976127463039 0.047058748246765383 0 0.39573017744074179 0.062481667847147329 0 0.40701660337477469 0.048943936319003713 0 0.39829565565118658 0.029584308085361749 0 0.40524025350360809 0.030384401577744719 0 0.40701660337477469 0.048943936319003713 0 0.39074629033826158 0.02926194581061899 0 0.40701660337477469 0.048943936319003713 0 0.39074629033826158 0.02926194581061899 0 0.39829565565118658 0.029584308085361749 0 0.40701660337477469 0.048943936319003713 0 0.39074629033826158 0.02926194581061899 0 0.39001976127463039 0.047058748246765383 0 0.40701660337477469 0.048943936319003713 0 0.41297090534751879 0.038511856109116858 0 0.40701660337477469 0.048943936319003713 0 0.42314494862186702 0.042037610990807793 0 0.40524025350360809 0.030384401577744719 0 0.41297090534751879 0.038511856109116858 0 0.41971732181397742 0.031707038460824788 0 0.40524025350360809 0.030384401577744719 0 0.41297090534751879 0.038511856109116858 0 0.40701660337477469 0.048943936319003713 0 0.41297090534751879 0.038511856109116858 0 0.41971732181397742 0.031707038460824788 0 0.42314494862186702 0.042037610990807793 0 0.42328691641128791 0.068625926827388481 0 0.40701660337477469 0.048943936319003713 0 0.4289100249226061 0.051322858196327918 0 0.42328691641128791 0.068625926827388481 0 0.40701660337477469 0.048943936319003713 0 0.40701660337477469 0.048943936319003713 0 0.4289100249226061 0.051322858196327918 0 0.42314494862186702 0.042037610990807793 0 0.42328691641128791 0.068625926827388481 0 0.4289100249226061 0.051322858196327918 0 0.44173187600439229 0.058874166018118443 0 0.4289100249226061 0.051322858196327918 0 0.42314494862186702 0.042037610990807793 0 0.44710988765045823 0.039702365868765702 0 0.41971732181397742 0.031707038460824788 0 0.44710988765045823 0.039702365868765702 0 0.42594108161923239 0.032640719542242742 0 0.43662474083000308 0.025177829454501199 0 0.44710988765045823 0.039702365868765702 0 0.41971732181397742 0.031707038460824788 0 0.42314494862186702 0.042037610990807793 0 0.44710988765045823 0.039702365868765702 0 0.41971732181397742 0.031707038460824788 0 0.42594108161923239 0.032640719542242742 0 0.44710988765045823 0.039702365868765702 0 0.43662474083000308 0.025177829454501199 0 0.42613959400954771 0.01065329304023708 0 0.44333281428912669 0.01376017034458765 0 0.43662474083000308 0.025177829454501199 0 0.42613959400954771 0.01065329304023708 0 0.43662474083000308 0.025177829454501199 0 0.42499754080204399 0.018991602712163529 0 0.42613959400954771 0.01065329304023708 0 0.42594108161923239 0.032640719542242742 0 0.43662474083000308 0.025177829454501199 0 0.42499754080204399 0.018991602712163529 0 0.42594108161923239 0.032640719542242742 0 0.41251797132155821 0.02063972707934085 0 0.41128474674939258 0.0074945688116730847 0 0.41971732181397742 0.031707038460824788 0 0.42594108161923239 0.032640719542242742 0 0.41251797132155821 0.02063972707934085 0 0.39232475597749661 0.02371171105288316 0 0.41971732181397742 0.031707038460824788 0 0.41251797132155821 0.02063972707934085 0 0.42594108161923239 0.032640719542242742 0 0.42499754080204399 0.018991602712163529 0 0.41128474674939258 0.0074945688116730847 0 0.42594108161923239 0.032640719542242742 0 0.41128474674939258 0.0074945688116730847 0 0.41128474674939258 0.0074945688116730847 0 0.42613959400954771 0.01065329304023708 0 0.4221783810106618 -0.0072269632870501366 0 0.40118826695778631 0.01441060991133215 0 0.41251797132155821 0.02063972707934085 0 0.41128474674939258 0.0074945688116730847 0 0.42499754080204399 0.018991602712163529 0 0.41128474674939258 0.0074945688116730847 0 0.42613959400954771 0.01065329304023708 0 0.42613959400954771 0.01065329304023708 0 0.43585955003476612 0.00090646914473122128 0 0.4221783810106618 -0.0072269632870501366 0 0.42613959400954771 0.01065329304023708 0 0.43585955003476612 0.00090646914473122128 0 0.44333281428912669 0.01376017034458765 0 0.45145220079927528 0.0019239926618769691 0 0.44333281428912669 0.01376017034458765 0 0.46073235123888612 0.019267694506584689 0 0.43585955003476612 0.00090646914473122128 0 0.45145220079927528 0.0019239926618769691 0 0.44333281428912669 0.01376017034458765 0 0.43662474083000308 0.025177829454501199 0 0.44333281428912669 0.01376017034458765 0 0.44979162963969571 0.026295210320035439 0 0.44333281428912669 0.01376017034458765 0 0.44979162963969571 0.026295210320035439 0 0.46073235123888612 0.019267694506584689 0 0.43662474083000308 0.025177829454501199 0 0.44979162963969571 0.026295210320035439 0 0.44710988765045823 0.039702365868765702 0 0.44979162963969571 0.026295210320035439 0 0.46073235123888612 0.019267694506584689 0 0.46115835419000428 0.033567991425737971 0 0.46073235123888612 0.019267694506584689 0 0.46115835419000428 0.033567991425737971 0 0.47392235587766529 0.031943393939687398 0 0.45145220079927528 0.0019239926618769691 0 0.46073235123888612 0.019267694506584689 0 0.46867072548814781 0.0034873305833067049 0 0.4289100249226061 0.051322858196327918 0 0.44173187600439229 0.058874166018118443 0 0.44710988765045823 0.039702365868765702 0 0.44173187600439229 0.058874166018118443 0 0.44710988765045823 0.039702365868765702 0 0.46255782692479791 0.061101604273109691 0 0.43662474083000308 0.025177829454501199 0 0.44710988765045823 0.039702365868765702 0 0.44979162963969571 0.026295210320035439 0 0.44710988765045823 0.039702365868765702 0 0.46115835419000428 0.033567991425737971 0 0.44710988765045823 0.039702365868765702 0 0.47355494382522878 0.047421134665412437 0 0.44710988765045823 0.039702365868765702 0 0.46115835419000428 0.033567991425737971 0 0.47355494382522878 0.047421134665412437 0 0.44710988765045823 0.039702365868765702 0 0.46255782692479791 0.061101604273109691 0 0.47355494382522878 0.047421134665412437 0 0.44710988765045823 0.039702365868765702 0 0.46255782692479791 0.061101604273109691 0 0.4777701573142844 0.064609095190841626 0 0.47355494382522878 0.047421134665412437 0 0.48812912895212229 0.061888965767604942 0 0.4777701573142844 0.064609095190841626 0 0.46255782692479791 0.061101604273109691 0 0.47355494382522878 0.047421134665412437 0 0.46115835419000428 0.033567991425737971 0 0.47355494382522878 0.047421134665412437 0 0.47392235587766529 0.031943393939687398 0 0.47355494382522878 0.047421134665412437 0 0.47392235587766529 0.031943393939687398 0 0.48731739257762818 0.037616197486047769 0 0.47355494382522878 0.047421134665412437 0 0.48731739257762818 0.037616197486047769 0 0.49999999999999961 0.055139903462058423 0 0.48731739257762818 0.037616197486047769 0 0.49999999999999961 0.055139903462058423 0 0.5 0.026559053009460269 0 0.47355494382522878 0.047421134665412437 0 0.49999999999999961 0.055139903462058423 0 0.48812912895212229 0.061888965767604942 0 0.47355494382522878 0.047421134665412437 0 0.49999999999999961 0.055139903462058423 0 0.46867072548814781 0.0034873305833067049 0 0.48236444174197762 0.00095096838932002842 0 0.48135184509023621 0.01925793009374006 0 0.46073235123888612 0.019267694506584689 0 0.46867072548814781 0.0034873305833067049 0 0.48135184509023621 0.01925793009374006 0 0.47392235587766529 0.031943393939687398 0 0.48731739257762818 0.037616197486047769 0 0.48135184509023621 0.01925793009374006 0 0.46073235123888612 0.019267694506584689 0 0.47392235587766529 0.031943393939687398 0 0.48135184509023621 0.01925793009374006 0 0.48731739257762818 0.037616197486047769 0 0.48135184509023621 0.01925793009374006 0 0.5 0.026559053009460269 0 0.48135184509023621 0.01925793009374006 0 0.5 0.026559053009460269 0 0.49120251654325792 0.010454581231604939 0 0.48236444174197762 0.00095096838932002842 0 0.48135184509023621 0.01925793009374006 0 0.49120251654325792 0.010454581231604939 0 0.5 0.026559053009460269 0 0.49120251654325792 0.010454581231604939 0 0.5 -0.002021797443137963 0 0.48236444174197762 0.00095096838932002842 0 0.49120251654325792 0.010454581231604939 0 0.49139400585722431 -0.003086084640385834 0 0.49120251654325792 0.010454581231604939 0 0.5 -0.002021797443137963 0 0.49139400585722431 -0.003086084640385834 0 0.5 -0.002021797443137963 0 0.49916072827342323 -0.0055145361851106772 0 0.5 -0.03060264789573636 0 0.5 -0.002021797443137963 0 0.49916072827342323 -0.0055145361851106772 0 0.49139400585722431 -0.003086084640385834 0 0.49916072827342323 -0.0055145361851106772 0 0.49105303343915141 -0.014978824761970161 0 0.49260083639526908 -0.024512385109976088 0 0.49916072827342323 -0.0055145361851106772 0 0.49306369261486271 -0.0090728658237428841 0 0.49139400585722431 -0.003086084640385834 0 0.49916072827342323 -0.0055145361851106772 0 0.49306369261486271 -0.0090728658237428841 0 0.49105303343915141 -0.014978824761970161 0 0.48901225563825251 -0.01086725549635646 0 0.48172053227710793 -0.0085468687438643408 0 0.48463845432905522 -0.01668004179154171 0 0.49306369261486271 -0.0090728658237428841 0 0.49105303343915141 -0.014978824761970161 0 0.48901225563825251 -0.01086725549635646 0 0.49105303343915141 -0.014978824761970161 0 0.48901225563825251 -0.01086725549635646 0 0.48463845432905522 -0.01668004179154171 0 0.48236444174197762 0.00095096838932002842 0 0.49139400585722431 -0.003086084640385834 0 0.48172053227710793 -0.0085468687438643408 0 0.48901225563825251 -0.01086725549635646 0 0.49139400585722431 -0.003086084640385834 0 0.48172053227710793 -0.0085468687438643408 0 0.49306369261486271 -0.0090728658237428841 0 0.48901225563825251 -0.01086725549635646 0 0.49139400585722431 -0.003086084640385834 0 0.48236444174197762 0.00095096838932002842 0 0.48172053227710793 -0.0085468687438643408 0 0.47397849973259321 -0.0064620723783639757 0 0.48172053227710793 -0.0085468687438643408 0 0.47543539091786918 -0.015850234499193198 0 0.48463845432905522 -0.01668004179154171 0 0.48172053227710793 -0.0085468687438643408 0 0.47397849973259321 -0.0064620723783639757 0 0.47543539091786918 -0.015850234499193198 0 0.47397849973259321 -0.0064620723783639757 0 0.47543539091786918 -0.015850234499193198 0 0.4621442509950533 -0.012398655774060109 0 0.46867072548814781 0.0034873305833067049 0 0.48236444174197762 0.00095096838932002842 0 0.47397849973259321 -0.0064620723783639757 0 0.4712638368425624 -0.026919013343423691 0 0.47543539091786918 -0.015850234499193198 0 0.48113253306650478 -0.02476644087162461 0 0.4712638368425624 -0.026919013343423691 0 0.47543539091786918 -0.015850234499193198 0 0.4621442509950533 -0.012398655774060109 0 0.47543539091786918 -0.015850234499193198 0 0.48113253306650478 -0.02476644087162461 0 0.48463845432905522 -0.01668004179154171 0 0.4712638368425624 -0.026919013343423691 0 0.48113253306650478 -0.02476644087162461 0 0.48081137740266949 -0.034914484196372157 0 0.48113253306650478 -0.02476644087162461 0 0.48745036315014367 -0.030331410033595529 0 0.48081137740266949 -0.034914484196372157 0 0.48745036315014367 -0.030331410033595529 0 0.49260083639526908 -0.024512385109976088 0 0.49453445163281218 -0.033164651458861563 0 0.49916072827342323 -0.0055145361851106772 0 0.5 -0.03060264789573636 0 0.49453445163281218 -0.033164651458861563 0 0.49916072827342323 -0.0055145361851106772 0 0.49453445163281218 -0.033164651458861563 0 0.49916072827342323 -0.0055145361851106772 0 0.49260083639526908 -0.024512385109976088 0 0.49453445163281218 -0.033164651458861563 0 0.48113253306650478 -0.02476644087162461 0 0.48745036315014367 -0.030331410033595529 0 0.48784223338404581 -0.023225864165093119 0 0.48745036315014367 -0.030331410033595529 0 0.48784223338404581 -0.023225864165093119 0 0.49260083639526908 -0.024512385109976088 0 0.48113253306650478 -0.02476644087162461 0 0.48463845432905522 -0.01668004179154171 0 0.48784223338404581 -0.023225864165093119 0 0.49105303343915141 -0.014978824761970161 0 0.48463845432905522 -0.01668004179154171 0 0.48784223338404581 -0.023225864165093119 0 0.49105303343915141 -0.014978824761970161 0 0.48784223338404581 -0.023225864165093119 0 0.49260083639526908 -0.024512385109976088 0 0.5 -0.03060264789573636 0 0.49453445163281218 -0.033164651458861563 0 0.50000000000000266 -0.05918349834833464 0 0.49453445163281218 -0.033164651458861563 0 0.4865460473151989 -0.04496654619061221 0 0.48829552239799862 -0.053675507996351547 0 0.49453445163281218 -0.033164651458861563 0 0.4865460473151989 -0.04496654619061221 0 0.48733555987520599 -0.035844272969860369 0 0.4865460473151989 -0.04496654619061221 0 0.48733555987520599 -0.035844272969860369 0 0.48081137740266949 -0.034914484196372157 0 0.48745036315014367 -0.030331410033595529 0 0.48733555987520599 -0.035844272969860369 0 0.48081137740266949 -0.034914484196372157 0 0.48745036315014367 -0.030331410033595529 0 0.49453445163281218 -0.033164651458861563 0 0.48733555987520599 -0.035844272969860369 0 0.49453445163281218 -0.033164651458861563 0 0.48976081653060272 -0.061695491939137453 0 0.49453445163281218 -0.033164651458861563 0 0.48829552239799862 -0.053675507996351547 0 0.48976081653060272 -0.061695491939137453 0 0.49453445163281218 -0.033164651458861563 0 0.50000000000000266 -0.05918349834833464 0 0.48976081653060272 -0.061695491939137453 0 0.50000000000000266 -0.05918349834833464 0 0.48976081653060272 -0.061695491939137453 0 0.48976081653060272 -0.061695491939137453 0 0.47259358367802662 -0.044766162355022253 0 0.46676089502350548 -0.064556352220447921 0 0.48829552239799862 -0.053675507996351547 0 0.48976081653060272 -0.061695491939137453 0 0.47259358367802662 -0.044766162355022253 0 0.4865460473151989 -0.04496654619061221 0 0.48829552239799862 -0.053675507996351547 0 0.47259358367802662 -0.044766162355022253 0 0.48976081653060272 -0.061695491939137453 0 0.47259358367802662 -0.044766162355022253 0 0.4712638368425624 -0.026919013343423691 0 0.48081137740266949 -0.034914484196372157 0 0.47259358367802662 -0.044766162355022253 0 0.4865460473151989 -0.04496654619061221 0 0.48081137740266949 -0.034914484196372157 0 0.47259358367802662 -0.044766162355022253 0 0.47259358367802662 -0.044766162355022253 0 0.44835386376535868 -0.047686975642220311 0 0.4561729245560755 -0.028573060493401772 0 0.4712638368425624 -0.026919013343423691 0 0.47259358367802662 -0.044766162355022253 0 0.4561729245560755 -0.028573060493401772 0 0.47259358367802662 -0.044766162355022253 0 0.4561729245560755 -0.028573060493401772 0 0.44835386376535868 -0.047686975642220311 0 0.46676089502350548 -0.064556352220447921 0 0.44450754724703279 -0.068153440224256595 0 0.47259358367802662 -0.044766162355022253 0 0.44835386376535868 -0.047686975642220311 0 0.46676089502350548 -0.064556352220447921 0 0.44835386376535868 -0.047686975642220311 0 0.44450754724703279 -0.068153440224256595 0 0.43141392620721453 -0.057597675160915879 0 0.44835386376535868 -0.047686975642220311 0 0.43869535195312009 -0.030116066005680751 0 0.42764816177300857 -0.041076415994737728 0 0.44835386376535868 -0.047686975642220311 0 0.43869535195312009 -0.030116066005680751 0 0.4561729245560755 -0.028573060493401772 0 0.43975226543412438 -0.012379958631781219 0 0.4561729245560755 -0.028573060493401772 0 0.43975226543412438 -0.012379958631781219 0 0.4621442509950533 -0.012398655774060109 0 0.4561729245560755 -0.028573060493401772 0 0.43869535195312009 -0.030116066005680751 0 0.43975226543412438 -0.012379958631781219 0 0.4561729245560755 -0.028573060493401772 0 0.45145220079927528 0.0019239926618769691 0 0.43975226543412438 -0.012379958631781219 0 0.4621442509950533 -0.012398655774060109 0 0.43585955003476612 0.00090646914473122128 0 0.45145220079927528 0.0019239926618769691 0 0.43975226543412438 -0.012379958631781219 0 0.46867072548814781 0.0034873305833067049 0 0.47397849973259321 -0.0064620723783639757 0 0.4621442509950533 -0.012398655774060109 0 0.45145220079927528 0.0019239926618769691 0 0.46867072548814781 0.0034873305833067049 0 0.4621442509950533 -0.012398655774060109 0 0.4712638368425624 -0.026919013343423691 0 0.4621442509950533 -0.012398655774060109 0 0.4561729245560755 -0.028573060493401772 0 0.48382002177701522 -0.1227013099542493 0 0.48207319082187838 -0.1082059153129197 0 0.47020393245064562 -0.12539652889200301 0 0.48207319082187838 -0.1082059153129197 0 0.46685853781344833 -0.1084742256584733 0 0.47020393245064562 -0.12539652889200301 0 0.48382002177701522 -0.1227013099542493 0 0.5 -0.1228360380456708 0 0.48207319082187838 -0.1082059153129197 0 0.5 -0.1228360380456708 0 0.5 -0.097314409497731846 0 0.48207319082187838 -0.1082059153129197 0 0.5 -0.097314409497731846 0 0.48207319082187838 -0.1082059153129197 0 0.48560834379332268 -0.086513798057932342 0 0.48207319082187838 -0.1082059153129197 0 0.48560834379332268 -0.086513798057932342 0 0.46790947709413477 -0.093869055736174919 0 0.48207319082187838 -0.1082059153129197 0 0.46790947709413477 -0.093869055736174919 0 0.46685853781344833 -0.1084742256584733 0 0.47656899800528879 -0.080765773049363027 0 0.46768485660339648 -0.074780658570427178 0 0.46790947709413477 -0.093869055736174919 0 0.47656899800528879 -0.080765773049363027 0 0.48560834379332268 -0.086513798057932342 0 0.46790947709413477 -0.093869055736174919 0 0.47656899800528879 -0.080765773049363027 0 0.48560834379332268 -0.086513798057932342 0 0.48200636975642508 -0.071493649893036026 0 0.5 -0.097314409497731846 0 0.48560834379332268 -0.086513798057932342 0 0.50000000000000044 -0.071792780949792689 0 0.48976081653060272 -0.061695491939137453 0 0.48560834379332268 -0.086513798057932342 0 0.48200636975642508 -0.071493649893036026 0 0.48976081653060272 -0.061695491939137453 0 0.48560834379332268 -0.086513798057932342 0 0.50000000000000044 -0.071792780949792689 0 0.48976081653060272 -0.061695491939137453 0 0.48560834379332268 -0.086513798057932342 0 0.48976081653060272 -0.061695491939137453 0 0.50000000000000044 -0.071792780949792689 0 0.50000000000000266 -0.05918349834833464 0 0.48976081653060272 -0.061695491939137453 0 0.50000000000000044 -0.071792780949792689 0 0.48976081653060272 -0.061695491939137453 0 0.48200636975642508 -0.071493649893036026 0 0.47461878961147308 -0.069853511518265771 0 0.48976081653060272 -0.061695491939137453 0 0.47461878961147308 -0.069853511518265771 0 0.46676089502350548 -0.064556352220447921 0 0.48976081653060272 -0.061695491939137453 0 0.46676089502350548 -0.064556352220447921 0 0.47656899800528879 -0.080765773049363027 0 0.48200636975642508 -0.071493649893036026 0 0.47461878961147308 -0.069853511518265771 0 0.47656899800528879 -0.080765773049363027 0 0.47461878961147308 -0.069853511518265771 0 0.46768485660339648 -0.074780658570427178 0 0.47461878961147308 -0.069853511518265771 0 0.46676089502350548 -0.064556352220447921 0 0.46768485660339648 -0.074780658570427178 0 0.46676089502350548 -0.064556352220447921 0 0.46768485660339648 -0.074780658570427178 0 0.44450754724703279 -0.068153440224256595 0 0.46676089502350548 -0.064556352220447921 0 0.44450754724703279 -0.068153440224256595 0 0.44450754724703279 -0.068153440224256595 0 0.44769828256634381 -0.091987870105194852 0 0.43139212122553572 -0.086527654895375117 0 0.46768485660339648 -0.074780658570427178 0 0.44769828256634381 -0.091987870105194852 0 0.46790947709413477 -0.093869055736174919 0 0.46768485660339648 -0.074780658570427178 0 0.44450754724703279 -0.068153440224256595 0 0.44769828256634381 -0.091987870105194852 0 0.46768485660339648 -0.074780658570427178 0 0.44769828256634381 -0.091987870105194852 0 0.46790947709413477 -0.093869055736174919 0 0.46685853781344833 -0.1084742256584733 0 0.45223152263945848 -0.1076101888894089 0 0.44769828256634381 -0.091987870105194852 0 0.46790947709413477 -0.093869055736174919 0 0.45223152263945848 -0.1076101888894089 0 0.44769828256634381 -0.091987870105194852 0 0.42771170852929119 -0.1091950816399625 0 0.44769828256634381 -0.091987870105194852 0 0.45223152263945848 -0.1076101888894089 0 0.42771170852929119 -0.1091950816399625 0 0.45223152263945848 -0.1076101888894089 0 0.44496682310404811 -0.12396741451712889 0 0.42771170852929119 -0.1091950816399625 0 0.45223152263945848 -0.1076101888894089 0 0.44496682310404811 -0.12396741451712889 0 0.45777406588341779 -0.1195765590237757 0 0.46685853781344833 -0.1084742256584733 0 0.45777406588341779 -0.1195765590237757 0 0.47020393245064562 -0.12539652889200301 0 0.46685853781344833 -0.1084742256584733 0 0.45223152263945848 -0.1076101888894089 0 0.45777406588341779 -0.1195765590237757 0 0.42771170852929119 -0.1091950816399625 0 0.40178870901101849 -0.108695138828091 0 0.40772513449223857 -0.12640229317473009 0 0.42771170852929119 -0.1091950816399625 0 0.421624536452258 -0.12796407503483759 0 0.40772513449223857 -0.12640229317473009 0 0.42771170852929119 -0.1091950816399625 0 0.40772513449223857 -0.12640229317473009 0 0.44496682310404811 -0.12396741451712889 0 0.42771170852929119 -0.1091950816399625 0 0.43288482995412281 -0.12888447347375009 0 0.42771170852929119 -0.1091950816399625 0 0.43288482995412281 -0.12888447347375009 0 0.421624536452258 -0.12796407503483759 0 0.44769828256634381 -0.091987870105194852 0 0.42771170852929119 -0.1091950816399625 0 0.43139212122553572 -0.086527654895375117 0 0.42771170852929119 -0.1091950816399625 0 0.41478886831445072 -0.091551354279396327 0 0.43139212122553572 -0.086527654895375117 0 0.42771170852929119 -0.1091950816399625 0 0.41478886831445072 -0.091551354279396327 0 0.40178870901101849 -0.108695138828091 0 0.41478886831445072 -0.091551354279396327 0 0.42225419947056009 -0.071750528228065269 0 0.4071218597554932 -0.078046540215875995 0 0.41478886831445072 -0.091551354279396327 0 0.43139212122553572 -0.086527654895375117 0 0.42225419947056009 -0.071750528228065269 0 0.42225419947056009 -0.071750528228065269 0 0.43141392620721453 -0.057597675160915879 0 0.41449237355216428 -0.0595829954361419 0 0.44450754724703279 -0.068153440224256595 0 0.43139212122553572 -0.086527654895375117 0 0.42225419947056009 -0.071750528228065269 0 0.44450754724703279 -0.068153440224256595 0 0.42225419947056009 -0.071750528228065269 0 0.43141392620721453 -0.057597675160915879 0 0.44450754724703279 -0.068153440224256595 0 0.42225419947056009 -0.071750528228065269 0 0.42225419947056009 -0.071750528228065269 0 0.4071218597554932 -0.078046540215875995 0 0.41449237355216428 -0.0595829954361419 0 0.4071218597554932 -0.078046540215875995 0 0.39711174874395588 -0.064601094519537647 0 0.41449237355216428 -0.0595829954361419 0 0.4071218597554932 -0.078046540215875995 0 0.39711174874395588 -0.064601094519537647 0 0.38256530449669662 -0.078990071840363149 0 0.39711174874395588 -0.064601094519537647 0 0.38256530449669662 -0.078990071840363149 0 0.38358823843533718 -0.058173093528320549 0 0.38256530449669662 -0.078990071840363149 0 0.38358823843533718 -0.058173093528320549 0 0.36545712718797291 -0.056820706468371521 0 0.38256530449669662 -0.078990071840363149 0 0.39682255587069842 -0.093332626044199216 0 0.37952459695937357 -0.1060214159295267 0 0.41478886831445072 -0.091551354279396327 0 0.4071218597554932 -0.078046540215875995 0 0.39682255587069842 -0.093332626044199216 0 0.4071218597554932 -0.078046540215875995 0 0.38256530449669662 -0.078990071840363149 0 0.39682255587069842 -0.093332626044199216 0 0.39682255587069842 -0.093332626044199216 0 0.40178870901101849 -0.108695138828091 0 0.37952459695937357 -0.1060214159295267 0 0.41478886831445072 -0.091551354279396327 0 0.39682255587069842 -0.093332626044199216 0 0.40178870901101849 -0.108695138828091 0 0.40178870901101849 -0.108695138828091 0 0.37952459695937357 -0.1060214159295267 0 0.38896787802519001 -0.1207049854734311 0 0.37952459695937357 -0.1060214159295267 0 0.37867726989722139 -0.11898856050058269 0 0.36687133745860512 -0.1213659082631299 0 0.37952459695937357 -0.1060214159295267 0 0.37867726989722139 -0.11898856050058269 0 0.38896787802519001 -0.1207049854734311 0 0.37867726989722139 -0.11898856050058269 0 0.38896787802519001 -0.1207049854734311 0 0.37934526714571698 -0.12786193233624291 0 0.40178870901101849 -0.108695138828091 0 0.38896787802519001 -0.1207049854734311 0 0.40772513449223857 -0.12640229317473009 0 0.41807668105125001 -0.025547585748239569 0 0.4221783810106618 -0.0072269632870501366 0 0.39662841187955289 -0.01765158191889634 0 0.41128474674939258 0.0074945688116730847 0 0.4221783810106618 -0.0072269632870501366 0 0.39662841187955289 -0.01765158191889634 0 0.43975226543412438 -0.012379958631781219 0 0.41807668105125001 -0.025547585748239569 0 0.4221783810106618 -0.0072269632870501366 0 0.43585955003476612 0.00090646914473122128 0 0.43975226543412438 -0.012379958631781219 0 0.4221783810106618 -0.0072269632870501366 0 0.43869535195312009 -0.030116066005680751 0 0.43975226543412438 -0.012379958631781219 0 0.41807668105125001 -0.025547585748239569 0 0.43869535195312009 -0.030116066005680751 0 0.41807668105125001 -0.025547585748239569 0 0.42764816177300857 -0.041076415994737728 0 0.42764816177300857 -0.041076415994737728 0 0.43141392620721453 -0.057597675160915879 0 0.41449237355216428 -0.0595829954361419 0 0.44835386376535868 -0.047686975642220311 0 0.42764816177300857 -0.041076415994737728 0 0.43141392620721453 -0.057597675160915879 0 0.42764816177300857 -0.041076415994737728 0 0.41449237355216428 -0.0595829954361419 0 0.40144320260693128 -0.044480297606227751 0 0.41807668105125001 -0.025547585748239569 0 0.42764816177300857 -0.041076415994737728 0 0.40144320260693128 -0.044480297606227751 0 0.40144320260693128 -0.044480297606227751 0 0.3819720770097132 -0.042797732649465799 0 0.39662841187955289 -0.01765158191889634 0 0.39711174874395588 -0.064601094519537647 0 0.41449237355216428 -0.0595829954361419 0 0.40144320260693128 -0.044480297606227751 0 0.39711174874395588 -0.064601094519537647 0 0.40144320260693128 -0.044480297606227751 0 0.38358823843533718 -0.058173093528320549 0 0.40144320260693128 -0.044480297606227751 0 0.38358823843533718 -0.058173093528320549 0 0.3819720770097132 -0.042797732649465799 0 0.38358823843533718 -0.058173093528320549 0 0.3819720770097132 -0.042797732649465799 0 0.36545712718797291 -0.056820706468371521 0 0.39662841187955289 -0.01765158191889634 0 0.37831225193001822 -0.0089308101349801338 0 0.36857227099245798 -0.031454659457687613 0 0.3819720770097132 -0.042797732649465799 0 0.39662841187955289 -0.01765158191889634 0 0.36857227099245798 -0.031454659457687613 0 0.3819720770097132 -0.042797732649465799 0 0.39662841187955289 -0.01765158191889634 0 0.41807668105125001 -0.025547585748239569 0 0.40144320260693128 -0.044480297606227751 0 0.39662841187955289 -0.01765158191889634 0 0.39256602844795502 0.0050409065536643829 0 0.41128474674939258 0.0074945688116730847 0 0.39662841187955289 -0.01765158191889634 0 0.41128474674939258 0.0074945688116730847 0 0.39662841187955289 -0.01765158191889634 0 0.39256602844795502 0.0050409065536643829 0 0.39662841187955289 -0.01765158191889634 0 0.37831225193001822 -0.0089308101349801338 0 0.37447597730174847 0.0095799553022342526 0 0.37831225193001822 -0.0089308101349801338 0 0.35931857102837611 -0.010168671154215349 0 0.35147294938152568 -0.024515344370351379 0 0.35931857102837611 -0.010168671154215349 0 0.36857227099245798 -0.031454659457687613 0 0.37831225193001822 -0.0089308101349801338 0 0.35931857102837611 -0.010168671154215349 0 0.36857227099245798 -0.031454659457687613 0 0.35147294938152568 -0.024515344370351379 0 0.35931857102837611 -0.010168671154215349 0 0.33313876252164548 -0.015652314364653148 0 0.34829817786367551 0.0084273579501304846 0 0.35931857102837611 -0.010168671154215349 0 0.33313876252164548 -0.015652314364653148 0 0.34829817786367551 0.0084273579501304846 0 0.33313876252164548 -0.015652314364653148 0 0.34829817786367551 0.0084273579501304846 0 0.31839539554110913 0.0037088833068538809 0 0.33313876252164548 -0.015652314364653148 0 0.35147294938152568 -0.024515344370351379 0 0.33313876252164548 -0.015652314364653148 0 0.34486219298362331 -0.040785732504849431 0 0.33313876252164548 -0.015652314364653148 0 0.31797934717961568 -0.039731986679436691 0 0.33313876252164548 -0.015652314364653148 0 0.31797934717961568 -0.039731986679436691 0 0.30312594279676469 -0.01126251296696487 0 0.31839539554110913 0.0037088833068538809 0 0.33313876252164548 -0.015652314364653148 0 0.30312594279676469 -0.01126251296696487 0 0.31797934717961568 -0.039731986679436691 0 0.32280242921960511 -0.064822978408236268 0 0.30281993183758582 -0.063811658994220241 0 0.31797934717961568 -0.039731986679436691 0 0.33302980242113922 -0.052691266792776748 0 0.32280242921960511 -0.064822978408236268 0 0.31797934717961568 -0.039731986679436691 0 0.33302980242113922 -0.052691266792776748 0 0.34486219298362331 -0.040785732504849431 0 0.33313876252164548 -0.015652314364653148 0 0.31797934717961568 -0.039731986679436691 0 0.34486219298362331 -0.040785732504849431 0 0.33302980242113922 -0.052691266792776748 0 0.34486219298362331 -0.040785732504849431 0 0.34353964836079942 -0.065492948973077475 0 0.33302980242113922 -0.052691266792776748 0 0.34353964836079942 -0.065492948973077475 0 0.32280242921960511 -0.064822978408236268 0 0.34486219298362331 -0.040785732504849431 0 0.36545712718797291 -0.056820706468371521 0 0.34353964836079942 -0.065492948973077475 0 0.35147294938152568 -0.024515344370351379 0 0.34486219298362331 -0.040785732504849431 0 0.36857227099245798 -0.031454659457687613 0 0.3819720770097132 -0.042797732649465799 0 0.36857227099245798 -0.031454659457687613 0 0.36545712718797291 -0.056820706468371521 0 0.34486219298362331 -0.040785732504849431 0 0.36857227099245798 -0.031454659457687613 0 0.36545712718797291 -0.056820706468371521 0 0.36857227099245798 -0.031454659457687613 0 0.36545712718797291 -0.056820706468371521 0 0.38256530449669662 -0.078990071840363149 0 0.36545712718797291 -0.056820706468371521 0 0.36234198338348778 -0.082186753479055408 0 0.36545712718797291 -0.056820706468371521 0 0.36234198338348778 -0.082186753479055408 0 0.38256530449669662 -0.078990071840363149 0 0.37952459695937357 -0.1060214159295267 0 0.36234198338348778 -0.082186753479055408 0 0.36234198338348778 -0.082186753479055408 0 0.34583169372648248 -0.088917554470044485 0 0.3592268395790027 -0.10755280048973929 0 0.36234198338348778 -0.082186753479055408 0 0.34583169372648248 -0.088917554470044485 0 0.34353964836079942 -0.065492948973077475 0 0.36545712718797291 -0.056820706468371521 0 0.36234198338348778 -0.082186753479055408 0 0.34353964836079942 -0.065492948973077475 0 0.36687133745860512 -0.1213659082631299 0 0.3592268395790027 -0.10755280048973929 0 0.35611169577451762 -0.13291884750042329 0 0.37952459695937357 -0.1060214159295267 0 0.36687133745860512 -0.1213659082631299 0 0.3592268395790027 -0.10755280048973929 0 0.37867726989722139 -0.11898856050058269 0 0.36687133745860512 -0.1213659082631299 0 0.37934526714571698 -0.12786193233624291 0 0.37952459695937357 -0.1060214159295267 0 0.36234198338348778 -0.082186753479055408 0 0.3592268395790027 -0.10755280048973929 0 0.36234198338348778 -0.082186753479055408 0 0.3592268395790027 -0.10755280048973929 0 0.34583169372648248 -0.088917554470044485 0 0.3592268395790027 -0.10755280048973929 0 0.33407735792843579 -0.10475846617948111 0 0.3592268395790027 -0.10755280048973929 0 0.34451815611333692 -0.12244443903013021 0 0.35611169577451762 -0.13291884750042329 0 0.3592268395790027 -0.10755280048973929 0 0.34451815611333692 -0.12244443903013021 0 0.33407735792843579 -0.10475846617948111 0 0.3592268395790027 -0.10755280048973929 0 0.35611169577451762 -0.13291884750042329 0 0.34451815611333692 -0.12244443903013021 0 0.32895781439821231 -0.1238583557131271 0 0.33407735792843579 -0.10475846617948111 0 0.33407735792843579 -0.10475846617948111 0 0.32021081120812989 -0.096372746223671368 0 0.31028515713160387 -0.1099609404297047 0 0.32021081120812989 -0.096372746223671368 0 0.30924472291080091 -0.084043358981197649 0 0.31028515713160387 -0.1099609404297047 0 0.33407735792843579 -0.10475846617948111 0 0.32021081120812989 -0.096372746223671368 0 0.32943664553974361 -0.083184509246024718 0 0.32895781439821231 -0.1238583557131271 0 0.33407735792843579 -0.10475846617948111 0 0.31028515713160387 -0.1099609404297047 0 0.32895781439821231 -0.1238583557131271 0 0.31028515713160387 -0.1099609404297047 0 0.31416361058857512 -0.1257411416618846 0 0.32895781439821231 -0.1238583557131271 0 0.31028515713160387 -0.1099609404297047 0 0.34353964836079942 -0.065492948973077475 0 0.32943664553974361 -0.083184509246024718 0 0.32280242921960511 -0.064822978408236268 0 0.34583169372648248 -0.088917554470044485 0 0.34353964836079942 -0.065492948973077475 0 0.32943664553974361 -0.083184509246024718 0 0.34583169372648248 -0.088917554470044485 0 0.33407735792843579 -0.10475846617948111 0 0.32943664553974361 -0.083184509246024718 0 0.32021081120812989 -0.096372746223671368 0 0.32943664553974361 -0.083184509246024718 0 0.30924472291080091 -0.084043358981197649 0 0.32943664553974361 -0.083184509246024718 0 0.32280242921960511 -0.064822978408236268 0 0.30924472291080091 -0.084043358981197649 0 0.32280242921960511 -0.064822978408236268 0 0.30281993183758582 -0.063811658994220241 0 0.30924472291080091 -0.084043358981197649 0 0.30281993183758582 -0.063811658994220241 0 0.30924472291080091 -0.084043358981197649 0 0.29560995487550529 -0.076736299999850627 0 0.30924472291080091 -0.084043358981197649 0 0.29560995487550529 -0.076736299999850627 0 0.2916124998649956 -0.096063525146282386 0 0.29560995487550529 -0.076736299999850627 0 0.2810137078625019 -0.074290960339693804 0 0.2778554394002295 -0.088274803992653694 0 0.29560995487550529 -0.076736299999850627 0 0.2916124998649956 -0.096063525146282386 0 0.2778554394002295 -0.088274803992653694 0 0.28406264274403142 -0.062584053211425669 0 0.29560995487550529 -0.076736299999850627 0 0.2810137078625019 -0.074290960339693804 0 0.30281993183758582 -0.063811658994220241 0 0.28406264274403142 -0.062584053211425669 0 0.29560995487550529 -0.076736299999850627 0 0.31028515713160387 -0.1099609404297047 0 0.29386827541947019 -0.1143788519092884 0 0.30100003341970238 -0.1288840262782221 0 0.31028515713160387 -0.1099609404297047 0 0.30100003341970238 -0.1288840262782221 0 0.31416361058857512 -0.1257411416618846 0 0.30924472291080091 -0.084043358981197649 0 0.31028515713160387 -0.1099609404297047 0 0.2916124998649956 -0.096063525146282386 0 0.31028515713160387 -0.1099609404297047 0 0.2916124998649956 -0.096063525146282386 0 0.31028515713160387 -0.1099609404297047 0 0.2916124998649956 -0.096063525146282386 0 0.29386827541947019 -0.1143788519092884 0 0.2916124998649956 -0.096063525146282386 0 0.29386827541947019 -0.1143788519092884 0 0.27559535103823302 -0.1174327644075662 0 0.29386827541947019 -0.1143788519092884 0 0.27559535103823302 -0.1174327644075662 0 0.2889900094259964 -0.125854928553322 0 0.29386827541947019 -0.1143788519092884 0 0.2889900094259964 -0.125854928553322 0 0.30100003341970238 -0.1288840262782221 0 0.27559535103823302 -0.1174327644075662 0 0.26854277136608629 -0.10125642915328251 0 0.25537680361060161 -0.1093239374920217 0 0.2916124998649956 -0.096063525146282386 0 0.26854277136608629 -0.10125642915328251 0 0.2778554394002295 -0.088274803992653694 0 0.2916124998649956 -0.096063525146282386 0 0.27559535103823302 -0.1174327644075662 0 0.26854277136608629 -0.10125642915328251 0 0.26854277136608629 -0.10125642915328251 0 0.25668472626630778 -0.097145337668056261 0 0.26257767387449549 -0.088191676296663177 0 0.25668472626630778 -0.097145337668056261 0 0.25537680361060161 -0.1093239374920217 0 0.24637425015114589 -0.097205074120530935 0 0.25668472626630778 -0.097145337668056261 0 0.25028343709017847 -0.088616175199920003 0 0.24637425015114589 -0.097205074120530935 0 0.26854277136608629 -0.10125642915328251 0 0.25668472626630778 -0.097145337668056261 0 0.25537680361060161 -0.1093239374920217 0 0.25537680361060161 -0.1093239374920217 0 0.25714316953967481 -0.12625740199524019 0 0.24817113923659859 -0.117360442065467 0 0.27559535103823302 -0.1174327644075662 0 0.25537680361060161 -0.1093239374920217 0 0.25714316953967481 -0.12625740199524019 0 0.26762324801346993 -0.075800638439406112 0 0.27015731473485621 -0.063654005112042 0 0.2810137078625019 -0.074290960339693804 0 0.28406264274403142 -0.062584053211425669 0 0.27015731473485621 -0.063654005112042 0 0.2810137078625019 -0.074290960339693804 0 0.26762324801346993 -0.075800638439406112 0 0.2810137078625019 -0.074290960339693804 0 0.2778554394002295 -0.088274803992653694 0 0.26854277136608629 -0.10125642915328251 0 0.2778554394002295 -0.088274803992653694 0 0.26257767387449549 -0.088191676296663177 0 0.26762324801346993 -0.075800638439406112 0 0.2778554394002295 -0.088274803992653694 0 0.26257767387449549 -0.088191676296663177 0 0.26762324801346993 -0.075800638439406112 0 0.26257767387449549 -0.088191676296663177 0 0.25498484230186258 -0.077574364109742305 0 0.25668472626630778 -0.097145337668056261 0 0.26257767387449549 -0.088191676296663177 0 0.25028343709017847 -0.088616175199920003 0 0.26257767387449549 -0.088191676296663177 0 0.25028343709017847 -0.088616175199920003 0 0.25498484230186258 -0.077574364109742305 0 0.25498484230186258 -0.077574364109742305 0 0.25817642240957328 -0.066304374468232841 0 0.2477454720430278 -0.068052074955554667 0 0.26762324801346993 -0.075800638439406112 0 0.25498484230186258 -0.077574364109742305 0 0.25817642240957328 -0.066304374468232841 0 0.26762324801346993 -0.075800638439406112 0 0.27015731473485621 -0.063654005112042 0 0.25817642240957328 -0.066304374468232841 0 0.25817642240957328 -0.066304374468232841 0 0.25649367245638999 -0.053415419680380147 0 0.2477454720430278 -0.068052074955554667 0 0.25649367245638999 -0.053415419680380147 0 0.27357419492317059 -0.049528584533113457 0 0.26414118217340482 -0.03923778172304547 0 0.27015731473485621 -0.063654005112042 0 0.25817642240957328 -0.066304374468232841 0 0.25649367245638999 -0.053415419680380147 0 0.27015731473485621 -0.063654005112042 0 0.25649367245638999 -0.053415419680380147 0 0.27357419492317059 -0.049528584533113457 0 0.28406264274403142 -0.062584053211425669 0 0.27015731473485621 -0.063654005112042 0 0.27357419492317059 -0.049528584533113457 0 0.28042490602624037 -0.031914421542565838 0 0.26414118217340482 -0.03923778172304547 0 0.25923744245051328 -0.023643412789666789 0 0.27357419492317059 -0.049528584533113457 0 0.28042490602624037 -0.031914421542565838 0 0.26414118217340482 -0.03923778172304547 0 0.26414118217340482 -0.03923778172304547 0 0.25097569501070971 -0.037687070069501123 0 0.25923744245051328 -0.023643412789666789 0 0.25649367245638999 -0.053415419680380147 0 0.26414118217340482 -0.03923778172304547 0 0.25097569501070971 -0.037687070069501123 0 0.25649367245638999 -0.053415419680380147 0 0.25097569501070971 -0.037687070069501123 0 0.2445366516472994 -0.047559521227277211 0 0.25097569501070971 -0.037687070069501123 0 0.25923744245051328 -0.023643412789666789 0 0.24002944727437761 -0.0280160369161764 0 0.25923744245051328 -0.023643412789666789 0 0.25421330537797993 -0.0064747013630946093 0 0.26943033477865169 -0.01137929120961546 0 0.25843576353106312 0.0091558391233349454 0 0.25421330537797993 -0.0064747013630946093 0 0.26943033477865169 -0.01137929120961546 0 0.25843576353106312 0.0091558391233349454 0 0.26943033477865169 -0.01137929120961546 0 0.25923744245051328 -0.023643412789666789 0 0.25421330537797993 -0.0064747013630946093 0 0.24520833016895319 -0.015320588585169241 0 0.28042490602624037 -0.031914421542565838 0 0.26943033477865169 -0.01137929120961546 0 0.28624791255345389 -0.0025993173291637851 0 0.28042490602624037 -0.031914421542565838 0 0.25923744245051328 -0.023643412789666789 0 0.26943033477865169 -0.01137929120961546 0 0.28042490602624037 -0.031914421542565838 0 0.26943033477865169 -0.01137929120961546 0 0.28042490602624037 -0.031914421542565838 0 0.30312594279676469 -0.01126251296696487 0 0.29896242963250758 -0.034562900920462568 0 0.29942071844104678 0.01357095826336532 0 0.28624791255345389 -0.0025993173291637851 0 0.30312594279676469 -0.01126251296696487 0 0.28042490602624037 -0.031914421542565838 0 0.28624791255345389 -0.0025993173291637851 0 0.30312594279676469 -0.01126251296696487 0 0.31797934717961568 -0.039731986679436691 0 0.30312594279676469 -0.01126251296696487 0 0.29896242963250758 -0.034562900920462568 0 0.31797934717961568 -0.039731986679436691 0 0.29896242963250758 -0.034562900920462568 0 0.29141947727382911 -0.052449551875516157 0 0.31797934717961568 -0.039731986679436691 0 0.30281993183758582 -0.063811658994220241 0 0.29141947727382911 -0.052449551875516157 0 0.31797934717961568 -0.039731986679436691 0 0.30281993183758582 -0.063811658994220241 0 0.30281993183758582 -0.063811658994220241 0 0.28406264274403142 -0.062584053211425669 0 0.29141947727382911 -0.052449551875516157 0 0.28406264274403142 -0.062584053211425669 0 0.27357419492317059 -0.049528584533113457 0 0.29141947727382911 -0.052449551875516157 0 0.27357419492317059 -0.049528584533113457 0 0.28042490602624037 -0.031914421542565838 0 0.29141947727382911 -0.052449551875516157 0 0.28042490602624037 -0.031914421542565838 0 0.29141947727382911 -0.052449551875516157 0 0.28042490602624037 -0.031914421542565838 0 0.29896242963250758 -0.034562900920462568 0 0.29141947727382911 -0.052449551875516157 0 0.29027794704362753 -0.210438230376047 0 0.29633044677016263 -0.195901297387581 0 0.27040190929638058 -0.2052436935248533 0 0.29027794704362753 -0.210438230376047 0 0.28418290850395711 -0.2243860114821494 0 0.27500762628273362 -0.21428172845855301 0 0.29633044677016263 -0.195901297387581 0 0.27040190929638058 -0.2052436935248533 0 0.29633044677016263 -0.195901297387581 0 0.32222933150798722 -0.1865695855245772 0 0.31600320587805553 -0.21287234257384771 0 0.29633044677016263 -0.195901297387581 0 0.32222933150798722 -0.1865695855245772 0 0.29633044677016263 -0.195901297387581 0 0.31600320587805553 -0.21287234257384771 0 0.29027794704362753 -0.210438230376047 0 0.29995521209158987 -0.22449123532283499 0 0.31600320587805553 -0.21287234257384771 0 0.29027794704362753 -0.210438230376047 0 0.29633044677016263 -0.195901297387581 0 0.31600320587805553 -0.21287234257384771 0 0.29995521209158987 -0.22449123532283499 0 0.29374351144436228 -0.23742812762270171 0 0.31371984494433958 -0.23379526266890979 0 0.29995521209158987 -0.22449123532283499 0 0.31600320587805553 -0.21287234257384771 0 0.31371984494433958 -0.23379526266890979 0 0.29374351144436228 -0.23742812762270171 0 0.31371984494433958 -0.23379526266890979 0 0.30497721120055121 -0.2528550804722447 0 0.29374351144436228 -0.23742812762270171 0 0.28190586271836621 -0.2482709691267555 0 0.30497721120055121 -0.2528550804722447 0 0.29374351144436228 -0.23742812762270171 0 0.28190586271836621 -0.2482709691267555 0 0.27371623876408652 -0.23304464177302289 0 0.29995521209158987 -0.22449123532283499 0 0.29374351144436228 -0.23742812762270171 0 0.28418290850395711 -0.2243860114821494 0 0.29374351144436228 -0.23742812762270171 0 0.28418290850395711 -0.2243860114821494 0 0.27371623876408652 -0.23304464177302289 0 0.29027794704362753 -0.210438230376047 0 0.29995521209158987 -0.22449123532283499 0 0.28418290850395711 -0.2243860114821494 0 0.28418290850395711 -0.2243860114821494 0 0.27371623876408652 -0.23304464177302289 0 0.27067066375116983 -0.22213137782245029 0 0.27371623876408652 -0.23304464177302289 0 0.27067066375116983 -0.22213137782245029 0 0.25581560275970988 -0.22328036523005279 0 0.28418290850395711 -0.2243860114821494 0 0.27067066375116983 -0.22213137782245029 0 0.27500762628273362 -0.21428172845855301 0 0.28190586271836621 -0.2482709691267555 0 0.2588345142361817 -0.2436868577812632 0 0.28190586271836621 -0.2482709691267555 0 0.27371623876408652 -0.23304464177302289 0 0.2588345142361817 -0.2436868577812632 0 0.2588345142361817 -0.2436868577812632 0 0.25197439650864428 -0.24232380162828601 0 0.25066576011535319 -0.23432551104963531 0 0.2588345142361817 -0.2436868577812632 0 0.25323092408648729 -0.24670316067535791 0 0.25386491405316808 -0.25320302537436762 0 0.2588345142361817 -0.2436868577812632 0 0.25197439650864428 -0.24232380162828601 0 0.25323092408648729 -0.24670316067535791 0 0.2588345142361817 -0.2436868577812632 0 0.25197439650864428 -0.24232380162828601 0 0.25197439650864428 -0.24232380162828601 0 0.25323092408648729 -0.24670316067535791 0 0.248249871547954 -0.24759895791751499 0 0.25323092408648729 -0.24670316067535791 0 0.25386491405316808 -0.25320302537436762 0 0.248249871547954 -0.24759895791751499 0 0.2588345142361817 -0.2436868577812632 0 0.25066576011535319 -0.23432551104963531 0 0.25581560275970988 -0.22328036523005279 0 0.27371623876408652 -0.23304464177302289 0 0.2588345142361817 -0.2436868577812632 0 0.25581560275970988 -0.22328036523005279 0 0.2588345142361817 -0.2436868577812632 0 0.25581560275970988 -0.22328036523005279 0 0.27371623876408652 -0.23304464177302289 0 0.25581560275970988 -0.22328036523005279 0 0.27067066375116983 -0.22213137782245029 0 0.25581560275970988 -0.22328036523005279 0 0.2646309424453645 -0.21566414216847321 0 0.25581560275970988 -0.22328036523005279 0 0.2540204803298135 -0.21114613977177321 0 0.25581560275970988 -0.22328036523005279 0 0.2540204803298135 -0.21114613977177321 0 0.24170514255856271 -0.21558351940183401 0 0.2540204803298135 -0.21114613977177321 0 0.27040190929638058 -0.2052436935248533 0 0.2540204803298135 -0.21114613977177321 0 0.27040190929638058 -0.2052436935248533 0 0.25881279457663681 -0.19869367513495079 0 0.2540204803298135 -0.21114613977177321 0 0.2646309424453645 -0.21566414216847321 0 0.27040190929638058 -0.2052436935248533 0 0.25581560275970988 -0.22328036523005279 0 0.2540204803298135 -0.21114613977177321 0 0.2646309424453645 -0.21566414216847321 0 0.29027794704362753 -0.210438230376047 0 0.27040190929638058 -0.2052436935248533 0 0.27500762628273362 -0.21428172845855301 0 0.2646309424453645 -0.21566414216847321 0 0.27040190929638058 -0.2052436935248533 0 0.27500762628273362 -0.21428172845855301 0 0.27067066375116983 -0.22213137782245029 0 0.2646309424453645 -0.21566414216847321 0 0.27500762628273362 -0.21428172845855301 0 0.27040190929638058 -0.2052436935248533 0 0.27500762628273362 -0.21428172845855301 0 0.29633044677016263 -0.195901297387581 0 0.27040190929638058 -0.2052436935248533 0 0.27667387139246707 -0.17894421337549499 0 0.27040190929638058 -0.2052436935248533 0 0.26542812833690349 -0.1897510134221613 0 0.27667387139246707 -0.17894421337549499 0 0.27040190929638058 -0.2052436935248533 0 0.25881279457663681 -0.19869367513495079 0 0.26032421605240202 -0.1854677186093141 0 0.2540204803298135 -0.21114613977177321 0 0.25062543226040762 -0.18819713193262769 0 0.27040190929638058 -0.2052436935248533 0 0.26542812833690349 -0.1897510134221613 0 0.26032421605240202 -0.1854677186093141 0 0.2540204803298135 -0.21114613977177321 0 0.25881279457663681 -0.19869367513495079 0 0.25062543226040762 -0.18819713193262769 0 0.27040190929638058 -0.2052436935248533 0 0.26032421605240202 -0.1854677186093141 0 0.25881279457663681 -0.19869367513495079 0 0.25062543226040762 -0.18819713193262769 0 0.26032421605240202 -0.1854677186093141 0 0.25062543226040762 -0.18819713193262769 0 0.26032421605240202 -0.1854677186093141 0 0.25024652280842458 -0.16569174369377421 0 0.26032421605240202 -0.1854677186093141 0 0.25024652280842458 -0.16569174369377421 0 0.26032421605240202 -0.1854677186093141 0 0.25024652280842458 -0.16569174369377421 0 0.26358600699813839 -0.16765374126582569 0 0.26358600699813839 -0.16765374126582569 0 0.24524563438093519 -0.1518321022820697 0 0.24608907216877149 -0.15753336482950031 0 0.26358600699813839 -0.16765374126582569 0 0.24524563438093519 -0.1518321022820697 0 0.26358600699813839 -0.16765374126582569 0 0.25761523173290779 -0.15335629499607109 0 0.24524563438093519 -0.1518321022820697 0 0.25024652280842458 -0.16569174369377421 0 0.26358600699813839 -0.16765374126582569 0 0.24608907216877149 -0.15753336482950031 0 0.25024652280842458 -0.16569174369377421 0 0.26358600699813839 -0.16765374126582569 0 0.26358600699813839 -0.16765374126582569 0 0.26742670077740288 -0.1622255910678452 0 0.26485210115727659 -0.15590769583953751 0 0.26358600699813839 -0.16765374126582569 0 0.25761523173290779 -0.15335629499607109 0 0.26485210115727659 -0.15590769583953751 0 0.26742670077740288 -0.1622255910678452 0 0.29410636307742238 -0.16219214541309609 0 0.26358600699813839 -0.16765374126582569 0 0.26742670077740288 -0.1622255910678452 0 0.28512609189239629 -0.1708218993192567 0 0.26742670077740288 -0.1622255910678452 0 0.27573776582566201 -0.15670643055952799 0 0.29410636307742238 -0.16219214541309609 0 0.26358600699813839 -0.16765374126582569 0 0.28512609189239629 -0.1708218993192567 0 0.26742670077740288 -0.1622255910678452 0 0.27573776582566201 -0.15670643055952799 0 0.26485210115727659 -0.15590769583953751 0 0.26032421605240202 -0.1854677186093141 0 0.26358600699813839 -0.16765374126582569 0 0.27667387139246707 -0.17894421337549499 0 0.27667387139246707 -0.17894421337549499 0 0.28512609189239629 -0.1708218993192567 0 0.26542812833690349 -0.1897510134221613 0 0.26032421605240202 -0.1854677186093141 0 0.27667387139246707 -0.17894421337549499 0 0.26358600699813839 -0.16765374126582569 0 0.27667387139246707 -0.17894421337549499 0 0.28512609189239629 -0.1708218993192567 0 0.26542812833690349 -0.1897510134221613 0 0.27667387139246707 -0.17894421337549499 0 0.26358600699813839 -0.16765374126582569 0 0.27667387139246707 -0.17894421337549499 0 0.25714316953967481 -0.12625740199524019 0 0.25128781742515011 -0.13950093605967059 0 0.26223615253914528 -0.14393454235255221 0 0.25714316953967481 -0.12625740199524019 0 0.26223615253914528 -0.14393454235255221 0 0.26897520157625998 -0.1328870277942788 0 0.25714316953967481 -0.12625740199524019 0 0.25128781742515011 -0.13950093605967059 0 0.24180340605901829 -0.12856417701889181 0 0.26223615253914528 -0.14393454235255221 0 0.25368177802147079 -0.1472340405715877 0 0.25761523173290779 -0.15335629499607109 0 0.25128781742515011 -0.13950093605967059 0 0.25368177802147079 -0.1472340405715877 0 0.24524563438093519 -0.1518321022820697 0 0.25128781742515011 -0.13950093605967059 0 0.26223615253914528 -0.14393454235255221 0 0.25368177802147079 -0.1472340405715877 0 0.25368177802147079 -0.1472340405715877 0 0.25761523173290779 -0.15335629499607109 0 0.24524563438093519 -0.1518321022820697 0 0.26223615253914528 -0.14393454235255221 0 0.25761523173290779 -0.15335629499607109 0 0.26485210115727659 -0.15590769583953751 0 0.27573776582566201 -0.15670643055952799 0 0.26485210115727659 -0.15590769583953751 0 0.27085545307601661 -0.1511574255005918 0 0.26223615253914528 -0.14393454235255221 0 0.26485210115727659 -0.15590769583953751 0 0.27085545307601661 -0.1511574255005918 0 0.27573776582566201 -0.15670643055952799 0 0.27085545307601661 -0.1511574255005918 0 0.28193764797745752 -0.15202512143028021 0 0.27085545307601661 -0.1511574255005918 0 0.27609191515394288 -0.14289143374821081 0 0.28193764797745752 -0.15202512143028021 0 0.26223615253914528 -0.14393454235255221 0 0.27085545307601661 -0.1511574255005918 0 0.27609191515394288 -0.14289143374821081 0 0.27559535103823302 -0.1174327644075662 0 0.25714316953967481 -0.12625740199524019 0 0.26897520157625998 -0.1328870277942788 0 0.26223615253914528 -0.14393454235255221 0 0.27609191515394288 -0.14289143374821081 0 0.26897520157625998 -0.1328870277942788 0 0.27609191515394288 -0.14289143374821081 0 0.26897520157625998 -0.1328870277942788 0 0.28074997340674762 -0.1328481343337076 0 0.27559535103823302 -0.1174327644075662 0 0.26897520157625998 -0.1328870277942788 0 0.28074997340674762 -0.1328481343337076 0 0.27609191515394288 -0.14289143374821081 0 0.28074997340674762 -0.1328481343337076 0 0.29293372750021929 -0.14278356467441569 0 0.28074997340674762 -0.1328481343337076 0 0.2889900094259964 -0.125854928553322 0 0.29293372750021929 -0.14278356467441569 0 0.2889900094259964 -0.125854928553322 0 0.29293372750021929 -0.14278356467441569 0 0.30100003341970238 -0.1288840262782221 0 0.27559535103823302 -0.1174327644075662 0 0.28074997340674762 -0.1328481343337076 0 0.2889900094259964 -0.125854928553322 0 0.27609191515394288 -0.14289143374821081 0 0.29293372750021929 -0.14278356467441569 0 0.28193764797745752 -0.15202512143028021 0 0.29293372750021929 -0.14278356467441569 0 0.28193764797745752 -0.15202512143028021 0 0.29403746522192942 -0.15165929985547771 0 0.28193764797745752 -0.15202512143028021 0 0.29403746522192942 -0.15165929985547771 0 0.29410636307742238 -0.16219214541309609 0 0.29403746522192942 -0.15165929985547771 0 0.30717212233261859 -0.14963636790411899 0 0.29410636307742238 -0.16219214541309609 0 0.30717212233261859 -0.14963636790411899 0 0.29410636307742238 -0.16219214541309609 0 0.30717212233261859 -0.14963636790411899 0 0.30816088505568823 -0.1377125000266935 0 0.32023788158781491 -0.13708059039514181 0 0.29293372750021929 -0.14278356467441569 0 0.30717212233261859 -0.14963636790411899 0 0.30816088505568823 -0.1377125000266935 0 0.29293372750021929 -0.14278356467441569 0 0.29403746522192942 -0.15165929985547771 0 0.30717212233261859 -0.14963636790411899 0 0.29293372750021929 -0.14278356467441569 0 0.30816088505568823 -0.1377125000266935 0 0.30100003341970238 -0.1288840262782221 0 0.30816088505568823 -0.1377125000266935 0 0.30100003341970238 -0.1288840262782221 0 0.31416361058857512 -0.1257411416618846 0 0.29633044677016263 -0.195901297387581 0 0.27667387139246707 -0.17894421337549499 0 0.29636533853419061 -0.18084320761501821 0 0.29633044677016263 -0.195901297387581 0 0.27667387139246707 -0.17894421337549499 0 0.27667387139246707 -0.17894421337549499 0 0.29636533853419061 -0.18084320761501821 0 0.28512609189239629 -0.1708218993192567 0 0.27573776582566201 -0.15670643055952799 0 0.28193764797745752 -0.15202512143028021 0 0.29410636307742238 -0.16219214541309609 0 0.28512609189239629 -0.1708218993192567 0 0.29410636307742238 -0.16219214541309609 0 0.31001408801308561 -0.17448247474087991 0 0.26742670077740288 -0.1622255910678452 0 0.28512609189239629 -0.1708218993192567 0 0.29410636307742238 -0.16219214541309609 0 0.28512609189239629 -0.1708218993192567 0 0.29410636307742238 -0.16219214541309609 0 0.30717212233261859 -0.14963636790411899 0 0.29410636307742238 -0.16219214541309609 0 0.31504971029686563 -0.16216589080940139 0 0.29410636307742238 -0.16219214541309609 0 0.31001408801308561 -0.17448247474087991 0 0.31504971029686563 -0.16216589080940139 0 0.29410636307742238 -0.16219214541309609 0 0.31504971029686563 -0.16216589080940139 0 0.29636533853419061 -0.18084320761501821 0 0.28512609189239629 -0.1708218993192567 0 0.31001408801308561 -0.17448247474087991 0 0.28512609189239629 -0.1708218993192567 0 0.31001408801308561 -0.17448247474087991 0 0.29633044677016263 -0.195901297387581 0 0.31001408801308561 -0.17448247474087991 0 0.32222933150798722 -0.1865695855245772 0 0.29633044677016263 -0.195901297387581 0 0.29636533853419061 -0.18084320761501821 0 0.31001408801308561 -0.17448247474087991 0 0.31001408801308561 -0.17448247474087991 0 0.33490208413377481 -0.1781430501625024 0 0.31001408801308561 -0.17448247474087991 0 0.32222933150798722 -0.1865695855245772 0 0.33490208413377481 -0.1781430501625024 0 0.31001408801308561 -0.17448247474087991 0 0.3239897349900086 -0.16923276297962259 0 0.33490208413377481 -0.1781430501625024 0 0.31001408801308561 -0.17448247474087991 0 0.31504971029686563 -0.16216589080940139 0 0.3239897349900086 -0.16923276297962259 0 0.31504971029686563 -0.16216589080940139 0 0.33599305751630881 -0.16213963620570679 0 0.31504971029686563 -0.16216589080940139 0 0.33599305751630881 -0.16213963620570679 0 0.32177903056081408 -0.15047849468233479 0 0.31504971029686563 -0.16216589080940139 0 0.3239897349900086 -0.16923276297962259 0 0.33599305751630881 -0.16213963620570679 0 0.33599305751630881 -0.16213963620570679 0 0.33490208413377481 -0.1781430501625024 0 0.34690540666007491 -0.1710499233885866 0 0.3239897349900086 -0.16923276297962259 0 0.33599305751630881 -0.16213963620570679 0 0.33490208413377481 -0.1781430501625024 0 0.33490208413377481 -0.1781430501625024 0 0.34560695199872438 -0.19005754862271201 0 0.33353067179606188 -0.18982317789335329 0 0.32222933150798722 -0.1865695855245772 0 0.33490208413377481 -0.1781430501625024 0 0.33353067179606188 -0.18982317789335329 0 0.32895781439821231 -0.1238583557131271 0 0.32023788158781491 -0.13708059039514181 0 0.33380306993011671 -0.13735144632418769 0 0.32895781439821231 -0.1238583557131271 0 0.31416361058857512 -0.1257411416618846 0 0.32023788158781491 -0.13708059039514181 0 0.30816088505568823 -0.1377125000266935 0 0.31416361058857512 -0.1257411416618846 0 0.32023788158781491 -0.13708059039514181 0 0.32023788158781491 -0.13708059039514181 0 0.32177903056081408 -0.15047849468233479 0 0.33300422268548963 -0.14715074650075091 0 0.30717212233261859 -0.14963636790411899 0 0.32023788158781491 -0.13708059039514181 0 0.32177903056081408 -0.15047849468233479 0 0.30717212233261859 -0.14963636790411899 0 0.32023788158781491 -0.13708059039514181 0 0.30717212233261859 -0.14963636790411899 0 0.31504971029686563 -0.16216589080940139 0 0.32177903056081408 -0.15047849468233479 0 0.33599305751630881 -0.16213963620570679 0 0.32177903056081408 -0.15047849468233479 0 0.33300422268548963 -0.14715074650075091 0 0.33599305751630881 -0.16213963620570679 0 0.34184469136461137 -0.15400459131780189 0 0.33300422268548963 -0.14715074650075091 0 0.34184469136461137 -0.15400459131780189 0 0.34102695255118037 -0.14548713102568411 0 0.33300422268548963 -0.14715074650075091 0 0.34102695255118037 -0.14548713102568411 0 0.33300422268548963 -0.14715074650075091 0 0.33380306993011671 -0.13735144632418769 0 0.34451815611333692 -0.12244443903013021 0 0.32895781439821231 -0.1238583557131271 0 0.34763047166482058 -0.13775577099654959 0 0.32895781439821231 -0.1238583557131271 0 0.33380306993011671 -0.13735144632418769 0 0.34763047166482058 -0.13775577099654959 0 0.32895781439821231 -0.1238583557131271 0 0.34763047166482058 -0.13775577099654959 0 0.32023788158781491 -0.13708059039514181 0 0.33300422268548963 -0.14715074650075091 0 0.33380306993011671 -0.13735144632418769 0 0.34102695255118037 -0.14548713102568411 0 0.33380306993011671 -0.13735144632418769 0 0.34763047166482058 -0.13775577099654959 0 0.34451815611333692 -0.12244443903013021 0 0.34763047166482058 -0.13775577099654959 0 0.35611169577451762 -0.13291884750042329 0 0.34763047166482058 -0.13775577099654959 0 0.35611169577451762 -0.13291884750042329 0 0.36249251937016669 -0.13851173098105801 0 0.34763047166482058 -0.13775577099654959 0 0.36260606054103928 -0.14387930707110819 0 0.36249251937016669 -0.13851173098105801 0 0.34763047166482058 -0.13775577099654959 0 0.36300229719017729 -0.15180929521568651 0 0.36630312893142891 -0.15165318627997221 0 0.34763047166482058 -0.13775577099654959 0 0.36630312893142891 -0.15165318627997221 0 0.34763047166482058 -0.13775577099654959 0 0.36630312893142891 -0.15165318627997221 0 0.36260606054103928 -0.14387930707110819 0 0.34763047166482058 -0.13775577099654959 0 0.34970586770367951 -0.15091934852983979 0 0.36300229719017729 -0.15180929521568651 0 0.34102695255118037 -0.14548713102568411 0 0.34763047166482058 -0.13775577099654959 0 0.34970586770367951 -0.15091934852983979 0 0.34184469136461137 -0.15400459131780189 0 0.34102695255118037 -0.14548713102568411 0 0.34970586770367951 -0.15091934852983979 0 0.34184469136461137 -0.15400459131780189 0 0.34970586770367951 -0.15091934852983979 0 0.35693640473575189 -0.16211338160201219 0 0.34970586770367951 -0.15091934852983979 0 0.35613071560112852 -0.15470157966812739 0 0.35693640473575189 -0.16211338160201219 0 0.34970586770367951 -0.15091934852983979 0 0.35613071560112852 -0.15470157966812739 0 0.36300229719017729 -0.15180929521568651 0 0.35613071560112852 -0.15470157966812739 0 0.36300229719017729 -0.15180929521568651 0 0.36489622701181929 -0.1555148176802521 0 0.36300229719017729 -0.15180929521568651 0 0.36630312893142891 -0.15165318627997221 0 0.36300229719017729 -0.15180929521568651 0 0.36630312893142891 -0.15165318627997221 0 0.36489622701181929 -0.1555148176802521 0 0.36630312893142891 -0.15165318627997221 0 0.36489622701181929 -0.1555148176802521 0 0.3705748087045091 -0.15483245031918569 0 0.36630312893142891 -0.15165318627997221 0 0.3705748087045091 -0.15483245031918569 0 0.38169179162591199 -0.15518408856159679 0 0.36630312893142891 -0.15165318627997221 0 0.3705748087045091 -0.15483245031918569 0 0.36630312893142891 -0.15165318627997221 0 0.36755991562152518 -0.1469017772041471 0 0.37313699566520231 -0.1480168571040065 0 0.36755991562152518 -0.1469017772041471 0 0.37313699566520231 -0.1480168571040065 0 0.36895084966996172 -0.14328651858434571 0 0.37313699566520231 -0.1480168571040065 0 0.37420086480716408 -0.1416071316206837 0 0.36895084966996172 -0.14328651858434571 0 0.36895084966996172 -0.14328651858434571 0 0.36260606054103928 -0.14387930707110819 0 0.36249251937016669 -0.13851173098105801 0 0.36630312893142891 -0.15165318627997221 0 0.36755991562152518 -0.1469017772041471 0 0.36260606054103928 -0.14387930707110819 0 0.36755991562152518 -0.1469017772041471 0 0.36895084966996172 -0.14328651858434571 0 0.36260606054103928 -0.14387930707110819 0 0.35611169577451762 -0.13291884750042329 0 0.36249251937016669 -0.13851173098105801 0 0.36471155533314309 -0.13279719099472551 0 0.36249251937016669 -0.13851173098105801 0 0.37267421445309079 -0.13604810540039131 0 0.36471155533314309 -0.13279719099472551 0 0.36895084966996172 -0.14328651858434571 0 0.36249251937016669 -0.13851173098105801 0 0.37267421445309079 -0.13604810540039131 0 0.37420086480716408 -0.1416071316206837 0 0.36895084966996172 -0.14328651858434571 0 0.37267421445309079 -0.13604810540039131 0 0.36687133745860512 -0.1213659082631299 0 0.37267421445309079 -0.13604810540039131 0 0.37934526714571698 -0.12786193233624291 0 0.36687133745860512 -0.1213659082631299 0 0.37267421445309079 -0.13604810540039131 0 0.36471155533314309 -0.13279719099472551 0 0.36687133745860512 -0.1213659082631299 0 0.35611169577451762 -0.13291884750042329 0 0.36471155533314309 -0.13279719099472551 0 0.33490208413377481 -0.1781430501625024 0 0.34690540666007491 -0.1710499233885866 0 0.35979008025446407 -0.18180362558412499 0 0.33490208413377481 -0.1781430501625024 0 0.35979008025446407 -0.18180362558412499 0 0.34560695199872438 -0.19005754862271201 0 0.33490208413377481 -0.1781430501625024 0 0.35979008025446407 -0.18180362558412499 0 0.33599305751630881 -0.16213963620570679 0 0.35693640473575189 -0.16211338160201219 0 0.33599305751630881 -0.16213963620570679 0 0.34184469136461137 -0.15400459131780189 0 0.35693640473575189 -0.16211338160201219 0 0.33599305751630881 -0.16213963620570679 0 0.34690540666007491 -0.1710499233885866 0 0.35693640473575189 -0.16211338160201219 0 0.34690540666007491 -0.1710499233885866 0 0.35693640473575189 -0.16211338160201219 0 0.35979008025446407 -0.18180362558412499 0 0.35613071560112852 -0.15470157966812739 0 0.35693640473575189 -0.16211338160201219 0 0.36394621224956419 -0.1598639222781538 0 0.35693640473575189 -0.16211338160201219 0 0.36994828377527827 -0.16794445722425241 0 0.35979008025446407 -0.18180362558412499 0 0.35613071560112852 -0.15470157966812739 0 0.36489622701181929 -0.1555148176802521 0 0.36394621224956419 -0.1598639222781538 0 0.35693640473575189 -0.16211338160201219 0 0.36394621224956419 -0.1598639222781538 0 0.36994828377527827 -0.16794445722425241 0 0.36489622701181929 -0.1555148176802521 0 0.36394621224956419 -0.1598639222781538 0 0.3701206054386712 -0.16075078407834481 0 0.36394621224956419 -0.1598639222781538 0 0.3701206054386712 -0.16075078407834481 0 0.36994828377527827 -0.16794445722425241 0 0.36489622701181929 -0.1555148176802521 0 0.3705748087045091 -0.15483245031918569 0 0.3701206054386712 -0.16075078407834481 0 0.3701206054386712 -0.16075078407834481 0 0.36994828377527827 -0.16794445722425241 0 0.37544308960223038 -0.1612723916201502 0 0.3705748087045091 -0.15483245031918569 0 0.3701206054386712 -0.16075078407834481 0 0.37544308960223038 -0.1612723916201502 0 0.35979008025446407 -0.18180362558412499 0 0.38454256259675512 -0.19152135360312181 0 0.37959461904936381 -0.17768443351098989 0 0.36994828377527827 -0.16794445722425241 0 0.35979008025446407 -0.18180362558412499 0 0.37959461904936381 -0.17768443351098989 0 0.35979008025446407 -0.18180362558412499 0 0.3588701023512762 -0.19863102322489029 0 0.38454256259675512 -0.19152135360312181 0 0.36820913577280923 -0.2126592136090513 0 0.3588701023512762 -0.19863102322489029 0 0.38454256259675512 -0.19152135360312181 0 0.34793537609164399 -0.2152770821942504 0 0.3588701023512762 -0.19863102322489029 0 0.34094182145804491 -0.20188686624868879 0 0.36820913577280923 -0.2126592136090513 0 0.34793537609164399 -0.2152770821942504 0 0.3588701023512762 -0.19863102322489029 0 0.35979008025446407 -0.18180362558412499 0 0.3588701023512762 -0.19863102322489029 0 0.34560695199872438 -0.19005754862271201 0 0.3588701023512762 -0.19863102322489029 0 0.34560695199872438 -0.19005754862271201 0 0.34094182145804491 -0.20188686624868879 0 0.34560695199872438 -0.19005754862271201 0 0.33353067179606188 -0.18982317789335329 0 0.34094182145804491 -0.20188686624868879 0 0.32222933150798722 -0.1865695855245772 0 0.33353067179606188 -0.18982317789335329 0 0.32929273892129929 -0.20063857095823109 0 0.33353067179606188 -0.18982317789335329 0 0.32929273892129929 -0.20063857095823109 0 0.34094182145804491 -0.20188686624868879 0 0.34793537609164399 -0.2152770821942504 0 0.34094182145804491 -0.20188686624868879 0 0.33375866396634718 -0.21204088255068851 0 0.33375866396634718 -0.21204088255068851 0 0.31600320587805553 -0.21287234257384771 0 0.33567596498594909 -0.22984338776011351 0 0.32929273892129929 -0.20063857095823109 0 0.34094182145804491 -0.20188686624868879 0 0.33375866396634718 -0.21204088255068851 0 0.32929273892129929 -0.20063857095823109 0 0.33375866396634718 -0.21204088255068851 0 0.31600320587805553 -0.21287234257384771 0 0.32222933150798722 -0.1865695855245772 0 0.32929273892129929 -0.20063857095823109 0 0.31600320587805553 -0.21287234257384771 0 0.32653859469191748 -0.24178225554840641 0 0.31371984494433958 -0.23379526266890979 0 0.33567596498594909 -0.22984338776011351 0 0.32653859469191748 -0.24178225554840641 0 0.31371984494433958 -0.23379526266890979 0 0.30497721120055121 -0.2528550804722447 0 0.31600320587805553 -0.21287234257384771 0 0.33567596498594909 -0.22984338776011351 0 0.31600320587805553 -0.21287234257384771 0 0.31371984494433958 -0.23379526266890979 0 0.33567596498594909 -0.22984338776011351 0 0.34793537609164399 -0.2152770821942504 0 0.33375866396634718 -0.21204088255068851 0 0.33567596498594909 -0.22984338776011351 0 0.32653859469191748 -0.24178225554840641 0 0.34032025475604288 -0.24597905592601871 0 0.32804855968273622 -0.25743919181773389 0 0.32653859469191748 -0.24178225554840641 0 0.33567596498594909 -0.22984338776011351 0 0.34032025475604288 -0.24597905592601871 0 0.33567596498594909 -0.22984338776011351 0 0.34032025475604288 -0.24597905592601871 0 0.35187570894886327 -0.2337970736149807 0 0.34032025475604288 -0.24597905592601871 0 0.35187570894886327 -0.2337970736149807 0 0.36772626503734462 -0.24296258440931301 0 0.36820913577280923 -0.2126592136090513 0 0.34793537609164399 -0.2152770821942504 0 0.35187570894886327 -0.2337970736149807 0 0.34793537609164399 -0.2152770821942504 0 0.33567596498594909 -0.22984338776011351 0 0.35187570894886327 -0.2337970736149807 0 0.36820913577280923 -0.2126592136090513 0 0.35187570894886327 -0.2337970736149807 0 0.36820913577280923 -0.2126592136090513 0 0.36803593291719611 -0.22833018432218519 0 0.38433262190976708 -0.22390186565539591 0 0.36820913577280923 -0.2126592136090513 0 0.35187570894886327 -0.2337970736149807 0 0.36803593291719611 -0.22833018432218519 0 0.36803593291719611 -0.22833018432218519 0 0.36772626503734462 -0.24296258440931301 0 0.38433262190976708 -0.22390186565539591 0 0.35187570894886327 -0.2337970736149807 0 0.36803593291719611 -0.22833018432218519 0 0.36772626503734462 -0.24296258440931301 0 0.36772626503734462 -0.24296258440931301 0 0.38564067262130652 -0.24145240856989039 0 0.38433262190976708 -0.22390186565539591 0 0.38564067262130652 -0.24145240856989039 0 0.40145004411333041 -0.2496888160430551 0 0.40164625255347108 -0.22434503779707851 0 0.36772626503734462 -0.24296258440931301 0 0.38433262190976708 -0.22390186565539591 0 0.38564067262130652 -0.24145240856989039 0 0.40164625255347108 -0.22434503779707851 0 0.38433262190976708 -0.22390186565539591 0 0.36820913577280923 -0.2126592136090513 0 0.38450582476538031 -0.20823089494226191 0 0.38454256259675512 -0.19152135360312181 0 0.36820913577280923 -0.2126592136090513 0 0.38433262190976708 -0.22390186565539591 0 0.38450582476538031 -0.20823089494226191 0 0.38433262190976708 -0.22390186565539591 0 0.38450582476538031 -0.20823089494226191 0 0.4009389787821897 -0.20484114690147881 0 0.38450582476538031 -0.20823089494226191 0 0.38454256259675512 -0.19152135360312181 0 0.4009389787821897 -0.20484114690147881 0 0.36820913577280923 -0.2126592136090513 0 0.38454256259675512 -0.19152135360312181 0 0.38454256259675512 -0.19152135360312181 0 0.40097571661356451 -0.18813160556233871 0 0.4009389787821897 -0.20484114690147881 0 0.38433262190976708 -0.22390186565539591 0 0.4009389787821897 -0.20484114690147881 0 0.40164625255347108 -0.22434503779707851 0 0.38433262190976708 -0.22390186565539591 0 0.4009389787821897 -0.20484114690147881 0 0.4009389787821897 -0.20484114690147881 0 0.42197140069364603 -0.20451959593293789 0 0.41797273543946079 -0.2214307613472668 0 0.40164625255347108 -0.22434503779707851 0 0.4009389787821897 -0.20484114690147881 0 0.41797273543946079 -0.2214307613472668 0 0.40097571661356451 -0.18813160556233871 0 0.4009389787821897 -0.20484114690147881 0 0.41754533565461222 -0.1857804281475616 0 0.4009389787821897 -0.20484114690147881 0 0.42197140069364603 -0.20451959593293789 0 0.41754533565461222 -0.1857804281475616 0 0.4009389787821897 -0.20484114690147881 0 0.41754533565461222 -0.1857804281475616 0 0.43418195274878052 -0.18916072511572829 0 0.42197140069364603 -0.20451959593293789 0 0.41754533565461222 -0.1857804281475616 0 0.43418195274878052 -0.18916072511572829 0 0.42197140069364603 -0.20451959593293789 0 0.43972182083517841 -0.20497935141943099 0 0.42197140069364603 -0.20451959593293789 0 0.43601308236479769 -0.22401782482047161 0 0.41797273543946079 -0.2214307613472668 0 0.42197140069364603 -0.20451959593293789 0 0.43601308236479769 -0.22401782482047161 0 0.43972182083517841 -0.20497935141943099 0 0.43601308236479769 -0.22401782482047161 0 0.41717534153579289 -0.23691120554676501 0 0.41797273543946079 -0.2214307613472668 0 0.43601308236479769 -0.22401782482047161 0 0.4290778299626834 -0.24702053500163029 0 0.41717534153579289 -0.23691120554676501 0 0.40145004411333041 -0.2496888160430551 0 0.40164625255347108 -0.22434503779707851 0 0.41717534153579289 -0.23691120554676501 0 0.4290778299626834 -0.24702053500163029 0 0.41717534153579289 -0.23691120554676501 0 0.41689210478101463 -0.25496425827108782 0 0.40145004411333041 -0.2496888160430551 0 0.41717534153579289 -0.23691120554676501 0 0.41689210478101463 -0.25496425827108782 0 0.40164625255347108 -0.22434503779707851 0 0.41717534153579289 -0.23691120554676501 0 0.41797273543946079 -0.2214307613472668 0 0.38773856045518612 -0.1436095047094976 0 0.40772513449223857 -0.12640229317473009 0 0.38896835962477971 -0.13190306515461811 0 0.38773856045518612 -0.1436095047094976 0 0.40772513449223857 -0.12640229317473009 0 0.38896787802519001 -0.1207049854734311 0 0.38896835962477971 -0.13190306515461811 0 0.40772513449223857 -0.12640229317473009 0 0.40192505034360793 -0.13987640102446561 0 0.38773856045518612 -0.1436095047094976 0 0.40772513449223857 -0.12640229317473009 0 0.38896787802519001 -0.1207049854734311 0 0.38896835962477971 -0.13190306515461811 0 0.37934526714571698 -0.12786193233624291 0 0.37267421445309079 -0.13604810540039131 0 0.37934526714571698 -0.12786193233624291 0 0.38047861840771863 -0.1393443798777575 0 0.37420086480716408 -0.1416071316206837 0 0.37267421445309079 -0.13604810540039131 0 0.38047861840771863 -0.1393443798777575 0 0.38896835962477971 -0.13190306515461811 0 0.38047861840771863 -0.1393443798777575 0 0.38773856045518612 -0.1436095047094976 0 0.38896835962477971 -0.13190306515461811 0 0.37934526714571698 -0.12786193233624291 0 0.38047861840771863 -0.1393443798777575 0 0.36630312893142891 -0.15165318627997221 0 0.37313699566520231 -0.1480168571040065 0 0.39175627258803852 -0.15044940993561889 0 0.36630312893142891 -0.15165318627997221 0 0.39175627258803852 -0.15044940993561889 0 0.38448738444913588 -0.14488404012349629 0 0.37797608634560043 -0.14613286597111111 0 0.39175627258803852 -0.15044940993561889 0 0.36630312893142891 -0.15165318627997221 0 0.38169179162591199 -0.15518408856159679 0 0.39175627258803852 -0.15044940993561889 0 0.37313699566520231 -0.1480168571040065 0 0.37797608634560043 -0.14613286597111111 0 0.39175627258803852 -0.15044940993561889 0 0.38773856045518612 -0.1436095047094976 0 0.38448738444913588 -0.14488404012349629 0 0.39175627258803852 -0.15044940993561889 0 0.38047861840771863 -0.1393443798777575 0 0.38773856045518612 -0.1436095047094976 0 0.38448738444913588 -0.14488404012349629 0 0.38047861840771863 -0.1393443798777575 0 0.38448738444913588 -0.14488404012349629 0 0.37797608634560043 -0.14613286597111111 0 0.37313699566520231 -0.1480168571040065 0 0.37420086480716408 -0.1416071316206837 0 0.37797608634560043 -0.14613286597111111 0 0.37420086480716408 -0.1416071316206837 0 0.38047861840771863 -0.1393443798777575 0 0.37797608634560043 -0.14613286597111111 0 0.38169179162591199 -0.15518408856159679 0 0.39175627258803852 -0.15044940993561889 0 0.39414613950458233 -0.16140920911323539 0 0.39175627258803852 -0.15044940993561889 0 0.39414613950458233 -0.16140920911323539 0 0.41720941624464802 -0.1492456335912643 0 0.40192505034360793 -0.13987640102446561 0 0.39647567435389153 -0.14427130524424761 0 0.41720941624464802 -0.1492456335912643 0 0.39175627258803852 -0.15044940993561889 0 0.41720941624464802 -0.1492456335912643 0 0.39175627258803852 -0.15044940993561889 0 0.39647567435389153 -0.14427130524424761 0 0.41720941624464802 -0.1492456335912643 0 0.40192505034360793 -0.13987640102446561 0 0.38773856045518612 -0.1436095047094976 0 0.39647567435389153 -0.14427130524424761 0 0.38773856045518612 -0.1436095047094976 0 0.39175627258803852 -0.15044940993561889 0 0.39647567435389153 -0.14427130524424761 0 0.40087598942070091 -0.17038349359719249 0 0.39414613950458233 -0.16140920911323539 0 0.38394561079447109 -0.16607588629584311 0 0.40087598942070091 -0.17038349359719249 0 0.39414613950458233 -0.16140920911323539 0 0.41720941624464802 -0.1492456335912643 0 0.38169179162591199 -0.15518408856159679 0 0.39414613950458233 -0.16140920911323539 0 0.38394561079447109 -0.16607588629584311 0 0.40087598942070091 -0.17038349359719249 0 0.38394561079447109 -0.16607588629584311 0 0.37959461904936381 -0.17768443351098989 0 0.3705748087045091 -0.15483245031918569 0 0.38169179162591199 -0.15518408856159679 0 0.37544308960223038 -0.1612723916201502 0 0.38169179162591199 -0.15518408856159679 0 0.37544308960223038 -0.1612723916201502 0 0.38394561079447109 -0.16607588629584311 0 0.36994828377527827 -0.16794445722425241 0 0.38394561079447109 -0.16607588629584311 0 0.37959461904936381 -0.17768443351098989 0 0.36994828377527827 -0.16794445722425241 0 0.37544308960223038 -0.1612723916201502 0 0.38394561079447109 -0.16607588629584311 0 0.38454256259675512 -0.19152135360312181 0 0.40087598942070091 -0.17038349359719249 0 0.37959461904936381 -0.17768443351098989 0 0.38454256259675512 -0.19152135360312181 0 0.40097571661356451 -0.18813160556233871 0 0.40087598942070091 -0.17038349359719249 0 0.38454256259675512 -0.19152135360312181 0 0.40087598942070091 -0.17038349359719249 0 0.40097571661356451 -0.18813160556233871 0 0.40087598942070091 -0.17038349359719249 0 0.41754533565461222 -0.1857804281475616 0 0.40087598942070091 -0.17038349359719249 0 0.41754533565461222 -0.1857804281475616 0 0.41822411837802509 -0.16605516805906281 0 0.43418195274878052 -0.18916072511572829 0 0.41754533565461222 -0.1857804281475616 0 0.43415169252703478 -0.16671970939364439 0 0.41754533565461222 -0.1857804281475616 0 0.43415169252703478 -0.16671970939364439 0 0.41754533565461222 -0.1857804281475616 0 0.43415169252703478 -0.16671970939364439 0 0.41822411837802509 -0.16605516805906281 0 0.42589223999294029 -0.1576182057898674 0 0.43415169252703478 -0.16671970939364439 0 0.43398373282205349 -0.1484523121154982 0 0.42589223999294029 -0.1576182057898674 0 0.43415169252703478 -0.16671970939364439 0 0.41822411837802509 -0.16605516805906281 0 0.40087598942070091 -0.17038349359719249 0 0.41720941624464802 -0.1492456335912643 0 0.40087598942070091 -0.17038349359719249 0 0.41822411837802509 -0.16605516805906281 0 0.41720941624464802 -0.1492456335912643 0 0.42589223999294029 -0.1576182057898674 0 0.41822411837802509 -0.16605516805906281 0 0.41720941624464802 -0.1492456335912643 0 0.40192505034360793 -0.13987640102446561 0 0.41720941624464802 -0.1492456335912643 0 0.41464074220095087 -0.1363824653356904 0 0.41720941624464802 -0.1492456335912643 0 0.42516026708468663 -0.13895606155005519 0 0.41720941624464802 -0.1492456335912643 0 0.42516026708468663 -0.13895606155005519 0 0.41464074220095087 -0.1363824653356904 0 0.42589223999294029 -0.1576182057898674 0 0.41720941624464802 -0.1492456335912643 0 0.43398373282205349 -0.1484523121154982 0 0.41720941624464802 -0.1492456335912643 0 0.43398373282205349 -0.1484523121154982 0 0.41720941624464802 -0.1492456335912643 0 0.43398373282205349 -0.1484523121154982 0 0.42516026708468663 -0.13895606155005519 0 0.43398373282205349 -0.1484523121154982 0 0.42516026708468663 -0.13895606155005519 0 0.43304986969256998 -0.13827979419825759 0 0.43398373282205349 -0.1484523121154982 0 0.43304986969256998 -0.13827979419825759 0 0.44017064890941732 -0.13682632965372679 0 0.42516026708468663 -0.13895606155005519 0 0.43304986969256998 -0.13827979419825759 0 0.43288482995412281 -0.12888447347375009 0 0.43304986969256998 -0.13827979419825759 0 0.43288482995412281 -0.12888447347375009 0 0.44017064890941732 -0.13682632965372679 0 0.42516026708468663 -0.13895606155005519 0 0.43288482995412281 -0.12888447347375009 0 0.421624536452258 -0.12796407503483759 0 0.421624536452258 -0.12796407503483759 0 0.41464074220095087 -0.1363824653356904 0 0.40772513449223857 -0.12640229317473009 0 0.42516026708468663 -0.13895606155005519 0 0.421624536452258 -0.12796407503483759 0 0.41464074220095087 -0.1363824653356904 0 0.40192505034360793 -0.13987640102446561 0 0.41464074220095087 -0.1363824653356904 0 0.40772513449223857 -0.12640229317473009 0 0.46516948817156339 -0.139323830068559 0 0.45651442139283538 -0.13264038282879251 0 0.47020393245064562 -0.12539652889200301 0 0.45777406588341779 -0.1195765590237757 0 0.45651442139283538 -0.13264038282879251 0 0.47020393245064562 -0.12539652889200301 0 0.45651442139283538 -0.13264038282879251 0 0.45295008788994878 -0.13885291283412579 0 0.45637462923642169 -0.14278272966533001 0 0.46516948817156339 -0.139323830068559 0 0.45651442139283538 -0.13264038282879251 0 0.45637462923642169 -0.14278272966533001 0 0.44496682310404811 -0.12396741451712889 0 0.45651442139283538 -0.13264038282879251 0 0.44869532770928072 -0.13619050508093661 0 0.44496682310404811 -0.12396741451712889 0 0.45777406588341779 -0.1195765590237757 0 0.45651442139283538 -0.13264038282879251 0 0.44496682310404811 -0.12396741451712889 0 0.44017064890941732 -0.13682632965372679 0 0.44869532770928072 -0.13619050508093661 0 0.44496682310404811 -0.12396741451712889 0 0.43288482995412281 -0.12888447347375009 0 0.44017064890941732 -0.13682632965372679 0 0.44017064890941732 -0.13682632965372679 0 0.44869532770928072 -0.13619050508093661 0 0.44671231757003121 -0.14276239932647061 0 0.45651442139283538 -0.13264038282879251 0 0.44869532770928072 -0.13619050508093661 0 0.45295008788994878 -0.13885291283412579 0 0.44869532770928072 -0.13619050508093661 0 0.45085766738940319 -0.1420935913253748 0 0.44671231757003121 -0.14276239932647061 0 0.44869532770928072 -0.13619050508093661 0 0.45295008788994878 -0.13885291283412579 0 0.45085766738940319 -0.1420935913253748 0 0.43398373282205349 -0.1484523121154982 0 0.45075804939945868 -0.1476589906397284 0 0.45085766738940319 -0.1420935913253748 0 0.4521169288564697 -0.14609927351756899 0 0.44671231757003121 -0.14276239932647061 0 0.45085766738940319 -0.1420935913253748 0 0.4521169288564697 -0.14609927351756899 0 0.45637462923642169 -0.14278272966533001 0 0.43415169252703478 -0.16671970939364439 0 0.43398373282205349 -0.1484523121154982 0 0.45075804939945868 -0.1476589906397284 0 0.43398373282205349 -0.1484523121154982 0 0.45075804939945868 -0.1476589906397284 0 0.44671231757003121 -0.14276239932647061 0 0.4521169288564697 -0.14609927351756899 0 0.45075804939945868 -0.1476589906397284 0 0.44671231757003121 -0.14276239932647061 0 0.4521169288564697 -0.14609927351756899 0 0.45075804939945868 -0.1476589906397284 0 0.43398373282205349 -0.1484523121154982 0 0.44017064890941732 -0.13682632965372679 0 0.44671231757003121 -0.14276239932647061 0 0.45075804939945868 -0.1476589906397284 0 0.45543211716269938 -0.1548912071291855 0 0.44848973788984048 -0.16019944284887391 0 0.45075804939945868 -0.1476589906397284 0 0.45543211716269938 -0.1548912071291855 0 0.45940277097085358 -0.14725014875082479 0 0.45543211716269938 -0.1548912071291855 0 0.46098623662227961 -0.15292519063305701 0 0.45980762756037502 -0.15868001269222901 0 0.45543211716269938 -0.1548912071291855 0 0.45940277097085358 -0.14725014875082479 0 0.46098623662227961 -0.15292519063305701 0 0.45075804939945868 -0.1476589906397284 0 0.45940277097085358 -0.14725014875082479 0 0.46516948817156339 -0.139323830068559 0 0.45637462923642169 -0.14278272966533001 0 0.45940277097085358 -0.14725014875082479 0 0.4521169288564697 -0.14609927351756899 0 0.45075804939945868 -0.1476589906397284 0 0.45940277097085358 -0.14725014875082479 0 0.4521169288564697 -0.14609927351756899 0 0.45637462923642169 -0.14278272966533001 0 0.45940277097085358 -0.14725014875082479 0 0.45295008788994878 -0.13885291283412579 0 0.45085766738940319 -0.1420935913253748 0 0.45637462923642169 -0.14278272966533001 0 0.46516948817156339 -0.139323830068559 0 0.46621146084104198 -0.14956773348005131 0 0.47465778796527192 -0.14684490999407029 0 0.46516948817156339 -0.139323830068559 0 0.45940277097085358 -0.14725014875082479 0 0.46621146084104198 -0.14956773348005131 0 0.46621146084104198 -0.14956773348005131 0 0.4652070233339472 -0.157035959827376 0 0.4718454579823369 -0.154026361606421 0 0.46621146084104198 -0.14956773348005131 0 0.46098623662227961 -0.15292519063305701 0 0.4652070233339472 -0.157035959827376 0 0.46098623662227961 -0.15292519063305701 0 0.4652070233339472 -0.157035959827376 0 0.45980762756037502 -0.15868001269222901 0 0.45940277097085358 -0.14725014875082479 0 0.46621146084104198 -0.14956773348005131 0 0.46098623662227961 -0.15292519063305701 0 0.4652070233339472 -0.157035959827376 0 0.46286744076032738 -0.16549253384130999 0 0.47045223126953062 -0.16164815024186571 0 0.4652070233339472 -0.157035959827376 0 0.46286744076032738 -0.16549253384130999 0 0.45980762756037502 -0.15868001269222901 0 0.46286744076032738 -0.16549253384130999 0 0.46951150885829501 -0.1680088203879895 0 0.47045223126953062 -0.16164815024186571 0 0.46286744076032738 -0.16549253384130999 0 0.46555055399416778 -0.1770653644366123 0 0.46951150885829501 -0.1680088203879895 0 0.46286744076032738 -0.16549253384130999 0 0.45454531992262109 -0.16305517203021619 0 0.45536489124933111 -0.17385481705334391 0 0.45543211716269938 -0.1548912071291855 0 0.45454531992262109 -0.16305517203021619 0 0.45980762756037502 -0.15868001269222901 0 0.46286744076032738 -0.16549253384130999 0 0.45454531992262109 -0.16305517203021619 0 0.45980762756037502 -0.15868001269222901 0 0.43415169252703478 -0.16671970939364439 0 0.45075804939945868 -0.1476589906397284 0 0.45454531992262109 -0.16305517203021619 0 0.44848973788984048 -0.16019944284887391 0 0.44756151043738818 -0.1686721350515947 0 0.45543211716269938 -0.1548912071291855 0 0.45454531992262109 -0.16305517203021619 0 0.44848973788984048 -0.16019944284887391 0 0.43415169252703478 -0.16671970939364439 0 0.45075804939945868 -0.1476589906397284 0 0.44848973788984048 -0.16019944284887391 0 0.43415169252703478 -0.16671970939364439 0 0.44848973788984048 -0.16019944284887391 0 0.44756151043738818 -0.1686721350515947 0 0.43415169252703478 -0.16671970939364439 0 0.44756151043738818 -0.1686721350515947 0 0.44595221863432999 -0.18016812065101601 0 0.45454531992262109 -0.16305517203021619 0 0.44756151043738818 -0.1686721350515947 0 0.45536489124933111 -0.17385481705334391 0 0.44756151043738818 -0.1686721350515947 0 0.44595221863432999 -0.18016812065101601 0 0.45536489124933111 -0.17385481705334391 0 0.44595221863432999 -0.18016812065101601 0 0.45536489124933111 -0.17385481705334391 0 0.45745658488548041 -0.1909956381018702 0 0.43418195274878052 -0.18916072511572829 0 0.43415169252703478 -0.16671970939364439 0 0.44595221863432999 -0.18016812065101601 0 0.43418195274878052 -0.18916072511572829 0 0.44595221863432999 -0.18016812065101601 0 0.44592354217405772 -0.19309668585923839 0 0.45536489124933111 -0.17385481705334391 0 0.46555055399416778 -0.1770653644366123 0 0.45745658488548041 -0.1909956381018702 0 0.46286744076032738 -0.16549253384130999 0 0.45536489124933111 -0.17385481705334391 0 0.46555055399416778 -0.1770653644366123 0 0.46555055399416778 -0.1770653644366123 0 0.45745658488548041 -0.1909956381018702 0 0.46814575317361068 -0.18902075496499929 0 0.46555055399416778 -0.1770653644366123 0 0.47488627598877481 -0.18091750052182959 0 0.46814575317361068 -0.18902075496499929 0 0.47488627598877481 -0.18091750052182959 0 0.46814575317361068 -0.18902075496499929 0 0.47634529827268551 -0.1895499561854338 0 0.46555055399416778 -0.1770653644366123 0 0.47342070314426932 -0.17351844604803779 0 0.46951150885829501 -0.1680088203879895 0 0.46555055399416778 -0.1770653644366123 0 0.47488627598877481 -0.18091750052182959 0 0.47342070314426932 -0.17351844604803779 0 0.47488627598877481 -0.18091750052182959 0 0.47342070314426932 -0.17351844604803779 0 0.48012836222189259 -0.17450789914843759 0 0.48012836222189259 -0.17450789914843759 0 0.48597687039807258 -0.1825864202493056 0 0.48648208505466473 -0.1730087811035384 0 0.47488627598877481 -0.18091750052182959 0 0.48012836222189259 -0.17450789914843759 0 0.48597687039807258 -0.1825864202493056 0 0.47488627598877481 -0.18091750052182959 0 0.48597687039807258 -0.1825864202493056 0 0.47634529827268551 -0.1895499561854338 0 0.5 -0.17387929514154879 0 0.49468319507837633 -0.16965650610549429 0 0.49190947142339952 -0.19202459910302519 0 0.49468319507837633 -0.16965650610549429 0 0.49190947142339952 -0.19202459910302519 0 0.48597687039807258 -0.1825864202493056 0 0.49468319507837633 -0.16965650610549429 0 0.49190947142339952 -0.19202459910302519 0 0.48597687039807258 -0.1825864202493056 0 0.48648208505466473 -0.1730087811035384 0 0.49468319507837633 -0.16965650610549429 0 0.48648208505466473 -0.1730087811035384 0 0.48513991252031752 -0.16528429891091601 0 0.49468319507837633 -0.16965650610549429 0 0.48513991252031752 -0.16528429891091601 0 0.49468319507837633 -0.16965650610549429 0 0.49332939270463178 -0.1600102340030361 0 0.5 -0.17387929514154879 0 0.49332939270463178 -0.1600102340030361 0 0.5 -0.1483576665936098 0 0.5 -0.17387929514154879 0 0.49468319507837633 -0.16965650610549429 0 0.49332939270463178 -0.1600102340030361 0 0.48513991252031752 -0.16528429891091601 0 0.49332939270463178 -0.1600102340030361 0 0.48383328033249068 -0.15753316587190849 0 0.48513991252031752 -0.16528429891091601 0 0.48383328033249068 -0.15753316587190849 0 0.47709478943198941 -0.15966256650374741 0 0.48513991252031752 -0.16528429891091601 0 0.47709478943198941 -0.15966256650374741 0 0.47702681465821622 -0.16709264574532001 0 0.48383328033249068 -0.15753316587190849 0 0.47709478943198941 -0.15966256650374741 0 0.47849550134649022 -0.15349662699134969 0 0.48012836222189259 -0.17450789914843759 0 0.48513991252031752 -0.16528429891091601 0 0.47702681465821622 -0.16709264574532001 0 0.48012836222189259 -0.17450789914843759 0 0.48648208505466473 -0.1730087811035384 0 0.48513991252031752 -0.16528429891091601 0 0.47342070314426932 -0.17351844604803779 0 0.48012836222189259 -0.17450789914843759 0 0.47702681465821622 -0.16709264574532001 0 0.47342070314426932 -0.17351844604803779 0 0.47702681465821622 -0.16709264574532001 0 0.46951150885829501 -0.1680088203879895 0 0.47702681465821622 -0.16709264574532001 0 0.46951150885829501 -0.1680088203879895 0 0.47045223126953062 -0.16164815024186571 0 0.4652070233339472 -0.157035959827376 0 0.47045223126953062 -0.16164815024186571 0 0.4718454579823369 -0.154026361606421 0 0.47709478943198941 -0.15966256650374741 0 0.47045223126953062 -0.16164815024186571 0 0.4718454579823369 -0.154026361606421 0 0.47709478943198941 -0.15966256650374741 0 0.47702681465821622 -0.16709264574532001 0 0.47045223126953062 -0.16164815024186571 0 0.46516948817156339 -0.139323830068559 0 0.47465778796527192 -0.14684490999407029 0 0.4816025288110326 -0.1366911401945044 0 0.46621146084104198 -0.14956773348005131 0 0.4718454579823369 -0.154026361606421 0 0.47465778796527192 -0.14684490999407029 0 0.4718454579823369 -0.154026361606421 0 0.47465778796527192 -0.14684490999407029 0 0.47849550134649022 -0.15349662699134969 0 0.47709478943198941 -0.15966256650374741 0 0.4718454579823369 -0.154026361606421 0 0.47849550134649022 -0.15349662699134969 0 0.47465778796527192 -0.14684490999407029 0 0.48504619102036189 -0.14941613098060111 0 0.4816025288110326 -0.1366911401945044 0 0.47465778796527192 -0.14684490999407029 0 0.47849550134649022 -0.15349662699134969 0 0.48504619102036189 -0.14941613098060111 0 0.48383328033249068 -0.15753316587190849 0 0.47849550134649022 -0.15349662699134969 0 0.48504619102036189 -0.14941613098060111 0 0.49332939270463178 -0.1600102340030361 0 0.48383328033249068 -0.15753316587190849 0 0.48504619102036189 -0.14941613098060111 0 0.48504619102036189 -0.14941613098060111 0 0.5 -0.1483576665936098 0 0.4816025288110326 -0.1366911401945044 0 0.49332939270463178 -0.1600102340030361 0 0.48504619102036189 -0.14941613098060111 0 0.5 -0.1483576665936098 0 0.5 -0.1228360380456708 0 0.5 -0.1483576665936098 0 0.4816025288110326 -0.1366911401945044 0 0.48382002177701522 -0.1227013099542493 0 0.5 -0.1228360380456708 0 0.4816025288110326 -0.1366911401945044 0 0.48382002177701522 -0.1227013099542493 0 0.4816025288110326 -0.1366911401945044 0 0.47020393245064562 -0.12539652889200301 0 0.46516948817156339 -0.139323830068559 0 0.4816025288110326 -0.1366911401945044 0 0.47020393245064562 -0.12539652889200301 0 0.44909713589793021 -0.23614458736793911 0 0.46911644183317702 -0.22526863973424791 0 0.4544237346258948 -0.2238867324498735 0 0.44909713589793021 -0.23614458736793911 0 0.46911644183317702 -0.22526863973424791 0 0.4670199711534348 -0.2373669376632109 0 0.44909713589793021 -0.23614458736793911 0 0.46911644183317702 -0.22526863973424791 0 0.4544237346258948 -0.2238867324498735 0 0.46164477179460989 -0.21313512344351421 0 0.46911644183317702 -0.22526863973424791 0 0.4670199711534348 -0.2373669376632109 0 0.45748699074700511 -0.24323846191157741 0 0.44909713589793021 -0.23614458736793911 0 0.4670199711534348 -0.2373669376632109 0 0.46867489932131168 -0.24397543042975489 0 0.45748699074700511 -0.24323846191157741 0 0.4670199711534348 -0.2373669376632109 0 0.46867489932131168 -0.24397543042975489 0 0.46867489932131168 -0.24397543042975489 0 0.4555925344803532 -0.25193252229481511 0 0.46867489932131168 -0.24397543042975489 0 0.45748699074700511 -0.24323846191157741 0 0.4555925344803532 -0.25193252229481511 0 0.45748699074700511 -0.24323846191157741 0 0.44675293214547279 -0.24764514414716671 0 0.4555925344803532 -0.25193252229481511 0 0.4290778299626834 -0.24702053500163029 0 0.44909713589793021 -0.23614458736793911 0 0.43601308236479769 -0.22401782482047161 0 0.4290778299626834 -0.24702053500163029 0 0.44909713589793021 -0.23614458736793911 0 0.4290778299626834 -0.24702053500163029 0 0.44909713589793021 -0.23614458736793911 0 0.44675293214547279 -0.24764514414716671 0 0.45748699074700511 -0.24323846191157741 0 0.44909713589793021 -0.23614458736793911 0 0.44675293214547279 -0.24764514414716671 0 0.43601308236479769 -0.22401782482047161 0 0.4544237346258948 -0.2238867324498735 0 0.4491256774590513 -0.21376212422558399 0 0.43601308236479769 -0.22401782482047161 0 0.4544237346258948 -0.2238867324498735 0 0.44909713589793021 -0.23614458736793911 0 0.43601308236479769 -0.22401782482047161 0 0.43972182083517841 -0.20497935141943099 0 0.4491256774590513 -0.21376212422558399 0 0.43972182083517841 -0.20497935141943099 0 0.4491256774590513 -0.21376212422558399 0 0.4538249776747757 -0.2027915889946296 0 0.43418195274878052 -0.18916072511572829 0 0.43972182083517841 -0.20497935141943099 0 0.44592354217405772 -0.19309668585923839 0 0.44592354217405772 -0.19309668585923839 0 0.45745658488548041 -0.1909956381018702 0 0.4538249776747757 -0.2027915889946296 0 0.43972182083517841 -0.20497935141943099 0 0.44592354217405772 -0.19309668585923839 0 0.4538249776747757 -0.2027915889946296 0 0.44595221863432999 -0.18016812065101601 0 0.44592354217405772 -0.19309668585923839 0 0.45745658488548041 -0.1909956381018702 0 0.45745658488548041 -0.1909956381018702 0 0.4538249776747757 -0.2027915889946296 0 0.46981065415282081 -0.19947123090009361 0 0.45745658488548041 -0.1909956381018702 0 0.46814575317361068 -0.18902075496499929 0 0.46981065415282081 -0.19947123090009361 0 0.4538249776747757 -0.2027915889946296 0 0.46164477179460989 -0.21313512344351421 0 0.46981065415282081 -0.19947123090009361 0 0.4544237346258948 -0.2238867324498735 0 0.4491256774590513 -0.21376212422558399 0 0.46164477179460989 -0.21313512344351421 0 0.4491256774590513 -0.21376212422558399 0 0.4538249776747757 -0.2027915889946296 0 0.46164477179460989 -0.21313512344351421 0 0.46164477179460989 -0.21313512344351421 0 0.4742845616896289 -0.21085081092845351 0 0.46981065415282081 -0.19947123090009361 0 0.46164477179460989 -0.21313512344351421 0 0.4742845616896289 -0.21085081092845351 0 0.46911644183317702 -0.22526863973424791 0 0.4742845616896289 -0.21085081092845351 0 0.4891357477684235 -0.2143926921005562 0 0.46911644183317702 -0.22526863973424791 0 0.4742845616896289 -0.21085081092845351 0 0.46981065415282081 -0.19947123090009361 0 0.48288096403378439 -0.20240323837728769 0 0.4742845616896289 -0.21085081092845351 0 0.48288096403378439 -0.20240323837728769 0 0.4891357477684235 -0.2143926921005562 0 0.46814575317361068 -0.18902075496499929 0 0.47634529827268551 -0.1895499561854338 0 0.46981065415282081 -0.19947123090009361 0 0.47634529827268551 -0.1895499561854338 0 0.46981065415282081 -0.19947123090009361 0 0.48332754174745501 -0.19391085028142269 0 0.46981065415282081 -0.19947123090009361 0 0.48288096403378439 -0.20240323837728769 0 0.48332754174745501 -0.19391085028142269 0 0.48597687039807258 -0.1825864202493056 0 0.47634529827268551 -0.1895499561854338 0 0.48332754174745501 -0.19391085028142269 0 0.5 -0.19940092368948781 0 0.49190947142339952 -0.19202459910302519 0 0.49692774042822091 -0.21015951316797171 0 0.5 -0.17387929514154879 0 0.5 -0.19940092368948781 0 0.49190947142339952 -0.19202459910302519 0 0.48288096403378439 -0.20240323837728769 0 0.49190947142339952 -0.19202459910302519 0 0.4891357477684235 -0.2143926921005562 0 0.48597687039807258 -0.1825864202493056 0 0.48332754174745501 -0.19391085028142269 0 0.49190947142339952 -0.19202459910302519 0 0.48288096403378439 -0.20240323837728769 0 0.48332754174745501 -0.19391085028142269 0 0.49190947142339952 -0.19202459910302519 0 0.49190947142339952 -0.19202459910302519 0 0.4891357477684235 -0.2143926921005562 0 0.5 -0.19940092368948781 0 0.49692774042822091 -0.21015951316797171 0 0.50000000000000067 -0.2249225522374268 0 0.49190947142339952 -0.19202459910302519 0 0.4891357477684235 -0.2143926921005562 0 0.49692774042822091 -0.21015951316797171 0 0.4891357477684235 -0.2143926921005562 0 0.49692774042822091 -0.21015951316797171 0 0.50000000000000067 -0.2249225522374268 0 0.4891357477684235 -0.2143926921005562 0 0.49692774042822091 -0.21015951316797171 0 0.4891357477684235 -0.2143926921005562 0 0.4868372355390817 -0.23292854559466611 0 0.4891357477684235 -0.2143926921005562 0 0.50000000000000067 -0.2249225522374268 0 0.4868372355390817 -0.23292854559466611 0 0.50000000000000067 -0.2249225522374268 0 0.4868372355390817 -0.23292854559466611 0 0.4891357477684235 -0.2143926921005562 0 0.47633223221221788 -0.23224665809830561 0 0.46911644183317702 -0.22526863973424791 0 0.4891357477684235 -0.2143926921005562 0 0.4868372355390817 -0.23292854559466611 0 0.47633223221221788 -0.23224665809830561 0 0.4891357477684235 -0.2143926921005562 0 0.46911644183317702 -0.22526863973424791 0 0.4670199711534348 -0.2373669376632109 0 0.47633223221221788 -0.23224665809830561 0 0.46911644183317702 -0.22526863973424791 0 0.46867489932131168 -0.24397543042975489 0 0.4868372355390817 -0.23292854559466611 0 0.48313863766716503 -0.26275508617709509 0 0.46867489932131168 -0.24397543042975489 0 0.4868372355390817 -0.23292854559466611 0 0.46867489932131168 -0.24397543042975489 0 0.4868372355390817 -0.23292854559466611 0 0.47633223221221788 -0.23224665809830561 0 0.4670199711534348 -0.2373669376632109 0 0.46867489932131168 -0.24397543042975489 0 0.47633223221221788 -0.23224665809830561 0 0.4868372355390817 -0.23292854559466611 0 0.48313863766716503 -0.26275508617709509 0 0.50000000000000067 -0.2249225522374268 0 0.4868372355390817 -0.23292854559466611 0 0.49999999999999889 -0.24840549914797311 0 0.4868372355390817 -0.23292854559466611 0 0.49999999999999889 -0.24840549914797311 0 0.48313863766716503 -0.26275508617709509 0 0.49999999999999889 -0.24840549914797311 0 0.5 -0.27748659581670992 0 0.48313863766716503 -0.26275508617709509 0 0.49999999999999889 -0.24840549914797311 0 0.48313863766716503 -0.26275508617709509 0 0.5 -0.27748659581670992 0 0.48313863766716503 -0.26275508617709509 0 0.47990602504593238 -0.28882378974349288 0 0.48313863766716503 -0.26275508617709509 0 0.47990602504593238 -0.28882378974349288 0 0.47509256119521043 -0.26960256814790201 0 0.47990602504593238 -0.28882378974349288 0 0.47509256119521043 -0.26960256814790201 0 0.48313863766716503 -0.26275508617709509 0 0.47990602504593238 -0.28882378974349288 0 0.47509256119521043 -0.26960256814790201 0 0.48313863766716503 -0.26275508617709509 0 0.46867489932131168 -0.24397543042975489 0 0.47509256119521043 -0.26960256814790201 0 0.48313863766716503 -0.26275508617709509 0 0.46867489932131168 -0.24397543042975489 0 0.47509256119521043 -0.26960256814790201 0 0.46867489932131168 -0.24397543042975489 0 0.4555925344803532 -0.25193252229481511 0 0.4608845685754287 -0.26226574080977172 0 0.46867489932131168 -0.24397543042975489 0 0.47509256119521043 -0.26960256814790201 0 0.4608845685754287 -0.26226574080977172 0 0.4608845685754287 -0.26226574080977172 0 0.45040077340535178 -0.27050347686580928 0 0.45234701152513151 -0.26114783853256701 0 0.4555925344803532 -0.25193252229481511 0 0.4608845685754287 -0.26226574080977172 0 0.45234701152513151 -0.26114783853256701 0 0.47509256119521043 -0.26960256814790201 0 0.45643579092402181 -0.28548010777988642 0 0.47509256119521043 -0.26960256814790201 0 0.4608845685754287 -0.26226574080977172 0 0.4580770499152288 -0.2745029891267835 0 0.47509256119521043 -0.26960256814790201 0 0.4580770499152288 -0.2745029891267835 0 0.45643579092402181 -0.28548010777988642 0 0.4580770499152288 -0.2745029891267835 0 0.45540788796665171 -0.28274457620785731 0 0.45643579092402181 -0.28548010777988642 0 0.4580770499152288 -0.2745029891267835 0 0.45024071742470889 -0.27642146494947439 0 0.45540788796665171 -0.28274457620785731 0 0.4608845685754287 -0.26226574080977172 0 0.4580770499152288 -0.2745029891267835 0 0.45040077340535178 -0.27050347686580928 0 0.43937942713585643 -0.27955983608736062 0 0.45540788796665171 -0.28274457620785731 0 0.45040077340535178 -0.27050347686580928 0 0.44438673800001621 -0.27486377776619558 0 0.4413463193266085 -0.26899481355847782 0 0.45024071742470889 -0.27642146494947439 0 0.43937942713585643 -0.27955983608736062 0 0.45540788796665171 -0.28274457620785731 0 0.4580770499152288 -0.2745029891267835 0 0.45040077340535178 -0.27050347686580928 0 0.45024071742470889 -0.27642146494947439 0 0.45040077340535178 -0.27050347686580928 0 0.45024071742470889 -0.27642146494947439 0 0.44438673800001621 -0.27486377776619558 0 0.45024071742470889 -0.27642146494947439 0 0.44438673800001621 -0.27486377776619558 0 0.43937942713585643 -0.27955983608736062 0 0.44438673800001621 -0.27486377776619558 0 0.43949501796783957 -0.27798546909175109 0 0.4413463193266085 -0.26899481355847782 0 0.44438673800001621 -0.27486377776619558 0 0.43949501796783957 -0.27798546909175109 0 0.43937942713585643 -0.27955983608736062 0 0.43949501796783957 -0.27798546909175109 0 0.43937942713585643 -0.27955983608736062 0 0.45040077340535178 -0.27050347686580928 0 0.4413463193266085 -0.26899481355847782 0 0.44251016963939249 -0.25988961415987177 0 0.4290778299626834 -0.24702053500163029 0 0.44675293214547279 -0.24764514414716671 0 0.44251016963939249 -0.25988961415987177 0 0.44675293214547279 -0.24764514414716671 0 0.4555925344803532 -0.25193252229481511 0 0.44251016963939249 -0.25988961415987177 0 0.4555925344803532 -0.25193252229481511 0 0.44251016963939249 -0.25988961415987177 0 0.4555925344803532 -0.25193252229481511 0 0.44251016963939249 -0.25988961415987177 0 0.45234701152513151 -0.26114783853256701 0 0.45040077340535178 -0.27050347686580928 0 0.44251016963939249 -0.25988961415987177 0 0.45234701152513151 -0.26114783853256701 0 0.4481493358266222 -0.30848679276895707 0 0.43777902065283397 -0.30135764741187199 0 0.4550680443550823 -0.30013645195060301 0 0.4481493358266222 -0.30848679276895707 0 0.45673616153024238 -0.3096044328723182 0 0.45121931543447269 -0.31895611259124912 0 0.4481493358266222 -0.30848679276895707 0 0.43777902065283397 -0.30135764741187199 0 0.43677783085869498 -0.31499402445996522 0 0.43937942713585643 -0.27955983608736062 0 0.43777902065283397 -0.30135764741187199 0 0.43777902065283397 -0.30135764741187199 0 0.45643579092402181 -0.28548010777988642 0 0.4550680443550823 -0.30013645195060301 0 0.43777902065283397 -0.30135764741187199 0 0.45643579092402181 -0.28548010777988642 0 0.43937942713585643 -0.27955983608736062 0 0.45540788796665171 -0.28274457620785731 0 0.45643579092402181 -0.28548010777988642 0 0.43937942713585643 -0.27955983608736062 0 0.43777902065283397 -0.30135764741187199 0 0.45643579092402181 -0.28548010777988642 0 0.45643579092402181 -0.28548010777988642 0 0.4550680443550823 -0.30013645195060301 0 0.46990730023812288 -0.30098268980242637 0 0.45643579092402181 -0.28548010777988642 0 0.46990730023812288 -0.30098268980242637 0 0.47990602504593238 -0.28882378974349288 0 0.4550680443550823 -0.30013645195060301 0 0.45673616153024238 -0.3096044328723182 0 0.46990730023812288 -0.30098268980242637 0 0.4481493358266222 -0.30848679276895707 0 0.4550680443550823 -0.30013645195060301 0 0.45673616153024238 -0.3096044328723182 0 0.45673616153024238 -0.3096044328723182 0 0.46990730023812288 -0.30098268980242637 0 0.46562687833612199 -0.3161612720167265 0 0.47990602504593238 -0.28882378974349288 0 0.47663335564593678 -0.31521552251683982 0 0.47990602504593238 -0.28882378974349288 0 0.48576637597183631 -0.31222546206680218 0 0.46990730023812288 -0.30098268980242637 0 0.47663335564593678 -0.31521552251683982 0 0.46562687833612199 -0.3161612720167265 0 0.47990602504593238 -0.28882378974349288 0 0.48576637597183631 -0.31222546206680218 0 0.47663335564593678 -0.31521552251683982 0 0.46990730023812288 -0.30098268980242637 0 0.47990602504593238 -0.28882378974349288 0 0.47663335564593678 -0.31521552251683982 0 0.47509256119521043 -0.26960256814790201 0 0.45643579092402181 -0.28548010777988642 0 0.47990602504593238 -0.28882378974349288 0 0.5 -0.27748659581670992 0 0.47990602504593238 -0.28882378974349288 0 0.5 -0.30656769248544657 0 0.47990602504593238 -0.28882378974349288 0 0.5 -0.30656769248544657 0 0.48576637597183631 -0.31222546206680218 0 0.48576637597183631 -0.31222546206680218 0 0.49162672689773962 -0.33562713439011188 0 0.5 -0.30656769248544657 0 0.48576637597183631 -0.31222546206680218 0 0.4975615845803133 -0.33289003993394428 0 0.5 -0.30656769248544657 0 0.5 -0.33564878915418328 0 0.4975615845803133 -0.33289003993394428 0 0.48576637597183631 -0.31222546206680218 0 0.4975615845803133 -0.33289003993394428 0 0.49162672689773962 -0.33562713439011188 0 0.48576637597183631 -0.31222546206680218 0 0.49162672689773962 -0.33562713439011188 0 0.48184678619036359 -0.32616884356598519 0 0.5 -0.33564878915418328 0 0.4975615845803133 -0.33289003993394428 0 0.49162672689773962 -0.33562713439011188 0 0.4975615845803133 -0.33289003993394428 0 0.49162672689773962 -0.33562713439011188 0 0.49162672689773962 -0.33562713439011188 0 0.47415862135150499 -0.34368324245665022 0 0.48491193757748452 -0.34635298003343518 0 0.49162672689773962 -0.33562713439011188 0 0.47336068624594191 -0.34160725529018687 0 0.48184678619036359 -0.32616884356598519 0 0.47336068624594191 -0.34160725529018687 0 0.47663335564593678 -0.31521552251683982 0 0.49162672689773962 -0.33562713439011188 0 0.47336068624594191 -0.34160725529018687 0 0.47415862135150499 -0.34368324245665022 0 0.47336068624594191 -0.34160725529018687 0 0.46967454574889872 -0.32565691568590382 0 0.4674088108138279 -0.33276739168625102 0 0.49162672689773962 -0.33562713439011188 0 0.47415862135150499 -0.34368324245665022 0 0.47336068624594191 -0.34160725529018687 0 0.47415862135150499 -0.34368324245665022 0 0.46335215826825449 -0.33874699138397518 0 0.47336068624594191 -0.34160725529018687 0 0.47663335564593678 -0.31521552251683982 0 0.48184678619036359 -0.32616884356598519 0 0.47336068624594191 -0.34160725529018687 0 0.46967454574889872 -0.32565691568590382 0 0.47663335564593678 -0.31521552251683982 0 0.46967454574889872 -0.32565691568590382 0 0.47663335564593678 -0.31521552251683982 0 0.46562687833612199 -0.3161612720167265 0 0.48576637597183631 -0.31222546206680218 0 0.47663335564593678 -0.31521552251683982 0 0.48184678619036359 -0.32616884356598519 0 0.48464718275066548 -0.37000042591148991 0 0.49301507150618312 -0.37189770981711351 0 0.48760851842882119 -0.3805090112330145 0 0.48464718275066548 -0.37000042591148991 0 0.49301507150618312 -0.37189770981711351 0 0.48795413870534737 -0.36173576930170293 0 0.49301507150618312 -0.37189770981711351 0 0.49788058915226469 -0.36060018414189771 0 0.48795413870534737 -0.36173576930170293 0 0.49301507150618312 -0.37189770981711351 0 0.5 -0.36472988582291999 0 0.49788058915226469 -0.36060018414189771 0 0.5 -0.33564878915418328 0 0.49162672689773962 -0.33562713439011188 0 0.49788058915226469 -0.36060018414189771 0 0.5 -0.33564878915418328 0 0.5 -0.36472988582291999 0 0.49788058915226469 -0.36060018414189771 0 0.49162672689773962 -0.33562713439011188 0 0.49788058915226469 -0.36060018414189771 0 0.4904180109444129 -0.35232832749545712 0 0.49162672689773962 -0.33562713439011188 0 0.49788058915226469 -0.36060018414189771 0 0.49162672689773962 -0.33562713439011188 0 0.4904180109444129 -0.35232832749545712 0 0.48491193757748452 -0.34635298003343518 0 0.49788058915226469 -0.36060018414189771 0 0.48795413870534737 -0.36173576930170293 0 0.4904180109444129 -0.35232832749545712 0 0.48795413870534737 -0.36173576930170293 0 0.4904180109444129 -0.35232832749545712 0 0.48344439111628068 -0.35377321579152149 0 0.4904180109444129 -0.35232832749545712 0 0.48491193757748452 -0.34635298003343518 0 0.48344439111628068 -0.35377321579152149 0 0.47415862135150499 -0.34368324245665022 0 0.47640683138298417 -0.36160214540198049 0 0.45669051580527081 -0.35173935052318928 0 0.47415862135150499 -0.34368324245665022 0 0.48344439111628068 -0.35377321579152149 0 0.47640683138298417 -0.36160214540198049 0 0.47415862135150499 -0.34368324245665022 0 0.48491193757748452 -0.34635298003343518 0 0.48344439111628068 -0.35377321579152149 0 0.48795413870534737 -0.36173576930170293 0 0.48344439111628068 -0.35377321579152149 0 0.47640683138298417 -0.36160214540198049 0 0.48464718275066548 -0.37000042591148991 0 0.48795413870534737 -0.36173576930170293 0 0.47640683138298417 -0.36160214540198049 0 0.47640683138298417 -0.36160214540198049 0 0.46908166597951451 -0.37460501904918281 0 0.47848205287062279 -0.37470614756839637 0 0.48464718275066548 -0.37000042591148991 0 0.47640683138298417 -0.36160214540198049 0 0.47848205287062279 -0.37470614756839637 0 0.46908166597951451 -0.37460501904918281 0 0.45930975068696622 -0.37243274284069788 0 0.45669051580527081 -0.35173935052318928 0 0.46908166597951451 -0.37460501904918281 0 0.45669051580527081 -0.35173935052318928 0 0.45930975068696622 -0.37243274284069788 0 0.45669051580527081 -0.35173935052318928 0 0.44847442544694838 -0.36532926213325839 0 0.47640683138298417 -0.36160214540198049 0 0.46908166597951451 -0.37460501904918281 0 0.45669051580527081 -0.35173935052318928 0 0.47415862135150499 -0.34368324245665022 0 0.45669051580527081 -0.35173935052318928 0 0.47415862135150499 -0.34368324245665022 0 0.45669051580527081 -0.35173935052318928 0 0.46335215826825449 -0.33874699138397518 0 0.45669051580527081 -0.35173935052318928 0 0.44452919438551691 -0.34618747493383228 0 0.43328752684601668 -0.36253256491250813 0 0.45669051580527081 -0.35173935052318928 0 0.44452919438551691 -0.34618747493383228 0 0.44673417333198262 -0.3333666874915775 0 0.45669051580527081 -0.35173935052318928 0 0.43328752684601668 -0.36253256491250813 0 0.44452919438551691 -0.34618747493383228 0 0.43503267885235641 -0.33876329468623673 0 0.43328752684601668 -0.36253256491250813 0 0.45669051580527081 -0.35173935052318928 0 0.44847442544694838 -0.36532926213325839 0 0.43328752684601668 -0.36253256491250813 0 0.44847442544694838 -0.36532926213325839 0 0.44460990844953979 -0.37461239025663851 0 0.43328752684601668 -0.36253256491250813 0 0.45930975068696622 -0.37243274284069788 0 0.44847442544694838 -0.36532926213325839 0 0.44460990844953979 -0.37461239025663851 0 0.46562687833612199 -0.3161612720167265 0 0.46115270828176919 -0.32758367185036119 0 0.45121931543447269 -0.31895611259124912 0 0.45673616153024238 -0.3096044328723182 0 0.46562687833612199 -0.3161612720167265 0 0.45121931543447269 -0.31895611259124912 0 0.46967454574889872 -0.32565691568590382 0 0.46562687833612199 -0.3161612720167265 0 0.46115270828176919 -0.32758367185036119 0 0.46115270828176919 -0.32758367185036119 0 0.4674088108138279 -0.33276739168625102 0 0.46335215826825449 -0.33874699138397518 0 0.46967454574889872 -0.32565691568590382 0 0.46115270828176919 -0.32758367185036119 0 0.4674088108138279 -0.33276739168625102 0 0.45669051580527081 -0.35173935052318928 0 0.46335215826825449 -0.33874699138397518 0 0.44673417333198262 -0.3333666874915775 0 0.46115270828176919 -0.32758367185036119 0 0.46335215826825449 -0.33874699138397518 0 0.44673417333198262 -0.3333666874915775 0 0.47336068624594191 -0.34160725529018687 0 0.4674088108138279 -0.33276739168625102 0 0.46335215826825449 -0.33874699138397518 0 0.44673417333198262 -0.3333666874915775 0 0.43677783085869498 -0.31499402445996522 0 0.43503267885235641 -0.33876329468623673 0 0.45669051580527081 -0.35173935052318928 0 0.44673417333198262 -0.3333666874915775 0 0.44452919438551691 -0.34618747493383228 0 0.44673417333198262 -0.3333666874915775 0 0.43503267885235641 -0.33876329468623673 0 0.44673417333198262 -0.3333666874915775 0 0.43677783085869498 -0.31499402445996522 0 0.44673417333198262 -0.3333666874915775 0 0.45121931543447269 -0.31895611259124912 0 0.43677783085869498 -0.31499402445996522 0 0.46115270828176919 -0.32758367185036119 0 0.44673417333198262 -0.3333666874915775 0 0.45121931543447269 -0.31895611259124912 0 0.4481493358266222 -0.30848679276895707 0 0.45121931543447269 -0.31895611259124912 0 0.43677783085869498 -0.31499402445996522 0 0.43677783085869498 -0.31499402445996522 0 0.42800695110797649 -0.32359017364295922 0 0.43503267885235641 -0.33876329468623673 0 0.43677783085869498 -0.31499402445996522 0 0.42800695110797649 -0.32359017364295922 0 0.4248240313353227 -0.3123827794862219 0 0.43677783085869498 -0.31499402445996522 0 0.43503267885235641 -0.33876329468623673 0 0.42800695110797649 -0.32359017364295922 0 0.41947117253318988 -0.32199923704192918 0 0.4248240313353227 -0.3123827794862219 0 0.42800695110797649 -0.32359017364295922 0 0.423929041960319 -0.32981153254044249 0 0.41947117253318988 -0.32199923704192918 0 0.43503267885235641 -0.33876329468623673 0 0.423929041960319 -0.32981153254044249 0 0.41929210357627272 -0.33925394697815048 0 0.43503267885235641 -0.33876329468623673 0 0.41929210357627272 -0.33925394697815048 0 0.42191369795179379 -0.34761393021890652 0 0.42800695110797649 -0.32359017364295922 0 0.43503267885235641 -0.33876329468623673 0 0.423929041960319 -0.32981153254044249 0 0.41648467012038543 -0.33035517463873498 0 0.41929210357627272 -0.33925394697815048 0 0.41012349319573788 -0.33599201939161949 0 0.423929041960319 -0.32981153254044249 0 0.41648467012038543 -0.33035517463873498 0 0.41929210357627272 -0.33925394697815048 0 0.41929210357627272 -0.33925394697815048 0 0.41146235460542158 -0.34172801663101549 0 0.41424870034413258 -0.34719658925236602 0 0.41929210357627272 -0.33925394697815048 0 0.41012349319573788 -0.33599201939161949 0 0.41146235460542158 -0.34172801663101549 0 0.41012349319573788 -0.33599201939161949 0 0.41146235460542158 -0.34172801663101549 0 0.40451581098047618 -0.34416153230778829 0 0.41012349319573788 -0.33599201939161949 0 0.40960753933640742 -0.32471913724153301 0 0.40337452199383611 -0.3310102227000421 0 0.41648467012038543 -0.33035517463873498 0 0.41012349319573788 -0.33599201939161949 0 0.40960753933640742 -0.32471913724153301 0 0.40960753933640742 -0.32471913724153301 0 0.41188966107285729 -0.31394667753308941 0 0.41947117253318988 -0.32199923704192918 0 0.40960753933640742 -0.32471913724153301 0 0.41188966107285729 -0.31394667753308941 0 0.40004610660407353 -0.31977683311008082 0 0.41188966107285729 -0.31394667753308941 0 0.41947117253318988 -0.32199923704192918 0 0.4248240313353227 -0.3123827794862219 0 0.41648467012038543 -0.33035517463873498 0 0.40960753933640742 -0.32471913724153301 0 0.41947117253318988 -0.32199923704192918 0 0.423929041960319 -0.32981153254044249 0 0.41648467012038543 -0.33035517463873498 0 0.41947117253318988 -0.32199923704192918 0 0.42411961598993669 -0.36676070976802622 0 0.43228590878381229 -0.37617477504525171 0 0.41968109770174378 -0.37681430329699639 0 0.42411961598993669 -0.36676070976802622 0 0.43228590878381229 -0.37617477504525171 0 0.44460990844953979 -0.37461239025663851 0 0.43328752684601668 -0.36253256491250813 0 0.43228590878381229 -0.37617477504525171 0 0.43328752684601668 -0.36253256491250813 0 0.43228590878381229 -0.37617477504525171 0 0.43328752684601668 -0.36253256491250813 0 0.42411961598993669 -0.36676070976802622 0 0.43228590878381229 -0.37617477504525171 0 0.43328752684601668 -0.36253256491250813 0 0.42411961598993669 -0.36676070976802622 0 0.42263342624904709 -0.35887554818764639 0 0.43328752684601668 -0.36253256491250813 0 0.42411961598993669 -0.36676070976802622 0 0.43503267885235641 -0.33876329468623673 0 0.43328752684601668 -0.36253256491250813 0 0.43503267885235641 -0.33876329468623673 0 0.43328752684601668 -0.36253256491250813 0 0.42636800107948658 -0.3533642211424759 0 0.42636800107948658 -0.3533642211424759 0 0.42191369795179379 -0.34761393021890652 0 0.41775701871169879 -0.35500869134097168 0 0.42636800107948658 -0.3533642211424759 0 0.42263342624904709 -0.35887554818764639 0 0.41775701871169879 -0.35500869134097168 0 0.43328752684601668 -0.36253256491250813 0 0.42636800107948658 -0.3533642211424759 0 0.42263342624904709 -0.35887554818764639 0 0.43503267885235641 -0.33876329468623673 0 0.42636800107948658 -0.3533642211424759 0 0.42191369795179379 -0.34761393021890652 0 0.41929210357627272 -0.33925394697815048 0 0.42191369795179379 -0.34761393021890652 0 0.41424870034413258 -0.34719658925236602 0 0.42191369795179379 -0.34761393021890652 0 0.41424870034413258 -0.34719658925236602 0 0.41775701871169879 -0.35500869134097168 0 0.41645196210846719 -0.357921473166388 0 0.40451581098047618 -0.34416153230778829 0 0.40651109495480259 -0.35013708268096472 0 0.41645196210846719 -0.357921473166388 0 0.40451581098047618 -0.34416153230778829 0 0.41424870034413258 -0.34719658925236602 0 0.41645196210846719 -0.357921473166388 0 0.40451581098047618 -0.34416153230778829 0 0.41146235460542158 -0.34172801663101549 0 0.41424870034413258 -0.34719658925236602 0 0.40451581098047618 -0.34416153230778829 0 0.40651109495480259 -0.35013708268096472 0 0.41645196210846719 -0.357921473166388 0 0.40492515922133121 -0.36301896192762678 0 0.41424870034413258 -0.34719658925236602 0 0.41645196210846719 -0.357921473166388 0 0.41775701871169879 -0.35500869134097168 0 0.41645196210846719 -0.357921473166388 0 0.41775701871169879 -0.35500869134097168 0 0.42263342624904709 -0.35887554818764639 0 0.41645196210846719 -0.357921473166388 0 0.41775701871169879 -0.35500869134097168 0 0.42411961598993669 -0.36676070976802622 0 0.41645196210846719 -0.357921473166388 0 0.42411961598993669 -0.36676070976802622 0 0.41645196210846719 -0.357921473166388 0 0.40946305010165551 -0.37352016507174152 0 0.42411961598993669 -0.36676070976802622 0 0.42263342624904709 -0.35887554818764639 0 0.41645196210846719 -0.357921473166388 0 0.41645196210846719 -0.357921473166388 0 0.40946305010165551 -0.37352016507174152 0 0.40492515922133121 -0.36301896192762678 0 0.41645196210846719 -0.357921473166388 0 0.40946305010165551 -0.37352016507174152 0 0.42411961598993669 -0.36676070976802622 0 0.40946305010165551 -0.37352016507174152 0 0.41968109770174378 -0.37681430329699639 0 0.42411961598993669 -0.36676070976802622 0 0.40946305010165551 -0.37352016507174152 0 0.40651109495480259 -0.35013708268096472 0 0.40492515922133121 -0.36301896192762678 0 0.39018154138920408 -0.36728316559728852 0 0.40075078432096972 -0.37060730585925089 0 0.39018154138920408 -0.36728316559728852 0 0.39843338657168809 -0.37860693084034719 0 0.40946305010165551 -0.37352016507174152 0 0.40075078432096972 -0.37060730585925089 0 0.39843338657168809 -0.37860693084034719 0 0.40946305010165551 -0.37352016507174152 0 0.40075078432096972 -0.37060730585925089 0 0.40492515922133121 -0.36301896192762678 0 0.40075078432096972 -0.37060730585925089 0 0.40492515922133121 -0.36301896192762678 0 0.39018154138920408 -0.36728316559728852 0 0.40651109495480259 -0.35013708268096472 0 0.39018154138920408 -0.36728316559728852 0 0.40651109495480259 -0.35013708268096472 0 0.39585702422131908 -0.35081267718168108 0 0.39018154138920408 -0.36728316559728852 0 0.39585702422131908 -0.35081267718168108 0 0.38630774852822358 -0.35132790227984201 0 0.39018154138920408 -0.36728316559728852 0 0.40651109495480259 -0.35013708268096472 0 0.40451581098047618 -0.34416153230778829 0 0.39585702422131908 -0.35081267718168108 0 0.40451581098047618 -0.34416153230778829 0 0.39585702422131908 -0.35081267718168108 0 0.39171809698704579 -0.34245018596799598 0 0.39585702422131908 -0.35081267718168108 0 0.38630774852822358 -0.35132790227984201 0 0.39171809698704579 -0.34245018596799598 0 0.38630774852822358 -0.35132790227984201 0 0.39018154138920408 -0.36728316559728852 0 0.37397294860501351 -0.35847288680401979 0 0.38630774852822358 -0.35132790227984201 0 0.37922858481904009 -0.33814019247242699 0 0.37397294860501351 -0.35847288680401979 0 0.38630774852822358 -0.35132790227984201 0 0.39171809698704579 -0.34245018596799598 0 0.37922858481904009 -0.33814019247242699 0 0.39018154138920408 -0.36728316559728852 0 0.37385198782360568 -0.38442924851361221 0 0.37397294860501351 -0.35847288680401979 0 0.40004610660407353 -0.31977683311008082 0 0.38377072110625332 -0.31564846042765088 0 0.40015624107540643 -0.3033888669011971 0 0.40004610660407353 -0.31977683311008082 0 0.39257965985248489 -0.33040159144918879 0 0.38377072110625332 -0.31564846042765088 0 0.40004610660407353 -0.31977683311008082 0 0.40337452199383611 -0.3310102227000421 0 0.39257965985248489 -0.33040159144918879 0 0.40960753933640742 -0.32471913724153301 0 0.40004610660407353 -0.31977683311008082 0 0.40337452199383611 -0.3310102227000421 0 0.40451581098047618 -0.34416153230778829 0 0.40337452199383611 -0.3310102227000421 0 0.39257965985248489 -0.33040159144918879 0 0.41012349319573788 -0.33599201939161949 0 0.40451581098047618 -0.34416153230778829 0 0.40337452199383611 -0.3310102227000421 0 0.40451581098047618 -0.34416153230778829 0 0.39257965985248489 -0.33040159144918879 0 0.40451581098047618 -0.34416153230778829 0 0.39171809698704579 -0.34245018596799598 0 0.39257965985248489 -0.33040159144918879 0 0.39171809698704579 -0.34245018596799598 0 0.39257965985248489 -0.33040159144918879 0 0.37922858481904009 -0.33814019247242699 0 0.37922858481904009 -0.33814019247242699 0 0.38377072110625332 -0.31564846042765088 0 0.36666880277812419 -0.32315945937756302 0 0.39257965985248489 -0.33040159144918879 0 0.37922858481904009 -0.33814019247242699 0 0.38377072110625332 -0.31564846042765088 0 0.38377072110625332 -0.31564846042765088 0 0.40015624107540643 -0.3033888669011971 0 0.38589213705519088 -0.28909234175657428 0 0.38377072110625332 -0.31564846042765088 0 0.38589213705519088 -0.28909234175657428 0 0.36621558639610707 -0.29670670523029219 0 0.41188966107285729 -0.31394667753308941 0 0.40004610660407353 -0.31977683311008082 0 0.40015624107540643 -0.3033888669011971 0 0.40015624107540643 -0.3033888669011971 0 0.38589213705519088 -0.28909234175657428 0 0.41319876528096372 -0.28971552401168721 0 0.38589213705519088 -0.28909234175657428 0 0.40995958747887801 -0.27371432511264798 0 0.41319876528096372 -0.28971552401168721 0 0.36772626503734462 -0.24296258440931301 0 0.38564067262130652 -0.24145240856989039 0 0.3805397478218997 -0.26786881413793562 0 0.38564067262130652 -0.24145240856989039 0 0.40145004411333041 -0.2496888160430551 0 0.3805397478218997 -0.26786881413793562 0 0.40145004411333041 -0.2496888160430551 0 0.3805397478218997 -0.26786881413793562 0 0.40995958747887801 -0.27371432511264798 0 0.3805397478218997 -0.26786881413793562 0 0.40995958747887801 -0.27371432511264798 0 0.38589213705519088 -0.28909234175657428 0 0.3805397478218997 -0.26786881413793562 0 0.40995958747887801 -0.27371432511264798 0 0.43937942713585643 -0.27955983608736062 0 0.40995958747887801 -0.27371432511264798 0 0.41319876528096372 -0.28971552401168721 0 0.40995958747887801 -0.27371432511264798 0 0.41689210478101463 -0.25496425827108782 0 0.42734222398294891 -0.26633088853206333 0 0.40145004411333041 -0.2496888160430551 0 0.40995958747887801 -0.27371432511264798 0 0.41689210478101463 -0.25496425827108782 0 0.4290778299626834 -0.24702053500163029 0 0.41689210478101463 -0.25496425827108782 0 0.42734222398294891 -0.26633088853206333 0 0.4290778299626834 -0.24702053500163029 0 0.44251016963939249 -0.25988961415987177 0 0.42734222398294891 -0.26633088853206333 0 0.4413463193266085 -0.26899481355847782 0 0.44251016963939249 -0.25988961415987177 0 0.42734222398294891 -0.26633088853206333 0 0.43937942713585643 -0.27955983608736062 0 0.40995958747887801 -0.27371432511264798 0 0.42734222398294891 -0.26633088853206333 0 0.43937942713585643 -0.27955983608736062 0 0.40995958747887801 -0.27371432511264798 0 0.43949501796783957 -0.27798546909175109 0 0.4413463193266085 -0.26899481355847782 0 0.42734222398294891 -0.26633088853206333 0 0.43949501796783957 -0.27798546909175109 0 0.43937942713585643 -0.27955983608736062 0 0.42734222398294891 -0.26633088853206333 0 0.43937942713585643 -0.27955983608736062 0 0.43777902065283397 -0.30135764741187199 0 0.4267719321731559 -0.29652991423363928 0 0.43937942713585643 -0.27955983608736062 0 0.4267719321731559 -0.29652991423363928 0 0.41319876528096372 -0.28971552401168721 0 0.43777902065283397 -0.30135764741187199 0 0.4267719321731559 -0.29652991423363928 0 0.43203649480658451 -0.30624473024487142 0 0.43777902065283397 -0.30135764741187199 0 0.43203649480658451 -0.30624473024487142 0 0.43677783085869498 -0.31499402445996522 0 0.43203649480658451 -0.30624473024487142 0 0.43677783085869498 -0.31499402445996522 0 0.43203649480658451 -0.30624473024487142 0 0.4248240313353227 -0.3123827794862219 0 0.43777902065283397 -0.30135764741187199 0 0.43677783085869498 -0.31499402445996522 0 0.43203649480658451 -0.30624473024487142 0 0.43777902065283397 -0.30135764741187199 0 0.43677783085869498 -0.31499402445996522 0 0.43203649480658451 -0.30624473024487142 0 0.4248240313353227 -0.3123827794862219 0 0.41807212433344038 -0.30351543424291738 0 0.43203649480658451 -0.30624473024487142 0 0.4248240313353227 -0.3123827794862219 0 0.4267719321731559 -0.29652991423363928 0 0.43203649480658451 -0.30624473024487142 0 0.41807212433344038 -0.30351543424291738 0 0.4267719321731559 -0.29652991423363928 0 0.43203649480658451 -0.30624473024487142 0 0.40015624107540643 -0.3033888669011971 0 0.41807212433344038 -0.30351543424291738 0 0.41319876528096372 -0.28971552401168721 0 0.41188966107285729 -0.31394667753308941 0 0.40015624107540643 -0.3033888669011971 0 0.41807212433344038 -0.30351543424291738 0 0.41188966107285729 -0.31394667753308941 0 0.4248240313353227 -0.3123827794862219 0 0.41807212433344038 -0.30351543424291738 0 0.4267719321731559 -0.29652991423363928 0 0.41807212433344038 -0.30351543424291738 0 0.41319876528096372 -0.28971552401168721 0 0.44370936576187869 -0.4837142423338322 0 0.5 -0.5 0 0.42444705137464461 -0.50000000000000067 0 0.44370936576187869 -0.4837142423338322 0 0.44684119417862761 -0.46319076339292931 0 0.42891603062373118 -0.46584047369806508 0 0.44370936576187869 -0.4837142423338322 0 0.46267703774992402 -0.47641128073011968 0 0.44684119417862761 -0.46319076339292931 0 0.44370936576187869 -0.4837142423338322 0 0.46267703774992402 -0.47641128073011968 0 0.5 -0.5 0 0.5 -0.5 0 0.48112830297905712 -0.4658602685706319 0 0.5 -0.45542097794741421 0 0.46267703774992402 -0.47641128073011968 0 0.5 -0.5 0 0.48112830297905712 -0.4658602685706319 0 0.48112830297905712 -0.4658602685706319 0 0.4741905835647271 -0.44914154814014418 0 0.46465957066904018 -0.4559746209768587 0 0.48112830297905712 -0.4658602685706319 0 0.48499845469951108 -0.44507965110874831 0 0.4741905835647271 -0.44914154814014418 0 0.5 -0.45542097794741421 0 0.48499845469951108 -0.44507965110874831 0 0.50000000000000089 -0.42289207916039318 0 0.46267703774992402 -0.47641128073011968 0 0.48112830297905712 -0.4658602685706319 0 0.46465957066904018 -0.4559746209768587 0 0.48112830297905712 -0.4658602685706319 0 0.5 -0.45542097794741421 0 0.48499845469951108 -0.44507965110874831 0 0.48499845469951108 -0.44507965110874831 0 0.47624617010912579 -0.4406443163639957 0 0.48051438069473629 -0.43151264375504811 0 0.48499845469951108 -0.44507965110874831 0 0.4741905835647271 -0.44914154814014418 0 0.47624617010912579 -0.4406443163639957 0 0.4741905835647271 -0.44914154814014418 0 0.47624617010912579 -0.4406443163639957 0 0.46664210358815639 -0.43553796122359778 0 0.46096282809302452 -0.45102498187392981 0 0.45728518074326441 -0.4338403707355985 0 0.46257879193824042 -0.43348008930546073 0 0.46096282809302452 -0.45102498187392981 0 0.45205200021069508 -0.44384708219408808 0 0.45728518074326441 -0.4338403707355985 0 0.46096282809302452 -0.45102498187392981 0 0.45728518074326441 -0.4338403707355985 0 0.4741905835647271 -0.44914154814014418 0 0.46465957066904018 -0.4559746209768587 0 0.46664210358815639 -0.43553796122359778 0 0.46465957066904018 -0.4559746209768587 0 0.46664210358815639 -0.43553796122359778 0 0.46096282809302452 -0.45102498187392981 0 0.46465957066904018 -0.4559746209768587 0 0.46664210358815639 -0.43553796122359778 0 0.46096282809302452 -0.45102498187392981 0 0.46664210358815639 -0.43553796122359778 0 0.46257879193824042 -0.43348008930546073 0 0.46096282809302452 -0.45102498187392981 0 0.45189665069435991 -0.45320178437969011 0 0.45205200021069508 -0.44384708219408808 0 0.46267703774992402 -0.47641128073011968 0 0.46465957066904018 -0.4559746209768587 0 0.45598681997939 -0.45859673341666268 0 0.46267703774992402 -0.47641128073011968 0 0.46465957066904018 -0.4559746209768587 0 0.46267703774992402 -0.47641128073011968 0 0.45598681997939 -0.45859673341666268 0 0.44684119417862761 -0.46319076339292931 0 0.46096282809302452 -0.45102498187392981 0 0.45598681997939 -0.45859673341666268 0 0.45189665069435991 -0.45320178437969011 0 0.46096282809302452 -0.45102498187392981 0 0.46465957066904018 -0.4559746209768587 0 0.45598681997939 -0.45859673341666268 0 0.45598681997939 -0.45859673341666268 0 0.45189665069435991 -0.45320178437969011 0 0.44684119417862761 -0.46319076339292931 0 0.45189665069435991 -0.45320178437969011 0 0.44684119417862761 -0.46319076339292931 0 0.44364041101006257 -0.44934936102084022 0 0.44684119417862761 -0.46319076339292931 0 0.44364041101006257 -0.44934936102084022 0 0.43624020198791241 -0.45722673704030081 0 0.45205200021069508 -0.44384708219408808 0 0.45728518074326441 -0.4338403707355985 0 0.43556770761648678 -0.43531845478613068 0 0.44364041101006257 -0.44934936102084022 0 0.45205200021069508 -0.44384708219408808 0 0.43556770761648678 -0.43531845478613068 0 0.45189665069435991 -0.45320178437969011 0 0.44364041101006257 -0.44934936102084022 0 0.45205200021069508 -0.44384708219408808 0 0.45728518074326441 -0.4338403707355985 0 0.43556770761648678 -0.43531845478613068 0 0.4416413427450025 -0.41843139091837628 0 0.45728518074326441 -0.4338403707355985 0 0.43556770761648678 -0.43531845478613068 0 0.4416413427450025 -0.41843139091837628 0 0.45241339979653289 -0.41107590933986837 0 0.43505988716910637 -0.40676688008979223 0 0.45241339979653289 -0.41107590933986837 0 0.43505988716910637 -0.40676688008979223 0 0.4416413427450025 -0.41843139091837628 0 0.45241339979653289 -0.41107590933986837 0 0.45728518074326441 -0.4338403707355985 0 0.45241339979653289 -0.41107590933986837 0 0.46862463650727187 -0.4151013014703368 0 0.45241339979653289 -0.41107590933986837 0 0.46862463650727187 -0.4151013014703368 0 0.46022199264152852 -0.40104029527252422 0 0.45241339979653289 -0.41107590933986837 0 0.46862463650727187 -0.4151013014703368 0 0.45728518074326441 -0.4338403707355985 0 0.46862463650727187 -0.4151013014703368 0 0.45728518074326441 -0.4338403707355985 0 0.46257879193824042 -0.43348008930546073 0 0.46862463650727187 -0.4151013014703368 0 0.46664210358815639 -0.43553796122359778 0 0.45241339979653289 -0.41107590933986837 0 0.45728518074326441 -0.4338403707355985 0 0.46862463650727187 -0.4151013014703368 0 0.46664210358815639 -0.43553796122359778 0 0.46257879193824042 -0.43348008930546073 0 0.45728518074326441 -0.4338403707355985 0 0.46257879193824042 -0.43348008930546073 0 0.46664210358815639 -0.43553796122359778 0 0.47502335976095011 -0.4252871491910869 0 0.48051438069473629 -0.43151264375504811 0 0.46862463650727187 -0.4151013014703368 0 0.46664210358815639 -0.43553796122359778 0 0.47502335976095011 -0.4252871491910869 0 0.47624617010912579 -0.4406443163639957 0 0.46664210358815639 -0.43553796122359778 0 0.48051438069473629 -0.43151264375504811 0 0.47502335976095011 -0.4252871491910869 0 0.48051438069473629 -0.43151264375504811 0 0.48431231825363641 -0.41899669031536502 0 0.48051438069473629 -0.43151264375504811 0 0.50000000000000089 -0.42289207916039318 0 0.48431231825363641 -0.41899669031536502 0 0.48499845469951108 -0.44507965110874831 0 0.48051438069473629 -0.43151264375504811 0 0.50000000000000089 -0.42289207916039318 0 0.50000000000000089 -0.42289207916039318 0 0.48431231825363641 -0.41899669031536502 0 0.48877302024125108 -0.40511903564161111 0 0.50000000000000089 -0.42289207916039318 0 0.48877302024125108 -0.40511903564161111 0 0.5 -0.39381098249165658 0 0.50000000000000089 -0.42289207916039318 0 0.48431231825363641 -0.41899669031536502 0 0.46862463650727187 -0.4151013014703368 0 0.48431231825363641 -0.41899669031536502 0 0.46862463650727187 -0.4151013014703368 0 0.4701645225695692 -0.39922760413573022 0 0.46862463650727187 -0.4151013014703368 0 0.47800239092349228 -0.40754992740376572 0 0.4701645225695692 -0.39922760413573022 0 0.46862463650727187 -0.4151013014703368 0 0.47502335976095011 -0.4252871491910869 0 0.48431231825363641 -0.41899669031536502 0 0.47800239092349228 -0.40754992740376572 0 0.48431231825363641 -0.41899669031536502 0 0.48877302024125108 -0.40511903564161111 0 0.46862463650727187 -0.4151013014703368 0 0.47800239092349228 -0.40754992740376572 0 0.48431231825363641 -0.41899669031536502 0 0.4701645225695692 -0.39922760413573022 0 0.48147281615375809 -0.39747068757517628 0 0.47170440863186591 -0.38335390680112341 0 0.47800239092349228 -0.40754992740376572 0 0.4701645225695692 -0.39922760413573022 0 0.48147281615375809 -0.39747068757517628 0 0.4701645225695692 -0.39922760413573022 0 0.47170440863186591 -0.38335390680112341 0 0.47800239092349228 -0.40754992740376572 0 0.48147281615375809 -0.39747068757517628 0 0.48877302024125108 -0.40511903564161111 0 0.48147281615375809 -0.39747068757517628 0 0.48877302024125108 -0.40511903564161111 0 0.488648981673245 -0.39113873576262748 0 0.48877302024125108 -0.40511903564161111 0 0.488648981673245 -0.39113873576262748 0 0.5 -0.39381098249165658 0 0.49301507150618312 -0.37189770981711351 0 0.5 -0.36472988582291999 0 0.5 -0.39381098249165658 0 0.49301507150618312 -0.37189770981711351 0 0.5 -0.39381098249165658 0 0.48760851842882119 -0.3805090112330145 0 0.488648981673245 -0.39113873576262748 0 0.48760851842882119 -0.3805090112330145 0 0.4815007195267379 -0.38319265155913751 0 0.488648981673245 -0.39113873576262748 0 0.5 -0.39381098249165658 0 0.48760851842882119 -0.3805090112330145 0 0.46908166597951451 -0.37460501904918281 0 0.48147281615375809 -0.39747068757517628 0 0.4815007195267379 -0.38319265155913751 0 0.47848205287062279 -0.37470614756839637 0 0.48760851842882119 -0.3805090112330145 0 0.4815007195267379 -0.38319265155913751 0 0.48464718275066548 -0.37000042591148991 0 0.47848205287062279 -0.37470614756839637 0 0.48760851842882119 -0.3805090112330145 0 0.46908166597951451 -0.37460501904918281 0 0.48147281615375809 -0.39747068757517628 0 0.46908166597951451 -0.37460501904918281 0 0.48147281615375809 -0.39747068757517628 0 0.47170440863186591 -0.38335390680112341 0 0.48147281615375809 -0.39747068757517628 0 0.488648981673245 -0.39113873576262748 0 0.4815007195267379 -0.38319265155913751 0 0.46908166597951451 -0.37460501904918281 0 0.47848205287062279 -0.37470614756839637 0 0.4815007195267379 -0.38319265155913751 0 0.45930975068696622 -0.37243274284069788 0 0.44767025154583201 -0.38891251233416368 0 0.45930975068696622 -0.37243274284069788 0 0.46200064592652301 -0.38203766602153799 0 0.44767025154583201 -0.38891251233416368 0 0.46908166597951451 -0.37460501904918281 0 0.47170440863186591 -0.38335390680112341 0 0.46200064592652301 -0.38203766602153799 0 0.46908166597951451 -0.37460501904918281 0 0.45930975068696622 -0.37243274284069788 0 0.46200064592652301 -0.38203766602153799 0 0.46200064592652301 -0.38203766602153799 0 0.46223715278843602 -0.39088414908252239 0 0.44767025154583201 -0.38891251233416368 0 0.47170440863186591 -0.38335390680112341 0 0.46200064592652301 -0.38203766602153799 0 0.46223715278843602 -0.39088414908252239 0 0.46862463650727187 -0.4151013014703368 0 0.4701645225695692 -0.39922760413573022 0 0.46022199264152852 -0.40104029527252422 0 0.4701645225695692 -0.39922760413573022 0 0.46223715278843602 -0.39088414908252239 0 0.46022199264152852 -0.40104029527252422 0 0.45241339979653289 -0.41107590933986837 0 0.46022199264152852 -0.40104029527252422 0 0.44767025154583201 -0.38891251233416368 0 0.4701645225695692 -0.39922760413573022 0 0.47170440863186591 -0.38335390680112341 0 0.46223715278843602 -0.39088414908252239 0 0.46223715278843602 -0.39088414908252239 0 0.46022199264152852 -0.40104029527252422 0 0.44767025154583201 -0.38891251233416368 0 0.45241339979653289 -0.41107590933986837 0 0.44767025154583201 -0.38891251233416368 0 0.45241339979653289 -0.41107590933986837 0 0.44798697432721313 -0.39427489215817391 0 0.44767025154583201 -0.38891251233416368 0 0.45241339979653289 -0.41107590933986837 0 0.44798697432721313 -0.39427489215817391 0 0.43505988716910637 -0.40676688008979223 0 0.44572476475901512 -0.39166702723300911 0 0.44798697432721313 -0.39427489215817391 0 0.44767025154583201 -0.38891251233416368 0 0.44572476475901512 -0.39166702723300911 0 0.44798697432721313 -0.39427489215817391 0 0.44572476475901512 -0.39166702723300911 0 0.43505988716910637 -0.40676688008979223 0 0.44572476475901512 -0.39166702723300911 0 0.44798697432721313 -0.39427489215817391 0 0.43505988716910637 -0.40676688008979223 0 0.44572476475901512 -0.39166702723300911 0 0.44767025154583201 -0.38891251233416368 0 0.43228590878381229 -0.37617477504525171 0 0.45930975068696622 -0.37243274284069788 0 0.44460990844953979 -0.37461239025663851 0 0.44767025154583201 -0.38891251233416368 0 0.44572476475901512 -0.39166702723300911 0 0.43228590878381229 -0.37617477504525171 0 0.44460990844953979 -0.37461239025663851 0 0.44767025154583201 -0.38891251233416368 0 0.43228590878381229 -0.37617477504525171 0 0.44460990844953979 -0.37461239025663851 0 0.44767025154583201 -0.38891251233416368 0 0.44572476475901512 -0.39166702723300911 0 0.44767025154583201 -0.38891251233416368 0 0.43228590878381229 -0.37617477504525171 0 0.43012970272604412 -0.40554267209055361 0 0.42035379551396451 -0.38776757216906532 0 0.43228590878381229 -0.37617477504525171 0 0.42035379551396451 -0.38776757216906532 0 0.41968109770174378 -0.37681430329699639 0 0.43228590878381229 -0.37617477504525171 0 0.43012970272604412 -0.40554267209055361 0 0.43012970272604412 -0.40554267209055361 0 0.41761449747875212 -0.39608689165152577 0 0.42035379551396451 -0.38776757216906532 0 0.44572476475901512 -0.39166702723300911 0 0.43228590878381229 -0.37617477504525171 0 0.43012970272604412 -0.40554267209055361 0 0.44572476475901512 -0.39166702723300911 0 0.43012970272604412 -0.40554267209055361 0 0.43505988716910637 -0.40676688008979223 0 0.43012970272604412 -0.40554267209055361 0 0.43505988716910637 -0.40676688008979223 0 0.43012970272604412 -0.40554267209055361 0 0.41761449747875212 -0.39608689165152577 0 0.40938474730910562 -0.40039151787744159 0 0.43012970272604412 -0.40554267209055361 0 0.40938474730910562 -0.40039151787744159 0 0.41761449747875212 -0.39608689165152577 0 0.41204587410473947 -0.39187131601518599 0 0.42035379551396451 -0.38776757216906532 0 0.43012970272604412 -0.40554267209055361 0 0.40938474730910562 -0.40039151787744159 0 0.41736062338974939 -0.41096131877153652 0 0.40938474730910562 -0.40039151787744159 0 0.41204587410473947 -0.39187131601518599 0 0.40064542030869171 -0.39320040862637068 0 0.41761449747875212 -0.39608689165152577 0 0.40938474730910562 -0.40039151787744159 0 0.41204587410473947 -0.39187131601518599 0 0.41204587410473947 -0.39187131601518599 0 0.41243784754615898 -0.38463475303587202 0 0.40064542030869171 -0.39320040862637068 0 0.40946305010165551 -0.37352016507174152 0 0.41243784754615898 -0.38463475303587202 0 0.40064542030869171 -0.39320040862637068 0 0.41204587410473947 -0.39187131601518599 0 0.41243784754615898 -0.38463475303587202 0 0.42035379551396451 -0.38776757216906532 0 0.41243784754615898 -0.38463475303587202 0 0.42035379551396451 -0.38776757216906532 0 0.41968109770174378 -0.37681430329699639 0 0.40946305010165551 -0.37352016507174152 0 0.41243784754615898 -0.38463475303587202 0 0.41968109770174378 -0.37681430329699639 0 0.40946305010165551 -0.37352016507174152 0 0.40064542030869171 -0.39320040862637068 0 0.40946305010165551 -0.37352016507174152 0 0.39843338657168809 -0.37860693084034719 0 0.39018154138920408 -0.36728316559728852 0 0.39843338657168809 -0.37860693084034719 0 0.38900463666157431 -0.38730867386871309 0 0.40946305010165551 -0.37352016507174152 0 0.39843338657168809 -0.37860693084034719 0 0.40064542030869171 -0.39320040862637068 0 0.39843338657168809 -0.37860693084034719 0 0.38900463666157431 -0.38730867386871309 0 0.40064542030869171 -0.39320040862637068 0 0.39018154138920408 -0.36728316559728852 0 0.37385198782360568 -0.38442924851361221 0 0.39018154138920408 -0.36728316559728852 0 0.38900463666157431 -0.38730867386871309 0 0.37385198782360568 -0.38442924851361221 0 0.38900463666157431 -0.38730867386871309 0 0.37994075659129789 -0.40144317374313437 0 0.37385198782360568 -0.38442924851361221 0 0.38900463666157431 -0.38730867386871309 0 0.37994075659129789 -0.40144317374313437 0 0.39035465101932287 -0.39870822710480452 0 0.37994075659129789 -0.40144317374313437 0 0.39035465101932287 -0.39870822710480452 0 0.39182779051572791 -0.41288065218100012 0 0.39035465101932287 -0.39870822710480452 0 0.40064542030869171 -0.39320040862637068 0 0.39182779051572791 -0.41288065218100012 0 0.40938474730910562 -0.40039151787744159 0 0.40064542030869171 -0.39320040862637068 0 0.40437218113761642 -0.40969687999366922 0 0.40064542030869171 -0.39320040862637068 0 0.40437218113761642 -0.40969687999366922 0 0.39182779051572791 -0.41288065218100012 0 0.40064542030869171 -0.39320040862637068 0 0.39182779051572791 -0.41288065218100012 0 0.38900463666157431 -0.38730867386871309 0 0.39035465101932287 -0.39870822710480452 0 0.40064542030869171 -0.39320040862637068 0 0.40437218113761642 -0.40969687999366922 0 0.4022205695683746 -0.41967368680598161 0 0.39182779051572791 -0.41288065218100012 0 0.40437218113761642 -0.40969687999366922 0 0.4022205695683746 -0.41967368680598161 0 0.41126528490124559 -0.4173074964383815 0 0.4022205695683746 -0.41967368680598161 0 0.39182779051572791 -0.41288065218100012 0 0.39410702365670602 -0.4264980122023676 0 0.39182779051572791 -0.41288065218100012 0 0.38301016072276411 -0.43256089573562939 0 0.37317101036670208 -0.41623422010918693 0 0.37994075659129789 -0.40144317374313437 0 0.39182779051572791 -0.41288065218100012 0 0.37317101036670208 -0.41623422010918693 0 0.38301016072276411 -0.43256089573562939 0 0.39142035942140141 -0.43832310872812752 0 0.36899048435309351 -0.43984967861958912 0 0.39182779051572791 -0.41288065218100012 0 0.38301016072276411 -0.43256089573562939 0 0.39182779051572791 -0.41288065218100012 0 0.38301016072276411 -0.43256089573562939 0 0.39410702365670602 -0.4264980122023676 0 0.38301016072276411 -0.43256089573562939 0 0.39410702365670602 -0.4264980122023676 0 0.39142035942140141 -0.43832310872812752 0 0.39410702365670602 -0.4264980122023676 0 0.40205623805526242 -0.42905171756109961 0 0.39142035942140141 -0.43832310872812752 0 0.40205623805526242 -0.42905171756109961 0 0.41385023448970931 -0.43679653883666703 0 0.39142035942140141 -0.43832310872812752 0 0.4022205695683746 -0.41967368680598161 0 0.39410702365670602 -0.4264980122023676 0 0.40205623805526242 -0.42905171756109961 0 0.4022205695683746 -0.41967368680598161 0 0.40205623805526242 -0.42905171756109961 0 0.41037128851749821 -0.42515277708078691 0 0.41385023448970931 -0.43679653883666703 0 0.4164609727589863 -0.42098344785382852 0 0.42945743249672819 -0.41469910814177008 0 0.40205623805526242 -0.42905171756109961 0 0.41385023448970931 -0.43679653883666703 0 0.41037128851749821 -0.42515277708078691 0 0.41385023448970931 -0.43679653883666703 0 0.42945743249672819 -0.41469910814177008 0 0.41385023448970931 -0.43679653883666703 0 0.41037128851749821 -0.42515277708078691 0 0.4164609727589863 -0.42098344785382852 0 0.41037128851749821 -0.42515277708078691 0 0.41126528490124559 -0.4173074964383815 0 0.4164609727589863 -0.42098344785382852 0 0.4022205695683746 -0.41967368680598161 0 0.41037128851749821 -0.42515277708078691 0 0.41126528490124559 -0.4173074964383815 0 0.40938474730910562 -0.40039151787744159 0 0.40437218113761642 -0.40969687999366922 0 0.41736062338974939 -0.41096131877153652 0 0.40437218113761642 -0.40969687999366922 0 0.41126528490124559 -0.4173074964383815 0 0.41736062338974939 -0.41096131877153652 0 0.41126528490124559 -0.4173074964383815 0 0.41736062338974939 -0.41096131877153652 0 0.4164609727589863 -0.42098344785382852 0 0.41736062338974939 -0.41096131877153652 0 0.4164609727589863 -0.42098344785382852 0 0.42945743249672819 -0.41469910814177008 0 0.43012970272604412 -0.40554267209055361 0 0.41736062338974939 -0.41096131877153652 0 0.42945743249672819 -0.41469910814177008 0 0.42945743249672819 -0.41469910814177008 0 0.43505988716910637 -0.40676688008979223 0 0.4416413427450025 -0.41843139091837628 0 0.43505988716910637 -0.40676688008979223 0 0.4339258780509912 -0.41596114320206451 0 0.43012970272604412 -0.40554267209055361 0 0.42945743249672819 -0.41469910814177008 0 0.43505988716910637 -0.40676688008979223 0 0.42945743249672819 -0.41469910814177008 0 0.43505988716910637 -0.40676688008979223 0 0.4339258780509912 -0.41596114320206451 0 0.43012970272604412 -0.40554267209055361 0 0.42945743249672819 -0.41469910814177008 0 0.42945743249672819 -0.41469910814177008 0 0.4339258780509912 -0.41596114320206451 0 0.43404621419405109 -0.42476086837008142 0 0.4416413427450025 -0.41843139091837628 0 0.4339258780509912 -0.41596114320206451 0 0.43404621419405109 -0.42476086837008142 0 0.41385023448970931 -0.43679653883666703 0 0.43556770761648678 -0.43531845478613068 0 0.43404621419405109 -0.42476086837008142 0 0.4416413427450025 -0.41843139091837628 0 0.43556770761648678 -0.43531845478613068 0 0.43404621419405109 -0.42476086837008142 0 0.41385023448970931 -0.43679653883666703 0 0.42945743249672819 -0.41469910814177008 0 0.43404621419405109 -0.42476086837008142 0 0.41385023448970931 -0.43679653883666703 0 0.43556770761648678 -0.43531845478613068 0 0.44364041101006257 -0.44934936102084022 0 0.43556770761648678 -0.43531845478613068 0 0.42556317213922817 -0.45052635004936847 0 0.41385023448970931 -0.43679653883666703 0 0.43556770761648678 -0.43531845478613068 0 0.42556317213922817 -0.45052635004936847 0 0.44364041101006257 -0.44934936102084022 0 0.42556317213922817 -0.45052635004936847 0 0.43624020198791241 -0.45722673704030081 0 0.44684119417862761 -0.46319076339292931 0 0.43624020198791241 -0.45722673704030081 0 0.42891603062373118 -0.46584047369806508 0 0.42556317213922817 -0.45052635004936847 0 0.43624020198791241 -0.45722673704030081 0 0.42891603062373118 -0.46584047369806508 0 0.42556317213922817 -0.45052635004936847 0 0.42891603062373118 -0.46584047369806508 0 0.4158431578867976 -0.4564996553500893 0 0.42891603062373118 -0.46584047369806508 0 0.4158431578867976 -0.4564996553500893 0 0.40948620656065621 -0.4669494932260243 0 0.4158431578867976 -0.4564996553500893 0 0.40948620656065621 -0.4669494932260243 0 0.40654314419291648 -0.45510371320115972 0 0.42556317213922817 -0.45052635004936847 0 0.4158431578867976 -0.4564996553500893 0 0.40870723591745628 -0.44407824657582867 0 0.4158431578867976 -0.4564996553500893 0 0.40654314419291648 -0.45510371320115972 0 0.40870723591745628 -0.44407824657582867 0 0.41385023448970931 -0.43679653883666703 0 0.42556317213922817 -0.45052635004936847 0 0.40870723591745628 -0.44407824657582867 0 0.41385023448970931 -0.43679653883666703 0 0.40870723591745628 -0.44407824657582867 0 0.40870723591745628 -0.44407824657582867 0 0.39829212608181658 -0.44821065156341511 0 0.39142035942140141 -0.43832310872812752 0 0.41385023448970931 -0.43679653883666703 0 0.40870723591745628 -0.44407824657582867 0 0.39142035942140141 -0.43832310872812752 0 0.41385023448970931 -0.43679653883666703 0 0.39142035942140141 -0.43832310872812752 0 0.40654314419291648 -0.45510371320115972 0 0.40870723591745628 -0.44407824657582867 0 0.39829212608181658 -0.44821065156341511 0 0.39829212608181658 -0.44821065156341511 0 0.39101103661365338 -0.44794715753542841 0 0.39516327970667581 -0.45634903079283817 0 0.39829212608181658 -0.44821065156341511 0 0.39101103661365338 -0.44794715753542841 0 0.39142035942140141 -0.43832310872812752 0 0.39142035942140141 -0.43832310872812752 0 0.36899048435309351 -0.43984967861958912 0 0.39142035942140141 -0.43832310872812752 0 0.38138346195355238 -0.45010263748342338 0 0.36899048435309351 -0.43984967861958912 0 0.39101103661365338 -0.44794715753542841 0 0.38138346195355238 -0.45010263748342338 0 0.39516327970667581 -0.45634903079283817 0 0.39101103661365338 -0.44794715753542841 0 0.39142035942140141 -0.43832310872812752 0 0.38138346195355238 -0.45010263748342338 0 0.38138346195355238 -0.45010263748342338 0 0.38153542537292928 -0.47379522065179958 0 0.36933500383099371 -0.45252330312828409 0 0.38138346195355238 -0.45010263748342338 0 0.39516327970667581 -0.45634903079283817 0 0.38153542537292928 -0.47379522065179958 0 0.39516327970667581 -0.45634903079283817 0 0.397294037503512 -0.47099783874914058 0 0.38153542537292928 -0.47379522065179958 0 0.40948620656065621 -0.4669494932260243 0 0.40654314419291648 -0.45510371320115972 0 0.39516327970667581 -0.45634903079283817 0 0.40654314419291648 -0.45510371320115972 0 0.39829212608181658 -0.44821065156341511 0 0.39516327970667581 -0.45634903079283817 0 0.40948620656065621 -0.4669494932260243 0 0.39516327970667581 -0.45634903079283817 0 0.397294037503512 -0.47099783874914058 0 0.38153542537292928 -0.47379522065179958 0 0.40299123837378681 -0.48689761032590029 0 0.397294037503512 -0.47099783874914058 0 0.38153542537292928 -0.47379522065179958 0 0.40299123837378681 -0.48689761032590029 0 0.40948620656065621 -0.4669494932260243 0 0.397294037503512 -0.47099783874914058 0 0.40299123837378681 -0.48689761032590029 0 0.38153542537292928 -0.47379522065179958 0 0.39512835668358542 -0.5 0 0.36580966199252629 -0.5 0 0.38153542537292928 -0.47379522065179958 0 0.39512835668358542 -0.5 0 0.40299123837378681 -0.48689761032590029 0 0.40299123837378681 -0.48689761032590029 0 0.42444705137464461 -0.50000000000000067 0 0.39512835668358542 -0.5 0 0.40299123837378681 -0.48689761032590029 0 0.42444705137464461 -0.50000000000000067 0 0.40299123837378681 -0.48689761032590029 0 0.41928301325933542 -0.48044791323326358 0 0.42444705137464461 -0.50000000000000067 0 0.40948620656065621 -0.4669494932260243 0 0.40299123837378681 -0.48689761032590029 0 0.41928301325933542 -0.48044791323326358 0 0.42891603062373118 -0.46584047369806508 0 0.40948620656065621 -0.4669494932260243 0 0.41928301325933542 -0.48044791323326358 0 0.44370936576187869 -0.4837142423338322 0 0.42891603062373118 -0.46584047369806508 0 0.41928301325933542 -0.48044791323326358 0 0.44370936576187869 -0.4837142423338322 0 0.41928301325933542 -0.48044791323326358 0 0.42444705137464461 -0.50000000000000067 0 0.32113155348993022 -0.49379209140262492 0 0.33649096730146721 -0.49999999999999778 0 0.31218993028024461 -0.49999999999999889 0 0.32113155348993022 -0.49379209140262492 0 0.30577213967839428 -0.48758418280524879 0 0.31218993028024461 -0.49999999999999889 0 0.32113155348993022 -0.49379209140262492 0 0.30577213967839428 -0.48758418280524879 0 0.32113155348993022 -0.49379209140262492 0 0.31469988314009772 -0.48088824964053911 0 0.30577213967839428 -0.48758418280524879 0 0.32113155348993022 -0.49379209140262492 0 0.31469988314009772 -0.48088824964053911 0 0.32263696497667599 -0.4778515402647332 0 0.32113155348993022 -0.49379209140262492 0 0.32263696497667599 -0.4778515402647332 0 0.33717511296088309 -0.48037856661235517 0 0.32263696497667599 -0.4778515402647332 0 0.33092760904807511 -0.47084493682604661 0 0.32051595564553481 -0.46213557307089598 0 0.31469988314009772 -0.48088824964053911 0 0.32051595564553481 -0.46213557307089598 0 0.30344280190995448 -0.48307786065918767 0 0.31469988314009772 -0.48088824964053911 0 0.32263696497667599 -0.4778515402647332 0 0.32051595564553481 -0.46213557307089598 0 0.33092760904807511 -0.47084493682604661 0 0.33717511296088309 -0.48037856661235517 0 0.34338240260920633 -0.46301406735620171 0 0.32263696497667599 -0.4778515402647332 0 0.33092760904807511 -0.47084493682604661 0 0.33717511296088309 -0.48037856661235517 0 0.33717511296088309 -0.48037856661235517 0 0.33649096730146721 -0.49999999999999778 0 0.35660222299772382 -0.48025463479056152 0 0.32113155348993022 -0.49379209140262492 0 0.33717511296088309 -0.48037856661235517 0 0.33649096730146721 -0.49999999999999778 0 0.32113155348993022 -0.49379209140262492 0 0.33649096730146721 -0.49999999999999778 0 0.33649096730146721 -0.49999999999999778 0 0.36580966199252629 -0.5 0 0.35660222299772382 -0.48025463479056152 0 0.38153542537292928 -0.47379522065179958 0 0.36580966199252629 -0.5 0 0.35660222299772382 -0.48025463479056152 0 0.38153542537292928 -0.47379522065179958 0 0.35660222299772382 -0.48025463479056152 0 0.36007961237207198 -0.46069283097769892 0 0.33717511296088309 -0.48037856661235517 0 0.35660222299772382 -0.48025463479056152 0 0.34338240260920633 -0.46301406735620171 0 0.35660222299772382 -0.48025463479056152 0 0.36007961237207198 -0.46069283097769892 0 0.34338240260920633 -0.46301406735620171 0 0.36007961237207198 -0.46069283097769892 0 0.35503790245424671 -0.45103508788360608 0 0.34338240260920633 -0.46301406735620171 0 0.35503790245424671 -0.45103508788360608 0 0.34061719587497769 -0.45175085246087188 0 0.34338240260920633 -0.46301406735620171 0 0.38153542537292928 -0.47379522065179958 0 0.36007961237207198 -0.46069283097769892 0 0.38153542537292928 -0.47379522065179958 0 0.36007961237207198 -0.46069283097769892 0 0.36933500383099371 -0.45252330312828409 0 0.36007961237207198 -0.46069283097769892 0 0.36933500383099371 -0.45252330312828409 0 0.35503790245424671 -0.45103508788360608 0 0.38138346195355238 -0.45010263748342338 0 0.36899048435309351 -0.43984967861958912 0 0.36933500383099371 -0.45252330312828409 0 0.36899048435309351 -0.43984967861958912 0 0.36933500383099371 -0.45252330312828409 0 0.35503790245424671 -0.45103508788360608 0 0.36899048435309351 -0.43984967861958912 0 0.35503790245424671 -0.45103508788360608 0 0.3465606092847856 -0.44137624851105062 0 0.36899048435309351 -0.43984967861958912 0 0.3465606092847856 -0.44137624851105062 0 0.36899048435309351 -0.43984967861958912 0 0.3465606092847856 -0.44137624851105062 0 0.35728273636068358 -0.43337210477931237 0 0.35503790245424671 -0.45103508788360608 0 0.3465606092847856 -0.44137624851105062 0 0.34061719587497769 -0.45175085246087188 0 0.3465606092847856 -0.44137624851105062 0 0.3375891093811153 -0.4411932854826045 0 0.34061719587497769 -0.45175085246087188 0 0.3375891093811153 -0.4411932854826045 0 0.34061719587497769 -0.45175085246087188 0 0.32051595564553481 -0.46213557307089598 0 0.3375891093811153 -0.4411932854826045 0 0.32051595564553481 -0.46213557307089598 0 0.32754989683014701 -0.4383348660762722 0 0.3375891093811153 -0.4411932854826045 0 0.32051595564553481 -0.46213557307089598 0 0.33092760904807511 -0.47084493682604661 0 0.34338240260920633 -0.46301406735620171 0 0.32051595564553481 -0.46213557307089598 0 0.34061719587497769 -0.45175085246087188 0 0.34338240260920633 -0.46301406735620171 0 0.32051595564553481 -0.46213557307089598 0 0.32051595564553481 -0.46213557307089598 0 0.31635692447741459 -0.44186271952063733 0 0.31051457828522783 -0.45147981807794041 0 0.32051595564553481 -0.46213557307089598 0 0.31635692447741459 -0.44186271952063733 0 0.32754989683014701 -0.4383348660762722 0 0.31635692447741459 -0.44186271952063733 0 0.32620329326344932 -0.42738598766280161 0 0.30965292378217601 -0.42732567206423427 0 0.32620329326344932 -0.42738598766280161 0 0.32129013956454089 -0.41098705074526909 0 0.30965292378217601 -0.42732567206423427 0 0.31635692447741459 -0.44186271952063733 0 0.32754989683014701 -0.4383348660762722 0 0.32620329326344932 -0.42738598766280161 0 0.32620329326344932 -0.42738598766280161 0 0.32129013956454089 -0.41098705074526909 0 0.34119288069240911 -0.41872141434625959 0 0.32129013956454089 -0.41098705074526909 0 0.34119288069240911 -0.41872141434625959 0 0.33976110356497191 -0.40109978759347259 0 0.3375891093811153 -0.4411932854826045 0 0.33743948865676332 -0.42917731029245021 0 0.3546622631166958 -0.42025099789431292 0 0.32620329326344932 -0.42738598766280161 0 0.34119288069240911 -0.41872141434625959 0 0.33743948865676332 -0.42917731029245021 0 0.32754989683014701 -0.4383348660762722 0 0.32620329326344932 -0.42738598766280161 0 0.33743948865676332 -0.42917731029245021 0 0.3375891093811153 -0.4411932854826045 0 0.32754989683014701 -0.4383348660762722 0 0.33743948865676332 -0.42917731029245021 0 0.34119288069240911 -0.41872141434625959 0 0.33743948865676332 -0.42917731029245021 0 0.3546622631166958 -0.42025099789431292 0 0.3375891093811153 -0.4411932854826045 0 0.3546622631166958 -0.42025099789431292 0 0.3465606092847856 -0.44137624851105062 0 0.3375891093811153 -0.4411932854826045 0 0.3546622631166958 -0.42025099789431292 0 0.3465606092847856 -0.44137624851105062 0 0.35728273636068358 -0.43337210477931237 0 0.3546622631166958 -0.42025099789431292 0 0.38301016072276411 -0.43256089573562939 0 0.3686902495030196 -0.42839164965396309 0 0.37317101036670208 -0.41623422010918693 0 0.36899048435309351 -0.43984967861958912 0 0.35728273636068358 -0.43337210477931237 0 0.3686902495030196 -0.42839164965396309 0 0.35728273636068358 -0.43337210477931237 0 0.3686902495030196 -0.42839164965396309 0 0.3546622631166958 -0.42025099789431292 0 0.38301016072276411 -0.43256089573562939 0 0.36899048435309351 -0.43984967861958912 0 0.3686902495030196 -0.42839164965396309 0 0.37994075659129789 -0.40144317374313437 0 0.37317101036670208 -0.41623422010918693 0 0.35752243425800739 -0.4015753314299359 0 0.3686902495030196 -0.42839164965396309 0 0.37317101036670208 -0.41623422010918693 0 0.3546622631166958 -0.42025099789431292 0 0.37317101036670208 -0.41623422010918693 0 0.3546622631166958 -0.42025099789431292 0 0.35752243425800739 -0.4015753314299359 0 0.34119288069240911 -0.41872141434625959 0 0.3546622631166958 -0.42025099789431292 0 0.35752243425800739 -0.4015753314299359 0 0.34119288069240911 -0.41872141434625959 0 0.35752243425800739 -0.4015753314299359 0 0.33976110356497191 -0.40109978759347259 0 0.34119288069240911 -0.41872141434625959 0 0.35752243425800739 -0.4015753314299359 0 0.35752243425800739 -0.4015753314299359 0 0.34755644708554068 -0.38211137580744298 0 0.33976110356497191 -0.40109978759347259 0 0.35752243425800739 -0.4015753314299359 0 0.37385198782360568 -0.38442924851361221 0 0.37994075659129789 -0.40144317374313437 0 0.35752243425800739 -0.4015753314299359 0 0.37385198782360568 -0.38442924851361221 0 0.35752243425800739 -0.4015753314299359 0 0.37385198782360568 -0.38442924851361221 0 0.34755644708554068 -0.38211137580744298 0 0.37385198782360568 -0.38442924851361221 0 0.34755644708554068 -0.38211137580744298 0 0.35650977778267212 -0.36523534710079952 0 0.34755644708554068 -0.38211137580744298 0 0.33379599458344678 -0.37632974734058872 0 0.32688571379704923 -0.38874658626392089 0 0.32129013956454089 -0.41098705074526909 0 0.33976110356497191 -0.40109978759347259 0 0.32688571379704923 -0.38874658626392089 0 0.34755644708554068 -0.38211137580744298 0 0.33976110356497191 -0.40109978759347259 0 0.32688571379704923 -0.38874658626392089 0 0.32129013956454089 -0.41098705074526909 0 0.32688571379704923 -0.38874658626392089 0 0.30468516988510058 -0.3990339025407551 0 0.32688571379704923 -0.38874658626392089 0 0.31152605544784828 -0.3808918842038681 0 0.30468516988510058 -0.3990339025407551 0 0.32688571379704923 -0.38874658626392089 0 0.31152605544784828 -0.3808918842038681 0 0.32281821185704801 -0.37150446847007668 0 0.33379599458344678 -0.37632974734058872 0 0.32688571379704923 -0.38874658626392089 0 0.32281821185704801 -0.37150446847007668 0 0.31152605544784828 -0.3808918842038681 0 0.30468516988510058 -0.3990339025407551 0 0.29552909642767727 -0.37779451384413493 0 0.30468516988510058 -0.3990339025407551 0 0.28203204616305932 -0.39490402704966271 0 0.28588749470629637 -0.41187444943065282 0 0.28203204616305932 -0.39490402704966271 0 0.29552909642767727 -0.37779451384413493 0 0.27520374824171129 -0.38159703559754871 0 0.30468516988510058 -0.3990339025407551 0 0.28203204616305932 -0.39490402704966271 0 0.29552909642767727 -0.37779451384413493 0 0.28203204616305932 -0.39490402704966271 0 0.29552909642767727 -0.37779451384413493 0 0.25751977044882668 -0.37994004927490899 0 0.2630273831736325 -0.39597679476505032 0 0.27520374824171129 -0.38159703559754871 0 0.25751977044882668 -0.37994004927490899 0 0.2630273831736325 -0.39597679476505032 0 0.25751977044882668 -0.37994004927490899 0 0.2630273831736325 -0.39597679476505032 0 0.2367090688434226 -0.39587575270045849 0 0.2630273831736325 -0.39597679476505032 0 0.26743205015505372 -0.41341168758305008 0 0.2630273831736325 -0.39597679476505032 0 0.26743205015505372 -0.41341168758305008 0 0.26530871911821952 -0.4093039047598318 0 0.25373450766085731 -0.40612635718347578 0 0.2630273831736325 -0.39597679476505032 0 0.2367090688434226 -0.39587575270045849 0 0.25373450766085731 -0.40612635718347578 0 0.2630273831736325 -0.39597679476505032 0 0.26530871911821952 -0.4093039047598318 0 0.28203204616305932 -0.39490402704966271 0 0.26743205015505372 -0.41341168758305008 0 0.28203204616305932 -0.39490402704966271 0 0.2630273831736325 -0.39597679476505032 0 0.26743205015505372 -0.41341168758305008 0 0.28203204616305932 -0.39490402704966271 0 0.27520374824171129 -0.38159703559754871 0 0.2630273831736325 -0.39597679476505032 0 0.28203204616305932 -0.39490402704966271 0 0.26743205015505372 -0.41341168758305008 0 0.28588749470629637 -0.41187444943065282 0 0.26743205015505372 -0.41341168758305008 0 0.27214949366041219 -0.42253802401606749 0 0.28588749470629637 -0.41187444943065282 0 0.26743205015505372 -0.41341168758305008 0 0.25919867273847869 -0.42384871470180319 0 0.27214949366041219 -0.42253802401606749 0 0.26743205015505372 -0.41341168758305008 0 0.27214949366041219 -0.42253802401606749 0 0.26743205015505372 -0.41341168758305008 0 0.26530871911821952 -0.4093039047598318 0 0.25373450766085731 -0.40612635718347578 0 0.26530871911821952 -0.4093039047598318 0 0.25868629140633581 -0.41380717158287861 0 0.26743205015505372 -0.41341168758305008 0 0.26530871911821952 -0.4093039047598318 0 0.25868629140633581 -0.41380717158287861 0 0.26743205015505372 -0.41341168758305008 0 0.25919867273847869 -0.42384871470180319 0 0.26743205015505372 -0.41341168758305008 0 0.25868629140633581 -0.41380717158287861 0 0.25919867273847869 -0.42384871470180319 0 0.25868629140633581 -0.41380717158287861 0 0.25919867273847869 -0.42384871470180319 0 0.24494107576267621 -0.41566816210915991 0 0.25373450766085731 -0.40612635718347578 0 0.25868629140633581 -0.41380717158287861 0 0.24494107576267621 -0.41566816210915991 0 0.25919867273847869 -0.42384871470180319 0 0.2481195038739103 -0.43253413450948919 0 0.24494107576267621 -0.41566816210915991 0 0.25919867273847869 -0.42384871470180319 0 0.26299867143852002 -0.43541774817571188 0 0.2481195038739103 -0.43253413450948919 0 0.25919867273847869 -0.42384871470180319 0 0.26299867143852002 -0.43541774817571188 0 0.27214949366041219 -0.42253802401606749 0 0.27214949366041219 -0.42253802401606749 0 0.28363969072716039 -0.44476688674516052 0 0.26299867143852002 -0.43541774817571188 0 0.27214949366041219 -0.42253802401606749 0 0.28074666600132647 -0.44757076899195419 0 0.27214949366041219 -0.42253802401606749 0 0.28074666600132647 -0.44757076899195419 0 0.27214949366041219 -0.42253802401606749 0 0.29228294337649752 -0.42720623169375532 0 0.28363969072716039 -0.44476688674516052 0 0.27214949366041219 -0.42253802401606749 0 0.29228294337649752 -0.42720623169375532 0 0.28588749470629637 -0.41187444943065282 0 0.29228294337649752 -0.42720623169375532 0 0.28588749470629637 -0.41187444943065282 0 0.30148156197771492 -0.41475919802104561 0 0.32129013956454089 -0.41098705074526909 0 0.30148156197771492 -0.41475919802104561 0 0.30965292378217601 -0.42732567206423427 0 0.32129013956454089 -0.41098705074526909 0 0.30468516988510058 -0.3990339025407551 0 0.30148156197771492 -0.41475919802104561 0 0.30468516988510058 -0.3990339025407551 0 0.28588749470629637 -0.41187444943065282 0 0.30148156197771492 -0.41475919802104561 0 0.29228294337649752 -0.42720623169375532 0 0.30148156197771492 -0.41475919802104561 0 0.30965292378217601 -0.42732567206423427 0 0.29228294337649752 -0.42720623169375532 0 0.30965292378217601 -0.42732567206423427 0 0.30221792486898152 -0.44252135079567118 0 0.31635692447741459 -0.44186271952063733 0 0.30965292378217601 -0.42732567206423427 0 0.30221792486898152 -0.44252135079567118 0 0.30221792486898152 -0.44252135079567118 0 0.31051457828522783 -0.45147981807794041 0 0.30296750814898021 -0.45939962892455721 0 0.31635692447741459 -0.44186271952063733 0 0.30221792486898152 -0.44252135079567118 0 0.31051457828522783 -0.45147981807794041 0 0.32051595564553481 -0.46213557307089598 0 0.31051457828522783 -0.45147981807794041 0 0.30296750814898021 -0.45939962892455721 0 0.32051595564553481 -0.46213557307089598 0 0.30296750814898021 -0.45939962892455721 0 0.30344280190995448 -0.48307786065918767 0 0.30296750814898021 -0.45939962892455721 0 0.29512988779390992 -0.46699574947425282 0 0.28074666600132647 -0.44757076899195419 0 0.27554559483929519 -0.46444278740413991 0 0.28934383834223859 -0.47260351396784173 0 0.29512988779390992 -0.46699574947425282 0 0.28074666600132647 -0.44757076899195419 0 0.28934383834223859 -0.47260351396784173 0 0.30296750814898021 -0.45939962892455721 0 0.29512988779390992 -0.46699574947425282 0 0.28363969072716039 -0.44476688674516052 0 0.28074666600132647 -0.44757076899195419 0 0.28934383834223859 -0.47260351396784173 0 0.29512988779390992 -0.46699574947425282 0 0.28363969072716039 -0.44476688674516052 0 0.29228294337649752 -0.42720623169375532 0 0.30221792486898152 -0.44252135079567118 0 0.28363969072716039 -0.44476688674516052 0 0.30221792486898152 -0.44252135079567118 0 0.30296750814898021 -0.45939962892455721 0 0.28363969072716039 -0.44476688674516052 0 0.29512988779390992 -0.46699574947425282 0 0.28363969072716039 -0.44476688674516052 0 0.28074666600132647 -0.44757076899195419 0 0.26299867143852002 -0.43541774817571188 0 0.28074666600132647 -0.44757076899195419 0 0.2568051087683223 -0.44954582835982948 0 0.27214949366041219 -0.42253802401606749 0 0.28363969072716039 -0.44476688674516052 0 0.28074666600132647 -0.44757076899195419 0 0.26299867143852002 -0.43541774817571188 0 0.2568051087683223 -0.44954582835982948 0 0.2481195038739103 -0.43253413450948919 0 0.2568051087683223 -0.44954582835982948 0 0.26022972114081128 -0.46917702384374821 0 0.23718882707015049 -0.45986444420057693 0 0.2568051087683223 -0.44954582835982948 0 0.27554559483929519 -0.46444278740413991 0 0.26022972114081128 -0.46917702384374821 0 0.28074666600132647 -0.44757076899195419 0 0.2568051087683223 -0.44954582835982948 0 0.27554559483929519 -0.46444278740413991 0 0.27554559483929519 -0.46444278740413991 0 0.26022972114081128 -0.46917702384374821 0 0.2832706152114719 -0.47848960348692038 0 0.26022972114081128 -0.46917702384374821 0 0.2832706152114719 -0.47848960348692038 0 0.26022972114081128 -0.46917702384374821 0 0.27217348211217651 -0.48924480174345941 0 0.2832706152114719 -0.47848960348692038 0 0.27217348211217651 -0.48924480174345941 0 0.2832706152114719 -0.47848960348692038 0 0.26022972114081128 -0.46917702384374821 0 0.25699751373479041 -0.48468891969039768 0 0.27217348211217651 -0.48924480174345941 0 0.26022972114081128 -0.46917702384374821 0 0.25699751373479041 -0.48468891969039768 0 0.24003257050845569 -0.47824744288084031 0 0.25699751373479041 -0.48468891969039768 0 0.26107634901288129 -0.49999999999999872 0 0.2367528177561086 -0.5 0 0.25699751373479041 -0.48468891969039768 0 0.26107634901288129 -0.49999999999999872 0 0.27217348211217651 -0.48924480174345941 0 0.26107634901288129 -0.49999999999999872 0 0.27217348211217651 -0.48924480174345941 0 0.28964706516044131 -0.50000000000000178 0 0.26107634901288129 -0.49999999999999872 0 0.27217348211217651 -0.48924480174345941 0 0.27217348211217651 -0.48924480174345941 0 0.28676301480932292 -0.4884328713003086 0 0.2832706152114719 -0.47848960348692038 0 0.27217348211217651 -0.48924480174345941 0 0.28964706516044131 -0.50000000000000178 0 0.28676301480932292 -0.4884328713003086 0 0.28964706516044131 -0.50000000000000178 0 0.29605384254050188 -0.49214131281863538 0 0.28964706516044131 -0.50000000000000178 0 0.29605384254050188 -0.49214131281863538 0 0.29875280696237549 -0.50000000000000822 0 0.28964706516044131 -0.50000000000000178 0 0.29605384254050188 -0.49214131281863538 0 0.28676301480932292 -0.4884328713003086 0 0.29605384254050188 -0.49214131281863538 0 0.29267006902202741 -0.48228863845252512 0 0.30125684053156249 -0.48575920662210298 0 0.29605384254050188 -0.49214131281863538 0 0.28676301480932292 -0.4884328713003086 0 0.29267006902202741 -0.48228863845252512 0 0.29605384254050188 -0.49214131281863538 0 0.29267006902202741 -0.48228863845252512 0 0.2832706152114719 -0.47848960348692038 0 0.28934383834223859 -0.47260351396784173 0 0.29267006902202741 -0.48228863845252512 0 0.28676301480932292 -0.4884328713003086 0 0.2832706152114719 -0.47848960348692038 0 0.29267006902202741 -0.48228863845252512 0 0.2832706152114719 -0.47848960348692038 0 0.29267006902202741 -0.48228863845252512 0 0.27554559483929519 -0.46444278740413991 0 0.2832706152114719 -0.47848960348692038 0 0.28934383834223859 -0.47260351396784173 0 0.2832706152114719 -0.47848960348692038 0 0.28934383834223859 -0.47260351396784173 0 0.29512988779390992 -0.46699574947425282 0 0.28934383834223859 -0.47260351396784173 0 0.296368687519938 -0.4781449938351825 0 0.29512988779390992 -0.46699574947425282 0 0.28934383834223859 -0.47260351396784173 0 0.29267006902202741 -0.48228863845252512 0 0.296368687519938 -0.4781449938351825 0 0.30125684053156249 -0.48575920662210298 0 0.28934383834223859 -0.47260351396784173 0 0.29267006902202741 -0.48228863845252512 0 0.296368687519938 -0.4781449938351825 0 0.28934383834223859 -0.47260351396784173 0 0.29267006902202741 -0.48228863845252512 0 0.296368687519938 -0.4781449938351825 0 0.30344280190995448 -0.48307786065918767 0 0.30125684053156249 -0.48575920662210298 0 0.32051595564553481 -0.46213557307089598 0 0.30344280190995448 -0.48307786065918767 0 0.29512988779390992 -0.46699574947425282 0 0.30344280190995448 -0.48307786065918767 0 0.30296750814898021 -0.45939962892455721 0 0.29512988779390992 -0.46699574947425282 0 0.30344280190995448 -0.48307786065918767 0 0.29267006902202741 -0.48228863845252512 0 0.30125684053156249 -0.48575920662210298 0 0.29512988779390992 -0.46699574947425282 0 0.296368687519938 -0.4781449938351825 0 0.30344280190995448 -0.48307786065918767 0 0.31469988314009772 -0.48088824964053911 0 0.30344280190995448 -0.48307786065918767 0 0.30577213967839428 -0.48758418280524879 0 0.30577213967839428 -0.48758418280524879 0 0.31218993028024461 -0.49999999999999889 0 0.30293342321303701 -0.49417141565156719 0 0.30577213967839428 -0.48758418280524879 0 0.31218993028024461 -0.49999999999999889 0 0.29605384254050188 -0.49214131281863538 0 0.29875280696237549 -0.50000000000000822 0 0.31218993028024461 -0.49999999999999889 0 0.29875280696237549 -0.50000000000000822 0 0.30293342321303701 -0.49417141565156719 0 0.29605384254050188 -0.49214131281863538 0 0.29875280696237549 -0.50000000000000822 0 0.30293342321303701 -0.49417141565156719 0 0.29605384254050188 -0.49214131281863538 0 0.30125684053156249 -0.48575920662210298 0 0.29605384254050188 -0.49214131281863538 0 0.30293342321303701 -0.49417141565156719 0 0.30125684053156249 -0.48575920662210298 0 0.30577213967839428 -0.48758418280524879 0 0.30293342321303701 -0.49417141565156719 0 0.30125684053156249 -0.48575920662210298 0 0.30344280190995448 -0.48307786065918767 0 0.30577213967839428 -0.48758418280524879 0 0.30125684053156249 -0.48575920662210298 0 0.30577213967839428 -0.48758418280524879 0 0.30125684053156249 -0.48575920662210298 0 0.30344280190995448 -0.48307786065918767 0 0.30577213967839428 -0.48758418280524879 0 0.30344280190995448 -0.48307786065918767 0 0.30125684053156249 -0.48575920662210298 0 0.33287547634843467 -0.28296419864986028 0 0.3322013403271753 -0.30146510882465682 0 0.34474323983768751 -0.29381883163466821 0 0.3322013403271753 -0.30146510882465682 0 0.34447642320665223 -0.31335337403921698 0 0.32566049203155167 -0.31478541675757682 0 0.3322013403271753 -0.30146510882465682 0 0.34474323983768751 -0.29381883163466821 0 0.34447642320665223 -0.31335337403921698 0 0.3322013403271753 -0.30146510882465682 0 0.31463104453194751 -0.30390509413649047 0 0.32566049203155167 -0.31478541675757682 0 0.33287547634843467 -0.28296419864986028 0 0.31463104453194751 -0.30390509413649047 0 0.31234754982338703 -0.29305977092780588 0 0.33287547634843467 -0.28296419864986028 0 0.3322013403271753 -0.30146510882465682 0 0.31463104453194751 -0.30390509413649047 0 0.33287547634843467 -0.28296419864986028 0 0.31463104453194751 -0.30390509413649047 0 0.33287547634843467 -0.28296419864986028 0 0.31529684357293802 -0.28237627665094489 0 0.31234754982338703 -0.29305977092780588 0 0.31529684357293802 -0.28237627665094489 0 0.31329344756690702 -0.26711813877997381 0 0.33054322991604562 -0.2710793788378727 0 0.33287547634843467 -0.28296419864986028 0 0.31529684357293802 -0.28237627665094489 0 0.33054322991604562 -0.2710793788378727 0 0.31529684357293802 -0.28237627665094489 0 0.33054322991604562 -0.2710793788378727 0 0.32804855968273622 -0.25743919181773389 0 0.30497721120055121 -0.2528550804722447 0 0.31329344756690702 -0.26711813877997381 0 0.32804855968273622 -0.25743919181773389 0 0.33054322991604562 -0.2710793788378727 0 0.31329344756690702 -0.26711813877997381 0 0.32804855968273622 -0.25743919181773389 0 0.30497721120055121 -0.2528550804722447 0 0.32653859469191748 -0.24178225554840641 0 0.32804855968273622 -0.25743919181773389 0 0.30497721120055121 -0.2528550804722447 0 0.32804855968273622 -0.25743919181773389 0 0.35111990816492011 -0.26202330316322842 0 0.34032025475604288 -0.24597905592601871 0 0.32804855968273622 -0.25743919181773389 0 0.35111990816492011 -0.26202330316322842 0 0.32804855968273622 -0.25743919181773389 0 0.33054322991604562 -0.2710793788378727 0 0.35111990816492011 -0.26202330316322842 0 0.33287547634843467 -0.28296419864986028 0 0.35111990816492011 -0.26202330316322842 0 0.33287547634843467 -0.28296419864986028 0 0.33054322991604562 -0.2710793788378727 0 0.35111990816492011 -0.26202330316322842 0 0.38589213705519088 -0.28909234175657428 0 0.3805397478218997 -0.26786881413793562 0 0.35457124964797337 -0.2818113526830528 0 0.33287547634843467 -0.28296419864986028 0 0.35111990816492011 -0.26202330316322842 0 0.35457124964797337 -0.2818113526830528 0 0.34032025475604288 -0.24597905592601871 0 0.36772626503734462 -0.24296258440931301 0 0.35111990816492011 -0.26202330316322842 0 0.3805397478218997 -0.26786881413793562 0 0.35111990816492011 -0.26202330316322842 0 0.36772626503734462 -0.24296258440931301 0 0.3805397478218997 -0.26786881413793562 0 0.35111990816492011 -0.26202330316322842 0 0.36772626503734462 -0.24296258440931301 0 0.35111990816492011 -0.26202330316322842 0 0.3805397478218997 -0.26786881413793562 0 0.35111990816492011 -0.26202330316322842 0 0.35457124964797337 -0.2818113526830528 0 0.38589213705519088 -0.28909234175657428 0 0.36621558639610707 -0.29670670523029219 0 0.35457124964797337 -0.2818113526830528 0 0.33287547634843467 -0.28296419864986028 0 0.35457124964797337 -0.2818113526830528 0 0.34474323983768751 -0.29381883163466821 0 0.36621558639610707 -0.29670670523029219 0 0.35457124964797337 -0.2818113526830528 0 0.34474323983768751 -0.29381883163466821 0 0.36621558639610707 -0.29670670523029219 0 0.34474323983768751 -0.29381883163466821 0 0.34447642320665223 -0.31335337403921698 0 0.36621558639610707 -0.29670670523029219 0 0.34447642320665223 -0.31335337403921698 0 0.36621558639610707 -0.29670670523029219 0 0.36666880277812419 -0.32315945937756302 0 0.34447642320665223 -0.31335337403921698 0 0.38377072110625332 -0.31564846042765088 0 0.36621558639610707 -0.29670670523029219 0 0.36666880277812419 -0.32315945937756302 0 0.37922858481904009 -0.33814019247242699 0 0.36666880277812419 -0.32315945937756302 0 0.35962341124259928 -0.34627775305619313 0 0.36666880277812419 -0.32315945937756302 0 0.35273767537858852 -0.33076995437709861 0 0.35962341124259928 -0.34627775305619313 0 0.35273767537858852 -0.33076995437709861 0 0.35962341124259928 -0.34627775305619313 0 0.33950637002605161 -0.34216423707299681 0 0.35273767537858852 -0.33076995437709861 0 0.34447642320665223 -0.31335337403921698 0 0.33950637002605161 -0.34216423707299681 0 0.36666880277812419 -0.32315945937756302 0 0.35273767537858852 -0.33076995437709861 0 0.34447642320665223 -0.31335337403921698 0 0.37385198782360568 -0.38442924851361221 0 0.37397294860501351 -0.35847288680401979 0 0.35650977778267212 -0.36523534710079952 0 0.37397294860501351 -0.35847288680401979 0 0.35962341124259928 -0.34627775305619313 0 0.35650977778267212 -0.36523534710079952 0 0.37922858481904009 -0.33814019247242699 0 0.37397294860501351 -0.35847288680401979 0 0.35962341124259928 -0.34627775305619313 0 0.35962341124259928 -0.34627775305619313 0 0.34839079116136812 -0.35415847401272582 0 0.35650977778267212 -0.36523534710079952 0 0.35962341124259928 -0.34627775305619313 0 0.34839079116136812 -0.35415847401272582 0 0.33950637002605161 -0.34216423707299681 0 0.34755644708554068 -0.38211137580744298 0 0.35650977778267212 -0.36523534710079952 0 0.33792360559414952 -0.36295655882091399 0 0.34839079116136812 -0.35415847401272582 0 0.35650977778267212 -0.36523534710079952 0 0.33792360559414952 -0.36295655882091399 0 0.34755644708554068 -0.38211137580744298 0 0.33379599458344678 -0.37632974734058872 0 0.33792360559414952 -0.36295655882091399 0 0.33379599458344678 -0.37632974734058872 0 0.33792360559414952 -0.36295655882091399 0 0.32281821185704801 -0.37150446847007668 0 0.33792360559414952 -0.36295655882091399 0 0.32261623090853497 -0.35181930019849528 0 0.33950637002605161 -0.34216423707299681 0 0.34839079116136812 -0.35415847401272582 0 0.33792360559414952 -0.36295655882091399 0 0.33950637002605161 -0.34216423707299681 0 0.32261623090853497 -0.35181930019849528 0 0.32281821185704801 -0.37150446847007668 0 0.30902614669229528 -0.36068500063860709 0 0.33792360559414952 -0.36295655882091399 0 0.32261623090853497 -0.35181930019849528 0 0.32281821185704801 -0.37150446847007668 0 0.31152605544784828 -0.3808918842038681 0 0.32281821185704801 -0.37150446847007668 0 0.30902614669229528 -0.36068500063860709 0 0.34447642320665223 -0.31335337403921698 0 0.32273726001719732 -0.33000004284814188 0 0.32566049203155167 -0.31478541675757682 0 0.34447642320665223 -0.31335337403921698 0 0.32273726001719732 -0.33000004284814188 0 0.32261623090853497 -0.35181930019849528 0 0.33950637002605161 -0.34216423707299681 0 0.32273726001719732 -0.33000004284814188 0 0.34447642320665223 -0.31335337403921698 0 0.33950637002605161 -0.34216423707299681 0 0.32273726001719732 -0.33000004284814188 0 0.32261623090853497 -0.35181930019849528 0 0.32273726001719732 -0.33000004284814188 0 0.30099809682774231 -0.34664671165706668 0 0.32273726001719732 -0.33000004284814188 0 0.32566049203155167 -0.31478541675757682 0 0.29638661271546018 -0.3248459896231205 0 0.31463104453194751 -0.30390509413649047 0 0.32566049203155167 -0.31478541675757682 0 0.29638661271546018 -0.3248459896231205 0 0.31463104453194751 -0.30390509413649047 0 0.29638661271546018 -0.3248459896231205 0 0.32273726001719732 -0.33000004284814188 0 0.30099809682774231 -0.34664671165706668 0 0.32273726001719732 -0.33000004284814188 0 0.29638661271546018 -0.3248459896231205 0 0.30099809682774231 -0.34664671165706668 0 0.29638661271546018 -0.3248459896231205 0 0.2781421808989728 -0.34578688510975081 0 0.29638661271546018 -0.3248459896231205 0 0.2781421808989728 -0.34578688510975081 0 0.27883661956948708 -0.32472843038324067 0 0.29638661271546018 -0.3248459896231205 0 0.30099809682774231 -0.34664671165706668 0 0.2781421808989728 -0.34578688510975081 0 0.28961499958680043 -0.3137187911144122 0 0.27883661956948708 -0.32472843038324067 0 0.28109113642841388 -0.30772119245850299 0 0.29638661271546018 -0.3248459896231205 0 0.28961499958680043 -0.3137187911144122 0 0.29877147786950953 -0.30752253334616031 0 0.29638661271546018 -0.3248459896231205 0 0.28961499958680043 -0.3137187911144122 0 0.27883661956948708 -0.32472843038324067 0 0.29552909642767727 -0.37779451384413493 0 0.30902614669229528 -0.36068500063860709 0 0.31152605544784828 -0.3808918842038681 0 0.29552909642767727 -0.37779451384413493 0 0.30902614669229528 -0.36068500063860709 0 0.29552909642767727 -0.37779451384413493 0 0.30902614669229528 -0.36068500063860709 0 0.29563675255400579 -0.36232754770674541 0 0.30902614669229528 -0.36068500063860709 0 0.30099809682774231 -0.34664671165706668 0 0.29563675255400579 -0.36232754770674541 0 0.32261623090853497 -0.35181930019849528 0 0.30902614669229528 -0.36068500063860709 0 0.30099809682774231 -0.34664671165706668 0 0.30099809682774231 -0.34664671165706668 0 0.29563675255400579 -0.36232754770674541 0 0.27925893363828741 -0.36329338046599152 0 0.30099809682774231 -0.34664671165706668 0 0.27925893363828741 -0.36329338046599152 0 0.30099809682774231 -0.34664671165706668 0 0.27925893363828741 -0.36329338046599152 0 0.2781421808989728 -0.34578688510975081 0 0.29552909642767727 -0.37779451384413493 0 0.29563675255400579 -0.36232754770674541 0 0.27925893363828741 -0.36329338046599152 0 0.29552909642767727 -0.37779451384413493 0 0.27520374824171129 -0.38159703559754871 0 0.27925893363828741 -0.36329338046599152 0 0.25751977044882668 -0.37994004927490899 0 0.27925893363828741 -0.36329338046599152 0 0.27520374824171129 -0.38159703559754871 0 0.25751977044882668 -0.37994004927490899 0 0.27925893363828741 -0.36329338046599152 0 0.2781421808989728 -0.34578688510975081 0 0.25989774908248542 -0.36672778059638089 0 0.27925893363828741 -0.36329338046599152 0 0.2781421808989728 -0.34578688510975081 0 0.25989774908248542 -0.36672778059638089 0 0.2781421808989728 -0.34578688510975081 0 0.26174241296488659 -0.35020247779822022 0 0.25989774908248542 -0.36672778059638089 0 0.25024355751676147 -0.35875359685824942 0 0.26174241296488659 -0.35020247779822022 0 0.25462234269919831 -0.34307915854549148 0 0.25024355751676147 -0.35875359685824942 0 0.26174241296488659 -0.35020247779822022 0 0.25989774908248542 -0.36672778059638089 0 0.25751977044882668 -0.37994004927490899 0 0.25024355751676147 -0.35875359685824942 0 0.25989774908248542 -0.36672778059638089 0 0.25751977044882668 -0.37994004927490899 0 0.25024355751676147 -0.35875359685824942 0 0.25751977044882668 -0.37994004927490899 0 0.27925893363828741 -0.36329338046599152 0 0.25989774908248542 -0.36672778059638089 0 0.26213181562699739 -0.32176921045298879 0 0.28109113642841388 -0.30772119245850299 0 0.27883661956948708 -0.32472843038324067 0 0.26213181562699739 -0.32176921045298879 0 0.28109113642841388 -0.30772119245850299 0 0.27883661956948708 -0.32472843038324067 0 0.26394778610261799 -0.33499527121522332 0 0.26213181562699739 -0.32176921045298879 0 0.2781421808989728 -0.34578688510975081 0 0.27883661956948708 -0.32472843038324067 0 0.26394778610261799 -0.33499527121522332 0 0.2781421808989728 -0.34578688510975081 0 0.26174241296488659 -0.35020247779822022 0 0.26394778610261799 -0.33499527121522332 0 0.26394778610261799 -0.33499527121522332 0 0.25462234269919831 -0.34307915854549148 0 0.24916096160718529 -0.32518887195593121 0 0.26174241296488659 -0.35020247779822022 0 0.26394778610261799 -0.33499527121522332 0 0.25462234269919831 -0.34307915854549148 0 0.26213181562699739 -0.32176921045298879 0 0.251795934735139 -0.31069853026311312 0 0.26791242886860089 -0.30504950414253701 0 0.26394778610261799 -0.33499527121522332 0 0.26213181562699739 -0.32176921045298879 0 0.24916096160718529 -0.32518887195593121 0 0.26213181562699739 -0.32176921045298879 0 0.251795934735139 -0.31069853026311312 0 0.24916096160718529 -0.32518887195593121 0 0.251795934735139 -0.31069853026311312 0 0.26791242886860089 -0.30504950414253701 0 0.251795934735139 -0.31069853026311312 0 0.25248024006429781 -0.29365343996160131 0 0.26791242886860089 -0.30504950414253701 0 0.25248024006429781 -0.29365343996160131 0 0.26488645732446148 -0.28459528868877898 0 0.26791242886860089 -0.30504950414253701 0 0.25248024006429781 -0.29365343996160131 0 0.26488645732446148 -0.28459528868877898 0 0.25284739391620198 -0.27543482908196121 0 0.26488645732446148 -0.28459528868877898 0 0.26791242886860089 -0.30504950414253701 0 0.26488645732446148 -0.28459528868877898 0 0.27761548841115502 -0.28904637588173782 0 0.26791242886860089 -0.30504950414253701 0 0.26488645732446148 -0.28459528868877898 0 0.27761548841115502 -0.28904637588173782 0 0.27410765074654031 -0.27639260685060379 0 0.27761548841115502 -0.28904637588173782 0 0.28699458522542548 -0.27839632127090802 0 0.27410765074654031 -0.27639260685060379 0 0.26791242886860089 -0.30504950414253701 0 0.28397559752373402 -0.29934477148265842 0 0.27761548841115502 -0.28904637588173782 0 0.26791242886860089 -0.30504950414253701 0 0.28397559752373402 -0.29934477148265842 0 0.26213181562699739 -0.32176921045298879 0 0.26791242886860089 -0.30504950414253701 0 0.28109113642841388 -0.30772119245850299 0 0.26791242886860089 -0.30504950414253701 0 0.28109113642841388 -0.30772119245850299 0 0.28397559752373402 -0.29934477148265842 0 0.28109113642841388 -0.30772119245850299 0 0.28397559752373402 -0.29934477148265842 0 0.30005045722983043 -0.29367317446401731 0 0.28109113642841388 -0.30772119245850299 0 0.29298915135113163 -0.30377580976103652 0 0.30005045722983043 -0.29367317446401731 0 0.28961499958680043 -0.3137187911144122 0 0.28109113642841388 -0.30772119245850299 0 0.29298915135113163 -0.30377580976103652 0 0.28109113642841388 -0.30772119245850299 0 0.30005045722983043 -0.29367317446401731 0 0.28961499958680043 -0.3137187911144122 0 0.29298915135113163 -0.30377580976103652 0 0.29877147786950953 -0.30752253334616031 0 0.28397559752373402 -0.29934477148265842 0 0.29240245419787181 -0.29174757023327008 0 0.30005045722983043 -0.29367317446401731 0 0.28397559752373402 -0.29934477148265842 0 0.30005045722983043 -0.29367317446401731 0 0.27761548841115502 -0.28904637588173782 0 0.28397559752373402 -0.29934477148265842 0 0.28784024074507908 -0.28889550894984062 0 0.28397559752373402 -0.29934477148265842 0 0.28784024074507908 -0.28889550894984062 0 0.29240245419787181 -0.29174757023327008 0 0.27761548841115502 -0.28904637588173782 0 0.28784024074507908 -0.28889550894984062 0 0.28699458522542548 -0.27839632127090802 0 0.28784024074507908 -0.28889550894984062 0 0.2977435212928437 -0.28507682603656431 0 0.28699458522542548 -0.27839632127090802 0 0.28784024074507908 -0.28889550894984062 0 0.29240245419787181 -0.29174757023327008 0 0.2977435212928437 -0.28507682603656431 0 0.29240245419787181 -0.29174757023327008 0 0.30005045722983043 -0.29367317446401731 0 0.2977435212928437 -0.28507682603656431 0 0.31529684357293802 -0.28237627665094489 0 0.30005045722983043 -0.29367317446401731 0 0.2977435212928437 -0.28507682603656431 0 0.31529684357293802 -0.28237627665094489 0 0.30005045722983043 -0.29367317446401731 0 0.30005045722983043 -0.29367317446401731 0 0.31234754982338703 -0.29305977092780588 0 0.30487734994211019 -0.29963401529123418 0 0.31529684357293802 -0.28237627665094489 0 0.30005045722983043 -0.29367317446401731 0 0.31234754982338703 -0.29305977092780588 0 0.31463104453194751 -0.30390509413649047 0 0.31234754982338703 -0.29305977092780588 0 0.30487734994211019 -0.29963401529123418 0 0.31463104453194751 -0.30390509413649047 0 0.30487734994211019 -0.29963401529123418 0 0.29877147786950953 -0.30752253334616031 0 0.31463104453194751 -0.30390509413649047 0 0.29638661271546018 -0.3248459896231205 0 0.29877147786950953 -0.30752253334616031 0 0.30487734994211019 -0.29963401529123418 0 0.29877147786950953 -0.30752253334616031 0 0.29941276422506968 -0.29963110923543163 0 0.29298915135113163 -0.30377580976103652 0 0.29877147786950953 -0.30752253334616031 0 0.29941276422506968 -0.29963110923543163 0 0.29298915135113163 -0.30377580976103652 0 0.30005045722983043 -0.29367317446401731 0 0.29941276422506968 -0.29963110923543163 0 0.30005045722983043 -0.29367317446401731 0 0.30487734994211019 -0.29963401529123418 0 0.29941276422506968 -0.29963110923543163 0 0.31329344756690702 -0.26711813877997381 0 0.30497721120055121 -0.2528550804722447 0 0.29377511039261289 -0.26420190764757712 0 0.31329344756690702 -0.26711813877997381 0 0.30171634050648671 -0.27558238163062981 0 0.29377511039261289 -0.26420190764757712 0 0.31529684357293802 -0.28237627665094489 0 0.2977435212928437 -0.28507682603656431 0 0.30171634050648671 -0.27558238163062981 0 0.31529684357293802 -0.28237627665094489 0 0.31329344756690702 -0.26711813877997381 0 0.30171634050648671 -0.27558238163062981 0 0.30171634050648671 -0.27558238163062981 0 0.28699458522542548 -0.27839632127090802 0 0.29377511039261289 -0.26420190764757712 0 0.2977435212928437 -0.28507682603656431 0 0.30171634050648671 -0.27558238163062981 0 0.28699458522542548 -0.27839632127090802 0 0.28699458522542548 -0.27839632127090802 0 0.29377511039261289 -0.26420190764757712 0 0.27918123699133729 -0.26578397517657287 0 0.28190586271836621 -0.2482709691267555 0 0.29377511039261289 -0.26420190764757712 0 0.27918123699133729 -0.26578397517657287 0 0.28190586271836621 -0.2482709691267555 0 0.30497721120055121 -0.2528550804722447 0 0.28190586271836621 -0.2482709691267555 0 0.30497721120055121 -0.2528550804722447 0 0.29377511039261289 -0.26420190764757712 0 0.28190586271836621 -0.2482709691267555 0 0.27918123699133729 -0.26578397517657287 0 0.26186048578032223 -0.26414107323502112 0 0.28190586271836621 -0.2482709691267555 0 0.2588345142361817 -0.2436868577812632 0 0.26186048578032223 -0.26414107323502112 0 0.26488645732446148 -0.28459528868877898 0 0.27410765074654031 -0.27639260685060379 0 0.26186048578032223 -0.26414107323502112 0 0.27410765074654031 -0.27639260685060379 0 0.27918123699133729 -0.26578397517657287 0 0.26186048578032223 -0.26414107323502112 0 0.28699458522542548 -0.27839632127090802 0 0.27410765074654031 -0.27639260685060379 0 0.27918123699133729 -0.26578397517657287 0 0.26488645732446148 -0.28459528868877898 0 0.26186048578032223 -0.26414107323502112 0 0.26488645732446148 -0.28459528868877898 0 0.25284739391620198 -0.27543482908196121 0 0.26186048578032223 -0.26414107323502112 0 0.25284739391620198 -0.27543482908196121 0 0.25936642890186462 -0.26386281258213418 0 0.26186048578032223 -0.26414107323502112 0 0.25284739391620198 -0.27543482908196121 0 0.25936642890186462 -0.26386281258213418 0 0.24862729915749579 -0.26799640040896178 0 0.2588345142361817 -0.2436868577812632 0 0.26186048578032223 -0.26414107323502112 0 0.25936642890186462 -0.26386281258213418 0 0.2410233639488048 -0.25093728896802481 0 0.2588345142361817 -0.2436868577812632 0 0.26186048578032223 -0.26414107323502112 0 0.25386491405316808 -0.25320302537436762 0 0.25936642890186462 -0.26386281258213418 0 0.25386491405316808 -0.25320302537436762 0 0.2410233639488048 -0.25093728896802481 0 0.25936642890186462 -0.26386281258213418 0 0.26186048578032223 -0.26414107323502112 0 0.25386491405316808 -0.25320302537436762 0 0.25386491405316808 -0.25320302537436762 0 0.2410233639488048 -0.25093728896802481 0 0.248249871547954 -0.24759895791751499 0 0.25936642890186462 -0.26386281258213418 0 0.2413363261183534 -0.26114454491766959 0 0.24862729915749579 -0.26799640040896178 0 0.25936642890186462 -0.26386281258213418 0 0.2413363261183534 -0.26114454491766959 0 0.2410233639488048 -0.25093728896802481 0 0.2413363261183534 -0.26114454491766959 0 0.2410233639488048 -0.25093728896802481 0 0.22711589257641071 -0.25335285928093709 0 0.25284739391620198 -0.27543482908196121 0 0.24095904769356311 -0.27154341505408219 0 0.23938971559857181 -0.28407480721286782 0 0.25284739391620198 -0.27543482908196121 0 0.24862729915749579 -0.26799640040896178 0 0.24095904769356311 -0.27154341505408219 0 0.2413363261183534 -0.26114454491766959 0 0.24862729915749579 -0.26799640040896178 0 0.24095904769356311 -0.27154341505408219 0 0.24095904769356311 -0.27154341505408219 0 0.22001418284766011 -0.27073346688236738 0 0.23938971559857181 -0.28407480721286782 0 0.22001418284766011 -0.27073346688236738 0 0.22598343150357331 -0.28811437695090669 0 0.23938971559857181 -0.28407480721286782 0 0.22001418284766011 -0.27073346688236738 0 0.22598343150357331 -0.28811437695090669 0 0.2130020925068514 -0.26392059180315408 0 0.22598343150357331 -0.28811437695090669 0 0.2413363261183534 -0.26114454491766959 0 0.24095904769356311 -0.27154341505408219 0 0.22001418284766011 -0.27073346688236738 0 0.22001418284766011 -0.27073346688236738 0 0.2130020925068514 -0.26392059180315408 0 0.22598343150357331 -0.28811437695090669 0 0.2413363261183534 -0.26114454491766959 0 0.22001418284766011 -0.27073346688236738 0 0.22711589257641071 -0.25335285928093709 0 0.22001418284766011 -0.27073346688236738 0 0.22711589257641071 -0.25335285928093709 0 0.21217570844517189 -0.2479098543110872 0 0.2130020925068514 -0.26392059180315408 0 0.2003490685008141 -0.239614051120212 0 0.2130020925068514 -0.26392059180315408 0 0.19955191484755719 -0.25437948978255043 0 0.2003490685008141 -0.239614051120212 0 0.22001418284766011 -0.27073346688236738 0 0.21217570844517189 -0.2479098543110872 0 0.2130020925068514 -0.26392059180315408 0 0.21217570844517189 -0.2479098543110872 0 0.2003490685008141 -0.239614051120212 0 0.22001418284766011 -0.27073346688236738 0 0.2130020925068514 -0.26392059180315408 0 0.21217570844517189 -0.2479098543110872 0 0.2130020925068514 -0.26392059180315408 0 0.19955191484755719 -0.25437948978255043 0 0.20097726814946529 -0.26381764304839178 0 0.2130020925068514 -0.26392059180315408 0 0.20861578881423881 -0.28089012174631328 0 0.20479964816511129 -0.27137830593382323 0 0.2130020925068514 -0.26392059180315408 0 0.21541086396031511 -0.28478173943078372 0 0.22598343150357331 -0.28811437695090669 0 0.2130020925068514 -0.26392059180315408 0 0.20861578881423881 -0.28089012174631328 0 0.21541086396031511 -0.28478173943078372 0 0.20861578881423881 -0.28089012174631328 0 0.20479964816511129 -0.27137830593382323 0 0.20036860841802431 -0.2780222368190241 0 0.2130020925068514 -0.26392059180315408 0 0.20479964816511129 -0.27137830593382323 0 0.20097726814946529 -0.26381764304839178 0 0.20479964816511129 -0.27137830593382323 0 0.19695788230031169 -0.27033206419566191 0 0.20036860841802431 -0.2780222368190241 0 0.20479964816511129 -0.27137830593382323 0 0.19695788230031169 -0.27033206419566191 0 0.20097726814946529 -0.26381764304839178 0 0.19695788230031169 -0.27033206419566191 0 0.20036860841802431 -0.2780222368190241 0 0.19204252494330151 -0.28021322630166268 0 0.19695788230031169 -0.27033206419566191 0 0.19204252494330151 -0.28021322630166268 0 0.18640464510418839 -0.26862340597334849 0 0.19695788230031169 -0.27033206419566191 0 0.19057480292749479 -0.25907776352676981 0 0.18640464510418839 -0.26862340597334849 0 0.19057480292749479 -0.25907776352676981 0 0.19955191484755719 -0.25437948978255043 0 0.18732608264644859 -0.24487867245661959 0 0.19057480292749479 -0.25907776352676981 0 0.19955191484755719 -0.25437948978255043 0 0.20097726814946529 -0.26381764304839178 0 0.19695788230031169 -0.27033206419566191 0 0.19057480292749479 -0.25907776352676981 0 0.20097726814946529 -0.26381764304839178 0 0.20113609037812721 -0.29769186977347117 0 0.1939698785977918 -0.30371104797886711 0 0.19454308446111651 -0.29507504790601219 0 0.20113609037812721 -0.29769186977347117 0 0.1939698785977918 -0.30371104797886711 0 0.2032444598693309 -0.30664453513954171 0 0.1939698785977918 -0.30371104797886711 0 0.2032444598693309 -0.30664453513954171 0 0.1976932521318884 -0.31319252368022432 0 0.1939698785977918 -0.30371104797886711 0 0.1976932521318884 -0.31319252368022432 0 0.19034471972985781 -0.31285352258883042 0 0.1939698785977918 -0.30371104797886711 0 0.19034471972985781 -0.31285352258883042 0 0.1840048819817004 -0.30583057407500941 0 0.18762603597817701 -0.29725680039985442 0 0.1939698785977918 -0.30371104797886711 0 0.19454308446111651 -0.29507504790601219 0 0.18762603597817701 -0.29725680039985442 0 0.1939698785977918 -0.30371104797886711 0 0.1840048819817004 -0.30583057407500941 0 0.19454308446111651 -0.29507504790601219 0 0.19055621948432799 -0.28941805546020821 0 0.1994271978671584 -0.28729746591765992 0 0.18762603597817701 -0.29725680039985442 0 0.19454308446111651 -0.29507504790601219 0 0.19055621948432799 -0.28941805546020821 0 0.19204252494330151 -0.28021322630166268 0 0.19055621948432799 -0.28941805546020821 0 0.18545756951011841 -0.28495775396898249 0 0.19204252494330151 -0.28021322630166268 0 0.19055621948432799 -0.28941805546020821 0 0.1994271978671584 -0.28729746591765992 0 0.20036860841802431 -0.2780222368190241 0 0.19204252494330151 -0.28021322630166268 0 0.1994271978671584 -0.28729746591765992 0 0.20861578881423881 -0.28089012174631328 0 0.20036860841802431 -0.2780222368190241 0 0.1994271978671584 -0.28729746591765992 0 0.20113609037812721 -0.29769186977347117 0 0.1994271978671584 -0.28729746591765992 0 0.20760405633473769 -0.28905265442628703 0 0.20113609037812721 -0.29769186977347117 0 0.19454308446111651 -0.29507504790601219 0 0.1994271978671584 -0.28729746591765992 0 0.20760405633473769 -0.28905265442628703 0 0.21370317942365599 -0.29375629698556499 0 0.20885391875059989 -0.30030404513533621 0 0.20113609037812721 -0.29769186977347117 0 0.20760405633473769 -0.28905265442628703 0 0.20885391875059989 -0.30030404513533621 0 0.20861578881423881 -0.28089012174631328 0 0.20760405633473769 -0.28905265442628703 0 0.21541086396031511 -0.28478173943078372 0 0.20861578881423881 -0.28089012174631328 0 0.1994271978671584 -0.28729746591765992 0 0.20760405633473769 -0.28905265442628703 0 0.20760405633473769 -0.28905265442628703 0 0.21541086396031511 -0.28478173943078372 0 0.21370317942365599 -0.29375629698556499 0 0.21541086396031511 -0.28478173943078372 0 0.21370317942365599 -0.29375629698556499 0 0.22058785825412941 -0.29252904812913688 0 0.21370317942365599 -0.29375629698556499 0 0.22031747412363889 -0.3023229922895917 0 0.22058785825412941 -0.29252904812913688 0 0.21370317942365599 -0.29375629698556499 0 0.20885391875059989 -0.30030404513533621 0 0.22031747412363889 -0.3023229922895917 0 0.20885391875059989 -0.30030404513533621 0 0.2118191961334385 -0.30818140712808367 0 0.22031747412363889 -0.3023229922895917 0 0.20113609037812721 -0.29769186977347117 0 0.20885391875059989 -0.30030404513533621 0 0.2032444598693309 -0.30664453513954171 0 0.2032444598693309 -0.30664453513954171 0 0.2118191961334385 -0.30818140712808367 0 0.20700714424726899 -0.31785534868826087 0 0.20885391875059989 -0.30030404513533621 0 0.2032444598693309 -0.30664453513954171 0 0.2118191961334385 -0.30818140712808367 0 0.2118191961334385 -0.30818140712808367 0 0.22031747412363889 -0.3023229922895917 0 0.21953045725615669 -0.31305604062377179 0 0.2278526572501485 -0.29355707945364767 0 0.23569113165264041 -0.3163806920249268 0 0.22031747412363889 -0.3023229922895917 0 0.23569113165264041 -0.3163806920249268 0 0.21953045725615669 -0.31305604062377179 0 0.22031747412363889 -0.3023229922895917 0 0.2278526572501485 -0.29355707945364767 0 0.23569113165264041 -0.3163806920249268 0 0.21541086396031511 -0.28478173943078372 0 0.22598343150357331 -0.28811437695090669 0 0.22058785825412941 -0.29252904812913688 0 0.22031747412363889 -0.3023229922895917 0 0.22058785825412941 -0.29252904812913688 0 0.2278526572501485 -0.29355707945364767 0 0.22598343150357331 -0.28811437695090669 0 0.22058785825412941 -0.29252904812913688 0 0.2278526572501485 -0.29355707945364767 0 0.22598343150357331 -0.28811437695090669 0 0.2278526572501485 -0.29355707945364767 0 0.22598343150357331 -0.28811437695090669 0 0.2278526572501485 -0.29355707945364767 0 0.23938971559857181 -0.28407480721286782 0 0.25248024006429781 -0.29365343996160131 0 0.25284739391620198 -0.27543482908196121 0 0.23938971559857181 -0.28407480721286782 0 0.2278526572501485 -0.29355707945364767 0 0.23938971559857181 -0.28407480721286782 0 0.24218477181955919 -0.29952661284354681 0 0.25248024006429781 -0.29365343996160131 0 0.23938971559857181 -0.28407480721286782 0 0.24218477181955919 -0.29952661284354681 0 0.2278526572501485 -0.29355707945364767 0 0.24218477181955919 -0.29952661284354681 0 0.23569113165264041 -0.3163806920249268 0 0.251795934735139 -0.31069853026311312 0 0.24218477181955919 -0.29952661284354681 0 0.23569113165264041 -0.3163806920249268 0 0.251795934735139 -0.31069853026311312 0 0.25248024006429781 -0.29365343996160131 0 0.24218477181955919 -0.29952661284354681 0 0.251795934735139 -0.31069853026311312 0 0.23569113165264041 -0.3163806920249268 0 0.251795934735139 -0.31069853026311312 0 0.23569113165264041 -0.3163806920249268 0 0.24916096160718529 -0.32518887195593121 0 0.23569113165264041 -0.3163806920249268 0 0.24296734458469921 -0.3375671444415887 0 0.23569113165264041 -0.3163806920249268 0 0.24296734458469921 -0.3375671444415887 0 0.2288380306023873 -0.32991246594780899 0 0.23569113165264041 -0.3163806920249268 0 0.24916096160718529 -0.32518887195593121 0 0.24296734458469921 -0.3375671444415887 0 0.25462234269919831 -0.34307915854549148 0 0.24916096160718529 -0.32518887195593121 0 0.24296734458469921 -0.3375671444415887 0 0.24296734458469921 -0.3375671444415887 0 0.2288380306023873 -0.32991246594780899 0 0.22538352111952009 -0.34244561626660819 0 0.2288380306023873 -0.32991246594780899 0 0.21802827142865289 -0.32261257380919212 0 0.21813312074457 -0.33481867887668632 0 0.2288380306023873 -0.32991246594780899 0 0.22538352111952009 -0.34244561626660819 0 0.21813312074457 -0.33481867887668632 0 0.23569113165264041 -0.3163806920249268 0 0.21953045725615669 -0.31305604062377179 0 0.21802827142865289 -0.32261257380919212 0 0.23569113165264041 -0.3163806920249268 0 0.21802827142865289 -0.32261257380919212 0 0.23569113165264041 -0.3163806920249268 0 0.2288380306023873 -0.32991246594780899 0 0.21802827142865289 -0.32261257380919212 0 0.25751977044882668 -0.37994004927490899 0 0.25024355751676147 -0.35875359685824942 0 0.23665846062229501 -0.37026942362144238 0 0.25024355751676147 -0.35875359685824942 0 0.23665846062229501 -0.37026942362144238 0 0.23508941125361699 -0.35285553036943118 0 0.25024355751676147 -0.35875359685824942 0 0.25462234269919831 -0.34307915854549148 0 0.24296734458469921 -0.3375671444415887 0 0.24296734458469921 -0.3375671444415887 0 0.22538352111952009 -0.34244561626660819 0 0.23508941125361699 -0.35285553036943118 0 0.25024355751676147 -0.35875359685824942 0 0.24296734458469921 -0.3375671444415887 0 0.23508941125361699 -0.35285553036943118 0 0.25024355751676147 -0.35875359685824942 0 0.24296734458469921 -0.3375671444415887 0 0.22538352111952009 -0.34244561626660819 0 0.21976358988358949 -0.3585365425529522 0 0.2126997924727814 -0.34474087825959793 0 0.22538352111952009 -0.34244561626660819 0 0.23508941125361699 -0.35285553036943118 0 0.21976358988358949 -0.3585365425529522 0 0.23665846062229501 -0.37026942362144238 0 0.23508941125361699 -0.35285553036943118 0 0.21976358988358949 -0.3585365425529522 0 0.23665846062229501 -0.37026942362144238 0 0.21976358988358949 -0.3585365425529522 0 0.22062536578755509 -0.37565506997265341 0 0.21976358988358949 -0.3585365425529522 0 0.20567750639269419 -0.36935434590611538 0 0.22062536578755509 -0.37565506997265341 0 0.21976358988358949 -0.3585365425529522 0 0.20567750639269419 -0.36935434590611538 0 0.20690561546934741 -0.35426122569846918 0 0.21976358988358949 -0.3585365425529522 0 0.20690561546934741 -0.35426122569846918 0 0.2126997924727814 -0.34474087825959793 0 0.20690561546934741 -0.35426122569846918 0 0.2126997924727814 -0.34474087825959793 0 0.19961996038625329 -0.34724105368082242 0 0.19961996038625329 -0.34724105368082242 0 0.19254524014826241 -0.35675668296910862 0 0.1802331657413675 -0.34606462137671162 0 0.20690561546934741 -0.35426122569846918 0 0.19961996038625329 -0.34724105368082242 0 0.19254524014826241 -0.35675668296910862 0 0.20567750639269419 -0.36935434590611538 0 0.19254524014826241 -0.35675668296910862 0 0.19188758048418481 -0.36801345372850658 0 0.20567750639269419 -0.36935434590611538 0 0.20690561546934741 -0.35426122569846918 0 0.19254524014826241 -0.35675668296910862 0 0.19254524014826241 -0.35675668296910862 0 0.19188758048418481 -0.36801345372850658 0 0.1823863104271769 -0.3609210963115026 0 0.20567750639269419 -0.36935434590611538 0 0.19188758048418481 -0.36801345372850658 0 0.19828686110003629 -0.38270063493905121 0 0.21802827142865289 -0.32261257380919212 0 0.20036541120466539 -0.32884445559345732 0 0.20700714424726899 -0.31785534868826087 0 0.21802827142865289 -0.32261257380919212 0 0.20036541120466539 -0.32884445559345732 0 0.21953045725615669 -0.31305604062377179 0 0.20700714424726899 -0.31785534868826087 0 0.21802827142865289 -0.32261257380919212 0 0.2118191961334385 -0.30818140712808367 0 0.21953045725615669 -0.31305604062377179 0 0.20700714424726899 -0.31785534868826087 0 0.21802827142865289 -0.32261257380919212 0 0.20571598809950811 -0.33438186010022442 0 0.20036541120466539 -0.32884445559345732 0 0.21802827142865289 -0.32261257380919212 0 0.21813312074457 -0.33481867887668632 0 0.20571598809950811 -0.33438186010022442 0 0.2126997924727814 -0.34474087825959793 0 0.21813312074457 -0.33481867887668632 0 0.20571598809950811 -0.33438186010022442 0 0.22538352111952009 -0.34244561626660819 0 0.2126997924727814 -0.34474087825959793 0 0.21813312074457 -0.33481867887668632 0 0.2126997924727814 -0.34474087825959793 0 0.19961996038625329 -0.34724105368082242 0 0.20571598809950811 -0.33438186010022442 0 0.20571598809950811 -0.33438186010022442 0 0.20036541120466539 -0.32884445559345732 0 0.18690099453240139 -0.33185770914016782 0 0.20571598809950811 -0.33438186010022442 0 0.18690099453240139 -0.33185770914016782 0 0.1802331657413675 -0.34606462137671162 0 0.20571598809950811 -0.33438186010022442 0 0.1802331657413675 -0.34606462137671162 0 0.19961996038625329 -0.34724105368082242 0 0.20571598809950811 -0.33438186010022442 0 0.1802331657413675 -0.34606462137671162 0 0.20036541120466539 -0.32884445559345732 0 0.18951784861712409 -0.32264232724817188 0 0.18690099453240139 -0.33185770914016782 0 0.20036541120466539 -0.32884445559345732 0 0.18951784861712409 -0.32264232724817188 0 0.1974931586802644 -0.32128075110143361 0 0.20700714424726899 -0.31785534868826087 0 0.20036541120466539 -0.32884445559345732 0 0.1974931586802644 -0.32128075110143361 0 0.20700714424726899 -0.31785534868826087 0 0.1974931586802644 -0.32128075110143361 0 0.1976932521318884 -0.31319252368022432 0 0.2032444598693309 -0.30664453513954171 0 0.20700714424726899 -0.31785534868826087 0 0.1976932521318884 -0.31319252368022432 0 0.18951784861712409 -0.32264232724817188 0 0.1974931586802644 -0.32128075110143361 0 0.19034471972985781 -0.31285352258883042 0 0.1974931586802644 -0.32128075110143361 0 0.1976932521318884 -0.31319252368022432 0 0.19034471972985781 -0.31285352258883042 0 0.18951784861712409 -0.32264232724817188 0 0.19034471972985781 -0.31285352258883042 0 0.18113017095247469 -0.31394878286892641 0 0.18951784861712409 -0.32264232724817188 0 0.18113017095247469 -0.31394878286892641 0 0.17812192748163849 -0.32362371695768621 0 0.18113017095247469 -0.31394878286892641 0 0.1722004198849714 -0.31715402581631852 0 0.1720794884251442 -0.30848612811116177 0 0.18113017095247469 -0.31394878286892641 0 0.1722004198849714 -0.31715402581631852 0 0.17812192748163849 -0.32362371695768621 0 0.1722004198849714 -0.31715402581631852 0 0.17812192748163849 -0.32362371695768621 0 0.16695494358661411 -0.32381522032506871 0 0.18951784861712409 -0.32264232724817188 0 0.17812192748163849 -0.32362371695768621 0 0.18690099453240139 -0.33185770914016782 0 0.17812192748163849 -0.32362371695768621 0 0.18690099453240139 -0.33185770914016782 0 0.1674516260501048 -0.33558927356475587 0 0.18690099453240139 -0.33185770914016782 0 0.1674516260501048 -0.33558927356475587 0 0.1802331657413675 -0.34606462137671162 0 0.1674516260501048 -0.33558927356475587 0 0.1594892321584766 -0.32615719136923071 0 0.15121887851891669 -0.33819217026302639 0 0.1674516260501048 -0.33558927356475587 0 0.1594892321584766 -0.32615719136923071 0 0.16695494358661411 -0.32381522032506871 0 0.1594892321584766 -0.32615719136923071 0 0.1627155689789852 -0.31589628081874949 0 0.16695494358661411 -0.32381522032506871 0 0.1627155689789852 -0.31589628081874949 0 0.14910514365776201 -0.31729301187455278 0 0.15874987329490639 -0.3044838646736735 0 0.1594892321584766 -0.32615719136923071 0 0.1627155689789852 -0.31589628081874949 0 0.14910514365776201 -0.31729301187455278 0 0.1722004198849714 -0.31715402581631852 0 0.1627155689789852 -0.31589628081874949 0 0.1720794884251442 -0.30848612811116177 0 0.1722004198849714 -0.31715402581631852 0 0.1627155689789852 -0.31589628081874949 0 0.16695494358661411 -0.32381522032506871 0 0.17812192748163849 -0.32362371695768621 0 0.1674516260501048 -0.33558927356475587 0 0.16695494358661411 -0.32381522032506871 0 0.19188758048418481 -0.36801345372850658 0 0.17577255819971541 -0.37150734610532571 0 0.1823863104271769 -0.3609210963115026 0 0.19188758048418481 -0.36801345372850658 0 0.17577255819971541 -0.37150734610532571 0 0.18422598956108069 -0.37934420106258693 0 0.17577255819971541 -0.37150734610532571 0 0.1823863104271769 -0.3609210963115026 0 0.17149300756235439 -0.3622633773778603 0 0.1823863104271769 -0.3609210963115026 0 0.1802331657413675 -0.34606462137671162 0 0.17149300756235439 -0.3622633773778603 0 0.19254524014826241 -0.35675668296910862 0 0.1823863104271769 -0.3609210963115026 0 0.1802331657413675 -0.34606462137671162 0 0.1674516260501048 -0.33558927356475587 0 0.1547503433832268 -0.35774738265319889 0 0.15121887851891669 -0.33819217026302639 0 0.1674516260501048 -0.33558927356475587 0 0.1802331657413675 -0.34606462137671162 0 0.1547503433832268 -0.35774738265319889 0 0.1802331657413675 -0.34606462137671162 0 0.17149300756235439 -0.3622633773778603 0 0.1547503433832268 -0.35774738265319889 0 0.1802331657413675 -0.34606462137671162 0 0.1547503433832268 -0.35774738265319889 0 0.17149300756235439 -0.3622633773778603 0 0.1547503433832268 -0.35774738265319889 0 0.16512202603054871 -0.37658319321514272 0 0.17577255819971541 -0.37150734610532571 0 0.17149300756235439 -0.3622633773778603 0 0.16512202603054871 -0.37658319321514272 0 0.17577255819971541 -0.37150734610532571 0 0.16512202603054871 -0.37658319321514272 0 0.1547503433832268 -0.35774738265319889 0 0.13822905937819749 -0.35707687370562602 0 0.12926752102508621 -0.36943014392968621 0 0.1547503433832268 -0.35774738265319889 0 0.12926752102508621 -0.36943014392968621 0 0.14162110461793001 -0.37318671329940412 0 0.1547503433832268 -0.35774738265319889 0 0.12926752102508621 -0.36943014392968621 0 0.14162110461793001 -0.37318671329940412 0 0.1547503433832268 -0.35774738265319889 0 0.16512202603054871 -0.37658319321514272 0 0.14162110461793001 -0.37318671329940412 0 0.16512202603054871 -0.37658319321514272 0 0.1547503433832268 -0.35774738265319889 0 0.14450129859459171 -0.3490572339459061 0 0.15121887851891669 -0.33819217026302639 0 0.1547503433832268 -0.35774738265319889 0 0.14450129859459171 -0.3490572339459061 0 0.13822905937819749 -0.35707687370562602 0 0.1338069130980255 -0.34321250916177309 0 0.1181201832053116 -0.36979023338366418 0 0.13822905937819749 -0.35707687370562602 0 0.12765341836113189 -0.36790127123697119 0 0.1338069130980255 -0.34321250916177309 0 0.14450129859459171 -0.3490572339459061 0 0.13822905937819749 -0.35707687370562602 0 0.1338069130980255 -0.34321250916177309 0 0.14162110461793001 -0.37318671329940412 0 0.1181201832053116 -0.36979023338366418 0 0.12765341836113189 -0.36790127123697119 0 0.1338069130980255 -0.34321250916177309 0 0.1181201832053116 -0.36979023338366418 0 0.14162110461793001 -0.37318671329940412 0 0.12926752102508621 -0.36943014392968621 0 0.1181201832053116 -0.36979023338366418 0 0.14162110461793001 -0.37318671329940412 0 0.12863898027407339 -0.38132733139719399 0 0.1181201832053116 -0.36979023338366418 0 0.13822905937819749 -0.35707687370562602 0 0.12926752102508621 -0.36943014392968621 0 0.12765341836113189 -0.36790127123697119 0 0.12926752102508621 -0.36943014392968621 0 0.12765341836113189 -0.36790127123697119 0 0.1181201832053116 -0.36979023338366418 0 0.14910514365776201 -0.31729301187455278 0 0.1393945894287674 -0.32393840314404621 0 0.15874987329490639 -0.3044838646736735 0 0.1594892321584766 -0.32615719136923071 0 0.14910514365776201 -0.31729301187455278 0 0.15121887851891669 -0.33819217026302639 0 0.1393945894287674 -0.32393840314404621 0 0.15874987329490639 -0.3044838646736735 0 0.14910514365776201 -0.31729301187455278 0 0.1338069130980255 -0.34321250916177309 0 0.14910514365776201 -0.31729301187455278 0 0.15121887851891669 -0.33819217026302639 0 0.1338069130980255 -0.34321250916177309 0 0.14910514365776201 -0.31729301187455278 0 0.1338069130980255 -0.34321250916177309 0 0.1393945894287674 -0.32393840314404621 0 0.14450129859459171 -0.3490572339459061 0 0.15121887851891669 -0.33819217026302639 0 0.1338069130980255 -0.34321250916177309 0 0.1393945894287674 -0.32393840314404621 0 0.1200393055626284 -0.34339294161441891 0 0.1338069130980255 -0.34321250916177309 0 0.1393945894287674 -0.32393840314404621 0 0.1200393055626284 -0.34339294161441891 0 0.1393945894287674 -0.32393840314404621 0 0.120507696502126 -0.32247851038484909 0 0.1200393055626284 -0.34339294161441891 0 0.1393945894287674 -0.32393840314404621 0 0.1325618261011792 -0.31207738376634558 0 0.120507696502126 -0.32247851038484909 0 0.1393945894287674 -0.32393840314404621 0 0.1325618261011792 -0.31207738376634558 0 0.1433375452335541 -0.3067430443627826 0 0.1325618261011792 -0.31207738376634558 0 0.13588700658824679 -0.29897932800342192 0 0.1215294505641293 -0.30580642579184553 0 0.13588700658824679 -0.29897932800342192 0 0.12730577058144149 -0.28824347989175031 0 0.1215294505641293 -0.30580642579184553 0 0.1325618261011792 -0.31207738376634558 0 0.13588700658824679 -0.29897932800342192 0 0.1433375452335541 -0.3067430443627826 0 0.1393945894287674 -0.32393840314404621 0 0.1433375452335541 -0.3067430443627826 0 0.15874987329490639 -0.3044838646736735 0 0.13588700658824679 -0.29897932800342192 0 0.1433375452335541 -0.3067430443627826 0 0.15009443075467099 -0.29423624222642558 0 0.1433375452335541 -0.3067430443627826 0 0.15009443075467099 -0.29423624222642558 0 0.15874987329490639 -0.3044838646736735 0 0.13588700658824679 -0.29897932800342192 0 0.15009443075467099 -0.29423624222642558 0 0.14337654501709671 -0.28032943002417071 0 0.15009443075467099 -0.29423624222642558 0 0.14337654501709671 -0.28032943002417071 0 0.1568652624911886 -0.28154410095320409 0 0.13588700658824679 -0.29897932800342192 0 0.12730577058144149 -0.28824347989175031 0 0.14337654501709671 -0.28032943002417071 0 0.12730577058144149 -0.28824347989175031 0 0.1309291350045334 -0.27290905829767792 0 0.1175165463410221 -0.28051123308882409 0 0.12730577058144149 -0.28824347989175031 0 0.1309291350045334 -0.27290905829767792 0 0.14337654501709671 -0.28032943002417071 0 0.1309291350045334 -0.27290905829767792 0 0.14664436711036541 -0.25872622771332449 0 0.14337654501709671 -0.28032943002417071 0 0.1309291350045334 -0.27290905829767792 0 0.14664436711036541 -0.25872622771332449 0 0.1236085809504273 -0.25715862254038452 0 0.14664436711036541 -0.25872622771332449 0 0.1236085809504273 -0.25715862254038452 0 0.145063193367304 -0.24036260392927239 0 0.14664436711036541 -0.25872622771332449 0 0.1714317246741858 -0.25411726442123789 0 0.145063193367304 -0.24036260392927239 0 0.14664436711036541 -0.25872622771332449 0 0.14337654501709671 -0.28032943002417071 0 0.1565378746497893 -0.2686176211759338 0 0.14337654501709671 -0.28032943002417071 0 0.1565378746497893 -0.2686176211759338 0 0.1568652624911886 -0.28154410095320409 0 0.1565378746497893 -0.2686176211759338 0 0.1673860278467921 -0.27293131361193701 0 0.1568652624911886 -0.28154410095320409 0 0.1673860278467921 -0.27293131361193701 0 0.1568652624911886 -0.28154410095320409 0 0.16941260880326101 -0.28162737067654331 0 0.1565378746497893 -0.2686176211759338 0 0.1673860278467921 -0.27293131361193701 0 0.1714317246741858 -0.25411726442123789 0 0.14664436711036541 -0.25872622771332449 0 0.1565378746497893 -0.2686176211759338 0 0.1714317246741858 -0.25411726442123789 0 0.19057480292749479 -0.25907776352676981 0 0.1714317246741858 -0.25411726442123789 0 0.18640464510418839 -0.26862340597334849 0 0.19057480292749479 -0.25907776352676981 0 0.1714317246741858 -0.25411726442123789 0 0.18732608264644859 -0.24487867245661959 0 0.1714317246741858 -0.25411726442123789 0 0.18640464510418839 -0.26862340597334849 0 0.18255571433628559 -0.27910333780723201 0 0.1673860278467921 -0.27293131361193701 0 0.1714317246741858 -0.25411726442123789 0 0.18255571433628559 -0.27910333780723201 0 0.1714317246741858 -0.25411726442123789 0 0.18255571433628559 -0.27910333780723201 0 0.1673860278467921 -0.27293131361193701 0 0.18255571433628559 -0.27910333780723201 0 0.16941260880326101 -0.28162737067654331 0 0.19204252494330151 -0.28021322630166268 0 0.18640464510418839 -0.26862340597334849 0 0.18255571433628559 -0.27910333780723201 0 0.19204252494330151 -0.28021322630166268 0 0.18255571433628559 -0.27910333780723201 0 0.18545756951011841 -0.28495775396898249 0 0.1781051571610453 -0.28502932620330079 0 0.17887899820675721 -0.29872716250241588 0 0.15874987329490639 -0.3044838646736735 0 0.19055621948432799 -0.28941805546020821 0 0.18545756951011841 -0.28495775396898249 0 0.1840282316256312 -0.29102482407250879 0 0.18545756951011841 -0.28495775396898249 0 0.1781051571610453 -0.28502932620330079 0 0.1840282316256312 -0.29102482407250879 0 0.18255571433628559 -0.27910333780723201 0 0.18545756951011841 -0.28495775396898249 0 0.1781051571610453 -0.28502932620330079 0 0.18255571433628559 -0.27910333780723201 0 0.1781051571610453 -0.28502932620330079 0 0.16941260880326101 -0.28162737067654331 0 0.18762603597817701 -0.29725680039985442 0 0.1840282316256312 -0.29102482407250879 0 0.17887899820675721 -0.29872716250241588 0 0.18762603597817701 -0.29725680039985442 0 0.19055621948432799 -0.28941805546020821 0 0.1840282316256312 -0.29102482407250879 0 0.1781051571610453 -0.28502932620330079 0 0.1840282316256312 -0.29102482407250879 0 0.17887899820675721 -0.29872716250241588 0 0.18762603597817701 -0.29725680039985442 0 0.1840048819817004 -0.30583057407500941 0 0.17887899820675721 -0.29872716250241588 0 0.19034471972985781 -0.31285352258883042 0 0.18113017095247469 -0.31394878286892641 0 0.1840048819817004 -0.30583057407500941 0 0.18113017095247469 -0.31394878286892641 0 0.1840048819817004 -0.30583057407500941 0 0.1720794884251442 -0.30848612811116177 0 0.1840048819817004 -0.30583057407500941 0 0.1720794884251442 -0.30848612811116177 0 0.17887899820675721 -0.29872716250241588 0 0.1720794884251442 -0.30848612811116177 0 0.17887899820675721 -0.29872716250241588 0 0.15874987329490639 -0.3044838646736735 0 0.1627155689789852 -0.31589628081874949 0 0.1720794884251442 -0.30848612811116177 0 0.15874987329490639 -0.3044838646736735 0 0.1781051571610453 -0.28502932620330079 0 0.15874987329490639 -0.3044838646736735 0 0.15009443075467099 -0.29423624222642558 0 0.15874987329490639 -0.3044838646736735 0 0.16215088218099319 -0.28952877480704231 0 0.1781051571610453 -0.28502932620330079 0 0.16215088218099319 -0.28952877480704231 0 0.16941260880326101 -0.28162737067654331 0 0.1781051571610453 -0.28502932620330079 0 0.15874987329490639 -0.3044838646736735 0 0.16215088218099319 -0.28952877480704231 0 0.16215088218099319 -0.28952877480704231 0 0.1568652624911886 -0.28154410095320409 0 0.16941260880326101 -0.28162737067654331 0 0.15009443075467099 -0.29423624222642558 0 0.16215088218099319 -0.28952877480704231 0 0.1568652624911886 -0.28154410095320409 0 0.20026752087094959 -0.49293340993331919 0 0.20393437874456621 -0.47935403617364181 0 0.1838583013651785 -0.48967701808682113 0 0.20393437874456621 -0.47935403617364181 0 0.1838583013651785 -0.48967701808682113 0 0.20026752087094959 -0.49293340993331919 0 0.18810575524256329 -0.5 0 0.2124292864993359 -0.5 0 0.20026752087094959 -0.49293340993331919 0 0.18810575524256329 -0.5 0 0.1838583013651785 -0.48967701808682113 0 0.20393437874456621 -0.47935403617364181 0 0.1858202554942909 -0.47343799205048659 0 0.1838583013651785 -0.48967701808682113 0 0.20393437874456621 -0.47935403617364181 0 0.2003919421766632 -0.46200199695999228 0 0.1858202554942909 -0.47343799205048659 0 0.20393437874456621 -0.47935403617364181 0 0.22401045612395379 -0.4690310542604626 0 0.2003919421766632 -0.46200199695999228 0 0.20393437874456621 -0.47935403617364181 0 0.2250160872249197 -0.48672321528985663 0 0.22401045612395379 -0.4690310542604626 0 0.20393437874456621 -0.47935403617364181 0 0.22401045612395379 -0.4690310542604626 0 0.20393437874456621 -0.47935403617364181 0 0.2124292864993359 -0.5 0 0.2250160872249197 -0.48672321528985663 0 0.20026752087094959 -0.49293340993331919 0 0.20393437874456621 -0.47935403617364181 0 0.2124292864993359 -0.5 0 0.2250160872249197 -0.48672321528985663 0 0.2367528177561086 -0.5 0 0.24003257050845569 -0.47824744288084031 0 0.2124292864993359 -0.5 0 0.2250160872249197 -0.48672321528985663 0 0.2367528177561086 -0.5 0 0.25699751373479041 -0.48468891969039768 0 0.2367528177561086 -0.5 0 0.24003257050845569 -0.47824744288084031 0 0.26022972114081128 -0.46917702384374821 0 0.24003257050845569 -0.47824744288084031 0 0.23718882707015049 -0.45986444420057693 0 0.24003257050845569 -0.47824744288084031 0 0.22401045612395379 -0.4690310542604626 0 0.23718882707015049 -0.45986444420057693 0 0.2250160872249197 -0.48672321528985663 0 0.24003257050845569 -0.47824744288084031 0 0.22401045612395379 -0.4690310542604626 0 0.22401045612395379 -0.4690310542604626 0 0.23718882707015049 -0.45986444420057693 0 0.21414793299948959 -0.45055186455740548 0 0.23718882707015049 -0.45986444420057693 0 0.21414793299948959 -0.45055186455740548 0 0.26022972114081128 -0.46917702384374821 0 0.23718882707015049 -0.45986444420057693 0 0.2568051087683223 -0.44954582835982948 0 0.23329052016909799 -0.44322399093298798 0 0.2481195038739103 -0.43253413450948919 0 0.2568051087683223 -0.44954582835982948 0 0.23718882707015049 -0.45986444420057693 0 0.23329052016909799 -0.44322399093298798 0 0.23718882707015049 -0.45986444420057693 0 0.23329052016909799 -0.44322399093298798 0 0.21414793299948959 -0.45055186455740548 0 0.23329052016909799 -0.44322399093298798 0 0.21414793299948959 -0.45055186455740548 0 0.21362436201255869 -0.42912319890726719 0 0.21414793299948959 -0.45055186455740548 0 0.19110703892882869 -0.4412392849142342 0 0.21362436201255869 -0.42912319890726719 0 0.22401045612395379 -0.4690310542604626 0 0.21414793299948959 -0.45055186455740548 0 0.2003919421766632 -0.46200199695999228 0 0.2003919421766632 -0.46200199695999228 0 0.19110703892882869 -0.4412392849142342 0 0.18333159076885 -0.45839774980372372 0 0.2003919421766632 -0.46200199695999228 0 0.18333159076885 -0.45839774980372372 0 0.1858202554942909 -0.47343799205048659 0 0.21414793299948959 -0.45055186455740548 0 0.2003919421766632 -0.46200199695999228 0 0.19110703892882869 -0.4412392849142342 0 0.21414793299948959 -0.45055186455740548 0 0.19110703892882869 -0.4412392849142342 0 0.19110703892882869 -0.4412392849142342 0 0.19192172534233229 -0.42085027370452632 0 0.21362436201255869 -0.42912319890726719 0 0.19192172534233229 -0.42085027370452632 0 0.20719250238054909 -0.40936046892385519 0 0.19506815377962269 -0.40076749672031819 0 0.19192172534233229 -0.42085027370452632 0 0.19506815377962269 -0.40076749672031819 0 0.17600662340017359 -0.41062228809021051 0 0.20719250238054909 -0.40936046892385519 0 0.21362436201255869 -0.42912319890726719 0 0.2249277019954157 -0.41100591184545299 0 0.19192172534233229 -0.42085027370452632 0 0.20719250238054909 -0.40936046892385519 0 0.21362436201255869 -0.42912319890726719 0 0.21362436201255869 -0.42912319890726719 0 0.23158425963679111 -0.42686333055944847 0 0.2249277019954157 -0.41100591184545299 0 0.23329052016909799 -0.44322399093298798 0 0.21362436201255869 -0.42912319890726719 0 0.23158425963679111 -0.42686333055944847 0 0.23158425963679111 -0.42686333055944847 0 0.2481195038739103 -0.43253413450948919 0 0.24494107576267621 -0.41566816210915991 0 0.23329052016909799 -0.44322399093298798 0 0.23158425963679111 -0.42686333055944847 0 0.2481195038739103 -0.43253413450948919 0 0.24494107576267621 -0.41566816210915991 0 0.2249277019954157 -0.41100591184545299 0 0.2367090688434226 -0.39587575270045849 0 0.23158425963679111 -0.42686333055944847 0 0.24494107576267621 -0.41566816210915991 0 0.2249277019954157 -0.41100591184545299 0 0.2249277019954157 -0.41100591184545299 0 0.2367090688434226 -0.39587575270045849 0 0.21286013905659371 -0.39089419400482017 0 0.25373450766085731 -0.40612635718347578 0 0.24494107576267621 -0.41566816210915991 0 0.2367090688434226 -0.39587575270045849 0 0.25751977044882668 -0.37994004927490899 0 0.23665846062229501 -0.37026942362144238 0 0.2367090688434226 -0.39587575270045849 0 0.25751977044882668 -0.37994004927490899 0 0.2367090688434226 -0.39587575270045849 0 0.2367090688434226 -0.39587575270045849 0 0.22062536578755509 -0.37565506997265341 0 0.21286013905659371 -0.39089419400482017 0 0.23665846062229501 -0.37026942362144238 0 0.2367090688434226 -0.39587575270045849 0 0.22062536578755509 -0.37565506997265341 0 0.20567750639269419 -0.36935434590611538 0 0.21286013905659371 -0.39089419400482017 0 0.19828686110003629 -0.38270063493905121 0 0.20567750639269419 -0.36935434590611538 0 0.22062536578755509 -0.37565506997265341 0 0.21286013905659371 -0.39089419400482017 0 0.20719250238054909 -0.40936046892385519 0 0.21286013905659371 -0.39089419400482017 0 0.19506815377962269 -0.40076749672031819 0 0.20719250238054909 -0.40936046892385519 0 0.2249277019954157 -0.41100591184545299 0 0.21286013905659371 -0.39089419400482017 0 0.19506815377962269 -0.40076749672031819 0 0.19828686110003629 -0.38270063493905121 0 0.1839471019421792 -0.3893178709093586 0 0.21286013905659371 -0.39089419400482017 0 0.19506815377962269 -0.40076749672031819 0 0.19828686110003629 -0.38270063493905121 0 0.19188758048418481 -0.36801345372850658 0 0.1839471019421792 -0.3893178709093586 0 0.19188758048418481 -0.36801345372850658 0 0.19828686110003629 -0.38270063493905121 0 0.1839471019421792 -0.3893178709093586 0 0.17577255819971541 -0.37150734610532571 0 0.18422598956108069 -0.37934420106258693 0 0.16512202603054871 -0.37658319321514272 0 0.17460771070609649 -0.3847566970305159 0 0.18422598956108069 -0.37934420106258693 0 0.16512202603054871 -0.37658319321514272 0 0.19188758048418481 -0.36801345372850658 0 0.18422598956108069 -0.37934420106258693 0 0.1839471019421792 -0.3893178709093586 0 0.17460771070609649 -0.3847566970305159 0 0.1839471019421792 -0.3893178709093586 0 0.16643549414097231 -0.39492300661669649 0 0.18422598956108069 -0.37934420106258693 0 0.16512202603054871 -0.37658319321514272 0 0.17460771070609649 -0.3847566970305159 0 0.18422598956108069 -0.37934420106258693 0 0.1839471019421792 -0.3893178709093586 0 0.1839471019421792 -0.3893178709093586 0 0.16643549414097231 -0.39492300661669649 0 0.17600662340017359 -0.41062228809021051 0 0.19506815377962269 -0.40076749672031819 0 0.1839471019421792 -0.3893178709093586 0 0.17600662340017359 -0.41062228809021051 0 0.1839471019421792 -0.3893178709093586 0 0.17600662340017359 -0.41062228809021051 0 0.16643549414097231 -0.39492300661669649 0 0.14849981153214409 -0.40272984387120703 0 0.16032949275323469 -0.41366537179521962 0 0.17460771070609649 -0.3847566970305159 0 0.16643549414097231 -0.39492300661669649 0 0.16512202603054871 -0.37658319321514272 0 0.16643549414097231 -0.39492300661669649 0 0.16512202603054871 -0.37658319321514272 0 0.14615901608537599 -0.38562061385242591 0 0.14162110461793001 -0.37318671329940412 0 0.16512202603054871 -0.37658319321514272 0 0.14615901608537599 -0.38562061385242591 0 0.16512202603054871 -0.37658319321514272 0 0.14615901608537599 -0.38562061385242591 0 0.14615901608537599 -0.38562061385242591 0 0.12719600614020271 -0.39465803448970799 0 0.14615901608537599 -0.38562061385242591 0 0.12863898027407339 -0.38132733139719399 0 0.12719600614020271 -0.39465803448970799 0 0.14162110461793001 -0.37318671329940412 0 0.14615901608537599 -0.38562061385242591 0 0.12863898027407339 -0.38132733139719399 0 0.14615901608537599 -0.38562061385242591 0 0.12719600614020271 -0.39465803448970799 0 0.14849981153214409 -0.40272984387120703 0 0.16643549414097231 -0.39492300661669649 0 0.14615901608537599 -0.38562061385242591 0 0.14849981153214409 -0.40272984387120703 0 0.14849981153214409 -0.40272984387120703 0 0.14211870724715431 -0.42143937007704918 0 0.16032949275323469 -0.41366537179521962 0 0.14211870724715431 -0.42143937007704918 0 0.13101726418437129 -0.42452314002274699 0 0.1161712696361405 -0.41095203488303589 0 0.12719600614020271 -0.39465803448970799 0 0.14849981153214409 -0.40272984387120703 0 0.14211870724715431 -0.42143937007704918 0 0.14211870724715431 -0.42143937007704918 0 0.1161712696361405 -0.41095203488303589 0 0.12719600614020271 -0.39465803448970799 0 0.14211870724715431 -0.42143937007704918 0 0.1161712696361405 -0.41095203488303589 0 0.13101726418437129 -0.42452314002274699 0 0.14586325873260239 -0.43809424516245782 0 0.1296899879080784 -0.43802172412330831 0 0.14211870724715431 -0.42143937007704918 0 0.13101726418437129 -0.42452314002274699 0 0.14586325873260239 -0.43809424516245782 0 0.13101726418437129 -0.42452314002274699 0 0.1296899879080784 -0.43802172412330831 0 0.11723635786112389 -0.42499087894466769 0 0.13101726418437129 -0.42452314002274699 0 0.14586325873260239 -0.43809424516245782 0 0.14211870724715431 -0.42143937007704918 0 0.16806614485816809 -0.43192670527106242 0 0.14586325873260239 -0.43809424516245782 0 0.14211870724715431 -0.42143937007704918 0 0.16806614485816809 -0.43192670527106242 0 0.14211870724715431 -0.42143937007704918 0 0.16806614485816809 -0.43192670527106242 0 0.16032949275323469 -0.41366537179521962 0 0.16643549414097231 -0.39492300661669649 0 0.16032949275323469 -0.41366537179521962 0 0.17600662340017359 -0.41062228809021051 0 0.16806614485816809 -0.43192670527106242 0 0.16032949275323469 -0.41366537179521962 0 0.17600662340017359 -0.41062228809021051 0 0.16806614485816809 -0.43192670527106242 0 0.17600662340017359 -0.41062228809021051 0 0.19192172534233229 -0.42085027370452632 0 0.16806614485816809 -0.43192670527106242 0 0.17600662340017359 -0.41062228809021051 0 0.19110703892882869 -0.4412392849142342 0 0.19192172534233229 -0.42085027370452632 0 0.16806614485816809 -0.43192670527106242 0 0.19110703892882869 -0.4412392849142342 0 0.16806614485816809 -0.43192670527106242 0 0.19110703892882869 -0.4412392849142342 0 0.1735157636885199 -0.44949052875253709 0 0.18333159076885 -0.45839774980372372 0 0.19110703892882869 -0.4412392849142342 0 0.16806614485816809 -0.43192670527106242 0 0.1735157636885199 -0.44949052875253709 0 0.18333159076885 -0.45839774980372372 0 0.17597730115244961 -0.46646520558597659 0 0.1858202554942909 -0.47343799205048659 0 0.18333159076885 -0.45839774980372372 0 0.17597730115244961 -0.46646520558597659 0 0.17166203257392859 -0.45912478844037391 0 0.1735157636885199 -0.44949052875253709 0 0.18333159076885 -0.45839774980372372 0 0.17166203257392859 -0.45912478844037391 0 0.1735157636885199 -0.44949052875253709 0 0.17166203257392859 -0.45912478844037391 0 0.16442526919519221 -0.45506225594636518 0 0.17166203257392859 -0.45912478844037391 0 0.16442526919519221 -0.45506225594636518 0 0.1642168453302999 -0.46106723202193289 0 0.17597730115244961 -0.46646520558597659 0 0.17166203257392859 -0.45912478844037391 0 0.16728846707037329 -0.46611096087050391 0 0.17166203257392859 -0.45912478844037391 0 0.1642168453302999 -0.46106723202193289 0 0.16728846707037329 -0.46611096087050391 0 0.15999595011005929 -0.46562580088228361 0 0.15792274556946351 -0.45914159023490209 0 0.15201280064291109 -0.46345771635839961 0 0.16728846707037329 -0.46611096087050391 0 0.15999595011005929 -0.46562580088228361 0 0.1639278802391653 -0.47224005239722883 0 0.1642168453302999 -0.46106723202193289 0 0.15999595011005929 -0.46562580088228361 0 0.15792274556946351 -0.45914159023490209 0 0.1642168453302999 -0.46106723202193289 0 0.16728846707037329 -0.46611096087050391 0 0.15999595011005929 -0.46562580088228361 0 0.16442526919519221 -0.45506225594636518 0 0.15792274556946351 -0.45914159023490209 0 0.16070925328083421 -0.45166535030216792 0 0.16442526919519221 -0.45506225594636518 0 0.16070925328083421 -0.45166535030216792 0 0.16442526919519221 -0.45506225594636518 0 0.1642168453302999 -0.46106723202193289 0 0.15792274556946351 -0.45914159023490209 0 0.15792274556946351 -0.45914159023490209 0 0.16070925328083421 -0.45166535030216792 0 0.16806614485816809 -0.43192670527106242 0 0.1735157636885199 -0.44949052875253709 0 0.16070925328083421 -0.45166535030216792 0 0.16806614485816809 -0.43192670527106242 0 0.16070925328083421 -0.45166535030216792 0 0.14586325873260239 -0.43809424516245782 0 0.16806614485816809 -0.43192670527106242 0 0.16070925328083421 -0.45166535030216792 0 0.1735157636885199 -0.44949052875253709 0 0.16442526919519221 -0.45506225594636518 0 0.16070925328083421 -0.45166535030216792 0 0.14586325873260239 -0.43809424516245782 0 0.13487887301356441 -0.450553639635137 0 0.1484283202327705 -0.45379495508178691 0 0.16070925328083421 -0.45166535030216792 0 0.14586325873260239 -0.43809424516245782 0 0.1484283202327705 -0.45379495508178691 0 0.16070925328083421 -0.45166535030216792 0 0.14586325873260239 -0.43809424516245782 0 0.14586325873260239 -0.43809424516245782 0 0.13487887301356441 -0.450553639635137 0 0.1296899879080784 -0.43802172412330831 0 0.13487887301356441 -0.450553639635137 0 0.1296899879080784 -0.43802172412330831 0 0.1169135074936455 -0.44257529231244969 0 0.13487887301356441 -0.450553639635137 0 0.1247656323052575 -0.46373510600350509 0 0.1169135074936455 -0.44257529231244969 0 0.13487887301356441 -0.450553639635137 0 0.14209006462444981 -0.46588837376461001 0 0.1247656323052575 -0.46373510600350509 0 0.14209006462444981 -0.46588837376461001 0 0.1484283202327705 -0.45379495508178691 0 0.15201280064291109 -0.46345771635839961 0 0.13487887301356441 -0.450553639635137 0 0.14209006462444981 -0.46588837376461001 0 0.1484283202327705 -0.45379495508178691 0 0.15792274556946351 -0.45914159023490209 0 0.1484283202327705 -0.45379495508178691 0 0.15201280064291109 -0.46345771635839961 0 0.15792274556946351 -0.45914159023490209 0 0.16070925328083421 -0.45166535030216792 0 0.1484283202327705 -0.45379495508178691 0 0.14209006462444981 -0.46588837376461001 0 0.15201280064291109 -0.46345771635839961 0 0.1546069618081429 -0.47173725341073491 0 0.15999595011005929 -0.46562580088228361 0 0.15201280064291109 -0.46345771635839961 0 0.1546069618081429 -0.47173725341073491 0 0.14209006462444981 -0.46588837376461001 0 0.1546069618081429 -0.47173725341073491 0 0.1485913726595883 -0.48260733686320639 0 0.14209006462444981 -0.46588837376461001 0 0.1485913726595883 -0.48260733686320639 0 0.13244943259684391 -0.47838346675639293 0 0.1546069618081429 -0.47173725341073491 0 0.1485913726595883 -0.48260733686320639 0 0.1623496663935069 -0.4797457503517526 0 0.14209006462444981 -0.46588837376461001 0 0.13244943259684391 -0.47838346675639293 0 0.1247656323052575 -0.46373510600350509 0 0.1485913726595883 -0.48260733686320639 0 0.13244943259684391 -0.47838346675639293 0 0.13535367278981389 -0.5 0 0.13244943259684391 -0.47838346675639293 0 0.13535367278981389 -0.5 0 0.1127808110391384 -0.47955710516631361 0 0.1485913726595883 -0.48260733686320639 0 0.13535367278981389 -0.5 0 0.1637822239857907 -0.50000000000000022 0 0.1485913726595883 -0.48260733686320639 0 0.1637822239857907 -0.50000000000000022 0 0.1623496663935069 -0.4797457503517526 0 0.1637822239857907 -0.50000000000000022 0 0.1623496663935069 -0.4797457503517526 0 0.1719662370844198 -0.48523316918166282 0 0.1546069618081429 -0.47173725341073491 0 0.1623496663935069 -0.4797457503517526 0 0.1639278802391653 -0.47224005239722883 0 0.15999595011005929 -0.46562580088228361 0 0.1546069618081429 -0.47173725341073491 0 0.1639278802391653 -0.47224005239722883 0 0.16728846707037329 -0.46611096087050391 0 0.1639278802391653 -0.47224005239722883 0 0.171784159854805 -0.47525453676479462 0 0.1623496663935069 -0.4797457503517526 0 0.1639278802391653 -0.47224005239722883 0 0.171784159854805 -0.47525453676479462 0 0.17597730115244961 -0.46646520558597659 0 0.16728846707037329 -0.46611096087050391 0 0.171784159854805 -0.47525453676479462 0 0.1623496663935069 -0.4797457503517526 0 0.171784159854805 -0.47525453676479462 0 0.1719662370844198 -0.48523316918166282 0 0.171784159854805 -0.47525453676479462 0 0.17835723844967349 -0.48090067902094119 0 0.1719662370844198 -0.48523316918166282 0 0.17835723844967349 -0.48090067902094119 0 0.1858202554942909 -0.47343799205048659 0 0.1838583013651785 -0.48967701808682113 0 0.17597730115244961 -0.46646520558597659 0 0.171784159854805 -0.47525453676479462 0 0.1858202554942909 -0.47343799205048659 0 0.171784159854805 -0.47525453676479462 0 0.17835723844967349 -0.48090067902094119 0 0.1858202554942909 -0.47343799205048659 0 0.18810575524256329 -0.5 0 0.1637822239857907 -0.50000000000000022 0 0.1838583013651785 -0.48967701808682113 0 0.1637822239857907 -0.50000000000000022 0 0.1838583013651785 -0.48967701808682113 0 0.1637822239857907 -0.50000000000000022 0 0.1838583013651785 -0.48967701808682113 0 0.1719662370844198 -0.48523316918166282 0 0.17835723844967349 -0.48090067902094119 0 0.1838583013651785 -0.48967701808682113 0 0.1719662370844198 -0.48523316918166282 0 0.073070433338257551 -0.47873564893238152 0 0.078496570397860288 -0.5 0 0.05845417767607361 -0.48463107608411637 0 0.073070433338257551 -0.47873564893238152 0 0.075409496325465633 -0.46212416935461348 0 0.057768779777330158 -0.46707651523008281 0 0.073070433338257551 -0.47873564893238152 0 0.057768779777330158 -0.46707651523008281 0 0.05845417767607361 -0.48463107608411637 0 0.073070433338257551 -0.47873564893238152 0 0.092347068030706941 -0.47089921874521928 0 0.078496570397860288 -0.5 0 0.073070433338257551 -0.47873564893238152 0 0.092347068030706941 -0.47089921874521928 0 0.075409496325465633 -0.46212416935461348 0 0.092347068030706941 -0.47089921874521928 0 0.078496570397860288 -0.5 0 0.10692512159383701 -0.5 0 0.13535367278981389 -0.5 0 0.10692512159383701 -0.5 0 0.1127808110391384 -0.47955710516631361 0 0.13244943259684391 -0.47838346675639293 0 0.1127808110391384 -0.47955710516631361 0 0.1247656323052575 -0.46373510600350509 0 0.092347068030706941 -0.47089921874521928 0 0.10692512159383701 -0.5 0 0.1127808110391384 -0.47955710516631361 0 0.092347068030706941 -0.47089921874521928 0 0.1127808110391384 -0.47955710516631361 0 0.1075947620623838 -0.46211841692474431 0 0.092347068030706941 -0.47089921874521928 0 0.1075947620623838 -0.46211841692474431 0 0.09513833862519458 -0.44969134289070339 0 0.1127808110391384 -0.47955710516631361 0 0.1075947620623838 -0.46211841692474431 0 0.1247656323052575 -0.46373510600350509 0 0.1075947620623838 -0.46211841692474431 0 0.1247656323052575 -0.46373510600350509 0 0.1169135074936455 -0.44257529231244969 0 0.1169135074936455 -0.44257529231244969 0 0.09513833862519458 -0.44969134289070339 0 0.097929609219682218 -0.42848346703618762 0 0.09513833862519458 -0.44969134289070339 0 0.097929609219682218 -0.42848346703618762 0 0.1075947620623838 -0.46211841692474431 0 0.1169135074936455 -0.44257529231244969 0 0.09513833862519458 -0.44969134289070339 0 0.09513833862519458 -0.44969134289070339 0 0.084700295630410233 -0.43683235784464458 0 0.097929609219682218 -0.42848346703618762 0 0.09513833862519458 -0.44969134289070339 0 0.071228813054464352 -0.44398501683151159 0 0.084700295630410233 -0.43683235784464458 0 0.09513833862519458 -0.44969134289070339 0 0.075409496325465633 -0.46212416935461348 0 0.071228813054464352 -0.44398501683151159 0 0.092347068030706941 -0.47089921874521928 0 0.09513833862519458 -0.44969134289070339 0 0.075409496325465633 -0.46212416935461348 0 0.092347068030706941 -0.47089921874521928 0 0.09513833862519458 -0.44969134289070339 0 0.075409496325465633 -0.46212416935461348 0 0.057368656952596367 -0.45152174485674862 0 0.057768779777330158 -0.46707651523008281 0 0.075409496325465633 -0.46212416935461348 0 0.071228813054464352 -0.44398501683151159 0 0.057368656952596367 -0.45152174485674862 0 0.071228813054464352 -0.44398501683151159 0 0.073627145377643116 -0.42018796508463852 0 0.046533410941114448 -0.43310033898760358 0 0.071228813054464352 -0.44398501683151159 0 0.073627145377643116 -0.42018796508463852 0 0.084700295630410233 -0.43683235784464458 0 0.073627145377643116 -0.42018796508463852 0 0.080208772890473762 -0.40710833104840122 0 0.057024021365513163 -0.40743222090557851 0 0.080208772890473762 -0.40710833104840122 0 0.09487810519847148 -0.41006014975352217 0 0.098129538465647204 -0.40365999760745702 0 0.073627145377643116 -0.42018796508463852 0 0.09487810519847148 -0.41006014975352217 0 0.073627145377643116 -0.42018796508463852 0 0.097929609219682218 -0.42848346703618762 0 0.09487810519847148 -0.41006014975352217 0 0.073627145377643116 -0.42018796508463852 0 0.080208772890473762 -0.40710833104840122 0 0.09487810519847148 -0.41006014975352217 0 0.073627145377643116 -0.42018796508463852 0 0.084700295630410233 -0.43683235784464458 0 0.097929609219682218 -0.42848346703618762 0 0.097929609219682218 -0.42848346703618762 0 0.11723635786112389 -0.42499087894466769 0 0.10719182902066821 -0.41540014779509971 0 0.1169135074936455 -0.44257529231244969 0 0.097929609219682218 -0.42848346703618762 0 0.11723635786112389 -0.42499087894466769 0 0.1296899879080784 -0.43802172412330831 0 0.1169135074936455 -0.44257529231244969 0 0.11723635786112389 -0.42499087894466769 0 0.13101726418437129 -0.42452314002274699 0 0.11723635786112389 -0.42499087894466769 0 0.1161712696361405 -0.41095203488303589 0 0.13101726418437129 -0.42452314002274699 0 0.1161712696361405 -0.41095203488303589 0 0.11723635786112389 -0.42499087894466769 0 0.1161712696361405 -0.41095203488303589 0 0.10719182902066821 -0.41540014779509971 0 0.1161712696361405 -0.41095203488303589 0 0.10363681828551891 -0.40588590871067443 0 0.1161712696361405 -0.41095203488303589 0 0.10823299619502889 -0.40369545512698879 0 0.097929609219682218 -0.42848346703618762 0 0.10719182902066821 -0.41540014779509971 0 0.1007208798141708 -0.40727559118167178 0 0.1161712696361405 -0.41095203488303589 0 0.10719182902066821 -0.41540014779509971 0 0.10363681828551891 -0.40588590871067443 0 0.10719182902066821 -0.41540014779509971 0 0.1007208798141708 -0.40727559118167178 0 0.10363681828551891 -0.40588590871067443 0 0.097929609219682218 -0.42848346703618762 0 0.1007208798141708 -0.40727559118167178 0 0.09487810519847148 -0.41006014975352217 0 0.097929609219682218 -0.42848346703618762 0 0.1007208798141708 -0.40727559118167178 0 0.1161712696361405 -0.41095203488303589 0 0.10363681828551891 -0.40588590871067443 0 0.10823299619502889 -0.40369545512698879 0 0.1007208798141708 -0.40727559118167178 0 0.10363681828551891 -0.40588590871067443 0 0.1007208798141708 -0.40727559118167178 0 0.09487810519847148 -0.41006014975352217 0 0.098129538465647204 -0.40365999760745702 0 0.1007208798141708 -0.40727559118167178 0 0.09487810519847148 -0.41006014975352217 0 0.09487810519847148 -0.41006014975352217 0 0.098129538465647204 -0.40365999760745702 0 0.098129538465647204 -0.40365999760745702 0 0.1019482162252506 -0.39795037624576618 0 0.089125186878567658 -0.38622851558442062 0 0.10104182476265521 -0.40483707424351761 0 0.1019482162252506 -0.39795037624576618 0 0.10104182476265521 -0.40483707424351761 0 0.098129538465647204 -0.40365999760745702 0 0.1019482162252506 -0.39795037624576618 0 0.098129538465647204 -0.40365999760745702 0 0.1019482162252506 -0.39795037624576618 0 0.1007208798141708 -0.40727559118167178 0 0.10104182476265521 -0.40483707424351761 0 0.1007208798141708 -0.40727559118167178 0 0.10104182476265521 -0.40483707424351761 0 0.098129538465647204 -0.40365999760745702 0 0.10104182476265521 -0.40483707424351761 0 0.098129538465647204 -0.40365999760745702 0 0.1019482162252506 -0.39795037624576618 0 0.089125186878567658 -0.38622851558442062 0 0.1019482162252506 -0.39795037624576618 0 0.1100985913215472 -0.38338106196076849 0 0.1019482162252506 -0.39795037624576618 0 0.112265974637329 -0.39382296713900838 0 0.1100985913215472 -0.38338106196076849 0 0.10104182476265521 -0.40483707424351761 0 0.1019482162252506 -0.39795037624576618 0 0.10363681828551891 -0.40588590871067443 0 0.1019482162252506 -0.39795037624576618 0 0.10823299619502889 -0.40369545512698879 0 0.112265974637329 -0.39382296713900838 0 0.1019482162252506 -0.39795037624576618 0 0.10363681828551891 -0.40588590871067443 0 0.10823299619502889 -0.40369545512698879 0 0.10104182476265521 -0.40483707424351761 0 0.10363681828551891 -0.40588590871067443 0 0.1007208798141708 -0.40727559118167178 0 0.10104182476265521 -0.40483707424351761 0 0.10363681828551891 -0.40588590871067443 0 0.1019482162252506 -0.39795037624576618 0 0.10823299619502889 -0.40369545512698879 0 0.10363681828551891 -0.40588590871067443 0 0.10823299619502889 -0.40369545512698879 0 0.12719600614020271 -0.39465803448970799 0 0.1161712696361405 -0.41095203488303589 0 0.10823299619502889 -0.40369545512698879 0 0.12719600614020271 -0.39465803448970799 0 0.10823299619502889 -0.40369545512698879 0 0.112265974637329 -0.39382296713900838 0 0.12719600614020271 -0.39465803448970799 0 0.10823299619502889 -0.40369545512698879 0 0.12863898027407339 -0.38132733139719399 0 0.12719600614020271 -0.39465803448970799 0 0.1100985913215472 -0.38338106196076849 0 0.12863898027407339 -0.38132733139719399 0 0.1100985913215472 -0.38338106196076849 0 0.1181201832053116 -0.36979023338366418 0 0.12719600614020271 -0.39465803448970799 0 0.112265974637329 -0.39382296713900838 0 0.1100985913215472 -0.38338106196076849 0 0.1100985913215472 -0.38338106196076849 0 0.1181201832053116 -0.36979023338366418 0 0.1019482162252506 -0.39795037624576618 0 0.089125186878567658 -0.38622851558442062 0 0.105510907726501 -0.37088129909655521 0 0.1019482162252506 -0.39795037624576618 0 0.1100985913215472 -0.38338106196076849 0 0.105510907726501 -0.37088129909655521 0 0.1019482162252506 -0.39795037624576618 0 0.105510907726501 -0.37088129909655521 0 0.089125186878567658 -0.38622851558442062 0 0.073931734491721357 -0.39387982258447612 0 0.076593634650974934 -0.37477310164822852 0 0.089125186878567658 -0.38622851558442062 0 0.105510907726501 -0.37088129909655521 0 0.076593634650974934 -0.37477310164822852 0 0.089125186878567658 -0.38622851558442062 0 0.076593634650974934 -0.37477310164822852 0 0.080208772890473762 -0.40710833104840122 0 0.098129538465647204 -0.40365999760745702 0 0.073931734491721357 -0.39387982258447612 0 0.098129538465647204 -0.40365999760745702 0 0.089125186878567658 -0.38622851558442062 0 0.073931734491721357 -0.39387982258447612 0 0.098129538465647204 -0.40365999760745702 0 0.073931734491721357 -0.39387982258447612 0 0.080208772890473762 -0.40710833104840122 0 0.073931734491721357 -0.39387982258447612 0 0.057024021365513163 -0.40743222090557851 0 0.048904888335917419 -0.378499564142811 0 0.076593634650974934 -0.37477310164822852 0 0.062874476639315169 -0.38281038801839218 0 0.048904888335917419 -0.378499564142811 0 0.076593634650974934 -0.37477310164822852 0 0.073931734491721357 -0.39387982258447612 0 0.062874476639315169 -0.38281038801839218 0 0.076593634650974934 -0.37477310164822852 0 0.073931734491721357 -0.39387982258447612 0 0.049733930517795621 -0.38409964756149512 0 0.048904888335917419 -0.378499564142811 0 0.076593634650974934 -0.37477310164822852 0 0.058462305323978288 -0.37211492778553129 0 0.073931734491721357 -0.39387982258447612 0 0.062874476639315169 -0.38281038801839218 0 0.049733930517795621 -0.38409964756149512 0 0.062874476639315169 -0.38281038801839218 0 0.049733930517795621 -0.38409964756149512 0 0.048904888335917419 -0.378499564142811 0 0.049733930517795621 -0.38409964756149512 0 0.040623614457678633 -0.39839907575569489 0 0.057024021365513163 -0.40743222090557851 0 0.073931734491721357 -0.39387982258447612 0 0.049733930517795621 -0.38409964756149512 0 0.057024021365513163 -0.40743222090557851 0 0.040623614457678633 -0.39839907575569489 0 0.034106010074993282 -0.38815381988321251 0 0.023439598357667041 -0.39889735355275202 0 0.040623614457678633 -0.39839907575569489 0 0.023439598357667041 -0.39889735355275202 0 0.03881451197242404 -0.41341233687543638 0 0.049733930517795621 -0.38409964756149512 0 0.040623614457678633 -0.39839907575569489 0 0.034106010074993282 -0.38815381988321251 0 0.049733930517795621 -0.38409964756149512 0 0.037864236724251571 -0.36975774022554803 0 0.025536126543869379 -0.37431947253851461 0 0.049733930517795621 -0.38409964756149512 0 0.034106010074993282 -0.38815381988321251 0 0.025536126543869379 -0.37431947253851461 0 0.049733930517795621 -0.38409964756149512 0 0.025536126543869379 -0.37431947253851461 0 0.049733930517795621 -0.38409964756149512 0 0.048904888335917419 -0.378499564142811 0 0.037864236724251571 -0.36975774022554803 0 0.014444515454358429 -0.39211495719389922 0 0.019205478723194551 -0.37176077573438321 0 0.023439598357667041 -0.39889735355275202 0 0.025536126543869379 -0.37431947253851461 0 0.014444515454358429 -0.39211495719389922 0 0.023439598357667041 -0.39889735355275202 0 0.025536126543869379 -0.37431947253851461 0 0.034106010074993282 -0.38815381988321251 0 0.023439598357667041 -0.39889735355275202 0 0.025536126543869379 -0.37431947253851461 0 0.014444515454358429 -0.39211495719389922 0 0.019205478723194551 -0.37176077573438321 0 0.025536126543869379 -0.37431947253851461 0 0.0043911497260468446 -0.38601267381842841 0 0.014444515454358429 -0.39211495719389922 0 0.019205478723194551 -0.37176077573438321 0 0.001646805659493981 -0.38483714105840322 0 0.0096835521855221027 -0.41246913865341522 0 0.014444515454358429 -0.39211495719389922 0 0.0096835521855221027 -0.41246913865341522 0 0.0043911497260468446 -0.38601267381842841 0 0.014444515454358429 -0.39211495719389922 0 0.0096835521855221027 -0.41246913865341522 0 0.0043911497260468446 -0.38601267381842841 0 0.001646805659493981 -0.38483714105840322 0 0.0096835521855221027 -0.41246913865341522 0 -0.0041048790184469277 -0.39962520101249083 0 0.001646805659493981 -0.38483714105840322 0 0.0096835521855221027 -0.41246913865341522 0 0.014444515454358429 -0.39211495719389922 0 0.023439598357667041 -0.39889735355275202 0 0.0096835521855221027 -0.41246913865341522 0 0.023439598357667041 -0.39889735355275202 0 0.02134307017146491 -0.42347523456698949 0 0.023439598357667041 -0.39889735355275202 0 0.02134307017146491 -0.42347523456698949 0 0.03881451197242404 -0.41341233687543638 0 0.023439598357667041 -0.39889735355275202 0 0.0096835521855221027 -0.41246913865341522 0 0.02134307017146491 -0.42347523456698949 0 0.0096835521855221027 -0.41246913865341522 0 0.0057006365014656019 -0.4294969928907908 0 0.0096835521855221027 -0.41246913865341522 0 0.014561614345053649 -0.42924092577199169 0 0.0096835521855221027 -0.41246913865341522 0 0.014561614345053649 -0.42924092577199169 0 0.02134307017146491 -0.42347523456698949 0 -0.0022572301893488398 -0.42507109376321661 0 0.0096835521855221027 -0.41246913865341522 0 0.0057006365014656019 -0.4294969928907908 0 0.0096835521855221027 -0.41246913865341522 0 0.0057006365014656019 -0.4294969928907908 0 0.014561614345053649 -0.42924092577199169 0 -0.0042305411252634593 -0.43622662998366918 0 0.0057006365014656019 -0.4294969928907908 0 0.00171772081740895 -0.44652484712816631 0 0.0057006365014656019 -0.4294969928907908 0 0.014561614345053649 -0.42924092577199169 0 0.01042503180928246 -0.43953933179801169 0 0.02134307017146491 -0.42347523456698949 0 0.031532667397397199 -0.42900015583014939 0 0.03881451197242404 -0.41341233687543638 0 0.014561614345053649 -0.42924092577199169 0 0.02134307017146491 -0.42347523456698949 0 0.01943967650458547 -0.44601271289056821 0 0.02134307017146491 -0.42347523456698949 0 0.031532667397397199 -0.42900015583014939 0 0.01943967650458547 -0.44601271289056821 0 0.031532667397397199 -0.42900015583014939 0 0.046533410941114448 -0.43310033898760358 0 0.03881451197242404 -0.41341233687543638 0 0.031532667397397199 -0.42900015583014939 0 0.046533410941114448 -0.43310033898760358 0 0.01943967650458547 -0.44601271289056821 0 0.040623614457678633 -0.39839907575569489 0 0.03881451197242404 -0.41341233687543638 0 0.057024021365513163 -0.40743222090557851 0 0.073627145377643116 -0.42018796508463852 0 0.046533410941114448 -0.43310033898760358 0 0.057024021365513163 -0.40743222090557851 0 0.046533410941114448 -0.43310033898760358 0 0.03881451197242404 -0.41341233687543638 0 0.057024021365513163 -0.40743222090557851 0 0.073627145377643116 -0.42018796508463852 0 0.046533410941114448 -0.43310033898760358 0 0.071228813054464352 -0.44398501683151159 0 0.046533410941114448 -0.43310033898760358 0 0.057368656952596367 -0.45152174485674862 0 0.046533410941114448 -0.43310033898760358 0 0.057368656952596367 -0.45152174485674862 0 0.040613790701459977 -0.45642735440822207 0 0.057368656952596367 -0.45152174485674862 0 0.057768779777330158 -0.46707651523008281 0 0.040613790701459977 -0.45642735440822207 0 0.057768779777330158 -0.46707651523008281 0 0.040613790701459977 -0.45642735440822207 0 0.038676566236585483 -0.47951952959162369 0 0.040613790701459977 -0.45642735440822207 0 0.02389565379654807 -0.46133328489270597 0 0.038676566236585483 -0.47951952959162369 0 0.046533410941114448 -0.43310033898760358 0 0.040613790701459977 -0.45642735440822207 0 0.01943967650458547 -0.44601271289056821 0 0.046533410941114448 -0.43310033898760358 0 0.01943967650458547 -0.44601271289056821 0 0.014561614345053649 -0.42924092577199169 0 0.01943967650458547 -0.44601271289056821 0 -0.0025303026137990241 -0.45648319955166389 0 0.01943967650458547 -0.44601271289056821 0 0.0057006365014656019 -0.4294969928907908 0 0.00171772081740895 -0.44652484712816631 0 -0.0025303026137990241 -0.45648319955166389 0 0.01943967650458547 -0.44601271289056821 0 0.00171772081740895 -0.44652484712816631 0 0.01943967650458547 -0.44601271289056821 0 0.01042503180928246 -0.43953933179801169 0 0.00171772081740895 -0.44652484712816631 0 0.0057006365014656019 -0.4294969928907908 0 0.01042503180928246 -0.43953933179801169 0 0.00171772081740895 -0.44652484712816631 0 0.014561614345053649 -0.42924092577199169 0 0.01943967650458547 -0.44601271289056821 0 0.01042503180928246 -0.43953933179801169 0 0.0040988649333950026 -0.46829310919736061 0 0.011217524791310661 -0.45774681119615612 0 0.02389565379654807 -0.46133328489270597 0 -0.0025303026137990241 -0.45648319955166389 0 0.01943967650458547 -0.44601271289056821 0 0.011217524791310661 -0.45774681119615612 0 -0.0025303026137990241 -0.45648319955166389 0 0.0040988649333950026 -0.46829310919736061 0 0.011217524791310661 -0.45774681119615612 0 0.040613790701459977 -0.45642735440822207 0 0.01943967650458547 -0.44601271289056821 0 0.02389565379654807 -0.46133328489270597 0 0.01943967650458547 -0.44601271289056821 0 0.011217524791310661 -0.45774681119615612 0 0.02389565379654807 -0.46133328489270597 0 0.01943967650458547 -0.44601271289056821 0 0.02389565379654807 -0.46133328489270597 0 0.02389565379654807 -0.46133328489270597 0 0.020705059816987701 -0.47798527747527342 0 0.038676566236585483 -0.47951952959162369 0 0.0040988649333950026 -0.46829310919736061 0 0.02389565379654807 -0.46133328489270597 0 0.020705059816987701 -0.47798527747527342 0 0.0040988649333950026 -0.46829310919736061 0 0.020705059816987701 -0.47798527747527342 0 0.0051058715143244091 -0.48400014151992721 0 -0.0067890831900702109 -0.5 0 0.0051058715143244091 -0.48400014151992721 0 0.021639468005906659 -0.5 0 0.020705059816987701 -0.47798527747527342 0 0.021639468005906659 -0.5 0 0.038676566236585483 -0.47951952959162369 0 0.020705059816987701 -0.47798527747527342 0 0.0051058715143244091 -0.48400014151992721 0 0.021639468005906659 -0.5 0 0.021639468005906659 -0.5 0 0.038676566236585483 -0.47951952959162369 0 0.050068019201883418 -0.5 0 0.057768779777330158 -0.46707651523008281 0 0.038676566236585483 -0.47951952959162369 0 0.05845417767607361 -0.48463107608411637 0 0.078496570397860288 -0.5 0 0.05845417767607361 -0.48463107608411637 0 0.050068019201883418 -0.5 0 0.038676566236585483 -0.47951952959162369 0 0.05845417767607361 -0.48463107608411637 0 0.050068019201883418 -0.5 0 0.085455007581776127 -0.29586016929336251 0 0.080061439098210146 -0.28509934182814489 0 0.078119068029299396 -0.3012518696473962 0 0.085455007581776127 -0.29586016929336251 0 0.080061439098210146 -0.28509934182814489 0 0.093463361073207282 -0.29046496947182759 0 0.085455007581776127 -0.29586016929336251 0 0.093463361073207282 -0.29046496947182759 0 0.090176162126387682 -0.30662449622608151 0 0.081270183801995383 -0.30874320447738779 0 0.078119068029299396 -0.3012518696473962 0 0.075289796640420403 -0.31073386802634029 0 0.090176162126387682 -0.30662449622608151 0 0.081270183801995383 -0.30874320447738779 0 0.081322651547647756 -0.31732212993717579 0 0.081270183801995383 -0.30874320447738779 0 0.075289796640420403 -0.31073386802634029 0 0.081322651547647756 -0.31732212993717579 0 0.090176162126387682 -0.30662449622608151 0 0.081270183801995383 -0.30874320447738779 0 0.078119068029299396 -0.3012518696473962 0 0.085455007581776127 -0.29586016929336251 0 0.090176162126387682 -0.30662449622608151 0 0.078119068029299396 -0.3012518696473962 0 0.080061439098210146 -0.28509934182814489 0 0.063893539201460015 -0.30903476849004169 0 0.058383740239566252 -0.30241875673659108 0 0.080061439098210146 -0.28509934182814489 0 0.078119068029299396 -0.3012518696473962 0 0.063893539201460015 -0.30903476849004169 0 0.080061439098210146 -0.28509934182814489 0 0.063893539201460015 -0.30903476849004169 0 0.075289796640420403 -0.31073386802634029 0 0.063893539201460015 -0.30903476849004169 0 0.07179847372997393 -0.31756724933163782 0 0.078119068029299396 -0.3012518696473962 0 0.075289796640420403 -0.31073386802634029 0 0.063893539201460015 -0.30903476849004169 0 0.080061439098210146 -0.28509934182814489 0 0.070164511893494208 -0.28235137093015777 0 0.058383740239566252 -0.30241875673659108 0 0.070164511893494208 -0.28235137093015777 0 0.057841212927466627 -0.29705851357344548 0 0.070164511893494208 -0.28235137093015777 0 0.068630908827712112 -0.27067344111079389 0 0.055343476813300853 -0.27238054321032579 0 0.068630908827712112 -0.27067344111079389 0 0.066527835744532998 -0.26031762201582292 0 0.08248781085952045 -0.26764422828686918 0 0.080061439098210146 -0.28509934182814489 0 0.070164511893494208 -0.28235137093015777 0 0.08248781085952045 -0.26764422828686918 0 0.068630908827712112 -0.27067344111079389 0 0.066527835744532998 -0.26031762201582292 0 0.055343476813300853 -0.27238054321032579 0 0.070164511893494208 -0.28235137093015777 0 0.068630908827712112 -0.27067344111079389 0 0.08248781085952045 -0.26764422828686918 0 0.070164511893494208 -0.28235137093015777 0 0.08248781085952045 -0.26764422828686918 0 0.066527835744532998 -0.26031762201582292 0 0.052845740699136931 -0.24770257284720601 0 0.07067708693901821 -0.24308696522950921 0 0.08248781085952045 -0.26764422828686918 0 0.07067708693901821 -0.24308696522950921 0 0.066527835744532998 -0.26031762201582292 0 0.08248781085952045 -0.26764422828686918 0 0.07067708693901821 -0.24308696522950921 0 0.083496080913533416 -0.25035656083119062 0 0.08248781085952045 -0.26764422828686918 0 0.07067708693901821 -0.24308696522950921 0 0.093519011585101702 -0.25447912996010402 0 0.08248781085952045 -0.26764422828686918 0 0.098356501161812784 -0.27111030947609122 0 0.083496080913533416 -0.25035656083119062 0 0.093519011585101702 -0.25447912996010402 0 0.08248781085952045 -0.26764422828686918 0 0.093519011585101702 -0.25447912996010402 0 0.08248781085952045 -0.26764422828686918 0 0.093463361073207282 -0.29046496947182759 0 0.08248781085952045 -0.26764422828686918 0 0.093463361073207282 -0.29046496947182759 0 0.08248781085952045 -0.26764422828686918 0 0.098356501161812784 -0.27111030947609122 0 0.080061439098210146 -0.28509934182814489 0 0.093463361073207282 -0.29046496947182759 0 0.08248781085952045 -0.26764422828686918 0 0.098356501161812784 -0.27111030947609122 0 0.1088617144009341 -0.27100159245184169 0 0.1071119356960827 -0.25837861341271551 0 0.098356501161812784 -0.27111030947609122 0 0.1088617144009341 -0.27100159245184169 0 0.10530914618166221 -0.28304036471870903 0 0.093519011585101702 -0.25447912996010402 0 0.098356501161812784 -0.27111030947609122 0 0.1071119356960827 -0.25837861341271551 0 0.093519011585101702 -0.25447912996010402 0 0.1071119356960827 -0.25837861341271551 0 0.10455021231068271 -0.24131403163333859 0 0.1088617144009341 -0.27100159245184169 0 0.1071119356960827 -0.25837861341271551 0 0.1236085809504273 -0.25715862254038452 0 0.1071119356960827 -0.25837861341271551 0 0.1236085809504273 -0.25715862254038452 0 0.10455021231068271 -0.24131403163333859 0 0.1309291350045334 -0.27290905829767792 0 0.1236085809504273 -0.25715862254038452 0 0.1175165463410221 -0.28051123308882409 0 0.1088617144009341 -0.27100159245184169 0 0.1236085809504273 -0.25715862254038452 0 0.1175165463410221 -0.28051123308882409 0 0.1088617144009341 -0.27100159245184169 0 0.1175165463410221 -0.28051123308882409 0 0.10530914618166221 -0.28304036471870903 0 0.12730577058144149 -0.28824347989175031 0 0.11129467749436731 -0.29417951804345388 0 0.1215294505641293 -0.30580642579184553 0 0.12730577058144149 -0.28824347989175031 0 0.1175165463410221 -0.28051123308882409 0 0.11129467749436731 -0.29417951804345388 0 0.1175165463410221 -0.28051123308882409 0 0.11129467749436731 -0.29417951804345388 0 0.10530914618166221 -0.28304036471870903 0 0.093463361073207282 -0.29046496947182759 0 0.098356501161812784 -0.27111030947609122 0 0.10530914618166221 -0.28304036471870903 0 0.093463361073207282 -0.29046496947182759 0 0.11129467749436731 -0.29417951804345388 0 0.10530914618166221 -0.28304036471870903 0 0.093463361073207282 -0.29046496947182759 0 0.11129467749436731 -0.29417951804345388 0 0.1044389112868943 -0.31328571065678601 0 0.093463361073207282 -0.29046496947182759 0 0.1044389112868943 -0.31328571065678601 0 0.093463361073207282 -0.29046496947182759 0 0.090176162126387682 -0.30662449622608151 0 0.1044389112868943 -0.31328571065678601 0 0.11129467749436731 -0.29417951804345388 0 0.1215294505641293 -0.30580642579184553 0 0.1044389112868943 -0.31328571065678601 0 0.120507696502126 -0.32247851038484909 0 0.1048174984154516 -0.33330584835514881 0 0.1044389112868943 -0.31328571065678601 0 0.1215294505641293 -0.30580642579184553 0 0.120507696502126 -0.32247851038484909 0 0.1044389112868943 -0.31328571065678601 0 0.1325618261011792 -0.31207738376634558 0 0.1215294505641293 -0.30580642579184553 0 0.120507696502126 -0.32247851038484909 0 0.120507696502126 -0.32247851038484909 0 0.1200393055626284 -0.34339294161441891 0 0.1048174984154516 -0.33330584835514881 0 0.1200393055626284 -0.34339294161441891 0 0.1048174984154516 -0.33330584835514881 0 0.10767674256268341 -0.34629405994851942 0 0.1048174984154516 -0.33330584835514881 0 0.10767674256268341 -0.34629405994851942 0 0.096743590690289955 -0.34498253458249689 0 0.1048174984154516 -0.33330584835514881 0 0.096743590690289955 -0.34498253458249689 0 0.091047603842862562 -0.33506523578881819 0 0.1048174984154516 -0.33330584835514881 0 0.092978575573574682 -0.32343769522953131 0 0.091047603842862562 -0.33506523578881819 0 0.090176162126387682 -0.30662449622608151 0 0.1044389112868943 -0.31328571065678601 0 0.092978575573574682 -0.32343769522953131 0 0.1048174984154516 -0.33330584835514881 0 0.1044389112868943 -0.31328571065678601 0 0.092978575573574682 -0.32343769522953131 0 0.11594920247021689 -0.36947647153855662 0 0.1169579882332225 -0.360575815212135 0 0.10068402169648941 -0.36284748008479162 0 0.11594920247021689 -0.36947647153855662 0 0.105510907726501 -0.37088129909655521 0 0.1100985913215472 -0.38338106196076849 0 0.11594920247021689 -0.36947647153855662 0 0.105510907726501 -0.37088129909655521 0 0.1100985913215472 -0.38338106196076849 0 0.11594920247021689 -0.36947647153855662 0 0.1181201832053116 -0.36979023338366418 0 0.11594920247021689 -0.36947647153855662 0 0.1181201832053116 -0.36979023338366418 0 0.12765341836113189 -0.36790127123697119 0 0.1181201832053116 -0.36979023338366418 0 0.11594920247021689 -0.36947647153855662 0 0.1181201832053116 -0.36979023338366418 0 0.1169579882332225 -0.360575815212135 0 0.1200393055626284 -0.34339294161441891 0 0.11706847547621479 -0.35389991928717068 0 0.10068402169648941 -0.36284748008479162 0 0.1200393055626284 -0.34339294161441891 0 0.10767674256268341 -0.34629405994851942 0 0.10068402169648941 -0.36284748008479162 0 0.1169579882332225 -0.360575815212135 0 0.11706847547621479 -0.35389991928717068 0 0.10068402169648941 -0.36284748008479162 0 0.1338069130980255 -0.34321250916177309 0 0.1200393055626284 -0.34339294161441891 0 0.11706847547621479 -0.35389991928717068 0 0.1200393055626284 -0.34339294161441891 0 0.10068402169648941 -0.36284748008479162 0 0.1338069130980255 -0.34321250916177309 0 0.1181201832053116 -0.36979023338366418 0 0.1169579882332225 -0.360575815212135 0 0.1338069130980255 -0.34321250916177309 0 0.1169579882332225 -0.360575815212135 0 0.11706847547621479 -0.35389991928717068 0 0.10767674256268341 -0.34629405994851942 0 0.09900379480168349 -0.35229763872537351 0 0.10068402169648941 -0.36284748008479162 0 0.10767674256268341 -0.34629405994851942 0 0.096743590690289955 -0.34498253458249689 0 0.09900379480168349 -0.35229763872537351 0 0.096743590690289955 -0.34498253458249689 0 0.09900379480168349 -0.35229763872537351 0 0.090910824257271219 -0.35506648028568621 0 0.09900379480168349 -0.35229763872537351 0 0.10068402169648941 -0.36284748008479162 0 0.090910824257271219 -0.35506648028568621 0 0.11594920247021689 -0.36947647153855662 0 0.10068402169648941 -0.36284748008479162 0 0.089978841386046324 -0.36572309488246219 0 0.11594920247021689 -0.36947647153855662 0 0.105510907726501 -0.37088129909655521 0 0.089978841386046324 -0.36572309488246219 0 0.11594920247021689 -0.36947647153855662 0 0.089978841386046324 -0.36572309488246219 0 0.10068402169648941 -0.36284748008479162 0 0.089978841386046324 -0.36572309488246219 0 0.090910824257271219 -0.35506648028568621 0 0.089978841386046324 -0.36572309488246219 0 0.082101488478333165 -0.36107965710954332 0 0.063886483515375847 -0.3631571682375595 0 0.105510907726501 -0.37088129909655521 0 0.076593634650974934 -0.37477310164822852 0 0.105510907726501 -0.37088129909655521 0 0.089978841386046324 -0.36572309488246219 0 0.076593634650974934 -0.37477310164822852 0 0.089978841386046324 -0.36572309488246219 0 0.082101488478333165 -0.36107965710954332 0 0.090910824257271219 -0.35506648028568621 0 0.082101488478333165 -0.36107965710954332 0 0.080592554939378808 -0.35269507797250249 0 0.090910824257271219 -0.35506648028568621 0 0.082101488478333165 -0.36107965710954332 0 0.080592554939378808 -0.35269507797250249 0 0.073934700805627168 -0.35767963749308712 0 0.080592554939378808 -0.35269507797250249 0 0.090910824257271219 -0.35506648028568621 0 0.086434644937555774 -0.34521972894034719 0 0.096743590690289955 -0.34498253458249689 0 0.090910824257271219 -0.35506648028568621 0 0.086434644937555774 -0.34521972894034719 0 0.080592554939378808 -0.35269507797250249 0 0.086434644937555774 -0.34521972894034719 0 0.078207704043473686 -0.34578955538206502 0 0.078207704043473686 -0.34578955538206502 0 0.073209842423410304 -0.35110762412078028 0 0.070353299160983318 -0.34529818863168182 0 0.080592554939378808 -0.35269507797250249 0 0.078207704043473686 -0.34578955538206502 0 0.073209842423410304 -0.35110762412078028 0 0.066829985065993899 -0.35056214765272359 0 0.061489070141403833 -0.35259822927782603 0 0.06245696078116194 -0.34449856472480239 0 0.070353299160983318 -0.34529818863168182 0 0.066829985065993899 -0.35056214765272359 0 0.06245696078116194 -0.34449856472480239 0 0.073209842423410304 -0.35110762412078028 0 0.070353299160983318 -0.34529818863168182 0 0.066829985065993899 -0.35056214765272359 0 0.066829985065993899 -0.35056214765272359 0 0.069340810525005028 -0.3546211375926227 0 0.0656251773174817 -0.35531003769611491 0 0.065739314760775852 -0.3589403473673547 0 0.068582812462210957 -0.35716895386185737 0 0.073934700805627168 -0.35767963749308712 0 0.073209842423410304 -0.35110762412078028 0 0.066829985065993899 -0.35056214765272359 0 0.069340810525005028 -0.3546211375926227 0 0.066829985065993899 -0.35056214765272359 0 0.0656251773174817 -0.35531003769611491 0 0.061489070141403833 -0.35259822927782603 0 0.0656251773174817 -0.35531003769611491 0 0.061769070949500723 -0.35796941042430502 0 0.061489070141403833 -0.35259822927782603 0 0.065739314760775852 -0.3589403473673547 0 0.062686164771323008 -0.35998905892828192 0 0.061769070949500723 -0.35796941042430502 0 0.0656251773174817 -0.35531003769611491 0 0.065739314760775852 -0.3589403473673547 0 0.061769070949500723 -0.35796941042430502 0 0.069340810525005028 -0.3546211375926227 0 0.0656251773174817 -0.35531003769611491 0 0.068582812462210957 -0.35716895386185737 0 0.0656251773174817 -0.35531003769611491 0 0.065739314760775852 -0.3589403473673547 0 0.068582812462210957 -0.35716895386185737 0 0.069340810525005028 -0.3546211375926227 0 0.068582812462210957 -0.35716895386185737 0 0.073934700805627168 -0.35767963749308712 0 0.073209842423410304 -0.35110762412078028 0 0.069340810525005028 -0.3546211375926227 0 0.073934700805627168 -0.35767963749308712 0 0.080592554939378808 -0.35269507797250249 0 0.073209842423410304 -0.35110762412078028 0 0.073934700805627168 -0.35767963749308712 0 0.089978841386046324 -0.36572309488246219 0 0.063886483515375847 -0.3631571682375595 0 0.076593634650974934 -0.37477310164822852 0 0.082101488478333165 -0.36107965710954332 0 0.073934700805627168 -0.35767963749308712 0 0.063886483515375847 -0.3631571682375595 0 0.089978841386046324 -0.36572309488246219 0 0.063886483515375847 -0.3631571682375595 0 0.076593634650974934 -0.37477310164822852 0 0.058462305323978288 -0.37211492778553129 0 0.061946253383696401 -0.36750373048466339 0 0.065739314760775852 -0.3589403473673547 0 0.073934700805627168 -0.35767963749308712 0 0.063886483515375847 -0.3631571682375595 0 0.065739314760775852 -0.3589403473673547 0 0.063886483515375847 -0.3631571682375595 0 0.062686164771323008 -0.35998905892828192 0 0.063886483515375847 -0.3631571682375595 0 0.062686164771323008 -0.35998905892828192 0 0.061761192713854433 -0.36239265941446758 0 0.063886483515375847 -0.3631571682375595 0 0.06199037063444094 -0.36393960088971378 0 0.061761192713854433 -0.36239265941446758 0 0.063886483515375847 -0.3631571682375595 0 0.061946253383696401 -0.36750373048466339 0 0.06199037063444094 -0.36393960088971378 0 0.063886483515375847 -0.3631571682375595 0 0.076593634650974934 -0.37477310164822852 0 0.063886483515375847 -0.3631571682375595 0 0.076593634650974934 -0.37477310164822852 0 0.061946253383696401 -0.36750373048466339 0 0.090176162126387682 -0.30662449622608151 0 0.081322651547647756 -0.31732212993717579 0 0.092978575573574682 -0.32343769522953131 0 0.084389001513107118 -0.3276848375850101 0 0.081322651547647756 -0.31732212993717579 0 0.075696650886043729 -0.32651468945772838 0 0.084389001513107118 -0.3276848375850101 0 0.081322651547647756 -0.31732212993717579 0 0.092978575573574682 -0.32343769522953131 0 0.084389001513107118 -0.3276848375850101 0 0.092978575573574682 -0.32343769522953131 0 0.091047603842862562 -0.33506523578881819 0 0.086434644937555774 -0.34521972894034719 0 0.091047603842862562 -0.33506523578881819 0 0.080899525715406817 -0.33608443751179701 0 0.096743590690289955 -0.34498253458249689 0 0.086434644937555774 -0.34521972894034719 0 0.091047603842862562 -0.33506523578881819 0 0.086434644937555774 -0.34521972894034719 0 0.078207704043473686 -0.34578955538206502 0 0.080899525715406817 -0.33608443751179701 0 0.084389001513107118 -0.3276848375850101 0 0.091047603842862562 -0.33506523578881819 0 0.080899525715406817 -0.33608443751179701 0 0.084389001513107118 -0.3276848375850101 0 0.080899525715406817 -0.33608443751179701 0 0.075696650886043729 -0.32651468945772838 0 0.070624072065203894 -0.33709901449696439 0 0.065030379446627151 -0.32613513620752488 0 0.075696650886043729 -0.32651468945772838 0 0.080899525715406817 -0.33608443751179701 0 0.070624072065203894 -0.33709901449696439 0 0.075696650886043729 -0.32651468945772838 0 0.078207704043473686 -0.34578955538206502 0 0.080899525715406817 -0.33608443751179701 0 0.070624072065203894 -0.33709901449696439 0 0.078207704043473686 -0.34578955538206502 0 0.070353299160983318 -0.34529818863168182 0 0.070624072065203894 -0.33709901449696439 0 0.070353299160983318 -0.34529818863168182 0 0.070624072065203894 -0.33709901449696439 0 0.06245696078116194 -0.34449856472480239 0 0.070624072065203894 -0.33709901449696439 0 0.058835826489667578 -0.33684513128692922 0 0.06245696078116194 -0.34449856472480239 0 0.070624072065203894 -0.33709901449696439 0 0.065030379446627151 -0.32613513620752488 0 0.058835826489667578 -0.33684513128692922 0 0.063893539201460015 -0.30903476849004169 0 0.065030379446627151 -0.32613513620752488 0 0.07179847372997393 -0.31756724933163782 0 0.065030379446627151 -0.32613513620752488 0 0.075696650886043729 -0.32651468945772838 0 0.07179847372997393 -0.31756724933163782 0 0.081322651547647756 -0.31732212993717579 0 0.075696650886043729 -0.32651468945772838 0 0.07179847372997393 -0.31756724933163782 0 0.075289796640420403 -0.31073386802634029 0 0.081322651547647756 -0.31732212993717579 0 0.07179847372997393 -0.31756724933163782 0 0.063893539201460015 -0.30903476849004169 0 0.051408964861674032 -0.31810863663925748 0 0.047725639304710042 -0.33297019515193838 0 0.063893539201460015 -0.30903476849004169 0 0.065030379446627151 -0.32613513620752488 0 0.047725639304710042 -0.33297019515193838 0 0.063893539201460015 -0.30903476849004169 0 0.047725639304710042 -0.33297019515193838 0 0.051408964861674032 -0.31810863663925748 0 0.059091302084589133 -0.30940956338844922 0 0.05224159638175746 -0.31073395933003228 0 0.051408964861674032 -0.31810863663925748 0 0.045807490750626047 -0.31300824658848903 0 0.05224159638175746 -0.31073395933003228 0 0.047725639304710042 -0.33297019515193838 0 0.050530766731644972 -0.34484425485651821 0 0.042611345290952958 -0.35124346458998718 0 0.065030379446627151 -0.32613513620752488 0 0.058835826489667578 -0.33684513128692922 0 0.047725639304710042 -0.33297019515193838 0 0.058835826489667578 -0.33684513128692922 0 0.06245696078116194 -0.34449856472480239 0 0.050530766731644972 -0.34484425485651821 0 0.058835826489667578 -0.33684513128692922 0 0.047725639304710042 -0.33297019515193838 0 0.050530766731644972 -0.34484425485651821 0 0.047725639304710042 -0.33297019515193838 0 0.027498054380200209 -0.35131952947206058 0 0.02945998221653125 -0.32831958640560682 0 0.039813597272668463 -0.31761911533699783 0 0.02945998221653125 -0.32831958640560682 0 0.031421910052862011 -0.30531964333915312 0 0.047725639304710042 -0.33297019515193838 0 0.039813597272668463 -0.31761911533699783 0 0.02945998221653125 -0.32831958640560682 0 0.051408964861674032 -0.31810863663925748 0 0.039813597272668463 -0.31761911533699783 0 0.045807490750626047 -0.31300824658848903 0 0.051408964861674032 -0.31810863663925748 0 0.047725639304710042 -0.33297019515193838 0 0.039813597272668463 -0.31761911533699783 0 0.048904888335917419 -0.378499564142811 0 0.052166624199168003 -0.37184598822334308 0 0.058462305323978288 -0.37211492778553129 0 0.048904888335917419 -0.378499564142811 0 0.047237109325004127 -0.37135660615718619 0 0.052166624199168003 -0.37184598822334308 0 0.047237109325004127 -0.37135660615718619 0 0.050955698222628222 -0.36820555015559142 0 0.052166624199168003 -0.37184598822334308 0 0.047237109325004127 -0.37135660615718619 0 0.050955698222628222 -0.36820555015559142 0 0.045992889919039728 -0.36637798902056551 0 0.050955698222628222 -0.36820555015559142 0 0.052166624199168003 -0.37184598822334308 0 0.055273119788311918 -0.36905329287559568 0 0.050955698222628222 -0.36820555015559142 0 0.055273119788311918 -0.36905329287559568 0 0.054420545493077337 -0.36455766914364179 0 0.058462305323978288 -0.37211492778553129 0 0.061946253383696401 -0.36750373048466339 0 0.05817077029281599 -0.36835071393681967 0 0.05817077029281599 -0.36835071393681967 0 0.055273119788311918 -0.36905329287559568 0 0.057479085129015138 -0.36525507112311278 0 0.052166624199168003 -0.37184598822334308 0 0.058462305323978288 -0.37211492778553129 0 0.055273119788311918 -0.36905329287559568 0 0.058462305323978288 -0.37211492778553129 0 0.05817077029281599 -0.36835071393681967 0 0.055273119788311918 -0.36905329287559568 0 0.055273119788311918 -0.36905329287559568 0 0.057479085129015138 -0.36525507112311278 0 0.054420545493077337 -0.36455766914364179 0 0.057479085129015138 -0.36525507112311278 0 0.057649633264475211 -0.36298718070676539 0 0.054420545493077337 -0.36455766914364179 0 0.057479085129015138 -0.36525507112311278 0 0.059820113158237688 -0.36234859885894821 0 0.057649633264475211 -0.36298718070676539 0 0.061946253383696401 -0.36750373048466339 0 0.05817077029281599 -0.36835071393681967 0 0.057479085129015138 -0.36525507112311278 0 0.061946253383696401 -0.36750373048466339 0 0.057479085129015138 -0.36525507112311278 0 0.06050190683735289 -0.36479183773212032 0 0.057479085129015138 -0.36525507112311278 0 0.06050190683735289 -0.36479183773212032 0 0.059820113158237688 -0.36234859885894821 0 0.06050190683735289 -0.36479183773212032 0 0.06199037063444094 -0.36393960088971378 0 0.059820113158237688 -0.36234859885894821 0 0.061946253383696401 -0.36750373048466339 0 0.06050190683735289 -0.36479183773212032 0 0.06199037063444094 -0.36393960088971378 0 0.062686164771323008 -0.35998905892828192 0 0.060989425353614277 -0.36079561191179788 0 0.061761192713854433 -0.36239265941446758 0 0.062686164771323008 -0.35998905892828192 0 0.060989425353614277 -0.36079561191179788 0 0.061769070949500723 -0.35796941042430502 0 0.06199037063444094 -0.36393960088971378 0 0.061761192713854433 -0.36239265941446758 0 0.059820113158237688 -0.36234859885894821 0 0.060989425353614277 -0.36079561191179788 0 0.061761192713854433 -0.36239265941446758 0 0.059820113158237688 -0.36234859885894821 0 0.060989425353614277 -0.36079561191179788 0 0.059820113158237688 -0.36234859885894821 0 0.057918466467158293 -0.36087563412126122 0 0.060989425353614277 -0.36079561191179788 0 0.057918466467158293 -0.36087563412126122 0 0.058354656356000227 -0.35872258695163822 0 0.057918466467158293 -0.36087563412126122 0 0.055023231971992763 -0.35869345956852838 0 0.058354656356000227 -0.35872258695163822 0 0.059820113158237688 -0.36234859885894821 0 0.057918466467158293 -0.36087563412126122 0 0.057649633264475211 -0.36298718070676539 0 0.057918466467158293 -0.36087563412126122 0 0.057649633264475211 -0.36298718070676539 0 0.05567373869862955 -0.36170636672988898 0 0.057649633264475211 -0.36298718070676539 0 0.05567373869862955 -0.36170636672988898 0 0.054420545493077337 -0.36455766914364179 0 0.057918466467158293 -0.36087563412126122 0 0.05567373869862955 -0.36170636672988898 0 0.055023231971992763 -0.35869345956852838 0 0.05567373869862955 -0.36170636672988898 0 0.052589025763652673 -0.36132578468962029 0 0.055023231971992763 -0.35869345956852838 0 0.05567373869862955 -0.36170636672988898 0 0.052589025763652673 -0.36132578468962029 0 0.054420545493077337 -0.36455766914364179 0 0.050955698222628222 -0.36820555015559142 0 0.054420545493077337 -0.36455766914364179 0 0.050761607874317563 -0.36412838290565192 0 0.052589025763652673 -0.36132578468962029 0 0.054420545493077337 -0.36455766914364179 0 0.050761607874317563 -0.36412838290565192 0 0.050955698222628222 -0.36820555015559142 0 0.050761607874317563 -0.36412838290565192 0 0.045992889919039728 -0.36637798902056551 0 0.050761607874317563 -0.36412838290565192 0 0.048294863213153703 -0.36089654813883132 0 0.045992889919039728 -0.36637798902056551 0 0.052589025763652673 -0.36132578468962029 0 0.048294863213153703 -0.36089654813883132 0 0.051360167330745082 -0.35797228165117989 0 0.052589025763652673 -0.36132578468962029 0 0.050761607874317563 -0.36412838290565192 0 0.048294863213153703 -0.36089654813883132 0 0.048294863213153703 -0.36089654813883132 0 0.047765503999318358 -0.35560467565350368 0 0.051360167330745082 -0.35797228165117989 0 0.047765503999318358 -0.35560467565350368 0 0.05269265103767419 -0.35326944890188888 0 0.051360167330745082 -0.35797228165117989 0 0.05269265103767419 -0.35326944890188888 0 0.051360167330745082 -0.35797228165117989 0 0.055023231971992763 -0.35869345956852838 0 0.052589025763652673 -0.36132578468962029 0 0.051360167330745082 -0.35797228165117989 0 0.055023231971992763 -0.35869345956852838 0 0.05269265103767419 -0.35326944890188888 0 0.055023231971992763 -0.35869345956852838 0 0.057373210376917921 -0.35482887412368569 0 0.055023231971992763 -0.35869345956852838 0 0.058354656356000227 -0.35872258695163822 0 0.057373210376917921 -0.35482887412368569 0 0.060989425353614277 -0.36079561191179788 0 0.058354656356000227 -0.35872258695163822 0 0.061769070949500723 -0.35796941042430502 0 0.058354656356000227 -0.35872258695163822 0 0.061769070949500723 -0.35796941042430502 0 0.057373210376917921 -0.35482887412368569 0 0.061769070949500723 -0.35796941042430502 0 0.061489070141403833 -0.35259822927782603 0 0.057373210376917921 -0.35482887412368569 0 0.05269265103767419 -0.35326944890188888 0 0.057373210376917921 -0.35482887412368569 0 0.056744782535091229 -0.34953672289422522 0 0.061489070141403833 -0.35259822927782603 0 0.057373210376917921 -0.35482887412368569 0 0.056744782535091229 -0.34953672289422522 0 0.061489070141403833 -0.35259822927782603 0 0.06245696078116194 -0.34449856472480239 0 0.056744782535091229 -0.34953672289422522 0 0.06245696078116194 -0.34449856472480239 0 0.056744782535091229 -0.34953672289422522 0 0.050530766731644972 -0.34484425485651821 0 0.047765503999318358 -0.35560467565350368 0 0.05269265103767419 -0.35326944890188888 0 0.050530766731644972 -0.34484425485651821 0 0.047765503999318358 -0.35560467565350368 0 0.050530766731644972 -0.34484425485651821 0 0.042611345290952958 -0.35124346458998718 0 0.05269265103767419 -0.35326944890188888 0 0.056744782535091229 -0.34953672289422522 0 0.050530766731644972 -0.34484425485651821 0 0.047725639304710042 -0.33297019515193838 0 0.042611345290952958 -0.35124346458998718 0 0.031557739407960063 -0.35690562181383512 0 0.047725639304710042 -0.33297019515193838 0 0.031557739407960063 -0.35690562181383512 0 0.047725639304710042 -0.33297019515193838 0 0.031557739407960063 -0.35690562181383512 0 0.027498054380200209 -0.35131952947206058 0 0.042611345290952958 -0.35124346458998718 0 0.031557739407960063 -0.35690562181383512 0 0.039403257907624417 -0.35951530232273948 0 0.042611345290952958 -0.35124346458998718 0 0.044228805467738101 -0.35804783424644532 0 0.039403257907624417 -0.35951530232273948 0 0.047765503999318358 -0.35560467565350368 0 0.042611345290952958 -0.35124346458998718 0 0.044228805467738101 -0.35804783424644532 0 0.048294863213153703 -0.36089654813883132 0 0.047765503999318358 -0.35560467565350368 0 0.044228805467738101 -0.35804783424644532 0 0.031557739407960063 -0.35690562181383512 0 0.037864236724251571 -0.36975774022554803 0 0.025536126543869379 -0.37431947253851461 0 0.043069056927641028 -0.36297918052716449 0 0.039403257907624417 -0.35951530232273948 0 0.037864236724251571 -0.36975774022554803 0 0.043069056927641028 -0.36297918052716449 0 0.045992889919039728 -0.36637798902056551 0 0.037864236724251571 -0.36975774022554803 0 0.048294863213153703 -0.36089654813883132 0 0.044228805467738101 -0.35804783424644532 0 0.043069056927641028 -0.36297918052716449 0 0.048294863213153703 -0.36089654813883132 0 0.043069056927641028 -0.36297918052716449 0 0.045992889919039728 -0.36637798902056551 0 0.044228805467738101 -0.35804783424644532 0 0.043069056927641028 -0.36297918052716449 0 0.039403257907624417 -0.35951530232273948 0 0.031557739407960063 -0.35690562181383512 0 0.039403257907624417 -0.35951530232273948 0 0.037864236724251571 -0.36975774022554803 0 0.048904888335917419 -0.378499564142811 0 0.047237109325004127 -0.37135660615718619 0 0.037864236724251571 -0.36975774022554803 0 0.047237109325004127 -0.37135660615718619 0 0.045992889919039728 -0.36637798902056551 0 0.037864236724251571 -0.36975774022554803 0 0.031557739407960063 -0.35690562181383512 0 0.025536126543869379 -0.37431947253851461 0 0.027498054380200209 -0.35131952947206058 0 0.025536126543869379 -0.37431947253851461 0 0.027498054380200209 -0.35131952947206058 0 0.025536126543869379 -0.37431947253851461 0 0.02210357885883163 -0.35937075028833021 0 0.027498054380200209 -0.35131952947206058 0 0.019205478723194551 -0.37176077573438321 0 0.025536126543869379 -0.37431947253851461 0 0.02210357885883163 -0.35937075028833021 0 0.019205478723194551 -0.37176077573438321 0 0.025536126543869379 -0.37431947253851461 0 0.019205478723194551 -0.37176077573438321 0 0.02210357885883163 -0.35937075028833021 0 0.019205478723194551 -0.37176077573438321 0 0.02210357885883163 -0.35937075028833021 0 0.0126899906124527 -0.36262209970231801 0 0.02210357885883163 -0.35937075028833021 0 0.016718487122297201 -0.34830032583056519 0 0.0097827461618649782 -0.35549261565588092 0 0.02210357885883163 -0.35937075028833021 0 0.027498054380200209 -0.35131952947206058 0 0.016718487122297201 -0.34830032583056519 0 0.016718487122297201 -0.34830032583056519 0 0.0075018999811672458 -0.34405555802444521 0 0.0097827461618649782 -0.35549261565588092 0 -0.0049525976164628283 -0.34999319935167172 0 0.0075018999811672458 -0.34405555802444521 0 0.0097827461618649782 -0.35549261565588092 0 -0.0049525976164628283 -0.34999319935167172 0 -0.00033184129408025948 -0.36386425713067733 0 0.0097827461618649782 -0.35549261565588092 0 0.02210357885883163 -0.35937075028833021 0 0.0097827461618649782 -0.35549261565588092 0 0.0126899906124527 -0.36262209970231801 0 -0.00033184129408025948 -0.36386425713067733 0 0.0043911497260468446 -0.38601267381842841 0 0.019205478723194551 -0.37176077573438321 0 -0.00033184129408025948 -0.36386425713067733 0 0.019205478723194551 -0.37176077573438321 0 -0.00033184129408025948 -0.36386425713067733 0 0.019205478723194551 -0.37176077573438321 0 0.0126899906124527 -0.36262209970231801 0 -0.00033184129408025948 -0.36386425713067733 0 0.0097827461618649782 -0.35549261565588092 0 0.0126899906124527 -0.36262209970231801 0 0.02945998221653125 -0.32831958640560682 0 0.031421910052862011 -0.30531964333915312 0 0.02945998221653125 -0.32831958640560682 0 0.01670615622942196 -0.33126317571210928 0 0.031421910052862011 -0.30531964333915312 0 0.01670615622942196 -0.33126317571210928 0 0.0040743483248141601 -0.30826203170374838 0 0.031421910052862011 -0.30531964333915312 0 0.027498054380200209 -0.35131952947206058 0 0.016718487122297201 -0.34830032583056519 0 0.01670615622942196 -0.33126317571210928 0 0.027498054380200209 -0.35131952947206058 0 0.02945998221653125 -0.32831958640560682 0 0.027498054380200209 -0.35131952947206058 0 0.02945998221653125 -0.32831958640560682 0 0.01670615622942196 -0.33126317571210928 0 -0.001743670801821866 -0.33028792556549919 0 -0.0049525976164628283 -0.34999319935167172 0 0.0075018999811672458 -0.34405555802444521 0 0.016718487122297201 -0.34830032583056519 0 0.0075018999811672458 -0.34405555802444521 0 0.01670615622942196 -0.33126317571210928 0 -0.001743670801821866 -0.33028792556549919 0 0.0075018999811672458 -0.34405555802444521 0 0.01670615622942196 -0.33126317571210928 0 -0.001743670801821866 -0.33028792556549919 0 0.01670615622942196 -0.33126317571210928 0 0.0040743483248141601 -0.30826203170374838 0 -0.0085119016488805193 -0.29377413922613499 0 0.0040743483248141601 -0.30826203170374838 0 0.0084698857587562834 -0.28707911448009588 0 0.0040743483248141601 -0.30826203170374838 0 0.0084698857587562834 -0.28707911448009588 0 0.020706644999883381 -0.29463757594776618 0 0.0084698857587562834 -0.28707911448009588 0 0.020706644999883381 -0.29463757594776618 0 0.024749729403946499 -0.27906340391540663 0 0.020706644999883381 -0.29463757594776618 0 0.032577334475676407 -0.29177444791952328 0 0.024749729403946499 -0.27906340391540663 0 0.0040743483248141601 -0.30826203170374838 0 0.031421910052862011 -0.30531964333915312 0 0.0040743483248141601 -0.30826203170374838 0 0.020706644999883381 -0.29463757594776618 0 0.031421910052862011 -0.30531964333915312 0 0.020706644999883381 -0.29463757594776618 0 0.031421910052862011 -0.30531964333915312 0 0.032577334475676407 -0.29177444791952328 0 0.031421910052862011 -0.30531964333915312 0 0.041550106642612439 -0.29692749236016652 0 0.052851005576133002 -0.30301403664709847 0 0.031421910052862011 -0.30531964333915312 0 0.052851005576133002 -0.30301403664709847 0 0.039813597272668463 -0.31761911533699783 0 0.045807490750626047 -0.31300824658848903 0 0.031421910052862011 -0.30531964333915312 0 0.045807490750626047 -0.31300824658848903 0 0.031421910052862011 -0.30531964333915312 0 0.049838120936923212 -0.30660973973591987 0 0.031421910052862011 -0.30531964333915312 0 0.049838120936923212 -0.30660973973591987 0 0.052851005576133002 -0.30301403664709847 0 0.031421910052862011 -0.30531964333915312 0 0.032577334475676407 -0.29177444791952328 0 0.031421910052862011 -0.30531964333915312 0 0.041550106642612439 -0.29692749236016652 0 0.032577334475676407 -0.29177444791952328 0 0.041550106642612439 -0.29692749236016652 0 0.032577334475676407 -0.29177444791952328 0 0.042425427582327098 -0.29023429418062191 0 0.032577334475676407 -0.29177444791952328 0 0.038872722793853093 -0.28029332705855259 0 0.024749729403946499 -0.27906340391540663 0 0.032577334475676407 -0.29177444791952328 0 0.042425427582327098 -0.29023429418062191 0 0.038872722793853093 -0.28029332705855259 0 0.042425427582327098 -0.29023429418062191 0 0.048075035137259671 -0.28289776870139938 0 0.038872722793853093 -0.28029332705855259 0 0.042425427582327098 -0.29023429418062191 0 0.048474855526063343 -0.29429503971443488 0 0.048075035137259671 -0.28289776870139938 0 0.041550106642612439 -0.29692749236016652 0 0.042425427582327098 -0.29023429418062191 0 0.048474855526063343 -0.29429503971443488 0 0.070164511893494208 -0.28235137093015777 0 0.057841212927466627 -0.29705851357344548 0 0.058383740239566252 -0.30241875673659108 0 0.048474855526063343 -0.29429503971443488 0 0.048075035137259671 -0.28289776870139938 0 0.057841212927466627 -0.29705851357344548 0 0.057841212927466627 -0.29705851357344548 0 0.055343476813300853 -0.27238054321032579 0 0.048075035137259671 -0.28289776870139938 0 0.057841212927466627 -0.29705851357344548 0 0.055343476813300853 -0.27238054321032579 0 0.070164511893494208 -0.28235137093015777 0 0.057841212927466627 -0.29705851357344548 0 0.055343476813300853 -0.27238054321032579 0 0.057841212927466627 -0.29705851357344548 0 0.052851005576133002 -0.30301403664709847 0 0.057841212927466627 -0.29705851357344548 0 0.058383740239566252 -0.30241875673659108 0 0.058383740239566252 -0.30241875673659108 0 0.052851005576133002 -0.30301403664709847 0 0.058383740239566252 -0.30241875673659108 0 0.055062103274974912 -0.30653361029804632 0 0.052851005576133002 -0.30301403664709847 0 0.057841212927466627 -0.29705851357344548 0 0.058383740239566252 -0.30241875673659108 0 0.052851005576133002 -0.30301403664709847 0 0.063893539201460015 -0.30903476849004169 0 0.058383740239566252 -0.30241875673659108 0 0.059091302084589133 -0.30940956338844922 0 0.063893539201460015 -0.30903476849004169 0 0.051408964861674032 -0.31810863663925748 0 0.059091302084589133 -0.30940956338844922 0 0.058383740239566252 -0.30241875673659108 0 0.059091302084589133 -0.30940956338844922 0 0.059091302084589133 -0.30940956338844922 0 0.055062103274974912 -0.30653361029804632 0 0.05224159638175746 -0.31073395933003228 0 0.058383740239566252 -0.30241875673659108 0 0.059091302084589133 -0.30940956338844922 0 0.055062103274974912 -0.30653361029804632 0 0.055062103274974912 -0.30653361029804632 0 0.05224159638175746 -0.31073395933003228 0 0.049838120936923212 -0.30660973973591987 0 0.055062103274974912 -0.30653361029804632 0 0.049838120936923212 -0.30660973973591987 0 0.052851005576133002 -0.30301403664709847 0 0.049838120936923212 -0.30660973973591987 0 0.052851005576133002 -0.30301403664709847 0 0.045807490750626047 -0.31300824658848903 0 0.05224159638175746 -0.31073395933003228 0 0.049838120936923212 -0.30660973973591987 0 0.048474855526063343 -0.29429503971443488 0 0.057841212927466627 -0.29705851357344548 0 0.052851005576133002 -0.30301403664709847 0 0.041550106642612439 -0.29692749236016652 0 0.048474855526063343 -0.29429503971443488 0 0.052851005576133002 -0.30301403664709847 0 0.055343476813300853 -0.27238054321032579 0 0.04495669355221539 -0.26477063385234212 0 0.052845740699136931 -0.24770257284720601 0 0.055343476813300853 -0.27238054321032579 0 0.052845740699136931 -0.24770257284720601 0 0.066527835744532998 -0.26031762201582292 0 0.055343476813300853 -0.27238054321032579 0 0.052845740699136931 -0.24770257284720601 0 0.048075035137259671 -0.28289776870139938 0 0.055343476813300853 -0.27238054321032579 0 0.04495669355221539 -0.26477063385234212 0 0.048075035137259671 -0.28289776870139938 0 0.038872722793853093 -0.28029332705855259 0 0.04495669355221539 -0.26477063385234212 0 0.038872722793853093 -0.28029332705855259 0 0.034511505437869072 -0.27014321244615003 0 0.04495669355221539 -0.26477063385234212 0 0.038872722793853093 -0.28029332705855259 0 0.034511505437869072 -0.27014321244615003 0 0.024749729403946499 -0.27906340391540663 0 0.034484842913020647 -0.25242739573662337 0 0.04495669355221539 -0.26477063385234212 0 0.052845740699136931 -0.24770257284720601 0 0.034511505437869072 -0.27014321244615003 0 0.034484842913020647 -0.25242739573662337 0 0.02552659450680236 -0.26191295643611179 0 0.034511505437869072 -0.27014321244615003 0 0.034484842913020647 -0.25242739573662337 0 0.04495669355221539 -0.26477063385234212 0 0.034484842913020647 -0.25242739573662337 0 0.02552659450680236 -0.26191295643611179 0 0.016403316260732 -0.24995610664742421 0 0.02552659450680236 -0.26191295643611179 0 0.012212418410231719 -0.26833218537318138 0 0.016403316260732 -0.24995610664742421 0 0.034511505437869072 -0.27014321244615003 0 0.02552659450680236 -0.26191295643611179 0 0.024749729403946499 -0.27906340391540663 0 0.02552659450680236 -0.26191295643611179 0 0.024749729403946499 -0.27906340391540663 0 0.012212418410231719 -0.26833218537318138 0 0.0084698857587562834 -0.28707911448009588 0 0.024749729403946499 -0.27906340391540663 0 0.012212418410231719 -0.26833218537318138 0 -0.0068501675742808736 -0.27356972209169111 0 0.0084698857587562834 -0.28707911448009588 0 0.012212418410231719 -0.26833218537318138 0 -0.0068501675742808736 -0.27356972209169111 0 0.012212418410231719 -0.26833218537318138 0 0.0019676702201415958 -0.25752768517786101 0 0.012212418410231719 -0.26833218537318138 0 0.0019676702201415958 -0.25752768517786101 0 0.016403316260732 -0.24995610664742421 0 -0.001425766107822968 -0.2385087359652546 0 0.0019676702201415958 -0.25752768517786101 0 0.016403316260732 -0.24995610664742421 0 -0.001425766107822968 -0.2385087359652546 0 0.011503738758248731 -0.2324374826769422 0 0.016403316260732 -0.24995610664742421 0 -0.001425766107822968 -0.2385087359652546 0 -0.0022972425086637831 -0.21563977589084049 0 0.011503738758248731 -0.2324374826769422 0 -0.0022972425086637831 -0.21563977589084049 0 0.011503738758248731 -0.2324374826769422 0 0.017546419608799789 -0.22070117072257539 0 0.017546419608799789 -0.22070117072257539 0 0.02729196653819858 -0.23738162415861611 0 0.034765406155225227 -0.2234173259639417 0 0.011503738758248731 -0.2324374826769422 0 0.017546419608799789 -0.22070117072257539 0 0.02729196653819858 -0.23738162415861611 0 0.017546419608799789 -0.22070117072257539 0 0.027502289496581959 -0.2138705924344626 0 0.034765406155225227 -0.2234173259639417 0 0.034484842913020647 -0.25242739573662337 0 0.02729196653819858 -0.23738162415861611 0 0.016403316260732 -0.24995610664742421 0 0.011503738758248731 -0.2324374826769422 0 0.02729196653819858 -0.23738162415861611 0 0.016403316260732 -0.24995610664742421 0 -0.0022972425086637831 -0.21563977589084049 0 -0.0036465812241667779 -0.18931108225399881 0 0.0088365019890831731 -0.20386931882147161 0 -0.0036465812241667779 -0.18931108225399881 0 0.01129710900053809 -0.19059964746801619 0 0.0088365019890831731 -0.20386931882147161 0 0.01129710900053809 -0.19059964746801619 0 0.0088365019890831731 -0.20386931882147161 0 0.021282805068908551 -0.20309491777192709 0 -0.0022972425086637831 -0.21563977589084049 0 0.017546419608799789 -0.22070117072257539 0 0.0088365019890831731 -0.20386931882147161 0 0.017546419608799789 -0.22070117072257539 0 0.027502289496581959 -0.2138705924344626 0 0.021282805068908551 -0.20309491777192709 0 0.017546419608799789 -0.22070117072257539 0 0.0088365019890831731 -0.20386931882147161 0 0.021282805068908551 -0.20309491777192709 0 0.027502289496581959 -0.2138705924344626 0 0.030587605784571759 -0.2064947702625351 0 0.021282805068908551 -0.20309491777192709 0 0.030587605784571759 -0.2064947702625351 0 0.021282805068908551 -0.20309491777192709 0 0.031378425566610968 -0.19841679172295401 0 0.021282805068908551 -0.20309491777192709 0 0.025074747783813939 -0.1894908183482624 0 0.031378425566610968 -0.19841679172295401 0 0.025074747783813939 -0.1894908183482624 0 0.03328286017390325 -0.19119517120399271 0 0.032400657481605352 -0.18353716648777371 0 0.025074747783813939 -0.1894908183482624 0 0.03328286017390325 -0.19119517120399271 0 0.031378425566610968 -0.19841679172295401 0 0.01129710900053809 -0.19059964746801619 0 0.021282805068908551 -0.20309491777192709 0 0.025074747783813939 -0.1894908183482624 0 0.038562449282376302 -0.18856737755128561 0 0.042920524792964439 -0.19558973529633361 0 0.047055639098014038 -0.1939724391147892 0 0.038562449282376302 -0.18856737755128561 0 0.038703204426949633 -0.19678162399701099 0 0.042920524792964439 -0.19558973529633361 0 0.038562449282376302 -0.18856737755128561 0 0.03328286017390325 -0.19119517120399271 0 0.038703204426949633 -0.19678162399701099 0 0.038562449282376302 -0.18856737755128561 0 0.03328286017390325 -0.19119517120399271 0 0.032400657481605352 -0.18353716648777371 0 0.030587605784571759 -0.2064947702625351 0 0.031378425566610968 -0.19841679172295401 0 0.036986409896071118 -0.20342825278452281 0 0.03328286017390325 -0.19119517120399271 0 0.038703204426949633 -0.19678162399701099 0 0.031378425566610968 -0.19841679172295401 0 0.038703204426949633 -0.19678162399701099 0 0.031378425566610968 -0.19841679172295401 0 0.036986409896071118 -0.20342825278452281 0 0.038703204426949633 -0.19678162399701099 0 0.042431062686673161 -0.20028060369761569 0 0.036986409896071118 -0.20342825278452281 0 0.042431062686673161 -0.20028060369761569 0 0.042850012243637173 -0.2064202508962466 0 0.047850268470809088 -0.1983466321209664 0 0.038703204426949633 -0.19678162399701099 0 0.042431062686673161 -0.20028060369761569 0 0.042920524792964439 -0.19558973529633361 0 0.042431062686673161 -0.20028060369761569 0 0.042920524792964439 -0.19558973529633361 0 0.047850268470809088 -0.1983466321209664 0 0.042920524792964439 -0.19558973529633361 0 0.047850268470809088 -0.1983466321209664 0 0.047055639098014038 -0.1939724391147892 0 0.042850012243637173 -0.2064202508962466 0 0.043714548527863148 -0.21503994793105349 0 0.047850268470809088 -0.1983466321209664 0 0.042431062686673161 -0.20028060369761569 0 0.042850012243637173 -0.2064202508962466 0 0.036986409896071118 -0.20342825278452281 0 0.042850012243637173 -0.2064202508962466 0 0.036986409896071118 -0.20342825278452281 0 0.035968148667984021 -0.21217547613077439 0 0.027502289496581959 -0.2138705924344626 0 0.030587605784571759 -0.2064947702625351 0 0.035968148667984021 -0.21217547613077439 0 0.030587605784571759 -0.2064947702625351 0 0.036986409896071118 -0.20342825278452281 0 0.035968148667984021 -0.21217547613077439 0 0.035968148667984021 -0.21217547613077439 0 0.043714548527863148 -0.21503994793105349 0 0.034765406155225227 -0.2234173259639417 0 0.027502289496581959 -0.2138705924344626 0 0.035968148667984021 -0.21217547613077439 0 0.034765406155225227 -0.2234173259639417 0 0.042850012243637173 -0.2064202508962466 0 0.035968148667984021 -0.21217547613077439 0 0.043714548527863148 -0.21503994793105349 0 0.058866363018516117 -0.2185297021721492 0 0.047850268470809088 -0.1983466321209664 0 0.050348004584973009 -0.2230246024840862 0 0.043714548527863148 -0.21503994793105349 0 0.047850268470809088 -0.1983466321209664 0 0.050348004584973009 -0.2230246024840862 0 0.047850268470809088 -0.1983466321209664 0 0.050348004584973009 -0.2230246024840862 0 0.058866363018516117 -0.2185297021721492 0 0.047055639098014038 -0.1939724391147892 0 0.058866363018516117 -0.2185297021721492 0 0.059316559042391637 -0.20436871363304179 0 0.047055639098014038 -0.1939724391147892 0 0.058866363018516117 -0.2185297021721492 0 0.047850268470809088 -0.1983466321209664 0 0.047055639098014038 -0.1939724391147892 0 0.059316559042391637 -0.20436871363304179 0 0.057609148399220253 -0.19619208721742351 0 0.047055639098014038 -0.1939724391147892 0 0.059316559042391637 -0.20436871363304179 0 0.057609148399220253 -0.19619208721742351 0 0.063531703337976503 -0.20216940318803739 0 0.057609148399220253 -0.19619208721742351 0 0.063705659082333624 -0.19352183156133021 0 0.063531703337976503 -0.20216940318803739 0 0.057609148399220253 -0.19619208721742351 0 0.051634467694274162 -0.18950190880559181 0 0.057702272552410207 -0.187468916734047 0 0.057609148399220253 -0.19619208721742351 0 0.063705659082333624 -0.19352183156133021 0 0.057702272552410207 -0.187468916734047 0 0.063705659082333624 -0.19352183156133021 0 0.063913690382049415 -0.1867017220366137 0 0.057702272552410207 -0.187468916734047 0 0.051634467694274162 -0.18950190880559181 0 0.052976516990435582 -0.18579268394732279 0 0.057702272552410207 -0.187468916734047 0 0.051634467694274162 -0.18950190880559181 0 0.047055639098014038 -0.1939724391147892 0 0.049537310498244357 -0.18475289705325371 0 0.057609148399220253 -0.19619208721742351 0 0.051634467694274162 -0.18950190880559181 0 0.047055639098014038 -0.1939724391147892 0 0.034484842913020647 -0.25242739573662337 0 0.02729196653819858 -0.23738162415861611 0 0.03994719217811088 -0.2367907042380947 0 0.034484842913020647 -0.25242739573662337 0 0.03994719217811088 -0.2367907042380947 0 0.052845740699136931 -0.24770257284720601 0 0.02729196653819858 -0.23738162415861611 0 0.03994719217811088 -0.2367907042380947 0 0.034765406155225227 -0.2234173259639417 0 0.043714548527863148 -0.21503994793105349 0 0.034765406155225227 -0.2234173259639417 0 0.050348004584973009 -0.2230246024840862 0 0.03994719217811088 -0.2367907042380947 0 0.034765406155225227 -0.2234173259639417 0 0.050348004584973009 -0.2230246024840862 0 0.058866363018516117 -0.2185297021721492 0 0.050348004584973009 -0.2230246024840862 0 0.058569941378762841 -0.23383593717085149 0 0.058569941378762841 -0.23383593717085149 0 0.052845740699136931 -0.24770257284720601 0 0.07067708693901821 -0.24308696522950921 0 0.050348004584973009 -0.2230246024840862 0 0.058569941378762841 -0.23383593717085149 0 0.052845740699136931 -0.24770257284720601 0 0.03994719217811088 -0.2367907042380947 0 0.050348004584973009 -0.2230246024840862 0 0.052845740699136931 -0.24770257284720601 0 0.050348004584973009 -0.2230246024840862 0 0.052845740699136931 -0.24770257284720601 0 0.07067708693901821 -0.24308696522950921 0 0.087300414270493287 -0.23621591984828 0 0.073810044291303833 -0.22527459157334531 0 0.083496080913533416 -0.25035656083119062 0 0.093519011585101702 -0.25447912996010402 0 0.087300414270493287 -0.23621591984828 0 0.083496080913533416 -0.25035656083119062 0 0.07067708693901821 -0.24308696522950921 0 0.087300414270493287 -0.23621591984828 0 0.087300414270493287 -0.23621591984828 0 0.073810044291303833 -0.22527459157334531 0 0.082686415870260238 -0.21756043414397849 0 0.087300414270493287 -0.23621591984828 0 0.082686415870260238 -0.21756043414397849 0 0.099772196785810674 -0.22574879128380859 0 0.058866363018516117 -0.2185297021721492 0 0.07067708693901821 -0.24308696522950921 0 0.058866363018516117 -0.2185297021721492 0 0.058569941378762841 -0.23383593717085149 0 0.07067708693901821 -0.24308696522950921 0 0.058866363018516117 -0.2185297021721492 0 0.07067708693901821 -0.24308696522950921 0 0.073810044291303833 -0.22527459157334531 0 0.058866363018516117 -0.2185297021721492 0 0.073810044291303833 -0.22527459157334531 0 0.069519941358231307 -0.21097993647280969 0 0.058866363018516117 -0.2185297021721492 0 0.059316559042391637 -0.20436871363304179 0 0.069519941358231307 -0.21097993647280969 0 0.069519941358231307 -0.21097993647280969 0 0.078815905603784875 -0.2012806296072252 0 0.082686415870260238 -0.21756043414397849 0 0.059316559042391637 -0.20436871363304179 0 0.069519941358231307 -0.21097993647280969 0 0.063531703337976503 -0.20216940318803739 0 0.069519941358231307 -0.21097993647280969 0 0.063531703337976503 -0.20216940318803739 0 0.070501199751772742 -0.19790749220436071 0 0.069519941358231307 -0.21097993647280969 0 0.070501199751772742 -0.19790749220436071 0 0.078815905603784875 -0.2012806296072252 0 0.073810044291303833 -0.22527459157334531 0 0.069519941358231307 -0.21097993647280969 0 0.082686415870260238 -0.21756043414397849 0 0.069841847198591461 -0.1885946527054862 0 0.063705659082333624 -0.19352183156133021 0 0.070501199751772742 -0.19790749220436071 0 0.069841847198591461 -0.1885946527054862 0 0.063705659082333624 -0.19352183156133021 0 0.063913690382049415 -0.1867017220366137 0 0.063705659082333624 -0.19352183156133021 0 0.063531703337976503 -0.20216940318803739 0 0.070501199751772742 -0.19790749220436071 0 0.070501199751772742 -0.19790749220436071 0 0.077592141929718694 -0.19089849969127581 0 0.078815905603784875 -0.2012806296072252 0 0.069841847198591461 -0.1885946527054862 0 0.070501199751772742 -0.19790749220436071 0 0.077592141929718694 -0.19089849969127581 0 0.078815905603784875 -0.2012806296072252 0 0.090158925707272103 -0.18975049663898541 0 0.091527877809569377 -0.20750892759338721 0 0.077592141929718694 -0.19089849969127581 0 0.078815905603784875 -0.2012806296072252 0 0.090158925707272103 -0.18975049663898541 0 0.078815905603784875 -0.2012806296072252 0 0.091527877809569377 -0.20750892759338721 0 0.082686415870260238 -0.21756043414397849 0 0.091527877809569377 -0.20750892759338721 0 0.082686415870260238 -0.21756043414397849 0 0.099772196785810674 -0.22574879128380859 0 0.091527877809569377 -0.20750892759338721 0 0.10900165601868229 -0.21233524507994 0 0.099772196785810674 -0.22574879128380859 0 0.090158925707272103 -0.18975049663898541 0 0.091527877809569377 -0.20750892759338721 0 0.10900165601868229 -0.21233524507994 0 0.090158925707272103 -0.18975049663898541 0 0.10900165601868229 -0.21233524507994 0 0.1091149537726108 -0.19031859724296379 0 0.090158925707272103 -0.18975049663898541 0 0.10900165601868229 -0.21233524507994 0 0.10900165601868229 -0.21233524507994 0 0.1091149537726108 -0.19031859724296379 0 0.12543738258814249 -0.19963659942699391 0 0.1091149537726108 -0.19031859724296379 0 0.12403819291028111 -0.18380360999721981 0 0.12543738258814249 -0.19963659942699391 0 0.10900165601868229 -0.21233524507994 0 0.1369097148349768 -0.21706249100099759 0 0.12543738258814249 -0.19963659942699391 0 0.10455021231068271 -0.24131403163333859 0 0.099772196785810674 -0.22574879128380859 0 0.12784438633009251 -0.2349199935208946 0 0.10900165601868229 -0.21233524507994 0 0.12784438633009251 -0.2349199935208946 0 0.1369097148349768 -0.21706249100099759 0 0.10900165601868229 -0.21233524507994 0 0.12784438633009251 -0.2349199935208946 0 0.10900165601868229 -0.21233524507994 0 0.099772196785810674 -0.22574879128380859 0 0.12784438633009251 -0.2349199935208946 0 0.1236085809504273 -0.25715862254038452 0 0.10455021231068271 -0.24131403163333859 0 0.12784438633009251 -0.2349199935208946 0 0.093519011585101702 -0.25447912996010402 0 0.087300414270493287 -0.23621591984828 0 0.10455021231068271 -0.24131403163333859 0 0.087300414270493287 -0.23621591984828 0 0.10455021231068271 -0.24131403163333859 0 0.099772196785810674 -0.22574879128380859 0 0.093519011585101702 -0.25447912996010402 0 0.10455021231068271 -0.24131403163333859 0 0.1011568964037072 -0.1538063213664396 0 0.1017771206471027 -0.13853432656927189 0 0.1144511230365485 -0.1461212361755857 0 0.1011568964037072 -0.1538063213664396 0 0.1017771206471027 -0.13853432656927189 0 0.088918005228860897 -0.14819092448199531 0 0.1017771206471027 -0.13853432656927189 0 0.089424410757421052 -0.13401395264206439 0 0.098171288762488984 -0.12099091530457209 0 0.1017771206471027 -0.13853432656927189 0 0.1137478430876453 -0.12985953023292521 0 0.098171288762488984 -0.12099091530457209 0 0.1017771206471027 -0.13853432656927189 0 0.1137478430876453 -0.12985953023292521 0 0.1144511230365485 -0.1461212361755857 0 0.1137478430876453 -0.12985953023292521 0 0.1248239659577738 -0.13700605534960969 0 0.1144511230365485 -0.1461212361755857 0 0.1137478430876453 -0.12985953023292521 0 0.1248239659577738 -0.13700605534960969 0 0.1289918112778406 -0.1223255163205285 0 0.1144511230365485 -0.1461212361755857 0 0.1141935186866615 -0.16222810283574271 0 0.125510316736793 -0.15294552589947011 0 0.1248239659577738 -0.13700605534960969 0 0.1144511230365485 -0.1461212361755857 0 0.125510316736793 -0.15294552589947011 0 0.1011568964037072 -0.1538063213664396 0 0.1144511230365485 -0.1461212361755857 0 0.1141935186866615 -0.16222810283574271 0 0.1141935186866615 -0.16222810283574271 0 0.12826344566929751 -0.1672781285469806 0 0.125510316736793 -0.15294552589947011 0 0.1141935186866615 -0.16222810283574271 0 0.1193316438546304 -0.1734454542743224 0 0.12826344566929751 -0.1672781285469806 0 0.1141935186866615 -0.16222810283574271 0 0.1193316438546304 -0.1734454542743224 0 0.10911592210982229 -0.17645927759007429 0 0.12403819291028111 -0.18380360999721981 0 0.1193316438546304 -0.1734454542743224 0 0.12826344566929751 -0.1672781285469806 0 0.12403819291028111 -0.18380360999721981 0 0.1193316438546304 -0.1734454542743224 0 0.10911592210982229 -0.17645927759007429 0 0.1091149537726108 -0.19031859724296379 0 0.12403819291028111 -0.18380360999721981 0 0.10911592210982229 -0.17645927759007429 0 0.090158925707272103 -0.18975049663898541 0 0.1091149537726108 -0.19031859724296379 0 0.098410900821044547 -0.17992257776077181 0 0.1091149537726108 -0.19031859724296379 0 0.10911592210982229 -0.17645927759007429 0 0.098410900821044547 -0.17992257776077181 0 0.10911592210982229 -0.17645927759007429 0 0.098410900821044547 -0.17992257776077181 0 0.097744151935697327 -0.16775037825323691 0 0.098410900821044547 -0.17992257776077181 0 0.097744151935697327 -0.16775037825323691 0 0.085920550579820273 -0.17533413907859879 0 0.1011568964037072 -0.1538063213664396 0 0.1141935186866615 -0.16222810283574271 0 0.097744151935697327 -0.16775037825323691 0 0.1141935186866615 -0.16222810283574271 0 0.10911592210982229 -0.17645927759007429 0 0.097744151935697327 -0.16775037825323691 0 0.1011568964037072 -0.1538063213664396 0 0.097744151935697327 -0.16775037825323691 0 0.090649539084807815 -0.15887137580806829 0 0.097744151935697327 -0.16775037825323691 0 0.090649539084807815 -0.15887137580806829 0 0.083489055950224655 -0.1664149392853301 0 0.097744151935697327 -0.16775037825323691 0 0.083489055950224655 -0.1664149392853301 0 0.085920550579820273 -0.17533413907859879 0 0.085920550579820273 -0.17533413907859879 0 0.071316195395861953 -0.16716574819803101 0 0.083489055950224655 -0.1664149392853301 0 0.085920550579820273 -0.17533413907859879 0 0.071316195395861953 -0.16716574819803101 0 0.090649539084807815 -0.15887137580806829 0 0.083489055950224655 -0.1664149392853301 0 0.081939585905548978 -0.15819431565333941 0 0.083489055950224655 -0.1664149392853301 0 0.081939585905548978 -0.15819431565333941 0 0.075647895007541141 -0.16221912603343039 0 0.090158925707272103 -0.18975049663898541 0 0.085920550579820273 -0.17533413907859879 0 0.071316195395861953 -0.16716574819803101 0 0.090158925707272103 -0.18975049663898541 0 0.071316195395861953 -0.16716574819803101 0 0.090158925707272103 -0.18975049663898541 0 0.074672878817104646 -0.18017288477969881 0 0.071316195395861953 -0.16716574819803101 0 0.090158925707272103 -0.18975049663898541 0 0.098410900821044547 -0.17992257776077181 0 0.085920550579820273 -0.17533413907859879 0 0.077592141929718694 -0.19089849969127581 0 0.090158925707272103 -0.18975049663898541 0 0.074672878817104646 -0.18017288477969881 0 0.069841847198591461 -0.1885946527054862 0 0.077592141929718694 -0.19089849969127581 0 0.074672878817104646 -0.18017288477969881 0 0.069841847198591461 -0.1885946527054862 0 0.074672878817104646 -0.18017288477969881 0 0.067898957861152048 -0.1817373408926834 0 0.074672878817104646 -0.18017288477969881 0 0.069887798942485757 -0.1780828155390399 0 0.067898957861152048 -0.1817373408926834 0 0.074672878817104646 -0.18017288477969881 0 0.070479150957026629 -0.17402514314115061 0 0.070575003344567011 -0.17141223109339471 0 0.074672878817104646 -0.18017288477969881 0 0.070575003344567011 -0.17141223109339471 0 0.071316195395861953 -0.16716574819803101 0 0.074672878817104646 -0.18017288477969881 0 0.070479150957026629 -0.17402514314115061 0 0.069887798942485757 -0.1780828155390399 0 0.070479150957026629 -0.17402514314115061 0 0.068006590192410954 -0.17249573251523209 0 0.066500208134659747 -0.17639589334262681 0 0.068006590192410954 -0.17249573251523209 0 0.066500208134659747 -0.17639589334262681 0 0.065072820048966723 -0.17172761992572311 0 0.070479150957026629 -0.17402514314115061 0 0.068006590192410954 -0.17249573251523209 0 0.070575003344567011 -0.17141223109339471 0 0.066500208134659747 -0.17639589334262681 0 0.065072820048966723 -0.17172761992572311 0 0.060716782291083973 -0.1751967687391045 0 0.066500208134659747 -0.17639589334262681 0 0.061114004859865977 -0.18136366647029051 0 0.060716782291083973 -0.1751967687391045 0 0.070479150957026629 -0.17402514314115061 0 0.069887798942485757 -0.1780828155390399 0 0.066500208134659747 -0.17639589334262681 0 0.069887798942485757 -0.1780828155390399 0 0.066500208134659747 -0.17639589334262681 0 0.067898957861152048 -0.1817373408926834 0 0.067898957861152048 -0.1817373408926834 0 0.063913690382049415 -0.1867017220366137 0 0.061114004859865977 -0.18136366647029051 0 0.066500208134659747 -0.17639589334262681 0 0.067898957861152048 -0.1817373408926834 0 0.061114004859865977 -0.18136366647029051 0 0.069841847198591461 -0.1885946527054862 0 0.067898957861152048 -0.1817373408926834 0 0.063913690382049415 -0.1867017220366137 0 0.075647895007541141 -0.16221912603343039 0 0.069943071852055186 -0.1596019233124629 0 0.075254090601104245 -0.15233446658573349 0 0.081939585905548978 -0.15819431565333941 0 0.075647895007541141 -0.16221912603343039 0 0.075254090601104245 -0.15233446658573349 0 0.071632055474391734 -0.163478279192281 0 0.075647895007541141 -0.16221912603343039 0 0.069943071852055186 -0.1596019233124629 0 0.071632055474391734 -0.163478279192281 0 0.069523736764027927 -0.16268056648414389 0 0.069943071852055186 -0.1596019233124629 0 0.083489055950224655 -0.1664149392853301 0 0.075647895007541141 -0.16221912603343039 0 0.071316195395861953 -0.16716574819803101 0 0.070575003344567011 -0.17141223109339471 0 0.071316195395861953 -0.16716574819803101 0 0.069477869729629937 -0.16891784892923051 0 0.071632055474391734 -0.163478279192281 0 0.075647895007541141 -0.16221912603343039 0 0.071316195395861953 -0.16716574819803101 0 0.071632055474391734 -0.163478279192281 0 0.071316195395861953 -0.16716574819803101 0 0.069523736764027927 -0.16268056648414389 0 0.071316195395861953 -0.16716574819803101 0 0.067849010187340852 -0.16804394714847659 0 0.064247378184382697 -0.16573340458441979 0 0.068006590192410954 -0.17249573251523209 0 0.070575003344567011 -0.17141223109339471 0 0.068017441624621922 -0.16974928031825989 0 0.070575003344567011 -0.17141223109339471 0 0.069477869729629937 -0.16891784892923051 0 0.068017441624621922 -0.16974928031825989 0 0.071316195395861953 -0.16716574819803101 0 0.069477869729629937 -0.16891784892923051 0 0.067849010187340852 -0.16804394714847659 0 0.069477869729629937 -0.16891784892923051 0 0.067849010187340852 -0.16804394714847659 0 0.068017441624621922 -0.16974928031825989 0 0.067849010187340852 -0.16804394714847659 0 0.068017441624621922 -0.16974928031825989 0 0.065738499815744214 -0.1687737626695546 0 0.068006590192410954 -0.17249573251523209 0 0.068017441624621922 -0.16974928031825989 0 0.065072820048966723 -0.17172761992572311 0 0.068017441624621922 -0.16974928031825989 0 0.065072820048966723 -0.17172761992572311 0 0.065738499815744214 -0.1687737626695546 0 0.065072820048966723 -0.17172761992572311 0 0.065738499815744214 -0.1687737626695546 0 0.06350584903340889 -0.16861456137089381 0 0.065072820048966723 -0.17172761992572311 0 0.06350584903340889 -0.16861456137089381 0 0.06165751297866804 -0.1709985602289206 0 0.067849010187340852 -0.16804394714847659 0 0.065738499815744214 -0.1687737626695546 0 0.064247378184382697 -0.16573340458441979 0 0.065738499815744214 -0.1687737626695546 0 0.06350584903340889 -0.16861456137089381 0 0.064247378184382697 -0.16573340458441979 0 0.06350584903340889 -0.16861456137089381 0 0.064247378184382697 -0.16573340458441979 0 0.060792558107785853 -0.16826998956963801 0 0.071316195395861953 -0.16716574819803101 0 0.066128419791206622 -0.16158476779983669 0 0.069523736764027927 -0.16268056648414389 0 0.066128419791206622 -0.16158476779983669 0 0.069523736764027927 -0.16268056648414389 0 0.069943071852055186 -0.1596019233124629 0 0.066128419791206622 -0.16158476779983669 0 0.069943071852055186 -0.1596019233124629 0 0.063194398549827835 -0.15767809989947479 0 0.069943071852055186 -0.1596019233124629 0 0.063194398549827835 -0.15767809989947479 0 0.066569105323723718 -0.15289498451621661 0 0.066569105323723718 -0.15289498451621661 0 0.067318790238479823 -0.14232776497509581 0 0.075254090601104245 -0.15233446658573349 0 0.063194398549827835 -0.15767809989947479 0 0.066569105323723718 -0.15289498451621661 0 0.058565079848170887 -0.15222187295306891 0 0.066569105323723718 -0.15289498451621661 0 0.067318790238479823 -0.14232776497509581 0 0.061583386156611047 -0.14800828318126799 0 0.067318790238479823 -0.14232776497509581 0 0.075254090601104245 -0.15233446658573349 0 0.078157844020382755 -0.1380817384870619 0 0.069943071852055186 -0.1596019233124629 0 0.066569105323723718 -0.15289498451621661 0 0.075254090601104245 -0.15233446658573349 0 0.081939585905548978 -0.15819431565333941 0 0.075254090601104245 -0.15233446658573349 0 0.088918005228860897 -0.14819092448199531 0 0.075254090601104245 -0.15233446658573349 0 0.088918005228860897 -0.14819092448199531 0 0.078157844020382755 -0.1380817384870619 0 0.1011568964037072 -0.1538063213664396 0 0.090649539084807815 -0.15887137580806829 0 0.088918005228860897 -0.14819092448199531 0 0.090649539084807815 -0.15887137580806829 0 0.081939585905548978 -0.15819431565333941 0 0.088918005228860897 -0.14819092448199531 0 0.089424410757421052 -0.13401395264206439 0 0.080097795128269977 -0.12427185836742061 0 0.098171288762488984 -0.12099091530457209 0 0.1017771206471027 -0.13853432656927189 0 0.088918005228860897 -0.14819092448199531 0 0.089424410757421052 -0.13401395264206439 0 0.088918005228860897 -0.14819092448199531 0 0.089424410757421052 -0.13401395264206439 0 0.078157844020382755 -0.1380817384870619 0 0.089424410757421052 -0.13401395264206439 0 0.078157844020382755 -0.1380817384870619 0 0.080097795128269977 -0.12427185836742061 0 0.078157844020382755 -0.1380817384870619 0 0.066458555107577061 -0.13111656362198379 0 0.080097795128269977 -0.12427185836742061 0 0.067318790238479823 -0.14232776497509581 0 0.078157844020382755 -0.1380817384870619 0 0.066458555107577061 -0.13111656362198379 0 0.067318790238479823 -0.14232776497509581 0 0.066458555107577061 -0.13111656362198379 0 0.05543473153420575 -0.1397547143034128 0 0.066458555107577061 -0.13111656362198379 0 0.054421500445741303 -0.12596373135642 0 0.05543473153420575 -0.1397547143034128 0 0.054421500445741303 -0.12596373135642 0 0.05543473153420575 -0.1397547143034128 0 0.042304222696807572 -0.13084831086893309 0 0.05543473153420575 -0.1397547143034128 0 0.045836975905200548 -0.14206399957385379 0 0.042304222696807572 -0.13084831086893309 0 0.05543473153420575 -0.1397547143034128 0 0.061583386156611047 -0.14800828318126799 0 0.055087500122368641 -0.14909928084343721 0 0.063194398549827835 -0.15767809989947479 0 0.058565079848170887 -0.15222187295306891 0 0.045361483314134379 -0.15264896667596711 0 0.067318790238479823 -0.14232776497509581 0 0.05543473153420575 -0.1397547143034128 0 0.061583386156611047 -0.14800828318126799 0 0.066569105323723718 -0.15289498451621661 0 0.061583386156611047 -0.14800828318126799 0 0.058565079848170887 -0.15222187295306891 0 0.061583386156611047 -0.14800828318126799 0 0.058565079848170887 -0.15222187295306891 0 0.055087500122368641 -0.14909928084343721 0 0.055087500122368641 -0.14909928084343721 0 0.050430172718977317 -0.14589174034916769 0 0.045361483314134379 -0.15264896667596711 0 0.058565079848170887 -0.15222187295306891 0 0.055087500122368641 -0.14909928084343721 0 0.045361483314134379 -0.15264896667596711 0 0.05543473153420575 -0.1397547143034128 0 0.055087500122368641 -0.14909928084343721 0 0.050430172718977317 -0.14589174034916769 0 0.050430172718977317 -0.14589174034916769 0 0.045836975905200548 -0.14206399957385379 0 0.045361483314134379 -0.15264896667596711 0 0.05543473153420575 -0.1397547143034128 0 0.050430172718977317 -0.14589174034916769 0 0.045836975905200548 -0.14206399957385379 0 0.045361483314134379 -0.15264896667596711 0 0.040070625388445212 -0.1586439650109584 0 0.02735132385660868 -0.15007991036825649 0 0.045836975905200548 -0.14206399957385379 0 0.045361483314134379 -0.15264896667596711 0 0.036248963170685752 -0.13942766029734241 0 0.045361483314134379 -0.15264896667596711 0 0.019406771232406989 -0.13813218515390319 0 0.045361483314134379 -0.15264896667596711 0 0.036248963170685752 -0.13942766029734241 0 0.019406771232406989 -0.13813218515390319 0 0.036248963170685752 -0.13942766029734241 0 0.042304222696807572 -0.13084831086893309 0 0.029723015665660549 -0.13188000705937691 0 0.042304222696807572 -0.13084831086893309 0 0.029723015665660549 -0.13188000705937691 0 0.033390132817925043 -0.1219845859994375 0 0.045836975905200548 -0.14206399957385379 0 0.036248963170685752 -0.13942766029734241 0 0.042304222696807572 -0.13084831086893309 0 0.047055639098014038 -0.1939724391147892 0 0.049537310498244357 -0.18475289705325371 0 0.045174425171285067 -0.17989004114019361 0 0.049537310498244357 -0.18475289705325371 0 0.049502510493395373 -0.1779108948018501 0 0.045174425171285067 -0.17989004114019361 0 0.049537310498244357 -0.18475289705325371 0 0.054366374859687712 -0.18200786380049361 0 0.049502510493395373 -0.1779108948018501 0 0.049537310498244357 -0.18475289705325371 0 0.054366374859687712 -0.18200786380049361 0 0.052976516990435582 -0.18579268394732279 0 0.051634467694274162 -0.18950190880559181 0 0.049537310498244357 -0.18475289705325371 0 0.052976516990435582 -0.18579268394732279 0 0.054366374859687712 -0.18200786380049361 0 0.052976516990435582 -0.18579268394732279 0 0.057702272552410207 -0.187468916734047 0 0.054366374859687712 -0.18200786380049361 0 0.057702272552410207 -0.187468916734047 0 0.061114004859865977 -0.18136366647029051 0 0.063913690382049415 -0.1867017220366137 0 0.057702272552410207 -0.187468916734047 0 0.061114004859865977 -0.18136366647029051 0 0.054366374859687712 -0.18200786380049361 0 0.061114004859865977 -0.18136366647029051 0 0.057539735097732053 -0.17848804964589521 0 0.054366374859687712 -0.18200786380049361 0 0.057539735097732053 -0.17848804964589521 0 0.054309361942183658 -0.17544102259727071 0 0.057539735097732053 -0.17848804964589521 0 0.060716782291083973 -0.1751967687391045 0 0.054309361942183658 -0.17544102259727071 0 0.061114004859865977 -0.18136366647029051 0 0.057539735097732053 -0.17848804964589521 0 0.060716782291083973 -0.1751967687391045 0 0.065072820048966723 -0.17172761992572311 0 0.060716782291083973 -0.1751967687391045 0 0.06165751297866804 -0.1709985602289206 0 0.060716782291083973 -0.1751967687391045 0 0.058199555412094733 -0.1711838615392435 0 0.06165751297866804 -0.1709985602289206 0 0.060716782291083973 -0.1751967687391045 0 0.054309361942183658 -0.17544102259727071 0 0.058199555412094733 -0.1711838615392435 0 0.054309361942183658 -0.17544102259727071 0 0.049502510493395373 -0.1779108948018501 0 0.049329399489413242 -0.17178021784280309 0 0.054309361942183658 -0.17544102259727071 0 0.049329399489413242 -0.17178021784280309 0 0.053942195009806043 -0.16872651082000459 0 0.054366374859687712 -0.18200786380049361 0 0.054309361942183658 -0.17544102259727071 0 0.049502510493395373 -0.1779108948018501 0 0.049502510493395373 -0.1779108948018501 0 0.049329399489413242 -0.17178021784280309 0 0.044531750589259601 -0.17339879867364541 0 0.071316195395861953 -0.16716574819803101 0 0.064247378184382697 -0.16573340458441979 0 0.045361483314134379 -0.15264896667596711 0 0.066128419791206622 -0.16158476779983669 0 0.063194398549827835 -0.15767809989947479 0 0.045361483314134379 -0.15264896667596711 0 0.064247378184382697 -0.16573340458441979 0 0.045361483314134379 -0.15264896667596711 0 0.058216632039929918 -0.16434156441173681 0 0.071316195395861953 -0.16716574819803101 0 0.045361483314134379 -0.15264896667596711 0 0.071316195395861953 -0.16716574819803101 0 0.066128419791206622 -0.16158476779983669 0 0.045361483314134379 -0.15264896667596711 0 0.049329399489413242 -0.17178021784280309 0 0.050264807411237032 -0.16762646824731431 0 0.045252228623185092 -0.1661952419355695 0 0.050264807411237032 -0.16762646824731431 0 0.051014644863934172 -0.1633724950634706 0 0.045252228623185092 -0.1661952419355695 0 0.053942195009806043 -0.16872651082000459 0 0.051014644863934172 -0.1633724950634706 0 0.054578547373692513 -0.16365536584139539 0 0.050264807411237032 -0.16762646824731431 0 0.053942195009806043 -0.16872651082000459 0 0.051014644863934172 -0.1633724950634706 0 0.049329399489413242 -0.17178021784280309 0 0.050264807411237032 -0.16762646824731431 0 0.053942195009806043 -0.16872651082000459 0 0.054309361942183658 -0.17544102259727071 0 0.053942195009806043 -0.16872651082000459 0 0.058199555412094733 -0.1711838615392435 0 0.053942195009806043 -0.16872651082000459 0 0.058199555412094733 -0.1711838615392435 0 0.057145897588661808 -0.16723545843640361 0 0.058199555412094733 -0.1711838615392435 0 0.060792558107785853 -0.16826998956963801 0 0.057145897588661808 -0.16723545843640361 0 0.058199555412094733 -0.1711838615392435 0 0.060792558107785853 -0.16826998956963801 0 0.06165751297866804 -0.1709985602289206 0 0.06350584903340889 -0.16861456137089381 0 0.060792558107785853 -0.16826998956963801 0 0.06165751297866804 -0.1709985602289206 0 0.064247378184382697 -0.16573340458441979 0 0.060792558107785853 -0.16826998956963801 0 0.058216632039929918 -0.16434156441173681 0 0.060792558107785853 -0.16826998956963801 0 0.058216632039929918 -0.16434156441173681 0 0.057145897588661808 -0.16723545843640361 0 0.058216632039929918 -0.16434156441173681 0 0.057145897588661808 -0.16723545843640361 0 0.054578547373692513 -0.16365536584139539 0 0.053942195009806043 -0.16872651082000459 0 0.057145897588661808 -0.16723545843640361 0 0.054578547373692513 -0.16365536584139539 0 0.045361483314134379 -0.15264896667596711 0 0.051014644863934172 -0.1633724950634706 0 0.045424745547424712 -0.1602151671714914 0 0.045361483314134379 -0.15264896667596711 0 0.058216632039929918 -0.16434156441173681 0 0.054578547373692513 -0.16365536584139539 0 0.045361483314134379 -0.15264896667596711 0 0.051014644863934172 -0.1633724950634706 0 0.054578547373692513 -0.16365536584139539 0 0.051014644863934172 -0.1633724950634706 0 0.045424745547424712 -0.1602151671714914 0 0.045252228623185092 -0.1661952419355695 0 0.045361483314134379 -0.15264896667596711 0 0.045424745547424712 -0.1602151671714914 0 0.040070625388445212 -0.1586439650109584 0 0.045424745547424712 -0.1602151671714914 0 0.040070625388445212 -0.1586439650109584 0 0.045252228623185092 -0.1661952419355695 0 0.040070625388445212 -0.1586439650109584 0 0.035244915177511979 -0.16941517605742931 0 0.027318727136446841 -0.16195169576244001 0 0.040070625388445212 -0.1586439650109584 0 0.035244915177511979 -0.16941517605742931 0 0.045252228623185092 -0.1661952419355695 0 0.035244915177511979 -0.16941517605742931 0 0.045252228623185092 -0.1661952419355695 0 0.044531750589259601 -0.17339879867364541 0 0.049329399489413242 -0.17178021784280309 0 0.045252228623185092 -0.1661952419355695 0 0.044531750589259601 -0.17339879867364541 0 0.038562449282376302 -0.18856737755128561 0 0.047055639098014038 -0.1939724391147892 0 0.035244915177511979 -0.16941517605742931 0 0.047055639098014038 -0.1939724391147892 0 0.035244915177511979 -0.16941517605742931 0 0.045174425171285067 -0.17989004114019361 0 0.038562449282376302 -0.18856737755128561 0 0.035244915177511979 -0.16941517605742931 0 0.032400657481605352 -0.18353716648777371 0 0.047055639098014038 -0.1939724391147892 0 0.035244915177511979 -0.16941517605742931 0 0.035244915177511979 -0.16941517605742931 0 0.044531750589259601 -0.17339879867364541 0 0.045174425171285067 -0.17989004114019361 0 0.049502510493395373 -0.1779108948018501 0 0.044531750589259601 -0.17339879867364541 0 0.045174425171285067 -0.17989004114019361 0 0.025074747783813939 -0.1894908183482624 0 0.025870367421762391 -0.17755854670470961 0 0.01519861233689525 -0.17818919576554049 0 0.01129710900053809 -0.19059964746801619 0 0.025074747783813939 -0.1894908183482624 0 0.01519861233689525 -0.17818919576554049 0 0.025074747783813939 -0.1894908183482624 0 0.032400657481605352 -0.18353716648777371 0 0.025870367421762391 -0.17755854670470961 0 0.035244915177511979 -0.16941517605742931 0 0.032400657481605352 -0.18353716648777371 0 0.025870367421762391 -0.17755854670470961 0 0.025870367421762391 -0.17755854670470961 0 0.021432904328985449 -0.16716037686454219 0 0.01519861233689525 -0.17818919576554049 0 0.040070625388445212 -0.1586439650109584 0 0.027318727136446841 -0.16195169576244001 0 0.01252646365084472 -0.15258726511682991 0 0.035244915177511979 -0.16941517605742931 0 0.021432904328985449 -0.16716037686454219 0 0.027318727136446841 -0.16195169576244001 0 0.035244915177511979 -0.16941517605742931 0 0.025870367421762391 -0.17755854670470961 0 0.021432904328985449 -0.16716037686454219 0 0.021432904328985449 -0.16716037686454219 0 0.027318727136446841 -0.16195169576244001 0 0.01252646365084472 -0.15258726511682991 0 0.021432904328985449 -0.16716037686454219 0 0.0084008210962419824 -0.16510625821470359 0 0.01252646365084472 -0.15258726511682991 0 -0.0021876112663072578 -0.15798446653076381 0 0.0084008210962419824 -0.16510625821470359 0 0.01252646365084472 -0.15258726511682991 0 -0.0021876112663072578 -0.15798446653076381 0 -0.0043931643207690656 -0.1666921578166749 0 0.0084008210962419824 -0.16510625821470359 0 -0.0043931643207690656 -0.1666921578166749 0 0.0084008210962419824 -0.16510625821470359 0 0.002600368018374051 -0.1781835494704333 0 0.021432904328985449 -0.16716037686454219 0 0.0084008210962419824 -0.16510625821470359 0 0.01519861233689525 -0.17818919576554049 0 0.0084008210962419824 -0.16510625821470359 0 0.01519861233689525 -0.17818919576554049 0 0.002600368018374051 -0.1781835494704333 0 -0.0036465812241667779 -0.18931108225399881 0 0.01129710900053809 -0.19059964746801619 0 0.002600368018374051 -0.1781835494704333 0 0.01129710900053809 -0.19059964746801619 0 0.01519861233689525 -0.17818919576554049 0 0.002600368018374051 -0.1781835494704333 0 0.016883338936998941 -0.12754347663212681 0 0.029723015665660549 -0.13188000705937691 0 0.033390132817925043 -0.1219845859994375 0 0.036248963170685752 -0.13942766029734241 0 0.019406771232406989 -0.13813218515390319 0 0.029723015665660549 -0.13188000705937691 0 0.019406771232406989 -0.13813218515390319 0 0.016883338936998941 -0.12754347663212681 0 0.014246622273538709 -0.14197376867321229 0 0.019406771232406989 -0.13813218515390319 0 0.016883338936998941 -0.12754347663212681 0 0.029723015665660549 -0.13188000705937691 0 0.040070625388445212 -0.1586439650109584 0 0.02735132385660868 -0.15007991036825649 0 0.01252646365084472 -0.15258726511682991 0 0.040070625388445212 -0.1586439650109584 0 0.01252646365084472 -0.15258726511682991 0 0.045361483314134379 -0.15264896667596711 0 0.019406771232406989 -0.13813218515390319 0 0.02735132385660868 -0.15007991036825649 0 0.02735132385660868 -0.15007991036825649 0 0.01828596575015223 -0.14615992265588049 0 0.01252646365084472 -0.15258726511682991 0 0.019406771232406989 -0.13813218515390319 0 0.02735132385660868 -0.15007991036825649 0 0.01828596575015223 -0.14615992265588049 0 0.019406771232406989 -0.13813218515390319 0 0.01828596575015223 -0.14615992265588049 0 0.014246622273538709 -0.14197376867321229 0 0.014246622273538709 -0.14197376867321229 0 0.01252646365084472 -0.15258726511682991 0 0.0041305717972906809 -0.1454459938073209 0 0.01828596575015223 -0.14615992265588049 0 0.014246622273538709 -0.14197376867321229 0 0.01252646365084472 -0.15258726511682991 0 -0.01501769808675628 -0.146530565222703 0 0.01252646365084472 -0.15258726511682991 0 0.0041305717972906809 -0.1454459938073209 0 0.016883338936998941 -0.12754347663212681 0 0.014246622273538709 -0.14197376867321229 0 0.0041305717972906809 -0.1454459938073209 0 -0.0019404310547477179 -0.13265418859280839 0 0.016883338936998941 -0.12754347663212681 0 0.01113683597726017 -0.1187778119629132 0 -0.0019404310547477179 -0.13265418859280839 0 0.016883338936998941 -0.12754347663212681 0 0.0041305717972906809 -0.1454459938073209 0 0.016883338936998941 -0.12754347663212681 0 0.0041305717972906809 -0.1454459938073209 0 -0.0019404310547477179 -0.13265418859280839 0 0.01113683597726017 -0.1187778119629132 0 -0.0018458120868778921 -0.12033927360542369 0 -0.0019404310547477179 -0.13265418859280839 0 0.01113683597726017 -0.1187778119629132 0 -0.0018458120868778921 -0.12033927360542369 0 0.0023032816237074918 -0.11206378985153879 0 0.01113683597726017 -0.1187778119629132 0 0.01113683597726017 -0.1187778119629132 0 0.017541704532181238 -0.1128678186016884 0 0.01091261934755698 -0.1080402885406771 0 0.0023032816237074918 -0.11206378985153879 0 0.01113683597726017 -0.1187778119629132 0 0.01091261934755698 -0.1080402885406771 0 0.016883338936998941 -0.12754347663212681 0 0.01113683597726017 -0.1187778119629132 0 0.017541704532181238 -0.1128678186016884 0 0.016883338936998941 -0.12754347663212681 0 0.029636106076707198 -0.1096409594569327 0 0.033390132817925043 -0.1219845859994375 0 0.016883338936998941 -0.12754347663212681 0 0.017541704532181238 -0.1128678186016884 0 0.029636106076707198 -0.1096409594569327 0 0.016883338936998941 -0.12754347663212681 0 0.029636106076707198 -0.1096409594569327 0 0.029636106076707198 -0.1096409594569327 0 0.019139622322382921 -0.10033655641579201 0 0.02666186248244095 -0.09245131528586463 0 0.019139622322382921 -0.10033655641579201 0 0.010934851748465041 -0.093164188289987279 0 0.02666186248244095 -0.09245131528586463 0 0.017541704532181238 -0.1128678186016884 0 0.019139622322382921 -0.10033655641579201 0 0.01091261934755698 -0.1080402885406771 0 0.017541704532181238 -0.1128678186016884 0 0.029636106076707198 -0.1096409594569327 0 0.019139622322382921 -0.10033655641579201 0 0.019139622322382921 -0.10033655641579201 0 0.0087961792751421186 -0.10002296672827921 0 0.010934851748465041 -0.093164188289987279 0 0.0087961792751421186 -0.10002296672827921 0 0.0064508281501982631 -0.094927844536138881 0 0.010934851748465041 -0.093164188289987279 0 0.019139622322382921 -0.10033655641579201 0 0.0087961792751421186 -0.10002296672827921 0 0.01091261934755698 -0.1080402885406771 0 0.0087961792751421186 -0.10002296672827921 0 0.01091261934755698 -0.1080402885406771 0 0.0039195102152264436 -0.1047884258796013 0 0.0023032816237074918 -0.11206378985153879 0 0.01091261934755698 -0.1080402885406771 0 0.0039195102152264436 -0.1047884258796013 0 -0.00333287263979966 -0.1047378732862483 0 0.0039195102152264436 -0.1047884258796013 0 0.001920944264520855 -0.098683782423694716 0 -0.00333287263979966 -0.1047378732862483 0 0.0023032816237074918 -0.11206378985153879 0 0.0039195102152264436 -0.1047884258796013 0 0.0087961792751421186 -0.10002296672827921 0 0.0039195102152264436 -0.1047884258796013 0 0.001920944264520855 -0.098683782423694716 0 0.0087961792751421186 -0.10002296672827921 0 0.0064508281501982631 -0.094927844536138881 0 0.001920944264520855 -0.098683782423694716 0 0.0064508281501982631 -0.094927844536138881 0 0.001920944264520855 -0.098683782423694716 0 0.001469916082576286 -0.092579802972193065 0 0.001469916082576286 -0.092579802972193065 0 0.0077268746433823404 -0.090281485065366485 0 0.0014602778350073331 -0.087593538843067337 0 0.0077268746433823404 -0.090281485065366485 0 0.002424066089086858 -0.079267165279983537 0 0.013558213437179511 -0.06793076601033099 0 0.0077268746433823404 -0.090281485065366485 0 0.013558213437179511 -0.06793076601033099 0 0.0077268746433823404 -0.090281485065366485 0 0.013558213437179511 -0.06793076601033099 0 0.0169665229126864 -0.078305033604958746 0 0.0064508281501982631 -0.094927844536138881 0 0.001469916082576286 -0.092579802972193065 0 0.0077268746433823404 -0.090281485065366485 0 0.0077268746433823404 -0.090281485065366485 0 0.0014602778350073331 -0.087593538843067337 0 0.002424066089086858 -0.079267165279983537 0 0.0077268746433823404 -0.090281485065366485 0 0.01517333064109362 -0.085748816678112336 0 0.0169665229126864 -0.078305033604958746 0 0.01517333064109362 -0.085748816678112336 0 0.010934851748465041 -0.093164188289987279 0 0.02021371582507217 -0.087596796919793052 0 0.0064508281501982631 -0.094927844536138881 0 0.0077268746433823404 -0.090281485065366485 0 0.010934851748465041 -0.093164188289987279 0 0.0077268746433823404 -0.090281485065366485 0 0.01517333064109362 -0.085748816678112336 0 0.010934851748465041 -0.093164188289987279 0 0.0019642167837423809 -0.068240051189366921 0 0.013558213437179511 -0.06793076601033099 0 0.0058110199031525924 -0.058921762985332339 0 -0.0039602916157648153 -0.062265683657639848 0 0.0019642167837423809 -0.068240051189366921 0 0.0058110199031525924 -0.058921762985332339 0 0.002424066089086858 -0.079267165279983537 0 0.0019642167837423809 -0.068240051189366921 0 0.013558213437179511 -0.06793076601033099 0 0.019574936676218579 -0.068338401279855798 0 0.042671588693483427 -0.061555417581623369 0 0.013558213437179511 -0.06793076601033099 0 0.019574936676218579 -0.068338401279855798 0 0.02723165451374442 -0.056730241791898263 0 0.019574936676218579 -0.068338401279855798 0 0.023404894745223861 -0.077643341875654331 0 0.0169665229126864 -0.078305033604958746 0 0.013558213437179511 -0.06793076601033099 0 0.019574936676218579 -0.068338401279855798 0 0.0169665229126864 -0.078305033604958746 0 0.019574936676218579 -0.068338401279855798 0 0.023404894745223861 -0.077643341875654331 0 0.033597977925983513 -0.075639772355069329 0 0.010934851748465041 -0.093164188289987279 0 0.02666186248244095 -0.09245131528586463 0 0.010934851748465041 -0.093164188289987279 0 0.02021371582507217 -0.087596796919793052 0 0.02666186248244095 -0.09245131528586463 0 0.01517333064109362 -0.085748816678112336 0 0.02021371582507217 -0.087596796919793052 0 0.020441373122225021 -0.081956362613028105 0 0.01517333064109362 -0.085748816678112336 0 0.0169665229126864 -0.078305033604958746 0 0.020441373122225021 -0.081956362613028105 0 0.023404894745223861 -0.077643341875654331 0 0.0169665229126864 -0.078305033604958746 0 0.020441373122225021 -0.081956362613028105 0 0.02021371582507217 -0.087596796919793052 0 0.020441373122225021 -0.081956362613028105 0 0.02785716113113625 -0.084663301731972895 0 0.023404894745223861 -0.077643341875654331 0 0.02785716113113625 -0.084663301731972895 0 0.033597977925983513 -0.075639772355069329 0 0.023404894745223861 -0.077643341875654331 0 0.020441373122225021 -0.081956362613028105 0 0.02785716113113625 -0.084663301731972895 0 0.02021371582507217 -0.087596796919793052 0 0.02785716113113625 -0.084663301731972895 0 0.02666186248244095 -0.09245131528586463 0 0.02785716113113625 -0.084663301731972895 0 0.042388873216416739 -0.091738442281739455 0 0.033597977925983513 -0.075639772355069329 0 0.02666186248244095 -0.09245131528586463 0 0.042388873216416739 -0.091738442281739455 0 0.02785716113113625 -0.084663301731972895 0 0.02666186248244095 -0.09245131528586463 0 0.042388873216416739 -0.091738442281739455 0 0.042388873216416739 -0.091738442281739455 0 0.033597977925983513 -0.075639772355069329 0 0.043799114968079422 -0.075202324882172392 0 0.019574936676218579 -0.068338401279855798 0 0.033597977925983513 -0.075639772355069329 0 0.042671588693483427 -0.061555417581623369 0 0.033597977925983513 -0.075639772355069329 0 0.043799114968079422 -0.075202324882172392 0 0.042671588693483427 -0.061555417581623369 0 0.056538020036433961 -0.071875667310257393 0 0.042671588693483427 -0.061555417581623369 0 0.065768240710748271 -0.054772433883390953 0 0.043799114968079422 -0.075202324882172392 0 0.056538020036433961 -0.071875667310257393 0 0.042671588693483427 -0.061555417581623369 0 0.042388873216416739 -0.091738442281739455 0 0.06820452824267087 -0.090568271811125978 0 0.042388873216416739 -0.091738442281739455 0 0.056538020036433961 -0.071875667310257393 0 0.042388873216416739 -0.091738442281739455 0 0.056538020036433961 -0.071875667310257393 0 0.06820452824267087 -0.090568271811125978 0 0.042388873216416739 -0.091738442281739455 0 0.043799114968079422 -0.075202324882172392 0 0.056538020036433961 -0.071875667310257393 0 0.042388873216416739 -0.091738442281739455 0 0.060176683531039193 -0.10363744764324601 0 0.06820452824267087 -0.090568271811125978 0 0.042388873216416739 -0.091738442281739455 0 0.060176683531039193 -0.10363744764324601 0 0.046004160942114188 -0.1136308516839781 0 0.054421500445741303 -0.12596373135642 0 0.046004160942114188 -0.1136308516839781 0 0.063320669278382841 -0.1162995742424921 0 0.054421500445741303 -0.12596373135642 0 0.042304222696807572 -0.13084831086893309 0 0.046004160942114188 -0.1136308516839781 0 0.060176683531039193 -0.10363744764324601 0 0.046004160942114188 -0.1136308516839781 0 0.063320669278382841 -0.1162995742424921 0 0.066458555107577061 -0.13111656362198379 0 0.054421500445741303 -0.12596373135642 0 0.063320669278382841 -0.1162995742424921 0 0.042304222696807572 -0.13084831086893309 0 0.046004160942114188 -0.1136308516839781 0 0.033390132817925043 -0.1219845859994375 0 0.029636106076707198 -0.1096409594569327 0 0.046004160942114188 -0.1136308516839781 0 0.033390132817925043 -0.1219845859994375 0 0.029636106076707198 -0.1096409594569327 0 0.042388873216416739 -0.091738442281739455 0 0.029636106076707198 -0.1096409594569327 0 0.042388873216416739 -0.091738442281739455 0 0.046004160942114188 -0.1136308516839781 0 0.029636106076707198 -0.1096409594569327 0 0.02666186248244095 -0.09245131528586463 0 0.042388873216416739 -0.091738442281739455 0 0.017048673377461451 0.0079426142550743165 0 0.03105222981857109 -0.0008786088452242824 0 0.01429713295265852 -0.0083895552418190803 0 0.03105222981857109 -0.0008786088452242824 0 0.01429713295265852 -0.0083895552418190803 0 0.025220891024773869 -0.023229327900259961 0 0.03105222981857109 -0.0008786088452242824 0 0.025220891024773869 -0.023229327900259961 0 -0.0060991833155395643 -8.9340787780604891e-05 0 0.01429713295265852 -0.0083895552418190803 0 0.002201472470244434 -0.02866876371560861 0 -0.0060991833155395643 -8.9340787780604891e-05 0 0.017048673377461451 0.0079426142550743165 0 0.01429713295265852 -0.0083895552418190803 0 0.01429713295265852 -0.0083895552418190803 0 0.002201472470244434 -0.02866876371560861 0 0.025220891024773869 -0.023229327900259961 0 0.025220891024773869 -0.023229327900259961 0 0.01938955223097668 -0.045580046955295522 0 0.025220891024773869 -0.023229327900259961 0 0.01938955223097668 -0.045580046955295522 0 0.040963981530863891 -0.040246577132385573 0 -0.0016479949996232549 -0.050446966672088263 0 0.002201472470244434 -0.02866876371560861 0 0.01938955223097668 -0.045580046955295522 0 0.002201472470244434 -0.02866876371560861 0 0.025220891024773869 -0.023229327900259961 0 0.01938955223097668 -0.045580046955295522 0 -0.0016479949996232549 -0.050446966672088263 0 0.01938955223097668 -0.045580046955295522 0 0.0058110199031525924 -0.058921762985332339 0 0.013558213437179511 -0.06793076601033099 0 0.01938955223097668 -0.045580046955295522 0 0.0058110199031525924 -0.058921762985332339 0 -0.0016479949996232549 -0.050446966672088263 0 -0.0039602916157648153 -0.062265683657639848 0 0.0058110199031525924 -0.058921762985332339 0 0.019574936676218579 -0.068338401279855798 0 0.02723165451374442 -0.056730241791898263 0 0.042671588693483427 -0.061555417581623369 0 0.01938955223097668 -0.045580046955295522 0 0.02723165451374442 -0.056730241791898263 0 0.040963981530863891 -0.040246577132385573 0 0.013558213437179511 -0.06793076601033099 0 0.01938955223097668 -0.045580046955295522 0 0.013558213437179511 -0.06793076601033099 0 0.01938955223097668 -0.045580046955295522 0 0.02723165451374442 -0.056730241791898263 0 0.02723165451374442 -0.056730241791898263 0 0.042671588693483427 -0.061555417581623369 0 0.040963981530863891 -0.040246577132385573 0 0.042671588693483427 -0.061555417581623369 0 0.051737769131590103 -0.049712003238049689 0 0.040963981530863891 -0.040246577132385573 0 0.042671588693483427 -0.061555417581623369 0 0.065768240710748271 -0.054772433883390953 0 0.042671588693483427 -0.061555417581623369 0 0.051737769131590103 -0.049712003238049689 0 0.065768240710748271 -0.054772433883390953 0 0.051737769131590103 -0.049712003238049689 0 0.063275139558610166 -0.039704218150388902 0 0.065768240710748271 -0.054772433883390953 0 0.040963981530863891 -0.040246577132385573 0 0.05587219637096387 -0.025288950404922021 0 0.063275139558610166 -0.039704218150388902 0 0.051737769131590103 -0.049712003238049689 0 0.040963981530863891 -0.040246577132385573 0 0.063275139558610166 -0.039704218150388902 0 0.025220891024773869 -0.023229327900259961 0 0.040963981530863891 -0.040246577132385573 0 0.040919859200706343 -0.019335726893473161 0 0.040963981530863891 -0.040246577132385573 0 0.040919859200706343 -0.019335726893473161 0 0.05587219637096387 -0.025288950404922021 0 0.040919859200706343 -0.019335726893473161 0 0.05587219637096387 -0.025288950404922021 0 0.051489997258358969 -0.0070351701845739372 0 0.066317762399445576 0.0043892815254785167 0 0.051489997258358969 -0.0070351701845739372 0 0.065271272437265757 -0.01311543587553401 0 0.05587219637096387 -0.025288950404922021 0 0.051489997258358969 -0.0070351701845739372 0 0.065271272437265757 -0.01311543587553401 0 0.03105222981857109 -0.0008786088452242824 0 0.040919859200706343 -0.019335726893473161 0 0.051489997258358969 -0.0070351701845739372 0 0.03105222981857109 -0.0008786088452242824 0 0.025220891024773869 -0.023229327900259961 0 0.040919859200706343 -0.019335726893473161 0 0.086626109984082864 0.0087739812618877148 0 0.081532356514722987 -0.0108093011453232 0 0.10448182883083849 -0.0074166645345203897 0 0.066317762399445576 0.0043892815254785167 0 0.081532356514722987 -0.0108093011453232 0 0.066317762399445576 0.0043892815254785167 0 0.081532356514722987 -0.0108093011453232 0 0.065271272437265757 -0.01311543587553401 0 0.081532356514722987 -0.0108093011453232 0 0.065271272437265757 -0.01311543587553401 0 0.075260468039929362 -0.02715253992957525 0 0.05587219637096387 -0.025288950404922021 0 0.065271272437265757 -0.01311543587553401 0 0.075260468039929362 -0.02715253992957525 0 0.05587219637096387 -0.025288950404922021 0 0.075260468039929362 -0.02715253992957525 0 0.063275139558610166 -0.039704218150388902 0 0.081532356514722987 -0.0108093011453232 0 0.075260468039929362 -0.02715253992957525 0 0.096746950630000356 -0.026007883816124878 0 0.081532356514722987 -0.0108093011453232 0 0.096746950630000356 -0.026007883816124878 0 0.075260468039929362 -0.02715253992957525 0 0.088864892728013123 -0.047989450185158523 0 0.096746950630000356 -0.026007883816124878 0 0.075260468039929362 -0.02715253992957525 0 0.063275139558610166 -0.039704218150388902 0 0.088864892728013123 -0.047989450185158523 0 0.063275139558610166 -0.039704218150388902 0 0.065768240710748271 -0.054772433883390953 0 0.088864892728013123 -0.047989450185158523 0 0.065768240710748271 -0.054772433883390953 0 0.088864892728013123 -0.047989450185158523 0 0.065768240710748271 -0.054772433883390953 0 0.088864892728013123 -0.047989450185158523 0 0.077400551832562059 -0.071473110907876697 0 0.088864892728013123 -0.047989450185158523 0 0.077400551832562059 -0.071473110907876697 0 0.095989445844817015 -0.067524072237136218 0 0.088864892728013123 -0.047989450185158523 0 0.1080951308722238 -0.057542540594520908 0 0.111961544745278 -0.041206466486926267 0 0.088864892728013123 -0.047989450185158523 0 0.1080951308722238 -0.057542540594520908 0 0.095989445844817015 -0.067524072237136218 0 0.1080951308722238 -0.057542540594520908 0 0.111961544745278 -0.041206466486926267 0 0.1269044467054426 -0.056133642924397389 0 0.111961544745278 -0.041206466486926267 0 0.1269044467054426 -0.056133642924397389 0 0.111961544745278 -0.041206466486926267 0 0.13528509547928569 -0.034356847576989979 0 0.1269044467054426 -0.056133642924397389 0 0.111961544745278 -0.041206466486926267 0 0.1138213933762605 -0.024950050510490009 0 0.13528509547928569 -0.034356847576989979 0 0.111961544745278 -0.041206466486926267 0 0.13528509547928569 -0.034356847576989979 0 0.088864892728013123 -0.047989450185158523 0 0.111961544745278 -0.041206466486926267 0 0.088864892728013123 -0.047989450185158523 0 0.111961544745278 -0.041206466486926267 0 0.096746950630000356 -0.026007883816124878 0 0.111961544745278 -0.041206466486926267 0 0.096746950630000356 -0.026007883816124878 0 0.096746950630000356 -0.026007883816124878 0 0.1138213933762605 -0.024950050510490009 0 0.10448182883083849 -0.0074166645345203897 0 0.111961544745278 -0.041206466486926267 0 0.096746950630000356 -0.026007883816124878 0 0.1138213933762605 -0.024950050510490009 0 0.1138213933762605 -0.024950050510490009 0 0.10448182883083849 -0.0074166645345203897 0 0.12568763314203429 -0.01463695139876758 0 0.1138213933762605 -0.024950050510490009 0 0.12568763314203429 -0.01463695139876758 0 0.13528509547928569 -0.034356847576989979 0 0.12313387866373759 0.0035515711970952281 0 0.10448182883083849 -0.0074166645345203897 0 0.12568763314203429 -0.01463695139876758 0 0.081532356514722987 -0.0108093011453232 0 0.096746950630000356 -0.026007883816124878 0 0.10448182883083849 -0.0074166645345203897 0 0.080965185975611309 -0.10595009819689449 0 0.06820452824267087 -0.090568271811125978 0 0.094020183268924973 -0.089398101340509975 0 0.080965185975611309 -0.10595009819689449 0 0.080097795128269977 -0.12427185836742061 0 0.098171288762488984 -0.12099091530457209 0 0.080965185975611309 -0.10595009819689449 0 0.080097795128269977 -0.12427185836742061 0 0.063320669278382841 -0.1162995742424921 0 0.066458555107577061 -0.13111656362198379 0 0.080097795128269977 -0.12427185836742061 0 0.063320669278382841 -0.1162995742424921 0 0.060176683531039193 -0.10363744764324601 0 0.080965185975611309 -0.10595009819689449 0 0.06820452824267087 -0.090568271811125978 0 0.060176683531039193 -0.10363744764324601 0 0.080965185975611309 -0.10595009819689449 0 0.063320669278382841 -0.1162995742424921 0 0.056538020036433961 -0.071875667310257393 0 0.065768240710748271 -0.054772433883390953 0 0.077400551832562059 -0.071473110907876697 0 0.056538020036433961 -0.071875667310257393 0 0.06820452824267087 -0.090568271811125978 0 0.077400551832562059 -0.071473110907876697 0 0.077400551832562059 -0.071473110907876697 0 0.094020183268924973 -0.089398101340509975 0 0.095989445844817015 -0.067524072237136218 0 0.06820452824267087 -0.090568271811125978 0 0.077400551832562059 -0.071473110907876697 0 0.094020183268924973 -0.089398101340509975 0 0.06820452824267087 -0.090568271811125978 0 0.094020183268924973 -0.089398101340509975 0 0.094020183268924973 -0.089398101340509975 0 0.1116218941018939 -0.07504326293644098 0 0.10721525088973891 -0.099484712002166881 0 0.094020183268924973 -0.089398101340509975 0 0.095989445844817015 -0.067524072237136218 0 0.1116218941018939 -0.07504326293644098 0 0.1080951308722238 -0.057542540594520908 0 0.095989445844817015 -0.067524072237136218 0 0.1116218941018939 -0.07504326293644098 0 0.1116218941018939 -0.07504326293644098 0 0.12813498646188751 -0.078276512586333544 0 0.1269044467054426 -0.056133642924397389 0 0.1080951308722238 -0.057542540594520908 0 0.1116218941018939 -0.07504326293644098 0 0.1269044467054426 -0.056133642924397389 0 0.1116218941018939 -0.07504326293644098 0 0.1229756392986403 -0.09491515814787381 0 0.12813498646188751 -0.078276512586333544 0 0.1116218941018939 -0.07504326293644098 0 0.1229756392986403 -0.09491515814787381 0 0.10721525088973891 -0.099484712002166881 0 0.1229756392986403 -0.09491515814787381 0 0.11543151493603999 -0.11369447820245809 0 0.12979043803620549 -0.10745303533373191 0 0.1229756392986403 -0.09491515814787381 0 0.10721525088973891 -0.099484712002166881 0 0.11543151493603999 -0.11369447820245809 0 0.080965185975611309 -0.10595009819689449 0 0.094020183268924973 -0.089398101340509975 0 0.10721525088973891 -0.099484712002166881 0 0.080965185975611309 -0.10595009819689449 0 0.10721525088973891 -0.099484712002166881 0 0.098171288762488984 -0.12099091530457209 0 0.1137478430876453 -0.12985953023292521 0 0.098171288762488984 -0.12099091530457209 0 0.11543151493603999 -0.11369447820245809 0 0.10721525088973891 -0.099484712002166881 0 0.098171288762488984 -0.12099091530457209 0 0.11543151493603999 -0.11369447820245809 0 0.1137478430876453 -0.12985953023292521 0 0.11543151493603999 -0.11369447820245809 0 0.1289918112778406 -0.1223255163205285 0 0.11543151493603999 -0.11369447820245809 0 0.1289918112778406 -0.1223255163205285 0 0.12979043803620549 -0.10745303533373191 0 0.1289918112778406 -0.1223255163205285 0 0.1403014630052184 -0.11323443280349869 0 0.12979043803620549 -0.10745303533373191 0 0.1289918112778406 -0.1223255163205285 0 0.1403014630052184 -0.11323443280349869 0 0.14247126911296351 -0.12285343516881959 0 0.1403014630052184 -0.11323443280349869 0 0.14247126911296351 -0.12285343516881959 0 0.15240429848654821 -0.1164025836975978 0 0.1403014630052184 -0.11323443280349869 0 0.15240429848654821 -0.1164025836975978 0 0.1480167272440662 -0.1092987776898009 0 0.15240429848654821 -0.1164025836975978 0 0.15589834833160529 -0.1059360926721391 0 0.1480167272440662 -0.1092987776898009 0 0.14247126911296351 -0.12285343516881959 0 0.15240429848654821 -0.1164025836975978 0 0.154547146583079 -0.1287000322213063 0 0.14994643246473299 -0.09824140109616919 0 0.15217050038854149 -0.091008666392005666 0 0.15862268311440861 -0.096742849603013686 0 0.14994643246473299 -0.09824140109616919 0 0.15589834833160529 -0.1059360926721391 0 0.15862268311440861 -0.096742849603013686 0 0.14994643246473299 -0.09824140109616919 0 0.15589834833160529 -0.1059360926721391 0 0.1480167272440662 -0.1092987776898009 0 0.1403014630052184 -0.11323443280349869 0 0.1480167272440662 -0.1092987776898009 0 0.14013423387368629 -0.1010732486105131 0 0.14994643246473299 -0.09824140109616919 0 0.1480167272440662 -0.1092987776898009 0 0.14013423387368629 -0.1010732486105131 0 0.14994643246473299 -0.09824140109616919 0 0.14013423387368629 -0.1010732486105131 0 0.14473662352031419 -0.090487779444962363 0 0.14013423387368629 -0.1010732486105131 0 0.13473947513773729 -0.090697794675587542 0 0.14473662352031419 -0.090487779444962363 0 0.14013423387368629 -0.1010732486105131 0 0.13190994658656741 -0.098534809191926587 0 0.13473947513773729 -0.090697794675587542 0 0.1403014630052184 -0.11323443280349869 0 0.14013423387368629 -0.1010732486105131 0 0.12979043803620549 -0.10745303533373191 0 0.14013423387368629 -0.1010732486105131 0 0.12979043803620549 -0.10745303533373191 0 0.13190994658656741 -0.098534809191926587 0 0.1229756392986403 -0.09491515814787381 0 0.12979043803620549 -0.10745303533373191 0 0.13190994658656741 -0.098534809191926587 0 0.1229756392986403 -0.09491515814787381 0 0.13190994658656741 -0.098534809191926587 0 0.13473947513773729 -0.090697794675587542 0 0.1229756392986403 -0.09491515814787381 0 0.12813498646188751 -0.078276512586333544 0 0.13473947513773729 -0.090697794675587542 0 0.12813498646188751 -0.078276512586333544 0 0.14004298920060509 -0.082821242417059182 0 0.13473947513773729 -0.090697794675587542 0 0.14004298920060509 -0.082821242417059182 0 0.13473947513773729 -0.090697794675587542 0 0.14473662352031419 -0.090487779444962363 0 0.12813498646188751 -0.078276512586333544 0 0.1418473486656075 -0.071060819361868227 0 0.1269044467054426 -0.056133642924397389 0 0.12813498646188751 -0.078276512586333544 0 0.14004298920060509 -0.082821242417059182 0 0.1418473486656075 -0.071060819361868227 0 0.1418473486656075 -0.071060819361868227 0 0.1269044467054426 -0.056133642924397389 0 0.1418473486656075 -0.071060819361868227 0 0.16023184502020571 -0.068157067835945245 0 0.15639510972772089 -0.076208614908978539 0 0.1418473486656075 -0.071060819361868227 0 0.14314350517334751 -0.054484290632537687 0 0.15075360677176691 -0.062193503524066447 0 0.1418473486656075 -0.071060819361868227 0 0.16023184502020571 -0.068157067835945245 0 0.15075360677176691 -0.062193503524066447 0 0.1418473486656075 -0.071060819361868227 0 0.15679025062577259 -0.085987995799338857 0 0.15639510972772089 -0.076208614908978539 0 0.14004298920060509 -0.082821242417059182 0 0.14473662352031419 -0.090487779444962363 0 0.15062424376388611 -0.084528470415305659 0 0.14004298920060509 -0.082821242417059182 0 0.1418473486656075 -0.071060819361868227 0 0.15062424376388611 -0.084528470415305659 0 0.1418473486656075 -0.071060819361868227 0 0.15679025062577259 -0.085987995799338857 0 0.1418473486656075 -0.071060819361868227 0 0.15062424376388611 -0.084528470415305659 0 0.15679025062577259 -0.085987995799338857 0 0.15062424376388611 -0.084528470415305659 0 0.15679025062577259 -0.085987995799338857 0 0.15062424376388611 -0.084528470415305659 0 0.15217050038854149 -0.091008666392005666 0 0.15679025062577259 -0.085987995799338857 0 0.15217050038854149 -0.091008666392005666 0 0.15679025062577259 -0.085987995799338857 0 0.15862268311440861 -0.096742849603013686 0 0.14473662352031419 -0.090487779444962363 0 0.15062424376388611 -0.084528470415305659 0 0.15217050038854149 -0.091008666392005666 0 0.14994643246473299 -0.09824140109616919 0 0.14473662352031419 -0.090487779444962363 0 0.15217050038854149 -0.091008666392005666 0 0.15679025062577259 -0.085987995799338857 0 0.18398055966288171 -0.092424081118131066 0 0.15679025062577259 -0.085987995799338857 0 0.16671099459929789 -0.079628576638761869 0 0.18398055966288171 -0.092424081118131066 0 0.15679025062577259 -0.085987995799338857 0 0.16671099459929789 -0.079628576638761869 0 0.15639510972772089 -0.076208614908978539 0 0.16671099459929789 -0.079628576638761869 0 0.16023184502020571 -0.068157067835945245 0 0.15639510972772089 -0.076208614908978539 0 0.16671099459929789 -0.079628576638761869 0 0.16023184502020571 -0.068157067835945245 0 0.1748320685718362 -0.071167471450110265 0 0.16023184502020571 -0.068157067835945245 0 0.1748320685718362 -0.071167471450110265 0 0.17157413278379441 -0.057712343572744233 0 0.1748320685718362 -0.071167471450110265 0 0.17157413278379441 -0.057712343572744233 0 0.1885141879162221 -0.062017504627634903 0 0.16671099459929789 -0.079628576638761869 0 0.1748320685718362 -0.071167471450110265 0 0.17877629269690001 -0.079983162786514531 0 0.1748320685718362 -0.071167471450110265 0 0.17877629269690001 -0.079983162786514531 0 0.18958154795358431 -0.076712521939054951 0 0.1748320685718362 -0.071167471450110265 0 0.1885141879162221 -0.062017504627634903 0 0.18958154795358431 -0.076712521939054951 0 0.18398055966288171 -0.092424081118131066 0 0.17877629269690001 -0.079983162786514531 0 0.18958154795358431 -0.076712521939054951 0 0.16671099459929789 -0.079628576638761869 0 0.18398055966288171 -0.092424081118131066 0 0.17877629269690001 -0.079983162786514531 0 0.18398055966288171 -0.092424081118131066 0 0.17434308061064879 -0.103522353640919 0 0.19287413620928259 -0.10541563622677989 0 0.17434308061064879 -0.103522353640919 0 0.1745310528687942 -0.11503823840734249 0 0.1918959105955253 -0.12105671148249909 0 0.18202227944144739 -0.1234139502597154 0 0.1745310528687942 -0.11503823840734249 0 0.1918959105955253 -0.12105671148249909 0 0.17434308061064879 -0.103522353640919 0 0.1918959105955253 -0.12105671148249909 0 0.19287413620928259 -0.10541563622677989 0 0.17434308061064879 -0.103522353640919 0 0.1918959105955253 -0.12105671148249909 0 0.18202227944144739 -0.1234139502597154 0 0.1745310528687942 -0.11503823840734249 0 0.1747385376149875 -0.12655378813818349 0 0.1745310528687942 -0.11503823840734249 0 0.16416899245404831 -0.1228192078679623 0 0.1635766047281865 -0.1115104783574416 0 0.17434308061064879 -0.103522353640919 0 0.1745310528687942 -0.11503823840734249 0 0.1635766047281865 -0.1115104783574416 0 0.1745310528687942 -0.11503823840734249 0 0.16416899245404831 -0.1228192078679623 0 0.1747385376149875 -0.12655378813818349 0 0.15240429848654821 -0.1164025836975978 0 0.16416899245404831 -0.1228192078679623 0 0.154547146583079 -0.1287000322213063 0 0.15240429848654821 -0.1164025836975978 0 0.16416899245404831 -0.1228192078679623 0 0.1635766047281865 -0.1115104783574416 0 0.15240429848654821 -0.1164025836975978 0 0.15589834833160529 -0.1059360926721391 0 0.1635766047281865 -0.1115104783574416 0 0.15679025062577259 -0.085987995799338857 0 0.17434308061064879 -0.103522353640919 0 0.15589834833160529 -0.1059360926721391 0 0.1635766047281865 -0.1115104783574416 0 0.16282334395168929 -0.1034204655888115 0 0.15679025062577259 -0.085987995799338857 0 0.17434308061064879 -0.103522353640919 0 0.15862268311440861 -0.096742849603013686 0 0.15679025062577259 -0.085987995799338857 0 0.18398055966288171 -0.092424081118131066 0 0.17434308061064879 -0.103522353640919 0 0.17434308061064879 -0.103522353640919 0 0.16282334395168929 -0.1034204655888115 0 0.15862268311440861 -0.096742849603013686 0 0.15589834833160529 -0.1059360926721391 0 0.16282334395168929 -0.1034204655888115 0 0.15862268311440861 -0.096742849603013686 0 0.17434308061064879 -0.103522353640919 0 0.1635766047281865 -0.1115104783574416 0 0.16282334395168929 -0.1034204655888115 0 0.15764205944865481 0.0083270856753996751 0 0.1443933526966239 -0.0053404741926335233 0 0.16310660367626731 -0.0083879180435666549 0 0.1443933526966239 -0.0053404741926335233 0 0.14725571598030371 -0.022230186072689642 0 0.16310660367626731 -0.0083879180435666549 0 0.1443933526966239 -0.0053404741926335233 0 0.12568763314203429 -0.01463695139876758 0 0.14725571598030371 -0.022230186072689642 0 0.12313387866373759 0.0035515711970952281 0 0.1443933526966239 -0.0053404741926335233 0 0.12568763314203429 -0.01463695139876758 0 0.12568763314203429 -0.01463695139876758 0 0.14725571598030371 -0.022230186072689642 0 0.13528509547928569 -0.034356847576989979 0 0.14725571598030371 -0.022230186072689642 0 0.1522640421807947 -0.039526996854409038 0 0.1636337674136932 -0.026896440100121939 0 0.1522640421807947 -0.039526996854409038 0 0.13528509547928569 -0.034356847576989979 0 0.14314350517334751 -0.054484290632537687 0 0.14725571598030371 -0.022230186072689642 0 0.1522640421807947 -0.039526996854409038 0 0.13528509547928569 -0.034356847576989979 0 0.1418473486656075 -0.071060819361868227 0 0.1269044467054426 -0.056133642924397389 0 0.14314350517334751 -0.054484290632537687 0 0.13528509547928569 -0.034356847576989979 0 0.1269044467054426 -0.056133642924397389 0 0.14314350517334751 -0.054484290632537687 0 0.1522640421807947 -0.039526996854409038 0 0.14314350517334751 -0.054484290632537687 0 0.1577917282279068 -0.05507183626591465 0 0.14314350517334751 -0.054484290632537687 0 0.15075360677176691 -0.062193503524066447 0 0.1577917282279068 -0.05507183626591465 0 0.16023184502020571 -0.068157067835945245 0 0.15075360677176691 -0.062193503524066447 0 0.1577917282279068 -0.05507183626591465 0 0.16023184502020571 -0.068157067835945245 0 0.1577917282279068 -0.05507183626591465 0 0.17157413278379441 -0.057712343572744233 0 0.1577917282279068 -0.05507183626591465 0 0.17157413278379441 -0.057712343572744233 0 0.16682285693809659 -0.042357593699179852 0 0.17157413278379441 -0.057712343572744233 0 0.181252110028499 -0.047502587557680498 0 0.1885141879162221 -0.062017504627634903 0 0.17157413278379441 -0.057712343572744233 0 0.181252110028499 -0.047502587557680498 0 0.16682285693809659 -0.042357593699179852 0 0.181252110028499 -0.047502587557680498 0 0.16682285693809659 -0.042357593699179852 0 0.18170927019942229 -0.029814765715255102 0 0.181252110028499 -0.047502587557680498 0 0.18170927019942229 -0.029814765715255102 0 0.19447828237594511 -0.040314725759720851 0 0.16682285693809659 -0.042357593699179852 0 0.1636337674136932 -0.026896440100121939 0 0.18170927019942229 -0.029814765715255102 0 0.1522640421807947 -0.039526996854409038 0 0.1577917282279068 -0.05507183626591465 0 0.16682285693809659 -0.042357593699179852 0 0.1522640421807947 -0.039526996854409038 0 0.16682285693809659 -0.042357593699179852 0 0.1636337674136932 -0.026896440100121939 0 0.1636337674136932 -0.026896440100121939 0 0.17499084039911131 -0.016997068751838821 0 0.16310660367626731 -0.0083879180435666549 0 0.14725571598030371 -0.022230186072689642 0 0.1636337674136932 -0.026896440100121939 0 0.16310660367626731 -0.0083879180435666549 0 0.1636337674136932 -0.026896440100121939 0 0.18170927019942229 -0.029814765715255102 0 0.17499084039911131 -0.016997068751838821 0 0.18170927019942229 -0.029814765715255102 0 0.17499084039911131 -0.016997068751838821 0 0.18801447465636989 -0.0144142285958467 0 0.17499084039911131 -0.016997068751838821 0 0.17912323869707381 -0.003856906065920949 0 0.16310660367626731 -0.0083879180435666549 0 0.1938796680963169 0.0043757288619775247 0 0.17912323869707381 -0.003856906065920949 0 0.18801447465636989 -0.0144142285958467 0 0.17537224354991091 0.010850892601100479 0 0.17912323869707381 -0.003856906065920949 0 0.16310660367626731 -0.0083879180435666549 0 0.17499084039911131 -0.016997068751838821 0 0.17912323869707381 -0.003856906065920949 0 0.18801447465636989 -0.0144142285958467 0 0.21205365186150391 0.001127076637653511 0 0.21085615789162529 -0.0081169858675656931 0 0.2250499103028572 -0.0060445029197408878 0 0.21085615789162529 -0.0081169858675656931 0 0.21544189288085891 -0.01820459638607546 0 0.2250499103028572 -0.0060445029197408878 0 0.21085615789162529 -0.0081169858675656931 0 0.20123856500323981 -0.010849001812748151 0 0.21544189288085891 -0.01820459638607546 0 0.204306859725019 0.0021511387259922541 0 0.21085615789162529 -0.0081169858675656931 0 0.20123856500323981 -0.010849001812748151 0 0.204306859725019 0.0021511387259922541 0 0.21205365186150391 0.001127076637653511 0 0.21085615789162529 -0.0081169858675656931 0 0.1938796680963169 0.0043757288619775247 0 0.18801447465636989 -0.0144142285958467 0 0.20123856500323981 -0.010849001812748151 0 0.204306859725019 0.0021511387259922541 0 0.1938796680963169 0.0043757288619775247 0 0.20123856500323981 -0.010849001812748151 0 0.18170927019942229 -0.029814765715255102 0 0.18801447465636989 -0.0144142285958467 0 0.20212354308747271 -0.0271290141565632 0 0.18801447465636989 -0.0144142285958467 0 0.20123856500323981 -0.010849001812748151 0 0.20212354308747271 -0.0271290141565632 0 0.20212354308747271 -0.0271290141565632 0 0.21544189288085891 -0.01820459638607546 0 0.21479434350852539 -0.029728667788884711 0 0.20123856500323981 -0.010849001812748151 0 0.20212354308747271 -0.0271290141565632 0 0.21544189288085891 -0.01820459638607546 0 0.21479434350852539 -0.029728667788884711 0 0.21675405630365741 -0.039493344172122698 0 0.20670441978514739 -0.037102439547413463 0 0.21675405630365741 -0.039493344172122698 0 0.20670441978514739 -0.037102439547413463 0 0.20537187365013659 -0.04884644585977585 0 0.20212354308747271 -0.0271290141565632 0 0.21479434350852539 -0.029728667788884711 0 0.20670441978514739 -0.037102439547413463 0 0.18170927019942229 -0.029814765715255102 0 0.20212354308747271 -0.0271290141565632 0 0.19447828237594511 -0.040314725759720851 0 0.20212354308747271 -0.0271290141565632 0 0.20670441978514739 -0.037102439547413463 0 0.19447828237594511 -0.040314725759720851 0 0.181252110028499 -0.047502587557680498 0 0.19447828237594511 -0.040314725759720851 0 0.19506980502295149 -0.051577222246430313 0 0.20670441978514739 -0.037102439547413463 0 0.19447828237594511 -0.040314725759720851 0 0.20537187365013659 -0.04884644585977585 0 0.19447828237594511 -0.040314725759720851 0 0.19506980502295149 -0.051577222246430313 0 0.20537187365013659 -0.04884644585977585 0 0.19506980502295149 -0.051577222246430313 0 0.20398602088994541 -0.057992584035586971 0 0.20537187365013659 -0.04884644585977585 0 0.181252110028499 -0.047502587557680498 0 0.19506980502295149 -0.051577222246430313 0 0.1885141879162221 -0.062017504627634903 0 0.19506980502295149 -0.051577222246430313 0 0.1885141879162221 -0.062017504627634903 0 0.20398602088994541 -0.057992584035586971 0 0.20398602088994541 -0.057992584035586971 0 0.20537187365013659 -0.04884644585977585 0 0.21506300192112809 -0.05252185312321507 0 0.21675405630365741 -0.039493344172122698 0 0.20537187365013659 -0.04884644585977585 0 0.21506300192112809 -0.05252185312321507 0 0.20398602088994541 -0.057992584035586971 0 0.21506300192112809 -0.05252185312321507 0 0.21638329873756029 -0.063346927567493716 0 0.22537130702809829 -0.051442301578098037 0 0.22946761332135729 -0.062090251464176058 0 0.21638329873756029 -0.063346927567493716 0 0.21506300192112809 -0.05252185312321507 0 0.22537130702809829 -0.051442301578098037 0 0.21638329873756029 -0.063346927567493716 0 0.21675405630365741 -0.039493344172122698 0 0.21506300192112809 -0.05252185312321507 0 0.22537130702809829 -0.051442301578098037 0 0.22537130702809829 -0.051442301578098037 0 0.23528168290097581 -0.050739505231193839 0 0.22648647214040291 -0.041556338315591947 0 0.22537130702809829 -0.051442301578098037 0 0.22946761332135729 -0.062090251464176058 0 0.23528168290097581 -0.050739505231193839 0 0.22946761332135729 -0.062090251464176058 0 0.24105345005012249 -0.058963008329442207 0 0.23528168290097581 -0.050739505231193839 0 0.25649367245638999 -0.053415419680380147 0 0.24105345005012249 -0.058963008329442207 0 0.2477454720430278 -0.068052074955554667 0 0.25649367245638999 -0.053415419680380147 0 0.24105345005012249 -0.058963008329442207 0 0.2445366516472994 -0.047559521227277211 0 0.24105345005012249 -0.058963008329442207 0 0.2445366516472994 -0.047559521227277211 0 0.23528168290097581 -0.050739505231193839 0 0.2445366516472994 -0.047559521227277211 0 0.23528168290097581 -0.050739505231193839 0 0.23749773141088029 -0.039034836384094489 0 0.25097569501070971 -0.037687070069501123 0 0.2445366516472994 -0.047559521227277211 0 0.23749773141088029 -0.039034836384094489 0 0.25097569501070971 -0.037687070069501123 0 0.23749773141088029 -0.039034836384094489 0 0.24002944727437761 -0.0280160369161764 0 0.23749773141088029 -0.039034836384094489 0 0.22659962053259919 -0.029389434364456631 0 0.24002944727437761 -0.0280160369161764 0 0.23749773141088029 -0.039034836384094489 0 0.22648647214040291 -0.041556338315591947 0 0.22659962053259919 -0.029389434364456631 0 0.23528168290097581 -0.050739505231193839 0 0.23749773141088029 -0.039034836384094489 0 0.22648647214040291 -0.041556338315591947 0 0.21675405630365741 -0.039493344172122698 0 0.22537130702809829 -0.051442301578098037 0 0.22648647214040291 -0.041556338315591947 0 0.21479434350852539 -0.029728667788884711 0 0.21675405630365741 -0.039493344172122698 0 0.22659962053259919 -0.029389434364456631 0 0.21675405630365741 -0.039493344172122698 0 0.22648647214040291 -0.041556338315591947 0 0.22659962053259919 -0.029389434364456631 0 0.21544189288085891 -0.01820459638607546 0 0.23229924125105081 -0.01689285998710164 0 0.22659962053259919 -0.029389434364456631 0 0.21544189288085891 -0.01820459638607546 0 0.21479434350852539 -0.029728667788884711 0 0.22659962053259919 -0.029389434364456631 0 0.23229924125105081 -0.01689285998710164 0 0.22659962053259919 -0.029389434364456631 0 0.24002944727437761 -0.0280160369161764 0 0.25923744245051328 -0.023643412789666789 0 0.24002944727437761 -0.0280160369161764 0 0.24520833016895319 -0.015320588585169241 0 0.23229924125105081 -0.01689285998710164 0 0.24002944727437761 -0.0280160369161764 0 0.24520833016895319 -0.015320588585169241 0 0.23229924125105081 -0.01689285998710164 0 0.24520833016895319 -0.015320588585169241 0 0.24005759833730889 -0.00091445705150014652 0 0.25421330537797993 -0.0064747013630946093 0 0.24520833016895319 -0.015320588585169241 0 0.24005759833730889 -0.00091445705150014652 0 0.21544189288085891 -0.01820459638607546 0 0.23229924125105081 -0.01689285998710164 0 0.2250499103028572 -0.0060445029197408878 0 0.23229924125105081 -0.01689285998710164 0 0.24005759833730889 -0.00091445705150014652 0 0.2250499103028572 -0.0060445029197408878 0 0.21117086869999049 -0.098860166436923469 0 0.20425182030379421 -0.112943395825103 0 0.21988497927226849 -0.1183548364077648 0 0.2071569561770234 -0.1235937343052682 0 0.20425182030379421 -0.112943395825103 0 0.21988497927226849 -0.1183548364077648 0 0.20425182030379421 -0.112943395825103 0 0.1918959105955253 -0.12105671148249909 0 0.19287413620928259 -0.10541563622677989 0 0.2071569561770234 -0.1235937343052682 0 0.20425182030379421 -0.112943395825103 0 0.1918959105955253 -0.12105671148249909 0 0.18398055966288171 -0.092424081118131066 0 0.21117086869999049 -0.098860166436923469 0 0.21117086869999049 -0.098860166436923469 0 0.20425182030379421 -0.112943395825103 0 0.19287413620928259 -0.10541563622677989 0 0.18398055966288171 -0.092424081118131066 0 0.21117086869999049 -0.098860166436923469 0 0.19287413620928259 -0.10541563622677989 0 0.18398055966288171 -0.092424081118131066 0 0.21117086869999049 -0.098860166436923469 0 0.20388626136068089 -0.082931929667657875 0 0.18398055966288171 -0.092424081118131066 0 0.18958154795358431 -0.076712521939054951 0 0.20388626136068089 -0.082931929667657875 0 0.1885141879162221 -0.062017504627634903 0 0.18958154795358431 -0.076712521939054951 0 0.20351395809167411 -0.069645550788971999 0 0.18958154795358431 -0.076712521939054951 0 0.20351395809167411 -0.069645550788971999 0 0.20388626136068089 -0.082931929667657875 0 0.1885141879162221 -0.062017504627634903 0 0.20398602088994541 -0.057992584035586971 0 0.20351395809167411 -0.069645550788971999 0 0.20398602088994541 -0.057992584035586971 0 0.20351395809167411 -0.069645550788971999 0 0.21638329873756029 -0.063346927567493716 0 0.20351395809167411 -0.069645550788971999 0 0.21397886528383239 -0.073730771604313211 0 0.20388626136068089 -0.082931929667657875 0 0.21397886528383239 -0.073730771604313211 0 0.21638329873756029 -0.063346927567493716 0 0.2242505136905576 -0.075203769545599999 0 0.20351395809167411 -0.069645550788971999 0 0.21397886528383239 -0.073730771604313211 0 0.21638329873756029 -0.063346927567493716 0 0.21397886528383239 -0.073730771604313211 0 0.20388626136068089 -0.082931929667657875 0 0.220678815293436 -0.085372890378811114 0 0.21117086869999049 -0.098860166436923469 0 0.20388626136068089 -0.082931929667657875 0 0.220678815293436 -0.085372890378811114 0 0.21117086869999049 -0.098860166436923469 0 0.220678815293436 -0.085372890378811114 0 0.23689055729988609 -0.095355514761098506 0 0.220678815293436 -0.085372890378811114 0 0.23302115607830701 -0.083352527521748099 0 0.23689055729988609 -0.095355514761098506 0 0.220678815293436 -0.085372890378811114 0 0.23302115607830701 -0.083352527521748099 0 0.2242505136905576 -0.075203769545599999 0 0.22946761332135729 -0.062090251464176058 0 0.21638329873756029 -0.063346927567493716 0 0.2242505136905576 -0.075203769545599999 0 0.21397886528383239 -0.073730771604313211 0 0.220678815293436 -0.085372890378811114 0 0.2242505136905576 -0.075203769545599999 0 0.23302115607830701 -0.083352527521748099 0 0.2242505136905576 -0.075203769545599999 0 0.23577467312601799 -0.071557858525920462 0 0.22946761332135729 -0.062090251464176058 0 0.2242505136905576 -0.075203769545599999 0 0.23577467312601799 -0.071557858525920462 0 0.22946761332135729 -0.062090251464176058 0 0.24105345005012249 -0.058963008329442207 0 0.23577467312601799 -0.071557858525920462 0 0.24105345005012249 -0.058963008329442207 0 0.23577467312601799 -0.071557858525920462 0 0.2477454720430278 -0.068052074955554667 0 0.23302115607830701 -0.083352527521748099 0 0.23577467312601799 -0.071557858525920462 0 0.24317915683768571 -0.079271337624220672 0 0.25498484230186258 -0.077574364109742305 0 0.2477454720430278 -0.068052074955554667 0 0.24317915683768571 -0.079271337624220672 0 0.23577467312601799 -0.071557858525920462 0 0.2477454720430278 -0.068052074955554667 0 0.24317915683768571 -0.079271337624220672 0 0.24064879890280191 -0.087493227846375074 0 0.24637425015114589 -0.097205074120530935 0 0.23689055729988609 -0.095355514761098506 0 0.23302115607830701 -0.083352527521748099 0 0.24064879890280191 -0.087493227846375074 0 0.23689055729988609 -0.095355514761098506 0 0.23302115607830701 -0.083352527521748099 0 0.24064879890280191 -0.087493227846375074 0 0.24317915683768571 -0.079271337624220672 0 0.25028343709017847 -0.088616175199920003 0 0.24064879890280191 -0.087493227846375074 0 0.24317915683768571 -0.079271337624220672 0 0.25028343709017847 -0.088616175199920003 0 0.25498484230186258 -0.077574364109742305 0 0.24317915683768571 -0.079271337624220672 0 0.25028343709017847 -0.088616175199920003 0 0.24064879890280191 -0.087493227846375074 0 0.24637425015114589 -0.097205074120530935 0 0.25537680361060161 -0.1093239374920217 0 0.23836117773709969 -0.10529625175571421 0 0.25537680361060161 -0.1093239374920217 0 0.24637425015114589 -0.097205074120530935 0 0.23836117773709969 -0.10529625175571421 0 0.24637425015114589 -0.097205074120530935 0 0.23836117773709969 -0.10529625175571421 0 0.23689055729988609 -0.095355514761098506 0 0.23836117773709969 -0.10529625175571421 0 0.23689055729988609 -0.095355514761098506 0 0.21117086869999049 -0.098860166436923469 0 0.23836117773709969 -0.10529625175571421 0 0.21988497927226849 -0.1183548364077648 0 0.21117086869999049 -0.098860166436923469 0 0.23836117773709969 -0.10529625175571421 0 0.21117086869999049 -0.098860166436923469 0 0.23836117773709969 -0.10529625175571421 0 0.23689055729988609 -0.095355514761098506 0 0.23836117773709969 -0.10529625175571421 0 0.21988497927226849 -0.1183548364077648 0 0.23221255462627241 -0.12121085601024439 0 0.21988497927226849 -0.1183548364077648 0 0.23221255462627241 -0.12121085601024439 0 0.2288006554367028 -0.13262815885860699 0 0.23836117773709969 -0.10529625175571421 0 0.24180340605901829 -0.12856417701889181 0 0.23836117773709969 -0.10529625175571421 0 0.24817113923659859 -0.117360442065467 0 0.24180340605901829 -0.12856417701889181 0 0.25537680361060161 -0.1093239374920217 0 0.23836117773709969 -0.10529625175571421 0 0.24817113923659859 -0.117360442065467 0 0.23836117773709969 -0.10529625175571421 0 0.23221255462627241 -0.12121085601024439 0 0.24180340605901829 -0.12856417701889181 0 0.25714316953967481 -0.12625740199524019 0 0.24817113923659859 -0.117360442065467 0 0.24180340605901829 -0.12856417701889181 0 0.2365038926260204 -0.13872387483915219 0 0.24180340605901829 -0.12856417701889181 0 0.24156626744936299 -0.14865803289454529 0 0.24180340605901829 -0.12856417701889181 0 0.24524563438093519 -0.1518321022820697 0 0.25128781742515011 -0.13950093605967059 0 0.24180340605901829 -0.12856417701889181 0 0.24524563438093519 -0.1518321022820697 0 0.2365038926260204 -0.13872387483915219 0 0.24180340605901829 -0.12856417701889181 0 0.2288006554367028 -0.13262815885860699 0 0.24180340605901829 -0.12856417701889181 0 0.24524563438093519 -0.1518321022820697 0 0.24156626744936299 -0.14865803289454529 0 0.24156626744936299 -0.14865803289454529 0 0.24608907216877149 -0.15753336482950031 0 0.24524563438093519 -0.1518321022820697 0 0.24156626744936299 -0.14865803289454529 0 0.24608907216877149 -0.15753336482950031 0 0.24524563438093519 -0.1518321022820697 0 0.24608907216877149 -0.15753336482950031 0 0.24524563438093519 -0.1518321022820697 0 0.24156626744936299 -0.14865803289454529 0 0.2365038926260204 -0.13872387483915219 0 0.24156626744936299 -0.14865803289454529 0 0.23792179977241409 -0.14551406995136049 0 0.24156626744936299 -0.14865803289454529 0 0.23373372920624769 -0.1486332076615717 0 0.2365038926260204 -0.13872387483915219 0 0.23792179977241409 -0.14551406995136049 0 0.24156626744936299 -0.14865803289454529 0 0.2365038926260204 -0.13872387483915219 0 0.23792179977241409 -0.14551406995136049 0 0.23234328666649559 -0.14279831693217279 0 0.23792179977241409 -0.14551406995136049 0 0.23373372920624769 -0.1486332076615717 0 0.23234328666649559 -0.14279831693217279 0 0.23792179977241409 -0.14551406995136049 0 0.24156626744936299 -0.14865803289454529 0 0.23756386102681051 -0.15492970701148151 0 0.24156626744936299 -0.14865803289454529 0 0.24608907216877149 -0.15753336482950031 0 0.23756386102681051 -0.15492970701148151 0 0.24156626744936299 -0.14865803289454529 0 0.23373372920624769 -0.1486332076615717 0 0.22700157056527809 -0.15612542716565911 0 0.22610017133389801 -0.14341644024740699 0 0.20944874058040169 -0.13859106932407911 0 0.22700157056527809 -0.15612542716565911 0 0.23373372920624769 -0.1486332076615717 0 0.22610017133389801 -0.14341644024740699 0 0.23756386102681051 -0.15492970701148151 0 0.22700157056527809 -0.15612542716565911 0 0.23373372920624769 -0.1486332076615717 0 0.23373372920624769 -0.1486332076615717 0 0.23234328666649559 -0.14279831693217279 0 0.22610017133389801 -0.14341644024740699 0 0.22610017133389801 -0.14341644024740699 0 0.2288006554367028 -0.13262815885860699 0 0.20944874058040169 -0.13859106932407911 0 0.21988497927226849 -0.1183548364077648 0 0.2288006554367028 -0.13262815885860699 0 0.20944874058040169 -0.13859106932407911 0 0.23221255462627241 -0.12121085601024439 0 0.24180340605901829 -0.12856417701889181 0 0.2288006554367028 -0.13262815885860699 0 0.2365038926260204 -0.13872387483915219 0 0.23234328666649559 -0.14279831693217279 0 0.2288006554367028 -0.13262815885860699 0 0.23234328666649559 -0.14279831693217279 0 0.22610017133389801 -0.14341644024740699 0 0.2288006554367028 -0.13262815885860699 0 0.2071569561770234 -0.1235937343052682 0 0.21988497927226849 -0.1183548364077648 0 0.20944874058040169 -0.13859106932407911 0 0.22700157056527809 -0.15612542716565911 0 0.20944874058040169 -0.13859106932407911 0 0.22700157056527809 -0.15612542716565911 0 0.20944874058040169 -0.13859106932407911 0 0.21617451656394721 -0.1645772835893991 0 0.2013913616246519 -0.16638113931491999 0 0.18705139968128581 -0.1449529146745451 0 0.20944874058040169 -0.13859106932407911 0 0.19714653152272241 -0.1378869037835769 0 0.2013913616246519 -0.16638113931491999 0 0.19714653152272241 -0.1378869037835769 0 0.2013913616246519 -0.16638113931491999 0 0.18705139968128581 -0.1449529146745451 0 0.19714653152272241 -0.1378869037835769 0 0.1869236166864825 -0.1310070630108367 0 0.18705139968128581 -0.1449529146745451 0 0.2071569561770234 -0.1235937343052682 0 0.1918959105955253 -0.12105671148249909 0 0.20944874058040169 -0.13859106932407911 0 0.1918959105955253 -0.12105671148249909 0 0.20944874058040169 -0.13859106932407911 0 0.19714653152272241 -0.1378869037835769 0 0.1918959105955253 -0.12105671148249909 0 0.19714653152272241 -0.1378869037835769 0 0.1869236166864825 -0.1310070630108367 0 0.1918959105955253 -0.12105671148249909 0 0.20944874058040169 -0.13859106932407911 0 0.2004405048832579 -0.18163090738777929 0 0.2013913616246519 -0.16638113931491999 0 0.1873319491998636 -0.17557124519997391 0 0.2004405048832579 -0.18163090738777929 0 0.2046921074152952 -0.18913144873654261 0 0.191707305636141 -0.1883111528701735 0 0.191707305636141 -0.1883111528701735 0 0.1873319491998636 -0.17557124519997391 0 0.191707305636141 -0.1883111528701735 0 0.1873319491998636 -0.17557124519997391 0 0.18742729069469849 -0.1859765291458525 0 0.2004405048832579 -0.18163090738777929 0 0.191707305636141 -0.1883111528701735 0 0.1873319491998636 -0.17557124519997391 0 0.191707305636141 -0.1883111528701735 0 0.18742729069469849 -0.1859765291458525 0 0.2013913616246519 -0.16638113931491999 0 0.18719167444057441 -0.16026207993725949 0 0.1873319491998636 -0.17557124519997391 0 0.2013913616246519 -0.16638113931491999 0 0.18705139968128581 -0.1449529146745451 0 0.18719167444057441 -0.16026207993725949 0 0.20944874058040169 -0.13859106932407911 0 0.2013913616246519 -0.16638113931491999 0 0.21617451656394721 -0.1645772835893991 0 0.2013913616246519 -0.16638113931491999 0 0.21573132356801769 -0.18780936395529491 0 0.2013913616246519 -0.16638113931491999 0 0.21617451656394721 -0.1645772835893991 0 0.21573132356801769 -0.18780936395529491 0 0.2004405048832579 -0.18163090738777929 0 0.2013913616246519 -0.16638113931491999 0 0.21573132356801769 -0.18780936395529491 0 0.2004405048832579 -0.18163090738777929 0 0.2046921074152952 -0.18913144873654261 0 0.21573132356801769 -0.18780936395529491 0 0.22729958648138679 -0.17397941818704249 0 0.23334374173401401 -0.1868778919272869 0 0.21573132356801769 -0.18780936395529491 0 0.21617451656394721 -0.1645772835893991 0 0.22729958648138679 -0.17397941818704249 0 0.21573132356801769 -0.18780936395529491 0 0.22700157056527809 -0.15612542716565911 0 0.22729958648138679 -0.17397941818704249 0 0.24455440055015451 -0.17365978500723911 0 0.22700157056527809 -0.15612542716565911 0 0.21617451656394721 -0.1645772835893991 0 0.22729958648138679 -0.17397941818704249 0 0.22700157056527809 -0.15612542716565911 0 0.24455440055015451 -0.17365978500723911 0 0.22700157056527809 -0.15612542716565911 0 0.2403815693455634 -0.16148364852118391 0 0.24455440055015451 -0.17365978500723911 0 0.23756386102681051 -0.15492970701148151 0 0.2403815693455634 -0.16148364852118391 0 0.24608907216877149 -0.15753336482950031 0 0.23756386102681051 -0.15492970701148151 0 0.22700157056527809 -0.15612542716565911 0 0.2403815693455634 -0.16148364852118391 0 0.2403815693455634 -0.16148364852118391 0 0.24723038419100421 -0.1652481240934818 0 0.24455440055015451 -0.17365978500723911 0 0.25024652280842458 -0.16569174369377421 0 0.24723038419100421 -0.1652481240934818 0 0.25024652280842458 -0.16569174369377421 0 0.24723038419100421 -0.1652481240934818 0 0.24608907216877149 -0.15753336482950031 0 0.25024652280842458 -0.16569174369377421 0 0.24608907216877149 -0.15753336482950031 0 0.2403815693455634 -0.16148364852118391 0 0.24723038419100421 -0.1652481240934818 0 0.24608907216877149 -0.15753336482950031 0 0.24723038419100421 -0.1652481240934818 0 0.24608907216877149 -0.15753336482950031 0 0.25062543226040762 -0.18819713193262769 0 0.23334374173401401 -0.1868778919272869 0 0.24455440055015451 -0.17365978500723911 0 0.25062543226040762 -0.18819713193262769 0 0.25024652280842458 -0.16569174369377421 0 0.24723038419100421 -0.1652481240934818 0 0.25062543226040762 -0.18819713193262769 0 0.24723038419100421 -0.1652481240934818 0 0.24455440055015451 -0.17365978500723911 0 0.22729958648138679 -0.17397941818704249 0 0.23334374173401401 -0.1868778919272869 0 0.24455440055015451 -0.17365978500723911 0 0.25062543226040762 -0.18819713193262769 0 0.24723038419100421 -0.1652481240934818 0 0.25062543226040762 -0.18819713193262769 0 0.23334374173401401 -0.1868778919272869 0 0.24340437100087281 -0.20099104042067961 0 0.2540204803298135 -0.21114613977177321 0 0.25062543226040762 -0.18819713193262769 0 0.24340437100087281 -0.20099104042067961 0 0.23334374173401401 -0.1868778919272869 0 0.24340437100087281 -0.20099104042067961 0 0.230637680453572 -0.19622897122473279 0 0.24340437100087281 -0.20099104042067961 0 0.23007128551138339 -0.2092375885956701 0 0.230637680453572 -0.19622897122473279 0 0.2540204803298135 -0.21114613977177321 0 0.24340437100087281 -0.20099104042067961 0 0.24170514255856271 -0.21558351940183401 0 0.2540204803298135 -0.21114613977177321 0 0.24170514255856271 -0.21558351940183401 0 0.24170514255856271 -0.21558351940183401 0 0.23007128551138339 -0.2092375885956701 0 0.23268161267519491 -0.2131382040277004 0 0.24170514255856271 -0.21558351940183401 0 0.22948022716622751 -0.21998831864881571 0 0.24170514255856271 -0.21558351940183401 0 0.23268161267519491 -0.2131382040277004 0 0.22948022716622751 -0.21998831864881571 0 0.24170514255856271 -0.21558351940183401 0 0.23007128551138339 -0.2092375885956701 0 0.24340437100087281 -0.20099104042067961 0 0.24170514255856271 -0.21558351940183401 0 0.23007128551138339 -0.2092375885956701 0 0.23007128551138339 -0.2092375885956701 0 0.2205723190678158 -0.21070490796343971 0 0.21088929557376099 -0.19877437073292389 0 0.23007128551138339 -0.2092375885956701 0 0.21088929557376099 -0.19877437073292389 0 0.23007128551138339 -0.2092375885956701 0 0.23268161267519491 -0.2131382040277004 0 0.23007128551138339 -0.2092375885956701 0 0.23268161267519491 -0.2131382040277004 0 0.22688785743995649 -0.2146523826402861 0 0.23268161267519491 -0.2131382040277004 0 0.22688785743995649 -0.2146523826402861 0 0.22948022716622751 -0.21998831864881571 0 0.22688785743995649 -0.2146523826402861 0 0.22948022716622751 -0.21998831864881571 0 0.2216338427791614 -0.22019289396580441 0 0.22688785743995649 -0.2146523826402861 0 0.2205723190678158 -0.21070490796343971 0 0.2216338427791614 -0.22019289396580441 0 0.23007128551138339 -0.2092375885956701 0 0.22688785743995649 -0.2146523826402861 0 0.2205723190678158 -0.21070490796343971 0 0.23007128551138339 -0.2092375885956701 0 0.21088929557376099 -0.19877437073292389 0 0.21573132356801769 -0.18780936395529491 0 0.23007128551138339 -0.2092375885956701 0 0.21573132356801769 -0.18780936395529491 0 0.23007128551138339 -0.2092375885956701 0 0.230637680453572 -0.19622897122473279 0 0.21573132356801769 -0.18780936395529491 0 0.23334374173401401 -0.1868778919272869 0 0.230637680453572 -0.19622897122473279 0 0.21573132356801769 -0.18780936395529491 0 0.2410233639488048 -0.25093728896802481 0 0.2412410427430644 -0.23866163828096579 0 0.2226802989957449 -0.2380117653539153 0 0.2410233639488048 -0.25093728896802481 0 0.248249871547954 -0.24759895791751499 0 0.2412410427430644 -0.23866163828096579 0 0.25197439650864428 -0.24232380162828601 0 0.248249871547954 -0.24759895791751499 0 0.2412410427430644 -0.23866163828096579 0 0.25197439650864428 -0.24232380162828601 0 0.25066576011535319 -0.23432551104963531 0 0.2412410427430644 -0.23866163828096579 0 0.2412410427430644 -0.23866163828096579 0 0.24313970184326331 -0.22755579578327109 0 0.22997876116131141 -0.2307983059482383 0 0.25066576011535319 -0.23432551104963531 0 0.25581560275970988 -0.22328036523005279 0 0.24313970184326331 -0.22755579578327109 0 0.25066576011535319 -0.23432551104963531 0 0.2412410427430644 -0.23866163828096579 0 0.24313970184326331 -0.22755579578327109 0 0.25581560275970988 -0.22328036523005279 0 0.24170514255856271 -0.21558351940183401 0 0.25581560275970988 -0.22328036523005279 0 0.24170514255856271 -0.21558351940183401 0 0.24313970184326331 -0.22755579578327109 0 0.24170514255856271 -0.21558351940183401 0 0.24313970184326331 -0.22755579578327109 0 0.22948022716622751 -0.21998831864881571 0 0.24313970184326331 -0.22755579578327109 0 0.2216338427791614 -0.22019289396580441 0 0.24313970184326331 -0.22755579578327109 0 0.22948022716622751 -0.21998831864881571 0 0.2216338427791614 -0.22019289396580441 0 0.24313970184326331 -0.22755579578327109 0 0.2216338427791614 -0.22019289396580441 0 0.22997876116131141 -0.2307983059482383 0 0.2216338427791614 -0.22019289396580441 0 0.22197654052458471 -0.22846533737699201 0 0.22997876116131141 -0.2307983059482383 0 0.2216338427791614 -0.22019289396580441 0 0.22197654052458471 -0.22846533737699201 0 0.2141511800114467 -0.22491724611697139 0 0.22197654052458471 -0.22846533737699201 0 0.2226802989957449 -0.2380117653539153 0 0.2141511800114467 -0.22491724611697139 0 0.22197654052458471 -0.22846533737699201 0 0.22997876116131141 -0.2307983059482383 0 0.2226802989957449 -0.2380117653539153 0 0.2412410427430644 -0.23866163828096579 0 0.22997876116131141 -0.2307983059482383 0 0.2226802989957449 -0.2380117653539153 0 0.2410233639488048 -0.25093728896802481 0 0.22711589257641071 -0.25335285928093709 0 0.2226802989957449 -0.2380117653539153 0 0.2410233639488048 -0.25093728896802481 0 0.2226802989957449 -0.2380117653539153 0 0.22711589257641071 -0.25335285928093709 0 0.2226802989957449 -0.2380117653539153 0 0.21217570844517189 -0.2479098543110872 0 0.2226802989957449 -0.2380117653539153 0 0.21217570844517189 -0.2479098543110872 0 0.20433723404268461 -0.2250862417398066 0 0.21217570844517189 -0.2479098543110872 0 0.20433723404268461 -0.2250862417398066 0 0.2003490685008141 -0.239614051120212 0 0.21217570844517189 -0.2479098543110872 0 0.20433723404268461 -0.2250862417398066 0 0.2226802989957449 -0.2380117653539153 0 0.2141511800114467 -0.22491724611697139 0 0.20433723404268461 -0.2250862417398066 0 0.2216338427791614 -0.22019289396580441 0 0.2141511800114467 -0.22491724611697139 0 0.20012798371505941 -0.21282999214833789 0 0.2226802989957449 -0.2380117653539153 0 0.20433723404268461 -0.2250862417398066 0 0.2141511800114467 -0.22491724611697139 0 0.20433723404268461 -0.2250862417398066 0 0.20012798371505941 -0.21282999214833789 0 0.18781428879260659 -0.22821233740713451 0 0.2003490685008141 -0.239614051120212 0 0.1876960444947765 -0.21530751043727009 0 0.2003490685008141 -0.239614051120212 0 0.1876960444947765 -0.21530751043727009 0 0.2003490685008141 -0.239614051120212 0 0.19304935849807181 -0.21713218922576899 0 0.1876960444947765 -0.21530751043727009 0 0.20433723404268461 -0.2250862417398066 0 0.2003490685008141 -0.239614051120212 0 0.19304935849807181 -0.21713218922576899 0 0.20433723404268461 -0.2250862417398066 0 0.20012798371505941 -0.21282999214833789 0 0.20433723404268461 -0.2250862417398066 0 0.19304935849807181 -0.21713218922576899 0 0.18781428879260659 -0.22821233740713451 0 0.1876960444947765 -0.21530751043727009 0 0.18781428879260659 -0.22821233740713451 0 0.2003490685008141 -0.239614051120212 0 0.18732608264644859 -0.24487867245661959 0 0.19955191484755719 -0.25437948978255043 0 0.2003490685008141 -0.239614051120212 0 0.18732608264644859 -0.24487867245661959 0 0.21088929557376099 -0.19877437073292389 0 0.2046921074152952 -0.18913144873654261 0 0.21573132356801769 -0.18780936395529491 0 0.2205723190678158 -0.21070490796343971 0 0.21088929557376099 -0.19877437073292389 0 0.213537882669986 -0.21079015010236241 0 0.2216338427791614 -0.22019289396580441 0 0.20012798371505941 -0.21282999214833789 0 0.2216338427791614 -0.22019289396580441 0 0.213537882669986 -0.21079015010236241 0 0.20012798371505941 -0.21282999214833789 0 0.2205723190678158 -0.21070490796343971 0 0.2216338427791614 -0.22019289396580441 0 0.213537882669986 -0.21079015010236241 0 0.21088929557376099 -0.19877437073292389 0 0.213537882669986 -0.21079015010236241 0 0.20012798371505941 -0.21282999214833789 0 0.20012798371505941 -0.21282999214833789 0 0.1876341498271791 -0.20855251260353069 0 0.191707305636141 -0.1883111528701735 0 0.20433723404268461 -0.2250862417398066 0 0.20012798371505941 -0.21282999214833789 0 0.19304935849807181 -0.21713218922576899 0 0.19304935849807181 -0.21713218922576899 0 0.1876960444947765 -0.21530751043727009 0 0.1876341498271791 -0.20855251260353069 0 0.20012798371505941 -0.21282999214833789 0 0.19304935849807181 -0.21713218922576899 0 0.1876341498271791 -0.20855251260353069 0 0.1876960444947765 -0.21530751043727009 0 0.1876341498271791 -0.20855251260353069 0 0.20012798371505941 -0.21282999214833789 0 0.1876341498271791 -0.20855251260353069 0 0.1876341498271791 -0.20855251260353069 0 0.18742729069469849 -0.1859765291458525 0 0.21088929557376099 -0.19877437073292389 0 0.191707305636141 -0.1883111528701735 0 0.20012798371505941 -0.21282999214833789 0 0.191707305636141 -0.1883111528701735 0 0.1876341498271791 -0.20855251260353069 0 0.191707305636141 -0.1883111528701735 0 0.18742729069469849 -0.1859765291458525 0 0.21088929557376099 -0.19877437073292389 0 0.20012798371505941 -0.21282999214833789 0 0.191707305636141 -0.1883111528701735 0 0.21088929557376099 -0.19877437073292389 0 0.2046921074152952 -0.18913144873654261 0 0.191707305636141 -0.1883111528701735 0 0.1876341498271791 -0.20855251260353069 0 0.18351467123953411 -0.1958875378188733 0 0.18742729069469849 -0.1859765291458525 0 0.17891775776969329 -0.18951044883853521 0 0.18351467123953411 -0.1958875378188733 0 0.18742729069469849 -0.1859765291458525 0 0.17700667370832041 -0.20098354310883729 0 0.18343046744597061 -0.20711330942859951 0 0.15742579290099529 -0.19821016052861359 0 0.17891775776969329 -0.18951044883853521 0 0.17881538493595239 -0.19629122555819101 0 0.18351467123953411 -0.1958875378188733 0 0.17891775776969329 -0.18951044883853521 0 0.17241604946880909 -0.19310725460915279 0 0.17881538493595239 -0.19629122555819101 0 0.17241604946880909 -0.19310725460915279 0 0.17881538493595239 -0.19629122555819101 0 0.17700667370832041 -0.20098354310883729 0 0.17881538493595239 -0.19629122555819101 0 0.17700667370832041 -0.20098354310883729 0 0.18222177249340499 -0.20196734341555661 0 0.1876341498271791 -0.20855251260353069 0 0.18222177249340499 -0.20196734341555661 0 0.18351467123953411 -0.1958875378188733 0 0.17881538493595239 -0.19629122555819101 0 0.18222177249340499 -0.20196734341555661 0 0.18351467123953411 -0.1958875378188733 0 0.1876960444947765 -0.21530751043727009 0 0.1876341498271791 -0.20855251260353069 0 0.18343046744597061 -0.20711330942859951 0 0.1876341498271791 -0.20855251260353069 0 0.18222177249340499 -0.20196734341555661 0 0.18343046744597061 -0.20711330942859951 0 0.1876341498271791 -0.20855251260353069 0 0.18343046744597061 -0.20711330942859951 0 0.18343046744597061 -0.20711330942859951 0 0.17997390205207869 -0.2145768581573024 0 0.17681545066173199 -0.2107839682516898 0 0.17700667370832041 -0.20098354310883729 0 0.18222177249340499 -0.20196734341555661 0 0.18343046744597061 -0.20711330942859951 0 0.1876960444947765 -0.21530751043727009 0 0.18343046744597061 -0.20711330942859951 0 0.1876960444947765 -0.21530751043727009 0 0.18343046744597061 -0.20711330942859951 0 0.17997390205207869 -0.2145768581573024 0 0.1876960444947765 -0.21530751043727009 0 0.17997390205207869 -0.2145768581573024 0 0.18074149923703259 -0.2218649328342209 0 0.17997390205207869 -0.2145768581573024 0 0.17681545066173199 -0.2107839682516898 0 0.1718407334160354 -0.21817918545237069 0 0.17681545066173199 -0.2107839682516898 0 0.1711971570044547 -0.20690438926924121 0 0.1718407334160354 -0.21817918545237069 0 0.17997390205207869 -0.2145768581573024 0 0.1718407334160354 -0.21817918545237069 0 0.18074149923703259 -0.2218649328342209 0 0.18343046744597061 -0.20711330942859951 0 0.17681545066173199 -0.2107839682516898 0 0.1711971570044547 -0.20690438926924121 0 0.16204614230994291 -0.21119178477543579 0 0.16030773501208589 -0.2291311910352439 0 0.1491837453499861 -0.20414511764925 0 0.18343046744597061 -0.20711330942859951 0 0.1711971570044547 -0.20690438926924121 0 0.15742579290099529 -0.19821016052861359 0 0.1711971570044547 -0.20690438926924121 0 0.1718407334160354 -0.21817918545237069 0 0.16204614230994291 -0.21119178477543579 0 0.1711971570044547 -0.20690438926924121 0 0.16204614230994291 -0.21119178477543579 0 0.15742579290099529 -0.19821016052861359 0 0.17241604946880909 -0.19310725460915279 0 0.17700667370832041 -0.20098354310883729 0 0.15742579290099529 -0.19821016052861359 0 0.18343046744597061 -0.20711330942859951 0 0.15742579290099529 -0.19821016052861359 0 0.15742579290099529 -0.19821016052861359 0 0.16406979664922819 -0.18772288958114181 0 0.15637993754092369 -0.18307238079990751 0 0.17241604946880909 -0.19310725460915279 0 0.15742579290099529 -0.19821016052861359 0 0.16406979664922819 -0.18772288958114181 0 0.18781428879260659 -0.22821233740713451 0 0.18732608264644859 -0.24487867245661959 0 0.17638252742966651 -0.23304877271702659 0 0.1714317246741858 -0.25411726442123789 0 0.18732608264644859 -0.24487867245661959 0 0.17638252742966651 -0.23304877271702659 0 0.18781428879260659 -0.22821233740713451 0 0.17638252742966651 -0.23304877271702659 0 0.18074149923703259 -0.2218649328342209 0 0.18781428879260659 -0.22821233740713451 0 0.1876960444947765 -0.21530751043727009 0 0.18074149923703259 -0.2218649328342209 0 0.1718407334160354 -0.21817918545237069 0 0.17638252742966651 -0.23304877271702659 0 0.18074149923703259 -0.2218649328342209 0 0.1718407334160354 -0.21817918545237069 0 0.16204614230994291 -0.21119178477543579 0 0.16030773501208589 -0.2291311910352439 0 0.1718407334160354 -0.21817918545237069 0 0.17638252742966651 -0.23304877271702659 0 0.16030773501208589 -0.2291311910352439 0 0.1714317246741858 -0.25411726442123789 0 0.17638252742966651 -0.23304877271702659 0 0.16030773501208589 -0.2291311910352439 0 0.1714317246741858 -0.25411726442123789 0 0.16030773501208589 -0.2291311910352439 0 0.1714317246741858 -0.25411726442123789 0 0.16030773501208589 -0.2291311910352439 0 0.145063193367304 -0.24036260392927239 0 0.16030773501208589 -0.2291311910352439 0 0.145063193367304 -0.24036260392927239 0 0.1369097148349768 -0.21706249100099759 0 0.145063193367304 -0.24036260392927239 0 0.12784438633009251 -0.2349199935208946 0 0.1369097148349768 -0.21706249100099759 0 0.1236085809504273 -0.25715862254038452 0 0.145063193367304 -0.24036260392927239 0 0.12784438633009251 -0.2349199935208946 0 0.1485305636503583 -0.19371500637004929 0 0.1491837453499861 -0.20414511764925 0 0.13920041627905039 -0.1982106128019164 0 0.1485305636503583 -0.19371500637004929 0 0.13920041627905039 -0.1982106128019164 0 0.14269153287383909 -0.1852379028821316 0 0.15742579290099529 -0.19821016052861359 0 0.1485305636503583 -0.19371500637004929 0 0.15637993754092369 -0.18307238079990751 0 0.15742579290099529 -0.19821016052861359 0 0.1485305636503583 -0.19371500637004929 0 0.1491837453499861 -0.20414511764925 0 0.16204614230994291 -0.21119178477543579 0 0.15742579290099529 -0.19821016052861359 0 0.1491837453499861 -0.20414511764925 0 0.1491837453499861 -0.20414511764925 0 0.1369097148349768 -0.21706249100099759 0 0.13920041627905039 -0.1982106128019164 0 0.16030773501208589 -0.2291311910352439 0 0.1491837453499861 -0.20414511764925 0 0.16030773501208589 -0.2291311910352439 0 0.1491837453499861 -0.20414511764925 0 0.1369097148349768 -0.21706249100099759 0 0.1369097148349768 -0.21706249100099759 0 0.12543738258814249 -0.19963659942699391 0 0.13920041627905039 -0.1982106128019164 0 0.12543738258814249 -0.19963659942699391 0 0.13920041627905039 -0.1982106128019164 0 0.133741806323078 -0.18842900462065301 0 0.12403819291028111 -0.18380360999721981 0 0.12543738258814249 -0.19963659942699391 0 0.133741806323078 -0.18842900462065301 0 0.13920041627905039 -0.1982106128019164 0 0.133741806323078 -0.18842900462065301 0 0.14269153287383909 -0.1852379028821316 0 0.12403819291028111 -0.18380360999721981 0 0.1373415069640769 -0.17525629799500381 0 0.12826344566929751 -0.1672781285469806 0 0.12403819291028111 -0.18380360999721981 0 0.133741806323078 -0.18842900462065301 0 0.1373415069640769 -0.17525629799500381 0 0.133741806323078 -0.18842900462065301 0 0.1373415069640769 -0.17525629799500381 0 0.14269153287383909 -0.1852379028821316 0 0.1373415069640769 -0.17525629799500381 0 0.14820911132721429 -0.1767248840484798 0 0.147820863477056 -0.16667811670753979 0 0.1373415069640769 -0.17525629799500381 0 0.14269153287383909 -0.1852379028821316 0 0.14820911132721429 -0.1767248840484798 0 0.14820911132721429 -0.1767248840484798 0 0.15637993754092369 -0.18307238079990751 0 0.15793825432963129 -0.17101201400217469 0 0.14269153287383909 -0.1852379028821316 0 0.14820911132721429 -0.1767248840484798 0 0.15637993754092369 -0.18307238079990751 0 0.1485305636503583 -0.19371500637004929 0 0.14269153287383909 -0.1852379028821316 0 0.15637993754092369 -0.18307238079990751 0 0.1373415069640769 -0.17525629799500381 0 0.147820863477056 -0.16667811670753979 0 0.13799713314464021 -0.1574382381958942 0 0.1560688155500243 -0.15950509342294131 0 0.147820863477056 -0.16667811670753979 0 0.1474577889475662 -0.1561660746791157 0 0.1560688155500243 -0.15950509342294131 0 0.147820863477056 -0.16667811670753979 0 0.15793825432963129 -0.17101201400217469 0 0.14820911132721429 -0.1767248840484798 0 0.147820863477056 -0.16667811670753979 0 0.15793825432963129 -0.17101201400217469 0 0.147820863477056 -0.16667811670753979 0 0.13799713314464021 -0.1574382381958942 0 0.1474577889475662 -0.1561660746791157 0 0.1373415069640769 -0.17525629799500381 0 0.13799713314464021 -0.1574382381958942 0 0.12826344566929751 -0.1672781285469806 0 0.13799713314464021 -0.1574382381958942 0 0.12826344566929751 -0.1672781285469806 0 0.125510316736793 -0.15294552589947011 0 0.13799713314464021 -0.1574382381958942 0 0.125510316736793 -0.15294552589947011 0 0.13484504598666941 -0.14389780093334359 0 0.1248239659577738 -0.13700605534960969 0 0.125510316736793 -0.15294552589947011 0 0.13484504598666941 -0.14389780093334359 0 0.13799713314464021 -0.1574382381958942 0 0.13484504598666941 -0.14389780093334359 0 0.14322089911091959 -0.14837518861940341 0 0.1248239659577738 -0.13700605534960969 0 0.1289918112778406 -0.1223255163205285 0 0.13538376140579891 -0.13273000865456441 0 0.1248239659577738 -0.13700605534960969 0 0.13484504598666941 -0.14389780093334359 0 0.13538376140579891 -0.13273000865456441 0 0.13484504598666941 -0.14389780093334359 0 0.13538376140579891 -0.13273000865456441 0 0.14578671469374729 -0.1375672355005205 0 0.1289918112778406 -0.1223255163205285 0 0.14247126911296351 -0.12285343516881959 0 0.13538376140579891 -0.13273000865456441 0 0.14247126911296351 -0.12285343516881959 0 0.13538376140579891 -0.13273000865456441 0 0.14578671469374729 -0.1375672355005205 0 0.14247126911296351 -0.12285343516881959 0 0.14578671469374729 -0.1375672355005205 0 0.154547146583079 -0.1287000322213063 0 0.14578671469374729 -0.1375672355005205 0 0.154547146583079 -0.1287000322213063 0 0.15837193740521549 -0.14065216993760821 0 0.13799713314464021 -0.1574382381958942 0 0.1474577889475662 -0.1561660746791157 0 0.14322089911091959 -0.14837518861940341 0 0.1474577889475662 -0.1561660746791157 0 0.14322089911091959 -0.14837518861940341 0 0.15218123345519091 -0.14883373644979991 0 0.13484504598666941 -0.14389780093334359 0 0.14578671469374729 -0.1375672355005205 0 0.14322089911091959 -0.14837518861940341 0 0.14578671469374729 -0.1375672355005205 0 0.14322089911091959 -0.14837518861940341 0 0.15218123345519091 -0.14883373644979991 0 0.14578671469374729 -0.1375672355005205 0 0.15218123345519091 -0.14883373644979991 0 0.15837193740521549 -0.14065216993760821 0 0.1560688155500243 -0.15950509342294131 0 0.1474577889475662 -0.1561660746791157 0 0.15218123345519091 -0.14883373644979991 0 0.1560688155500243 -0.15950509342294131 0 0.15218123345519091 -0.14883373644979991 0 0.16283850489714921 -0.15192482443489819 0 0.15218123345519091 -0.14883373644979991 0 0.16283850489714921 -0.15192482443489819 0 0.15837193740521549 -0.14065216993760821 0 0.16283850489714921 -0.15192482443489819 0 0.15837193740521549 -0.14065216993760821 0 0.17118630743066721 -0.14357701801599021 0 0.16283850489714921 -0.15192482443489819 0 0.17118630743066721 -0.14357701801599021 0 0.1729605640015239 -0.15579395995578291 0 0.17118630743066721 -0.14357701801599021 0 0.16452524871970831 -0.13335200165394451 0 0.1747385376149875 -0.12655378813818349 0 0.16416899245404831 -0.1228192078679623 0 0.154547146583079 -0.1287000322213063 0 0.16452524871970831 -0.13335200165394451 0 0.154547146583079 -0.1287000322213063 0 0.15837193740521549 -0.14065216993760821 0 0.16452524871970831 -0.13335200165394451 0 0.15837193740521549 -0.14065216993760821 0 0.17118630743066721 -0.14357701801599021 0 0.16452524871970831 -0.13335200165394451 0 0.16416899245404831 -0.1228192078679623 0 0.16452524871970831 -0.13335200165394451 0 0.1747385376149875 -0.12655378813818349 0 0.1747385376149875 -0.12655378813818349 0 0.18705139968128581 -0.1449529146745451 0 0.1747385376149875 -0.12655378813818349 0 0.1869236166864825 -0.1310070630108367 0 0.18705139968128581 -0.1449529146745451 0 0.17118630743066721 -0.14357701801599021 0 0.1747385376149875 -0.12655378813818349 0 0.18705139968128581 -0.1449529146745451 0 0.1869236166864825 -0.1310070630108367 0 0.18705139968128581 -0.1449529146745451 0 0.18202227944144739 -0.1234139502597154 0 0.1918959105955253 -0.12105671148249909 0 0.1869236166864825 -0.1310070630108367 0 0.18202227944144739 -0.1234139502597154 0 0.1747385376149875 -0.12655378813818349 0 0.1869236166864825 -0.1310070630108367 0 0.17118630743066721 -0.14357701801599021 0 0.18705139968128581 -0.1449529146745451 0 0.1802464336720388 -0.15308807763149751 0 0.1729605640015239 -0.15579395995578291 0 0.1802464336720388 -0.15308807763149751 0 0.1818723402097879 -0.15967427418471861 0 0.17118630743066721 -0.14357701801599021 0 0.1729605640015239 -0.15579395995578291 0 0.1802464336720388 -0.15308807763149751 0 0.18705139968128581 -0.1449529146745451 0 0.1802464336720388 -0.15308807763149751 0 0.18719167444057441 -0.16026207993725949 0 0.18705139968128581 -0.1449529146745451 0 0.18719167444057441 -0.16026207993725949 0 0.18719167444057441 -0.16026207993725949 0 0.1818723402097879 -0.15967427418471861 0 0.1873319491998636 -0.17557124519997391 0 0.1818723402097879 -0.15967427418471861 0 0.1873319491998636 -0.17557124519997391 0 0.1818723402097879 -0.15967427418471861 0 0.17835699345848721 -0.16976757607630821 0 0.1873319491998636 -0.17557124519997391 0 0.1802464336720388 -0.15308807763149751 0 0.18719167444057441 -0.16026207993725949 0 0.1818723402097879 -0.15967427418471861 0 0.1729605640015239 -0.15579395995578291 0 0.1818723402097879 -0.15967427418471861 0 0.1739018951792515 -0.164984908286194 0 0.1739018951792515 -0.164984908286194 0 0.17835699345848721 -0.16976757607630821 0 0.17005740668618499 -0.17650176238689319 0 0.1818723402097879 -0.15967427418471861 0 0.1739018951792515 -0.164984908286194 0 0.17835699345848721 -0.16976757607630821 0 0.18719167444057441 -0.16026207993725949 0 0.1873319491998636 -0.17557124519997391 0 0.18742729069469849 -0.1859765291458525 0 0.17005740668618499 -0.17650176238689319 0 0.17891775776969329 -0.18951044883853521 0 0.17241604946880909 -0.19310725460915279 0 0.17005740668618499 -0.17650176238689319 0 0.17891775776969329 -0.18951044883853521 0 0.18742729069469849 -0.1859765291458525 0 0.17005740668618499 -0.17650176238689319 0 0.1873319491998636 -0.17557124519997391 0 0.18742729069469849 -0.1859765291458525 0 0.17005740668618499 -0.17650176238689319 0 0.17835699345848721 -0.16976757607630821 0 0.1873319491998636 -0.17557124519997391 0 0.17005740668618499 -0.17650176238689319 0 0.1873319491998636 -0.17557124519997391 0 0.18742729069469849 -0.1859765291458525 0 0.17241604946880909 -0.19310725460915279 0 0.16406979664922819 -0.18772288958114181 0 0.17005740668618499 -0.17650176238689319 0 0.16406979664922819 -0.18772288958114181 0 0.17005740668618499 -0.17650176238689319 0 0.15637993754092369 -0.18307238079990751 0 0.17005740668618499 -0.17650176238689319 0 0.15637993754092369 -0.18307238079990751 0 0.15793825432963129 -0.17101201400217469 0 0.1560688155500243 -0.15950509342294131 0 0.15793825432963129 -0.17101201400217469 0 0.16626217154027359 -0.16318696882726699 0 0.1560688155500243 -0.15950509342294131 0 0.16283850489714921 -0.15192482443489819 0 0.16626217154027359 -0.16318696882726699 0 0.16283850489714921 -0.15192482443489819 0 0.1729605640015239 -0.15579395995578291 0 0.16626217154027359 -0.16318696882726699 0 0.1729605640015239 -0.15579395995578291 0 0.1739018951792515 -0.164984908286194 0 0.16626217154027359 -0.16318696882726699 0 0.17005740668618499 -0.17650176238689319 0 0.15793825432963129 -0.17101201400217469 0 0.16626217154027359 -0.16318696882726699 0 0.1739018951792515 -0.164984908286194 0 0.17005740668618499 -0.17650176238689319 0 0.16626217154027359 -0.16318696882726699 0 
</DataArray>
</Points>
<Cells>
<DataArray type="UInt32" Name="connectivity" format="ascii">
0 1 2 3 4 5 6 7 8 9 10 11 12 13 14 15 16 17 18 19 20 21 22 23 24 25 26 27 28 29 30 31 32 33 34 35 36 37 38 39 40 41 42 43 44 45 46 47 48 49 50 51 52 53 54 55 56 57 58 59 60 61 62 63 64 65 66 67 68 69 70 71 72 73 74 75 76 77 78 79 80 81 82 83 84 85 86 87 88 89 90 91 92 93 94 95 96 97 98 99 100 101 102 103 104 105 106 107 108 109 110 111 112 113 114 115 116 117 118 119 120 121 122 123 124 125 126 127 128 129 130 131 132 133 134 135 136 137 138 139 140 141 142 143 144 145 146 147 148 149 150 151 152 153 154 155 156 157 158 159 160 161 162 163 164 165 166 167 168 169 170 171 172 173 174 175 176 177 178 179 180 181 182 183 184 185 186 187 188 189 190 191 192 193 194 195 196 197 198 199 200 201 202 203 204 205 206 207 208 209 210 211 212 213 214 215 216 217 218 219 220 221 222 223 224 225 226 227 228 229 230 231 232 233 234 235 236 237 238 239 240 241 242 243 244 245 246 247 248 249 250 251 252 253 254 255 256 257 258 259 260 261 262 263 264 265 266 267 268 269 270 271 272 273 274 275 276 277 278 279 280 281 282 283 284 285 286 287 288 289 290 291 292 293 294 295 296 297 298 299 300 301 302 303 304 305 306 307 308 309 310 311 312 313 314 315 316 317 318 319 320 321 322 323 324 325 326 327 328 329 330 331 332 333 334 335 336 337 338 339 340 341 342 343 344 345 346 347 348 349 350 351 352 353 354 355 356 357 358 359 360 361 362 363 364 365 366 367 368 369 370 371 372 373 374 375 376 377 378 379 380 381 382 383 384 385 386 387 388 389 390 391 392 393 394 395 396 397 398 399 400 401 402 403 404 405 406 407 408 409 410 411 412 413 414 415 416 417 418 419 420 421 422 423 424 425 426 427 428 429 430 431 432 433 434 435 436 437 438 439 440 441 442 443 444 445 446 447 448 449 450 451 452 453 454 455 456 457 458 459 460 461 462 463 464 465 466 467 468 469 470 471 472 473 474 475 476 477 478 479 480 481 482 483 484 485 486 487 488 489 490 491 492 493 494 495 496 497 498 499 500 501 502 503 504 505 506 507 508 509 510 511 512 513 514 515 516 517 518 519 520 521 522 523 524 525 526 527 528 529 530 531 532 533 534 535 536 537 538 539 540 541 542 543 544 545 546 547 548 549 550 551 552 553 554 555 556 557 558 559 560 561 562 563 564 565 566 567 568 569 570 571 572 573 574 575 576 577 578 579 580 581 582 583 584 585 586 587 588 589 590 591 592 593 594 595 596 597 598 599 600 601 602 603 604 605 606 607 608 609 610 611 612 613 614 615 616 617 618 619 620 621 622 623 624 625 626 627 628 629 630 631 632 633 634 635 636 637 638 639 640 641 642 643 644 645 646 647 648 649 650 651 652 653 654 655 656 657 658 659 660 661 662 663 664 665 666 667 668 669 670 671 672 673 674 675 676 677 678 679 680 681 682 683 684 685 686 687 688 689 690 691 692 693 694 695 696 697 698 699 700 701 702 703 704 705 706 707 708 709 710 711 712 713 714 715 716 717 718 719 720 721 722 723 724 725 726 727 728 729 730 731 732 733 734 735 736 737 738 739 740 741 742 743 744 745 746 747 748 749 750 751 752 753 754 755 756 757 758 759 760 761 762 763 764 765 766 767 768 769 770 771 772 773 774 775 776 777 778 779 780 781 782 783 784 785 786 787 788 789 790 791 792 793 794 795 796 797 798 799 800 801 802 803 804 805 806 807 808 809 810 811 812 813 814 815 816 817 818 819 820 821 822 823 824 825 826 827 828 829 830 831 832 833 834 835 836 837 838 839 840 841 842 843 844 845 846 847 848 849 850 851 852 853 854 855 856 857 858 859 860 861 862 863 864 865 866 867 868 869 870 871 872 873 874 875 876 877 878 879 880 881 882 883 884 885 886 887 888 889 890 891 892 893 894 895 896 897 898 899 900 901 902 903 904 905 906 907 908 909 910 911 912 913 914 915 916 917 918 919 920 921 922 923 924 925 926 927 928 929 930 931 932 933 934 935 936 937 938 939 940 941 942 943 944 945 946 947 948 949 950 951 952 953 954 955 956 957 958 959 960 961 962 963 964 965 966 967 968 969 970 971 972 973 974 975 976 977 978 979 980 981 982 983 984 985 986 987 988 989 990 991 992 993 994 995 996 997 998 999 1000 1001 1002 1003 1004 1005 1006 1007 1008 1009 1010 1011 1012 1013 1014 1015 1016 1017 1018 1019 1020 1021 1022 1023 1024 1025 1026 1027 1028 1029 1030 1031 1032 1033 1034 1035 1036 1037 1038 1039 1040 1041 1042 1043 1044 1045 1046 1047 1048 1049 1050 1051 1052 1053 1054 1055 1056 1057 1058 1059 1060 1061 1062 1063 1064 1065 1066 1067 1068 1069 1070 1071 1072 1073 1074 1075 1076 1077 1078 1079 1080 1081 1082 1083 1084 1085 1086 1087 1088 1089 1090 1091 1092 1093 1094 1095 1096 1097 1098 1099 1100 1101 1102 1103 1104 1105 1106 1107 1108 1109 1110 1111 1112 1113 1114 1115 1116 1117 1118 1119 1120 1121 1122 1123 1124 1125 1126 1127 1128 1129 1130 1131 1132 1133 1134 1135 1136 1137 1138 1139 1140 1141 1142 1143 1144 1145 1146 1147 1148 1149 1150 1151 1152 1153 1154 1155 1156 1157 1158 1159 1160 1161 1162 1163 1164 1165 1166 1167 1168 1169 1170 1171 1172 1173 1174 1175 1176 1177 1178 1179 1180 1181 1182 1183 1184 1185 1186 1187 1188 1189 1190 1191 1192 1193 1194 1195 1196 1197 1198 1199 1200 1201 1202 1203 1204 1205 1206 1207 1208 1209 1210 1211 1212 1213 1214 1215 1216 1217 1218 1219 1220 1221 1222 1223 1224 1225 1226 1227 1228 1229 1230 1231 1232 1233 1234 1235 1236 1237 1238 1239 1240 1241 1242 1243 1244 1245 1246 1247 1248 1249 1250 1251 1252 1253 1254 1255 1256 1257 1258 1259 1260 1261 1262 1263 1264 1265 1266 1267 1268 1269 1270 1271 1272 1273 1274 1275 1276 1277 1278 1279 1280 1281 1282 1283 1284 1285 1286 1287 1288 1289 1290 1291 1292 1293 1294 1295 1296 1297 1298 1299 1300 1301 1302 1303 1304 1305 1306 1307 1308 1309 1310 1311 1312 1313 1314 1315 1316 1317 1318 1319 1320 1321 1322 1323 1324 1325 1326 1327 1328 1329 1330 1331 1332 1333 1334 1335 1336 1337 1338 1339 1340 1341 1342 1343 1344 1345 1346 1347 1348 1349 1350 1351 1352 1353 1354 1355 1356 1357 1358 1359 1360 1361 1362 1363 1364 1365 1366 1367 1368 1369 1370 1371 1372 1373 1374 1375 1376 1377 1378 1379 1380 1381 1382 1383 1384 1385 1386 1387 1388 1389 1390 1391 1392 1393 1394 1395 1396 1397 1398 1399 1400 1401 1402 1403 1404 1405 1406 1407 1408 1409 1410 1411 1412 1413 1414 1415 1416 1417 1418 1419 1420 1421 1422 1423 1424 1425 1426 1427 1428 1429 1430 1431 1432 1433 1434 1435 1436 1437 1438 1439 1440 1441 1442 1443 1444 1445 1446 1447 1448 1449 1450 1451 1452 1453 1454 1455 1456 1457 1458 1459 1460 1461 1462 1463 1464 1465 1466 1467 1468 1469 1470 1471 1472 1473 1474 1475 1476 1477 1478 1479 1480 1481 1482 1483 1484 1485 1486 1487 1488 1489 1490 1491 1492 1493 1494 1495 1496 1497 1498 1499 1500 1501 1502 1503 1504 1505 1506 1507 1508 1509 1510 1511 1512 1513 1514 1515 1516 1517 1518 1519 1520 1521 1522 1523 1524 1525 1526 1527 1528 1529 1530 1531 1532 1533 1534 1535 1536 1537 1538 1539 1540 1541 1542 1543 1544 1545 1546 1547 1548 1549 1550 1551 1552 1553 1554 1555 1556 1557 1558 1559 1560 1561 1562 1563 1564 1565 1566 1567 1568 1569 1570 1571 1572 1573 1574 1575 1576 1577 1578 1579 1580 1581 1582 1583 1584 1585 1586 1587 1588 1589 1590 1591 1592 1593 1594 1595 1596 1597 1598 1599 1600 1601 1602 1603 1604 1605 1606 1607 1608 1609 1610 1611 1612 1613 1614 1615 1616 1617 1618 1619 1620 1621 1622 1623 1624 1625 1626 1627 1628 1629 1630 1631 1632 1633 1634 1635 1636 1637 1638 1639 1640 1641 1642 1643 1644 1645 1646 1647 1648 1649 1650 1651 1652 1653 1654 1655 1656 1657 1658 1659 1660 1661 1662 1663 1664 1665 1666 1667 1668 1669 1670 1671 1672 1673 1674 1675 1676 1677 1678 1679 1680 1681 1682 1683 1684 1685 1686 1687 1688 1689 1690 1691 1692 1693 1694 1695 1696 1697 1698 1699 1700 1701 1702 1703 1704 1705 1706 1707 1708 1709 1710 1711 1712 1713 1714 1715 1716 1717 1718 1719 1720 1721 1722 1723 1724 1725 1726 1727 1728 1729 1730 1731 1732 1733 1734 1735 1736 1737 1738 1739 1740 1741 1742 1743 1744 1745 1746 1747 1748 1749 1750 1751 1752 1753 1754 1755 1756 1757 1758 1759 1760 1761 1762 1763 1764 1765 1766 1767 1768 1769 1770 1771 1772 1773 1774 1775 1776 1777 1778 1779 1780 1781 1782 1783 1784 1785 1786 1787 1788 1789 1790 1791 1792 1793 1794 1795 1796 1797 1798 1799 1800 1801 1802 1803 1804 1805 1806 1807 1808 1809 1810 1811 1812 1813 1814 1815 1816 1817 1818 1819 1820 1821 1822 1823 1824 1825 1826 1827 1828 1829 1830 1831 1832 1833 1834 1835 1836 1837 1838 1839 1840 1841 1842 1843 1844 1845 1846 1847 1848 1849 1850 1851 1852 1853 1854 1855 1856 1857 1858 1859 1860 1861 1862 1863 1864 1865 1866 1867 1868 1869 1870 1871 1872 1873 1874 1875 1876 1877 1878 1879 1880 1881 1882 1883 1884 1885 1886 1887 1888 1889 1890 1891 1892 1893 1894 1895 1896 1897 1898 1899 1900 1901 1902 1903 1904 1905 1906 1907 1908 1909 1910 1911 1912 1913 1914 1915 1916 1917 1918 1919 1920 1921 1922 1923 1924 1925 1926 1927 1928 1929 1930 1931 1932 1933 1934 1935 1936 1937 1938 1939 1940 1941 1942 1943 1944 1945 1946 1947 1948 1949 1950 1951 1952 1953 1954 1955 1956 1957 1958 1959 1960 1961 1962 1963 1964 1965 1966 1967 1968 1969 1970 1971 1972 1973 1974 1975 1976 1977 1978 1979 1980 1981 1982 1983 1984 1985 1986 1987 1988 1989 1990 1991 1992 1993 1994 1995 1996 1997 1998 1999 2000 2001 2002 2003 2004 2005 2006 2007 2008 2009 2010 2011 2012 2013 2014 2015 2016 2017 2018 2019 2020 2021 2022 2023 2024 2025 2026 2027 2028 2029 2030 2031 2032 2033 2034 2035 2036 2037 2038 2039 2040 2041 2042 2043 2044 2045 2046 2047 2048 2049 2050 2051 2052 2053 2054 2055 2056 2057 2058 2059 2060 2061 2062 2063 2064 2065 2066 2067 2068 2069 2070 2071 2072 2073 2074 2075 2076 2077 2078 2079 2080 2081 2082 2083 2084 2085 2086 2087 2088 2089 2090 2091 2092 2093 2094 2095 2096 2097 2098 2099 2100 2101 2102 2103 2104 2105 2106 2107 2108 2109 2110 2111 2112 2113 2114 2115 2116 2117 2118 2119 2120 2121 2122 2123 2124 2125 2126 2127 2128 2129 2130 2131 2132 2133 2134 2135 2136 2137 2138 2139 2140 2141 2142 2143 2144 2145 2146 2147 2148 2149 2150 2151 2152 2153 2154 2155 2156 2157 2158 2159 2160 2161 2162 2163 2164 2165 2166 2167 2168 2169 2170 2171 2172 2173 2174 2175 2176 2177 2178 2179 2180 2181 2182 2183 2184 2185 2186 2187 2188 2189 2190 2191 2192 2193 2194 2195 2196 2197 2198 2199 2200 2201 2202 2203 2204 2205 2206 2207 2208 2209 2210 2211 2212 2213 2214 2215 2216 2217 2218 2219 2220 2221 2222 2223 2224 2225 2226 2227 2228 2229 2230 2231 2232 2233 2234 2235 2236 2237 2238 2239 2240 2241 2242 2243 2244 2245 2246 2247 2248 2249 2250 2251 2252 2253 2254 2255 2256 2257 2258 2259 2260 2261 2262 2263 2264 2265 2266 2267 2268 2269 2270 2271 2272 2273 2274 2275 2276 2277 2278 2279 2280 2281 2282 2283 2284 2285 2286 2287 2288 2289 2290 2291 2292 2293 2294 2295 2296 2297 2298 2299 2300 2301 2302 2303 2304 2305 2306 2307 2308 2309 2310 2311 2312 2313 2314 2315 2316 2317 2318 2319 2320 2321 2322 2323 2324 2325 2326 2327 2328 2329 2330 2331 2332 2333 2334 2335 2336 2337 2338 2339 2340 2341 2342 2343 2344 2345 2346 2347 2348 2349 2350 2351 2352 2353 2354 2355 2356 2357 2358 2359 2360 2361 2362 2363 2364 2365 2366 2367 2368 2369 2370 2371 2372 2373 2374 2375 2376 2377 2378 2379 2380 2381 2382 2383 2384 2385 2386 2387 2388 2389 2390 2391 2392 2393 2394 2395 2396 2397 2398 2399 2400 2401 2402 2403 2404 2405 2406 2407 2408 2409 2410 2411 2412 2413 2414 2415 2416 2417 2418 2419 2420 2421 2422 2423 2424 2425 2426 2427 2428 2429 2430 2431 2432 2433 2434 2435 2436 2437 2438 2439 2440 2441 2442 2443 2444 2445 2446 2447 2448 2449 2450 2451 2452 2453 2454 2455 2456 2457 2458 2459 2460 2461 2462 2463 2464 2465 2466 2467 2468 2469 2470 2471 2472 2473 2474 2475 2476 2477 2478 2479 2480 2481 2482 2483 2484 2485 2486 2487 2488 2489 2490 2491 2492 2493 2494 2495 2496 2497 2498 2499 2500 2501 2502 2503 2504 2505 2506 2507 2508 2509 2510 2511 2512 2513 2514 2515 2516 2517 2518 2519 2520 2521 2522 2523 2524 2525 2526 2527 2528 2529 2530 2531 2532 2533 2534 2535 2536 2537 2538 2539 2540 2541 2542 2543 2544 2545 2546 2547 2548 2549 2550 2551 2552 2553 2554 2555 2556 2557 2558 2559 2560 2561 2562 2563 2564 2565 2566 2567 2568 2569 2570 2571 2572 2573 2574 2575 2576 2577 2578 2579 2580 2581 2582 2583 2584 2585 2586 2587 2588 2589 2590 2591 2592 2593 2594 2595 2596 2597 2598 2599 2600 2601 2602 2603 2604 2605 2606 2607 2608 2609 2610 2611 2612 2613 2614 2615 2616 2617 2618 2619 2620 2621 2622 2623 2624 2625 2626 2627 2628 2629 2630 2631 2632 2633 2634 2635 2636 2637 2638 2639 2640 2641 2642 2643 2644 2645 2646 2647 2648 2649 2650 2651 2652 2653 2654 2655 2656 2657 2658 2659 2660 2661 2662 2663 2664 2665 2666 2667 2668 2669 2670 2671 2672 2673 2674 2675 2676 2677 2678 2679 2680 2681 2682 2683 2684 2685 2686 2687 2688 2689 2690 2691 2692 2693 2694 2695 2696 2697 2698 2699 2700 2701 2702 2703 2704 2705 2706 2707 2708 2709 2710 2711 2712 2713 2714 2715 2716 2717 2718 2719 2720 2721 2722 2723 2724 2725 2726 2727 2728 2729 2730 2731 2732 2733 2734 2735 2736 2737 2738 2739 2740 2741 2742 2743 2744 2745 2746 2747 2748 2749 2750 2751 2752 2753 2754 2755 2756 2757 2758 2759 2760 2761 2762 2763 2764 2765 2766 2767 2768 2769 2770 2771 2772 2773 2774 2775 2776 2777 2778 2779 2780 2781 2782 2783 2784 2785 2786 2787 2788 2789 2790 2791 2792 2793 2794 2795 2796 2797 2798 2799 2800 2801 2802 2803 2804 2805 2806 2807 2808 2809 2810 2811 2812 2813 2814 2815 2816 2817 2818 2819 2820 2821 2822 2823 2824 2825 2826 2827 2828 2829 2830 2831 2832 2833 2834 2835 2836 2837 2838 2839 2840 2841 2842 2843 2844 2845 2846 2847 2848 2849 2850 2851 2852 2853 2854 2855 2856 2857 2858 2859 2860 2861 2862 2863 2864 2865 2866 2867 2868 2869 2870 2871 2872 2873 2874 2875 2876 2877 2878 2879 2880 2881 2882 2883 2884 2885 2886 2887 2888 2889 2890 2891 2892 2893 2894 2895 2896 2897 2898 2899 2900 2901 2902 2903 2904 2905 2906 2907 2908 2909 2910 2911 2912 2913 2914 2915 2916 2917 2918 2919 2920 2921 2922 2923 2924 2925 2926 2927 2928 2929 2930 2931 2932 2933 2934 2935 2936 2937 2938 2939 2940 2941 2942 2943 2944 2945 2946 2947 2948 2949 2950 2951 2952 2953 2954 2955 2956 2957 2958 2959 2960 2961 2962 2963 2964 2965 2966 2967 2968 2969 2970 2971 2972 2973 2974 2975 2976 2977 2978 2979 2980 2981 2982 2983 2984 2985 2986 2987 2988 2989 2990 2991 2992 2993 2994 2995 2996 2997 2998 2999 3000 3001 3002 3003 3004 3005 3006 3007 3008 3009 3010 3011 3012 3013 3014 3015 3016 3017 3018 3019 3020 3021 3022 3023 3024 3025 3026 3027 3028 3029 3030 3031 3032 3033 3034 3035 3036 3037 3038 3039 3040 3041 3042 3043 3044 3045 3046 3047 3048 3049 3050 3051 3052 3053 3054 3055 3056 3057 3058 3059 3060 3061 3062 3063 3064 3065 3066 3067 3068 3069 3070 3071 3072 3073 3074 3075 3076 3077 3078 3079 3080 3081 3082 3083 3084 3085 3086 3087 3088 3089 3090 3091 3092 3093 3094 3095 3096 3097 3098 3099 3100 3101 3102 3103 3104 3105 3106 3107 3108 3109 3110 3111 3112 3113 3114 3115 3116 3117 3118 3119 3120 3121 3122 3123 3124 3125 3126 3127 3128 3129 3130 3131 3132 3133 3134 3135 3136 3137 3138 3139 3140 3141 3142 3143 3144 3145 3146 3147 3148 3149 3150 3151 3152 3153 3154 3155 3156 3157 3158 3159 3160 3161 3162 3163 3164 3165 3166 3167 3168 3169 3170 3171 3172 3173 3174 3175 3176 3177 3178 3179 3180 3181 3182 3183 3184 3185 3186 3187 3188 3189 3190 3191 3192 3193 3194 3195 3196 3197 3198 3199 3200 3201 3202 3203 3204 3205 3206 3207 3208 3209 3210 3211 3212 3213 3214 3215 3216 3217 3218 3219 3220 3221 3222 3223 3224 3225 3226 3227 3228 3229 3230 3231 3232 3233 3234 3235 3236 3237 3238 3239 3240 3241 3242 3243 3244 3245 3246 3247 3248 3249 3250 3251 3252 3253 3254 3255 3256 3257 3258 3259 3260 3261 3262 3263 3264 3265 3266 3267 3268 3269 3270 3271 3272 3273 3274 3275 3276 3277 3278 3279 3280 3281 3282 3283 3284 3285 3286 3287 3288 3289 3290 3291 3292 3293 3294 3295 3296 3297 3298 3299 3300 3301 3302 3303 3304 3305 3306 3307 3308 3309 3310 3311 3312 3313 3314 3315 3316 3317 3318 3319 3320 3321 3322 3323 3324 3325 3326 3327 3328 3329 3330 3331 3332 3333 3334 3335 3336 3337 3338 3339 3340 3341 3342 3343 3344 3345 3346 3347 3348 3349 3350 3351 3352 3353 3354 3355 3356 3357 3358 3359 3360 3361 3362 3363 3364 3365 3366 3367 3368 3369 3370 3371 3372 3373 3374 3375 3376 3377 3378 3379 3380 3381 3382 3383 3384 3385 3386 3387 3388 3389 3390 3391 3392 3393 3394 3395 3396 3397 3398 3399 3400 3401 3402 3403 3404 3405 3406 3407 3408 3409 3410 3411 3412 3413 3414 3415 3416 3417 3418 3419 3420 3421 3422 3423 3424 3425 3426 3427 3428 3429 3430 3431 3432 3433 3434 3435 3436 3437 3438 3439 3440 3441 3442 3443 3444 3445 3446 3447 3448 3449 3450 3451 3452 3453 3454 3455 3456 3457 3458 3459 3460 3461 3462 3463 3464 3465 3466 3467 3468 3469 3470 3471 3472 3473 3474 3475 3476 3477 3478 3479 3480 3481 3482 3483 3484 3485 3486 3487 3488 3489 3490 3491 3492 3493 3494 3495 3496 3497 3498 3499 3500 3501 3502 3503 3504 3505 3506 3507 3508 3509 3510 3511 3512 3513 3514 3515 3516 3517 3518 3519 3520 3521 3522 3523 3524 3525 3526 3527 3528 3529 3530 3531 3532 3533 3534 3535 3536 3537 3538 3539 3540 3541 3542 3543 3544 3545 3546 3547 3548 3549 3550 3551 3552 3553 3554 3555 3556 3557 3558 3559 3560 3561 3562 3563 3564 3565 3566 3567 3568 3569 3570 3571 3572 3573 3574 3575 3576 3577 3578 3579 3580 3581 3582 3583 3584 3585 3586 3587 3588 3589 3590 3591 3592 3593 3594 3595 3596 3597 3598 3599 3600 3601 3602 3603 3604 3605 3606 3607 3608 3609 3610 3611 3612 3613 3614 3615 3616 3617 3618 3619 3620 3621 3622 3623 3624 3625 3626 3627 3628 3629 3630 3631 3632 3633 3634 3635 3636 3637 3638 3639 3640 3641 3642 3643 3644 3645 3646 3647 3648 3649 3650 3651 3652 3653 3654 3655 3656 3657 3658 3659 3660 3661 3662 3663 3664 3665 3666 3667 3668 3669 3670 3671 3672 3673 3674 3675 3676 3677 3678 3679 3680 3681 3682 3683 3684 3685 3686 3687 3688 3689 3690 3691 3692 3693 3694 3695 3696 3697 3698 3699 3700 3701 3702 3703 3704 3705 3706 3707 3708 3709 3710 3711 3712 3713 3714 3715 3716 3717 3718 3719 3720 3721 3722 3723 3724 3725 3726 3727 3728 3729 3730 3731 3732 3733 3734 3735 3736 3737 3738 3739 3740 3741 3742 3743 3744 3745 3746 3747 3748 3749 3750 3751 3752 3753 3754 3755 3756 3757 3758 3759 3760 3761 3762 3763 3764 3765 3766 3767 3768 3769 3770 3771 3772 3773 3774 3775 3776 3777 3778 3779 3780 3781 3782 3783 3784 3785 3786 3787 3788 3789 3790 3791 3792 3793 3794 3795 3796 3797 3798 3799 3800 3801 3802 3803 3804 3805 3806 3807 3808 3809 3810 3811 3812 3813 3814 3815 3816 3817 3818 3819 3820 3821 3822 3823 3824 3825 3826 3827 3828 3829 3830 3831 3832 3833 3834 3835 3836 3837 3838 3839 3840 3841 3842 3843 3844 3845 3846 3847 3848 3849 3850 3851 3852 3853 3854 3855 3856 3857 3858 3859 3860 3861 3862 3863 3864 3865 3866 3867 3868 3869 3870 3871 3872 3873 3874 3875 3876 3877 3878 3879 3880 3881 3882 3883 3884 3885 3886 3887 3888 3889 3890 3891 3892 3893 3894 3895 3896 3897 3898 3899 3900 3901 3902 3903 3904 3905 3906 3907 3908 3909 3910 3911 3912 3913 3914 3915 3916 3917 3918 3919 3920 3921 3922 3923 3924 3925 3926 3927 3928 3929 3930 3931 3932 3933 3934 3935 3936 3937 3938 3939 3940 3941 3942 3943 3944 3945 3946 3947 3948 3949 3950 3951 3952 3953 3954 3955 3956 3957 3958 3959 3960 3961 3962 3963 3964 3965 3966 3967 3968 3969 3970 3971 3972 3973 3974 3975 3976 3977 3978 3979 3980 3981 3982 3983 3984 3985 3986 3987 3988 3989 3990 3991 3992 3993 3994 3995 3996 3997 3998 3999 4000 4001 4002 4003 4004 4005 4006 4007 4008 4009 4010 4011 4012 4013 4014 4015 4016 4017 4018 4019 4020 4021 4022 4023 4024 4025 4026 4027 4028 4029 4030 4031 4032 4033 4034 4035 4036 4037 4038 4039 4040 4041 4042 4043 4044 4045 4046 4047 4048 4049 4050 4051 4052 4053 4054 4055 4056 4057 4058 4059 4060 4061 4062 4063 4064 4065 4066 4067 4068 4069 4070 4071 4072 4073 4074 4075 4076 4077 4078 4079 4080 4081 4082 4083 4084 4085 4086 4087 4088 4089 4090 4091 4092 4093 4094 4095 4096 4097 4098 4099 4100 4101 4102 4103 4104 4105 4106 4107 4108 4109 4110 4111 4112 4113 4114 4115 4116 4117 4118 4119 4120 4121 4122 4123 4124 4125 4126 4127 4128 4129 4130 4131 4132 4133 4134 4135 4136 4137 4138 4139 4140 4141 4142 4143 4144 4145 4146 4147 4148 4149 4150 4151 4152 4153 4154 4155 4156 4157 4158 4159 4160 4161 4162 4163 4164 4165 4166 4167 4168 4169 4170 4171 4172 4173 4174 4175 4176 4177 4178 4179 4180 4181 4182 4183 4184 4185 4186 4187 4188 4189 4190 4191 4192 4193 4194 4195 4196 4197 4198 4199 4200 4201 4202 4203 4204 4205 4206 4207 4208 4209 4210 4211 4212 4213 4214 4215 4216 4217 4218 4219 4220 4221 4222 4223 4224 4225 4226 4227 4228 4229 4230 4231 4232 4233 4234 4235 4236 4237 4238 4239 4240 4241 4242 4243 4244 4245 4246 4247 4248 4249 4250 4251 4252 4253 4254 4255 4256 4257 4258 4259 4260 4261 4262 4263 4264 4265 4266 4267 4268 4269 4270 4271 4272 4273 4274 4275 4276 4277 4278 4279 4280 4281 4282 4283 4284 4285 4286 4287 4288 4289 4290 4291 4292 4293 4294 4295 4296 4297 4298 4299 4300 4301 4302 4303 4304 4305 4306 4307 4308 4309 4310 4311 4312 4313 4314 4315 4316 4317 4318 4319 4320 4321 4322 4323 4324 4325 4326 4327 4328 4329 4330 4331 4332 4333 4334 4335 4336 4337 4338 4339 4340 4341 4342 4343 4344 4345 4346 4347 4348 4349 4350 4351 4352 4353 4354 4355 4356 4357 4358 4359 4360 4361 4362 4363 4364 4365 4366 4367 4368 4369 4370 4371 4372 4373 4374 4375 4376 4377 4378 4379 4380 4381 4382 4383 4384 4385 4386 4387 4388 4389 4390 4391 4392 4393 4394 4395 4396 4397 4398 4399 4400 4401 4402 4403 4404 4405 4406 4407 4408 4409 4410 4411 4412 4413 4414 4415 4416 4417 4418 4419 4420 4421 4422 4423 4424 4425 4426 4427 4428 4429 4430 4431 4432 4433 4434 4435 4436 4437 4438 4439 4440 4441 4442 4443 4444 4445 4446 4447 4448 4449 4450 4451 4452 4453 4454 4455 4456 4457 4458 4459 4460 4461 4462 4463 4464 4465 4466 4467 4468 4469 4470 4471 4472 4473 4474 4475 4476 4477 4478 4479 4480 4481 4482 4483 4484 4485 4486 4487 4488 4489 4490 4491 4492 4493 4494 4495 4496 4497 4498 4499 4500 4501 4502 4503 4504 4505 4506 4507 4508 4509 4510 4511 4512 4513 4514 4515 4516 4517 4518 4519 4520 4521 4522 4523 4524 4525 4526 4527 4528 4529 4530 4531 4532 4533 4534 4535 4536 4537 4538 4539 4540 4541 4542 4543 4544 4545 4546 4547 4548 4549 4550 4551 4552 4553 4554 4555 4556 4557 4558 4559 4560 4561 4562 4563 4564 4565 4566 4567 4568 4569 4570 4571 4572 4573 4574 4575 4576 4577 4578 4579 4580 4581 4582 4583 4584 4585 4586 4587 4588 4589 4590 4591 4592 4593 4594 4595 4596 4597 4598 4599 4600 4601 4602 4603 4604 4605 4606 4607 4608 4609 4610 4611 4612 4613 4614 4615 4616 4617 4618 4619 4620 4621 4622 4623 4624 4625 4626 4627 4628 4629 4630 4631 4632 4633 4634 4635 4636 4637 4638 4639 4640 4641 4642 4643 4644 4645 4646 4647 4648 4649 4650 4651 4652 4653 4654 4655 4656 4657 4658 4659 4660 4661 4662 4663 4664 4665 4666 4667 4668 4669 4670 4671 4672 4673 4674 4675 4676 4677 4678 4679 4680 4681 4682 4683 4684 4685 4686 4687 4688 4689 4690 4691 4692 4693 4694 4695 4696 4697 4698 4699 4700 4701 4702 4703 4704 4705 4706 4707 4708 4709 4710 4711 4712 4713 4714 4715 4716 4717 4718 4719 4720 4721 4722 4723 4724 4725 4726 4727 4728 4729 4730 4731 4732 4733 4734 4735 4736 4737 4738 4739 4740 4741 4742 4743 4744 4745 4746 4747 4748 4749 4750 4751 4752 4753 4754 4755 4756 4757 4758 4759 4760 4761 4762 4763 4764 4765 4766 4767 4768 4769 4770 4771 4772 4773 4774 4775 4776 4777 4778 4779 4780 4781 4782 4783 4784 4785 4786 4787 4788 4789 4790 4791 4792 4793 4794 4795 4796 4797 4798 4799 4800 4801 4802 4803 4804 4805 4806 4807 4808 4809 4810 4811 4812 4813 4814 4815 4816 4817 4818 4819 4820 4821 4822 4823 4824 4825 4826 4827 4828 4829 4830 4831 4832 4833 4834 4835 4836 4837 4838 4839 4840 4841 4842 4843 4844 4845 4846 4847 4848 4849 4850 4851 4852 4853 4854 4855 4856 4857 4858 4859 4860 4861 4862 4863 4864 4865 4866 4867 4868 4869 4870 4871 4872 4873 4874 4875 4876 4877 4878 4879 4880 4881 4882 4883 4884 4885 4886 4887 4888 4889 4890 4891 4892 4893 4894 4895 4896 4897 4898 4899 4900 4901 4902 4903 4904 4905 4906 4907 4908 4909 4910 4911 4912 4913 4914 4915 4916 4917 4918 4919 4920 4921 4922 4923 4924 4925 4926 4927 4928 4929 4930 4931 4932 4933 4934 4935 4936 4937 4938 4939 4940 4941 4942 4943 4944 4945 4946 4947 4948 4949 4950 4951 4952 4953 4954 4955 4956 4957 4958 4959 4960 4961 4962 4963 4964 4965 4966 4967 4968 4969 4970 4971 4972 4973 4974 4975 4976 4977 4978 4979 4980 4981 4982 4983 4984 4985 4986 4987 4988 4989 4990 4991 4992 4993 4994 4995 4996 4997 4998 4999 5000 5001 5002 5003 5004 5005 5006 5007 5008 5009 5010 5011 5012 5013 5014 5015 5016 5017 5018 5019 5020 5021 5022 5023 5024 5025 5026 5027 5028 5029 5030 5031 5032 5033 5034 5035 5036 5037 5038 5039 5040 5041 5042 5043 5044 5045 5046 5047 5048 5049 5050 5051 5052 5053 5054 5055 5056 5057 5058 5059 5060 5061 5062 5063 5064 5065 5066 5067 5068 5069 5070 5071 5072 5073 5074 5075 5076 5077 5078 5079 5080 5081 5082 5083 5084 5085 5086 5087 5088 5089 5090 5091 5092 5093 5094 5095 5096 5097 5098 5099 5100 5101 5102 5103 5104 5105 5106 5107 5108 5109 5110 5111 5112 5113 5114 5115 5116 5117 5118 5119 5120 5121 5122 5123 5124 5125 5126 5127 5128 5129 5130 5131 5132 5133 5134 5135 5136 5137 5138 5139 5140 5141 5142 5143 5144 5145 5146 5147 5148 5149 5150 5151 5152 5153 5154 5155 5156 5157 5158 5159 5160 5161 5162 5163 5164 5165 5166 5167 5168 5169 5170 5171 5172 5173 5174 5175 5176 5177 5178 5179 5180 5181 5182 5183 5184 5185 5186 5187 5188 5189 5190 5191 5192 5193 5194 5195 5196 5197 5198 5199 5200 5201 5202 5203 5204 5205 5206 5207 5208 5209 5210 5211 5212 5213 5214 5215 5216 5217 5218 5219 5220 5221 5222 5223 5224 5225 5226 5227 5228 5229 5230 5231 5232 5233 5234 5235 5236 5237 5238 5239 5240 5241 5242 5243 5244 5245 5246 5247 5248 5249 5250 5251 5252 5253 5254 5255 5256 5257 5258 5259 5260 5261 5262 5263 5264 5265 5266 5267 5268 5269 5270 5271 5272 5273 5274 5275 5276 5277 5278 5279 5280 5281 5282 5283 5284 5285 5286 5287 5288 5289 5290 5291 5292 5293 5294 5295 5296 5297 5298 5299 5300 5301 5302 5303 5304 5305 5306 5307 5308 5309 5310 5311 5312 5313 5314 5315 5316 5317 5318 5319 5320 5321 5322 5323 5324 5325 5326 5327 5328 5329 5330 5331 5332 5333 5334 5335 5336 5337 5338 5339 5340 5341 5342 5343 5344 5345 5346 5347 5348 5349 5350 5351 5352 5353 5354 5355 5356 5357 5358 5359 5360 5361 5362 5363 5364 5365 5366 5367 5368 5369 5370 5371 5372 5373 5374 5375 5376 5377 5378 5379 5380 5381 5382 5383 5384 5385 5386 5387 5388 5389 5390 5391 5392 5393 5394 5395 5396 5397 5398 5399 5400 5401 5402 5403 5404 5405 5406 5407 5408 5409 5410 5411 5412 5413 5414 5415 5416 5417 5418 5419 5420 5421 5422 5423 5424 5425 5426 5427 5428 5429 5430 5431 5432 5433 5434 5435 5436 5437 5438 5439 5440 5441 5442 5443 5444 5445 5446 5447 5448 5449 5450 5451 5452 5453 5454 5455 5456 5457 5458 5459 5460 5461 5462 5463 5464 5465 5466 5467 5468 5469 5470 5471 5472 5473 5474 5475 5476 5477 5478 5479 5480 5481 5482 5483 5484 5485 5486 5487 5488 5489 5490 5491 5492 5493 5494 5495 5496 5497 5498 5499 5500 5501 5502 5503 5504 5505 5506 5507 5508 5509 5510 5511 5512 5513 5514 5515 5516 5517 5518 5519 5520 5521 5522 5523 5524 5525 5526 5527 5528 5529 5530 5531 5532 5533 5534 5535 5536 5537 5538 5539 5540 5541 5542 5543 5544 5545 5546 5547 5548 5549 5550 5551 5552 5553 5554 5555 5556 5557 5558 5559 5560 5561 5562 5563 5564 5565 5566 5567 5568 5569 5570 5571 5572 5573 5574 5575 5576 5577 5578 5579 5580 5581 5582 5583 5584 5585 5586 5587 5588 5589 5590 5591 5592 5593 5594 5595 5596 5597 5598 5599 5600 5601 5602 5603 5604 5605 5606 5607 5608 5609 5610 5611 5612 5613 5614 5615 5616 5617 5618 5619 5620 5621 5622 5623 5624 5625 5626 5627 5628 5629 5630 5631 5632 5633 5634 5635 5636 5637 5638 5639 5640 5641 5642 5643 5644 5645 5646 5647 5648 5649 5650 5651 5652 5653 5654 5655 5656 5657 5658 5659 5660 5661 5662 5663 5664 5665 5666 5667 5668 5669 5670 5671 5672 5673 5674 5675 5676 5677 5678 5679 5680 5681 5682 5683 5684 5685 5686 5687 5688 5689 5690 5691 5692 5693 5694 5695 5696 5697 5698 5699 5700 5701 5702 5703 5704 5705 5706 5707 5708 5709 5710 5711 5712 5713 5714 5715 5716 5717 5718 5719 5720 5721 5722 5723 5724 5725 5726 5727 5728 5729 5730 5731 5732 5733 5734 5735 5736 5737 5738 5739 5740 5741 5742 5743 5744 5745 5746 5747 5748 5749 5750 5751 5752 5753 5754 5755 5756 5757 5758 5759 5760 5761 5762 5763 5764 5765 5766 5767 5768 5769 5770 5771 5772 5773 5774 5775 5776 5777 5778 5779 5780 5781 5782 5783 5784 5785 5786 5787 5788 5789 5790 5791 5792 5793 5794 5795 5796 5797 5798 5799 5800 5801 5802 5803 5804 5805 5806 5807 5808 5809 5810 5811 5812 5813 5814 5815 5816 5817 5818 5819 5820 5821 5822 5823 5824 5825 5826 5827 5828 5829 5830 5831 5832 5833 5834 5835 5836 5837 5838 5839 5840 5841 5842 5843 5844 5845 5846 5847 5848 5849 5850 5851 5852 5853 5854 5855 5856 5857 5858 5859 5860 5861 5862 5863 5864 5865 5866 5867 5868 5869 5870 5871 5872 5873 5874 5875 5876 5877 5878 5879 5880 5881 5882 5883 5884 5885 5886 5887 5888 5889 5890 5891 5892 5893 5894 5895 5896 5897 5898 5899 5900 5901 5902 5903 5904 5905 5906 5907 5908 5909 5910 5911 5912 5913 5914 5915 5916 5917 5918 5919 5920 5921 5922 5923 5924 5925 5926 5927 5928 5929 5930 5931 5932 5933 5934 5935 5936 5937 5938 5939 5940 5941 5942 5943 5944 5945 5946 5947 5948 5949 5950 5951 5952 5953 5954 5955 5956 5957 5958 5959 5960 5961 5962 5963 5964 5965 5966 5967 5968 5969 5970 5971 5972 5973 5974 5975 5976 5977 5978 5979 5980 5981 5982 5983 5984 5985 5986 5987 5988 5989 5990 5991 5992 5993 5994 5995 5996 5997 5998 5999 6000 6001 6002 6003 6004 6005 6006 6007 6008 6009 6010 6011 6012 6013 6014 6015 6016 6017 6018 6019 6020 6021 6022 6023 6024 6025 6026 6027 6028 6029 6030 6031 6032 6033 6034 6035 6036 6037 6038 6039 6040 6041 6042 6043 6044 6045 6046 6047 6048 6049 6050 6051 6052 6053 6054 6055 6056 6057 6058 6059 6060 6061 6062 6063 6064 6065 6066 6067 6068 6069 6070 6071 6072 6073 6074 6075 6076 6077 6078 6079 6080 6081 6082 6083 6084 6085 6086 6087 6088 6089 6090 6091 6092 6093 6094 6095 6096 6097 6098 6099 6100 6101 6102 6103 6104 6105 6106 6107 6108 6109 6110 6111 6112 6113 6114 6115 6116 6117 6118 6119 6120 6121 6122 6123 6124 6125 6126 6127 6128 6129 6130 6131 6132 6133 6134 6135 6136 6137 6138 6139 6140 6141 6142 6143 6144 6145 6146 6147 6148 6149 6150 6151 6152 6153 6154 6155 6156 6157 6158 6159 6160 6161 6162 6163 6164 6165 6166 6167 6168 6169 6170 6171 6172 6173 6174 6175 6176 6177 6178 6179 6180 6181 6182 6183 6184 6185 6186 6187 6188 6189 6190 6191 6192 6193 6194 6195 6196 6197 6198 6199 6200 6201 6202 6203 6204 6205 6206 6207 6208 6209 6210 6211 6212 6213 6214 6215 6216 6217 6218 6219 6220 6221 6222 6223 6224 6225 6226 6227 6228 6229 6230 6231 6232 6233 6234 6235 6236 6237 6238 6239 6240 6241 6242 6243 6244 6245 6246 6247 6248 6249 6250 6251 6252 6253 6254 6255 6256 6257 6258 6259 6260 6261 6262 6263 6264 6265 6266 6267 6268 6269 6270 6271 6272 6273 6274 6275 6276 6277 6278 6279 6280 6281 6282 6283 6284 6285 6286 6287 6288 6289 6290 6291 6292 6293 6294 6295 6296 6297 6298 6299 6300 6301 6302 6303 6304 6305 6306 6307 6308 6309 6310 6311 6312 6313 6314 6315 6316 6317 6318 6319 6320 6321 6322 6323 6324 6325 6326 6327 6328 6329 6330 6331 6332 6333 6334 6335 6336 6337 6338 6339 6340 6341 6342 6343 6344 6345 6346 6347 6348 6349 6350 6351 6352 6353 6354 6355 6356 6357 6358 6359 6360 6361 6362 6363 6364 6365 6366 6367 6368 6369 6370 6371 6372 6373 6374 6375 6376 6377 6378 6379 6380 6381 6382 6383 6384 6385 6386 6387 6388 6389 6390 6391 6392 6393 6394 6395 6396 6397 6398 6399 6400 6401 6402 6403 6404 6405 6406 6407 6408 6409 6410 6411 6412 6413 6414 6415 6416 6417 6418 6419 6420 6421 6422 6423 6424 6425 6426 6427 6428 6429 6430 6431 6432 6433 6434 6435 6436 6437 6438 6439 6440 6441 6442 6443 6444 6445 6446 6447 6448 6449 6450 6451 6452 6453 6454 6455 6456 6457 6458 6459 6460 6461 6462 6463 6464 6465 6466 6467 6468 6469 6470 6471 6472 6473 6474 6475 6476 6477 6478 6479 6480 6481 6482 6483 6484 6485 6486 6487 6488 6489 6490 6491 6492 6493 6494 6495 6496 6497 6498 6499 6500 6501 6502 6503 6504 6505 6506 6507 6508 6509 6510 6511 6512 6513 6514 6515 6516 6517 6518 6519 6520 6521 6522 6523 6524 6525 6526 6527 6528 6529 6530 6531 6532 6533 6534 6535 6536 6537 6538 6539 6540 6541 6542 6543 6544 6545 6546 6547 6548 6549 6550 6551 6552 6553 6554 6555 6556 6557 6558 6559 6560 6561 6562 6563 6564 6565 6566 6567 6568 6569 6570 6571 6572 6573 6574 6575 6576 6577 6578 6579 6580 6581 6582 6583 6584 6585 6586 6587 6588 6589 6590 6591 6592 6593 6594 6595 6596 6597 6598 6599 6600 6601 6602 6603 6604 6605 6606 6607 6608 6609 6610 6611 6612 6613 6614 6615 6616 6617 6618 6619 6620 6621 6622 6623 6624 6625 6626 6627 6628 6629 6630 6631 6632 6633 6634 6635 6636 6637 6638 6639 6640 6641 6642 6643 6644 6645 6646 6647 6648 6649 6650 6651 6652 6653 6654 6655 6656 6657 6658 6659 6660 6661 6662 6663 6664 6665 6666 6667 6668 6669 6670 6671 6672 6673 6674 6675 6676 6677 6678 6679 6680 6681 6682 6683 6684 6685 6686 6687 6688 6689 6690 6691 6692 6693 6694 6695 6696 6697 6698 6699 6700 6701 6702 6703 6704 6705 6706 6707 6708 6709 6710 6711 6712 6713 6714 6715 6716 6717 6718 6719 6720 6721 6722 6723 6724 6725 6726 6727 6728 6729 6730 6731 6732 6733 6734 6735 6736 6737 6738 6739 6740 6741 6742 6743 6744 6745 6746 6747 6748 6749 6750 6751 6752 6753 6754 6755 6756 6757 6758 6759 6760 6761 6762 6763 6764 6765 6766 6767 6768 6769 6770 6771 6772 6773 6774 6775 6776 6777 6778 6779 6780 6781 6782 6783 6784 6785 6786 6787 6788 6789 6790 6791 6792 6793 6794 6795 6796 6797 6798 6799 6800 6801 6802 6803 6804 6805 6806 6807 6808 6809 6810 6811 6812 6813 6814 6815 6816 6817 6818 6819 6820 6821 6822 6823 6824 6825 6826 6827 6828 6829 6830 6831 6832 6833 6834 6835 6836 6837 6838 6839 6840 6841 6842 6843 6844 6845 6846 6847 6848 6849 6850 6851 6852 6853 6854 6855 6856 6857 6858 6859 6860 6861 6862 6863 6864 6865 6866 6867 6868 6869 6870 6871 6872 6873 6874 6875 6876 6877 6878 6879 6880 6881 6882 6883 6884 6885 6886 6887 6888 6889 6890 6891 6892 6893 6894 6895 6896 6897 6898 6899 6900 6901 6902 6903 6904 6905 6906 6907 6908 6909 6910 6911 6912 6913 6914 6915 6916 6917 6918 6919 6920 6921 6922 6923 6924 6925 6926 6927 6928 6929 6930 6931 6932 6933 6934 6935 6936 6937 6938 6939 6940 6941 6942 6943 6944 6945 6946 6947 6948 6949 6950 6951 6952 6953 6954 6955 6956 6957 6958 6959 6960 6961 6962 6963 6964 6965 6966 6967 6968 6969 6970 6971 6972 6973 6974 6975 6976 6977 6978 6979 6980 6981 6982 6983 6984 6985 6986 6987 6988 6989 6990 6991 6992 6993 6994 6995 6996 6997 6998 6999 7000 7001 7002 7003 7004 7005 7006 7007 7008 7009 7010 7011 7012 7013 7014 7015 7016 7017 7018 7019 7020 7021 7022 7023 7024 7025 7026 7027 7028 7029 7030 7031 7032 7033 7034 7035 7036 7037 7038 7039 7040 7041 7042 7043 7044 7045 7046 7047 7048 7049 7050 7051 7052 7053 7054 7055 7056 7057 7058 7059 7060 7061 7062 7063 7064 7065 7066 7067 7068 7069 7070 7071 7072 7073 7074 7075 7076 7077 7078 7079 7080 7081 7082 7083 7084 7085 7086 7087 7088 7089 7090 7091 7092 7093 7094 7095 7096 7097 7098 7099 7100 7101 7102 7103 7104 7105 7106 7107 7108 7109 7110 7111 7112 7113 7114 7115 7116 7117 7118 7119 7120 7121 7122 7123 7124 7125 7126 7127 7128 7129 7130 7131 7132 7133 7134 7135 7136 7137 7138 7139 7140 7141 7142 7143 7144 7145 7146 7147 7148 7149 7150 7151 7152 7153 7154 7155 7156 7157 7158 7159 7160 7161 7162 7163 7164 7165 7166 7167 7168 7169 7170 7171 7172 7173 7174 7175 7176 7177 7178 7179 7180 7181 7182 7183 7184 7185 7186 7187 7188 7189 7190 7191 7192 7193 7194 7195 7196 7197 7198 7199 7200 7201 7202 7203 7204 7205 7206 7207 7208 7209 7210 7211 7212 7213 7214 7215 7216 7217 7218 7219 7220 7221 7222 7223 7224 7225 7226 7227 7228 7229 7230 7231 7232 7233 7234 7235 7236 7237 7238 7239 7240 7241 7242 7243 7244 7245 7246 7247 7248 7249 7250 7251 7252 7253 7254 7255 7256 7257 7258 7259 7260 7261 7262 7263 7264 7265 7266 7267 7268 7269 7270 7271 7272 7273 7274 7275 7276 7277 7278 7279 7280 7281 7282 7283 7284 7285 7286 7287 7288 7289 7290 7291 7292 7293 7294 7295 7296 7297 7298 7299 7300 7301 7302 7303 7304 7305 7306 7307 7308 7309 7310 7311 7312 7313 7314 7315 7316 7317 7318 7319 7320 7321 7322 7323 7324 7325 7326 7327 7328 7329 7330 7331 7332 7333 7334 7335 7336 7337 7338 7339 7340 7341 7342 7343 7344 7345 7346 7347 7348 7349 7350 7351 7352 7353 7354 7355 7356 7357 7358 7359 7360 7361 7362 7363 7364 7365 7366 7367 7368 7369 7370 7371 7372 7373 7374 7375 7376 7377 7378 7379 7380 7381 7382 7383 7384 7385 7386 7387 7388 7389 7390 7391 7392 7393 7394 7395 7396 7397 7398 7399 7400 7401 7402 7403 7404 7405 7406 7407 7408 7409 7410 7411 7412 7413 7414 7415 7416 7417 7418 7419 7420 7421 7422 7423 7424 7425 7426 7427 7428 7429 7430 7431 7432 7433 7434 7435 7436 7437 7438 7439 7440 7441 7442 7443 7444 7445 7446 7447 7448 7449 7450 7451 7452 7453 7454 7455 7456 7457 7458 7459 7460 7461 7462 7463 7464 7465 7466 7467 7468 7469 7470 7471 7472 7473 7474 7475 7476 7477 7478 7479 7480 7481 7482 7483 7484 7485 7486 7487 7488 7489 7490 7491 7492 7493 7494 7495 7496 7497 7498 7499 7500 7501 7502 7503 7504 7505 7506 7507 7508 7509 7510 7511 7512 7513 7514 7515 7516 7517 7518 7519 7520 7521 7522 7523 7524 7525 7526 7527 7528 7529 7530 7531 7532 7533 7534 7535 7536 7537 7538 7539 7540 7541 7542 7543 7544 7545 7546 7547 7548 7549 7550 7551 7552 7553 7554 7555 7556 7557 7558 7559 7560 7561 7562 7563 7564 7565 7566 7567 7568 7569 7570 7571 7572 7573 7574 7575 7576 7577 7578 7579 7580 7581 7582 7583 7584 7585 7586 7587 7588 7589 7590 7591 7592 7593 7594 7595 7596 7597 7598 7599 7600 7601 7602 7603 7604 7605 7606 7607 7608 7609 7610 7611 7612 7613 7614 7615 7616 7617 7618 7619 7620 7621 7622 7623 7624 7625 7626 7627 7628 7629 7630 7631 7632 7633 7634 7635 7636 7637 7638 7639 7640 7641 7642 7643 7644 7645 7646 7647 7648 7649 7650 7651 7652 7653 7654 7655 7656 7657 7658 7659 7660 7661 7662 7663 7664 7665 7666 7667 7668 7669 7670 7671 7672 7673 7674 7675 7676 7677 7678 7679 7680 7681 7682 7683 7684 7685 7686 7687 7688 7689 7690 7691 7692 7693 7694 7695 7696 7697 7698 7699 7700 7701 7702 7703 7704 7705 7706 7707 7708 7709 7710 7711 7712 7713 7714 7715 7716 7717 7718 7719 7720 7721 7722 7723 7724 7725 7726 7727 7728 7729 7730 7731 7732 7733 7734 7735 7736 7737 7738 7739 7740 7741 7742 7743 7744 7745 7746 7747 7748 7749 7750 7751 7752 7753 7754 7755 7756 7757 7758 7759 7760 7761 7762 7763 7764 7765 7766 7767 7768 7769 7770 7771 7772 7773 7774 7775 7776 7777 7778 7779 7780 7781 7782 7783 7784 7785 7786 7787 7788 7789 7790 7791 7792 7793 7794 7795 7796 7797 7798 7799 7800 7801 7802 7803 7804 7805 7806 7807 7808 7809 7810 7811 7812 7813 7814 7815 7816 7817 7818 7819 7820 7821 7822 7823 7824 7825 7826 7827 7828 7829 7830 7831 7832 7833 7834 7835 7836 7837 7838 7839 7840 7841 7842 7843 7844 7845 7846 7847 7848 7849 7850 7851 7852 7853 7854 7855 7856 7857 7858 7859 7860 7861 7862 7863 7864 7865 7866 7867 7868 7869 7870 7871 7872 7873 7874 7875 7876 7877 7878 7879 7880 7881 7882 7883 7884 7885 7886 7887 7888 7889 7890 7891 7892 7893 7894 7895 7896 7897 7898 7899 7900 7901 7902 7903 7904 7905 7906 7907 7908 7909 7910 7911 7912 7913 7914 7915 7916 7917 7918 7919 7920 7921 7922 7923 7924 7925 7926 7927 7928 7929 7930 7931 7932 7933 7934 7935 7936 7937 7938 7939 7940 7941 7942 7943 7944 7945 7946 7947 7948 7949 7950 7951 7952 7953 7954 7955 7956 7957 7958 7959 7960 7961 7962 7963 7964 7965 7966 7967 7968 7969 7970 7971 7972 7973 7974 7975 7976 7977 7978 7979 7980 7981 7982 7983 7984 7985 7986 7987 7988 7989 7990 7991 7992 7993 7994 7995 7996 7997 7998 7999 8000 8001 8002 8003 8004 8005 8006 8007 8008 8009 8010 8011 8012 8013 8014 8015 8016 8017 8018 8019 8020 8021 8022 8023 8024 8025 8026 8027 8028 8029 8030 8031 8032 8033 8034 8035 8036 8037 8038 8039 8040 8041 8042 8043 8044 8045 8046 8047 8048 8049 8050 8051 8052 8053 8054 8055 8056 8057 8058 8059 8060 8061 8062 8063 8064 8065 8066 8067 8068 8069 8070 8071 8072 8073 8074 8075 8076 8077 8078 8079 8080 8081 8082 8083 8084 8085 8086 8087 8088 8089 8090 8091 8092 8093 8094 8095 8096 8097 8098 8099 8100 8101 8102 8103 8104 8105 8106 8107 8108 8109 8110 8111 8112 8113 8114 8115 8116 8117 8118 8119 8120 8121 8122 8123 8124 8125 8126 8127 8128 8129 8130 8131 8132 8133 8134 8135 8136 8137 8138 8139 8140 8141 8142 8143 8144 8145 8146 8147 8148 8149 8150 8151 8152 8153 8154 8155 8156 8157 8158 8159 8160 8161 8162 8163 8164 8165 8166 8167 8168 8169 8170 8171 8172 8173 8174 8175 8176 8177 8178 8179 8180 8181 8182 8183 8184 8185 8186 8187 8188 8189 8190 8191 8192 8193 8194 8195 8196 8197 8198 8199 8200 8201 8202 8203 8204 8205 8206 8207 8208 8209 8210 8211 8212 8213 8214 8215 8216 8217 8218 8219 8220 8221 8222 8223 8224 8225 8226 8227 8228 8229 8230 8231 8232 8233 8234 8235 8236 8237 8238 8239 8240 8241 8242 8243 8244 8245 8246 8247 8248 8249 8250 8251 8252 8253 8254 8255 8256 8257 8258 8259 8260 8261 8262 8263 8264 8265 8266 8267 8268 8269 8270 8271 8272 8273 8274 8275 8276 8277 8278 8279 8280 8281 8282 8283 8284 8285 8286 8287 8288 8289 8290 8291 8292 8293 8294 8295 8296 8297 8298 8299 8300 8301 8302 8303 8304 8305 8306 8307 8308 8309 8310 8311 8312 8313 8314 8315 8316 8317 8318 8319 8320 8321 8322 8323 8324 8325 8326 8327 8328 8329 8330 8331 8332 8333 8334 8335 8336 8337 8338 8339 8340 8341 8342 8343 8344 8345 8346 8347 8348 8349 8350 8351 8352 8353 8354 8355 8356 8357 8358 8359 8360 8361 8362 8363 8364 8365 8366 8367 8368 8369 8370 8371 8372 8373 8374 8375 8376 8377 8378 8379 8380 8381 8382 8383 8384 8385 8386 8387 8388 8389 8390 8391 8392 8393 8394 8395 8396 8397 8398 8399 8400 8401 8402 8403 8404 8405 8406 8407 8408 8409 8410 8411 8412 8413 8414 8415 8416 8417 8418 8419 8420 8421 8422 8423 8424 8425 8426 8427 8428 8429 8430 8431 8432 8433 8434 8435 8436 8437 8438 8439 8440 8441 8442 8443 8444 8445 8446 8447 8448 8449 8450 8451 8452 8453 8454 8455 8456 8457 8458 8459 8460 8461 8462 8463 8464 8465 8466 8467 8468 8469 8470 8471 8472 8473 8474 8475 8476 8477 8478 8479 8480 8481 8482 8483 8484 8485 8486 8487 8488 8489 8490 8491 8492 8493 8494 8495 8496 8497 8498 8499 8500 8501 8502 8503 8504 8505 8506 8507 8508 8509 8510 8511 8512 8513 8514 8515 8516 8517 8518 8519 8520 8521 8522 8523 8524 8525 8526 8527 8528 8529 8530 8531 8532 8533 8534 8535 8536 8537 8538 8539 8540 8541 8542 8543 8544 8545 8546 8547 8548 8549 8550 8551 8552 8553 8554 8555 8556 8557 8558 8559 8560 8561 8562 8563 8564 8565 8566 8567 8568 8569 8570 8571 8572 8573 8574 8575 8576 8577 8578 8579 8580 8581 8582 8583 8584 8585 8586 8587 8588 8589 8590 8591 8592 8593 8594 8595 8596 8597 8598 8599 8600 8601 8602 8603 8604 8605 8606 8607 8608 8609 8610 8611 8612 8613 8614 8615 8616 8617 8618 8619 8620 8621 8622 8623 8624 8625 8626 8627 8628 8629 8630 8631 8632 8633 8634 8635 8636 8637 8638 8639 8640 8641 8642 8643 8644 8645 8646 8647 8648 8649 8650 8651 8652 8653 8654 8655 8656 8657 8658 8659 8660 8661 8662 8663 8664 8665 8666 8667 8668 8669 8670 8671 8672 8673 8674 8675 8676 8677 8678 8679 8680 8681 8682 8683 8684 8685 8686 8687 8688 8689 8690 8691 8692 8693 8694 8695 8696 8697 8698 8699 8700 8701 8702 8703 8704 8705 8706 8707 8708 8709 8710 8711 8712 8713 8714 8715 8716 8717 8718 8719 8720 8721 8722 8723 8724 8725 8726 8727 8728 8729 8730 8731 8732 8733 8734 8735 8736 8737 8738 8739 8740 8741 8742 8743 8744 8745 8746 8747 8748 8749 8750 8751 8752 8753 8754 8755 8756 8757 8758 8759 8760 8761 8762 8763 8764 8765 8766 8767 8768 8769 8770 8771 8772 8773 8774 8775 8776 8777 8778 8779 8780 8781 8782 8783 8784 8785 8786 8787 8788 8789 8790 8791 8792 8793 8794 8795 8796 8797 8798 8799 8800 8801 8802 8803 8804 8805 8806 8807 8808 8809 8810 8811 8812 8813 8814 8815 8816 8817 8818 8819 8820 8821 8822 8823 8824 8825 8826 8827 8828 8829 8830 8831 8832 8833 8834 8835 8836 8837 8838 8839 8840 8841 8842 8843 8844 8845 8846 8847 8848 8849 8850 8851 8852 8853 8854 8855 8856 8857 8858 8859 8860 8861 8862 8863 8864 8865 8866 8867 8868 8869 8870 8871 8872 8873 8874 8875 8876 8877 8878 8879 8880 8881 8882 8883 8884 8885 8886 8887 8888 8889 8890 8891 8892 8893 8894 8895 8896 8897 8898 8899 8900 8901 8902 8903 8904 8905 8906 8907 8908 8909 8910 8911 8912 8913 8914 8915 8916 8917 8918 8919 8920 8921 8922 8923 8924 8925 8926 8927 8928 8929 8930 8931 8932 8933 8934 8935 8936 8937 8938 8939 8940 8941 8942 8943 8944 8945 8946 8947 8948 8949 8950 8951 8952 8953 8954 8955 8956 8957 8958 8959 8960 8961 8962 8963 8964 8965 8966 8967 8968 8969 8970 8971 8972 8973 8974 8975 8976 8977 8978 8979 8980 8981 8982 8983 8984 8985 8986 8987 8988 8989 8990 8991 8992 8993 8994 8995 8996 8997 8998 8999 9000 9001 9002 9003 9004 9005 9006 9007 9008 9009 9010 9011 9012 9013 9014 9015 9016 9017 9018 9019 9020 9021 9022 9023 9024 9025 9026 9027 9028 9029 9030 9031 9032 9033 9034 9035 9036 9037 9038 9039 9040 9041 9042 9043 9044 9045 9046 9047 9048 9049 9050 9051 9052 9053 9054 9055 9056 9057 9058 9059 9060 9061 9062 9063 9064 9065 9066 9067 9068 9069 9070 9071 9072 9073 9074 9075 9076 9077 9078 9079 9080 9081 9082 9083 9084 9085 9086 9087 9088 9089 9090 9091 9092 9093 9094 9095 9096 9097 9098 9099 9100 9101 9102 9103 9104 9105 9106 9107 9108 9109 9110 9111 9112 9113 9114 9115 9116 9117 9118 9119 9120 9121 9122 9123 9124 9125 9126 9127 9128 9129 9130 9131 9132 9133 9134 9135 9136 9137 9138 9139 9140 9141 9142 9143 9144 9145 9146 9147 9148 9149 9150 9151 9152 9153 9154 9155 9156 9157 9158 9159 9160 9161 9162 9163 9164 9165 9166 9167 9168 9169 9170 9171 9172 9173 9174 9175 9176 9177 9178 9179 9180 9181 9182 9183 9184 9185 9186 9187 9188 9189 9190 9191 9192 9193 9194 9195 9196 9197 9198 9199 9200 9201 9202 9203 9204 9205 9206 9207 9208 9209 9210 9211 9212 9213 9214 9215 9216 9217 9218 9219 9220 9221 9222 9223 9224 9225 9226 9227 9228 9229 9230 9231 9232 9233 9234 9235 9236 9237 9238 9239 9240 9241 9242 9243 9244 9245 9246 9247 9248 9249 9250 9251 9252 9253 9254 9255 9256 9257 9258 9259 9260 9261 9262 9263 9264 9265 9266 9267 9268 9269 9270 9271 9272 9273 9274 9275 9276 9277 9278 9279 9280 9281 9282 9283 9284 9285 9286 9287 9288 9289 9290 9291 9292 9293 9294 9295 9296 9297 9298 9299 9300 9301 9302 9303 9304 9305 9306 9307 9308 9309 9310 9311 9312 9313 9314 9315 9316 9317 9318 9319 9320 9321 9322 9323 9324 9325 9326 9327 9328 9329 9330 9331 9332 9333 9334 9335 9336 9337 9338 9339 9340 9341 9342 9343 9344 9345 9346 9347 9348 9349 9350 9351 9352 9353 9354 9355 9356 9357 9358 9359 9360 9361 9362 9363 9364 9365 9366 9367 9368 9369 9370 9371 9372 9373 9374 9375 9376 9377 9378 9379 9380 9381 9382 9383 9384 9385 9386 9387 9388 9389 9390 9391 9392 9393 9394 9395 9396 9397 9398 9399 9400 9401 9402 9403 9404 9405 9406 9407 9408 9409 9410 9411 9412 9413 9414 9415 9416 9417 9418 9419 9420 9421 9422 9423 9424 9425 9426 9427 9428 9429 9430 9431 9432 9433 9434 9435 9436 9437 9438 9439 9440 9441 9442 9443 9444 9445 9446 9447 9448 9449 9450 9451 9452 9453 9454 9455 9456 9457 9458 9459 9460 9461 9462 9463 9464 9465 9466 9467 9468 9469 9470 9471 9472 9473 9474 9475 9476 9477 9478 9479 9480 9481 9482 9483 9484 9485 9486 9487 9488 9489 9490 9491 9492 9493 9494 9495 9496 9497 9498 9499 9500 9501 9502 9503 9504 9505 9506 9507 9508 9509 9510 9511 9512 9513 9514 9515 9516 9517 9518 9519 9520 9521 9522 9523 9524 9525 9526 9527 9528 9529 9530 9531 9532 9533 9534 9535 9536 9537 9538 9539 9540 9541 9542 9543 9544 9545 9546 9547 9548 9549 9550 9551 9552 9553 9554 9555 9556 9557 9558 9559 9560 9561 9562 9563 9564 9565 9566 9567 9568 9569 9570 9571 9572 9573 9574 9575 9576 9577 9578 9579 9580 9581 9582 9583 9584 9585 9586 9587 9588 9589 9590 9591 9592 9593 9594 9595 9596 9597 9598 9599 9600 9601 9602 9603 9604 9605 9606 9607 9608 9609 9610 9611 9612 9613 9614 9615 9616 9617 9618 9619 9620 9621 9622 9623 9624 9625 9626 9627 9628 9629 9630 9631 9632 9633 9634 9635 9636 9637 9638 9639 9640 9641 9642 9643 9644 9645 9646 9647 9648 9649 9650 9651 9652 9653 9654 9655 9656 9657 9658 9659 9660 9661 9662 9663 9664 9665 9666 9667 9668 9669 9670 9671 9672 9673 9674 9675 9676 9677 9678 9679 9680 9681 9682 9683 9684 9685 9686 9687 9688 9689 9690 9691 9692 9693 9694 9695 9696 9697 9698 9699 9700 9701 9702 9703 9704 9705 9706 9707 9708 9709 9710 9711 9712 9713 9714 9715 9716 9717 9718 9719 9720 9721 9722 9723 9724 9725 9726 9727 9728 9729 9730 9731 9732 9733 9734 9735 9736 9737 9738 9739 9740 9741 9742 9743 9744 9745 9746 9747 9748 9749 9750 9751 9752 9753 9754 9755 9756 9757 9758 9759 9760 9761 9762 9763 9764 9765 9766 9767 9768 9769 9770 9771 9772 9773 9774 9775 9776 9777 9778 9779 9780 9781 9782 9783 9784 9785 9786 9787 9788 9789 9790 9791 9792 9793 9794 9795 9796 9797 9798 9799 9800 9801 9802 9803 9804 9805 9806 9807 9808 9809 9810 9811 9812 9813 9814 9815 9816 9817 9818 9819 9820 9821 9822 9823 9824 9825 9826 9827 9828 9829 9830 9831 9832 9833 9834 9835 9836 9837 9838 9839 9840 9841 9842 9843 9844 9845 9846 9847 9848 9849 9850 9851 9852 9853 9854 9855 9856 9857 9858 9859 9860 9861 9862 9863 9864 9865 9866 9867 9868 9869 9870 9871 9872 9873 9874 9875 9876 9877 9878 9879 9880 9881 9882 9883 9884 9885 9886 9887 9888 9889 9890 9891 9892 9893 9894 9895 9896 9897 9898 9899 9900 9901 9902 9903 9904 9905 9906 9907 9908 9909 9910 9911 9912 9913 9914 9915 9916 9917 9918 9919 9920 9921 9922 9923 9924 9925 9926 9927 9928 9929 9930 9931 9932 9933 9934 9935 9936 9937 9938 9939 9940 9941 9942 9943 9944 9945 9946 9947 9948 9949 9950 9951 9952 9953 9954 9955 9956 9957 9958 9959 9960 9961 9962 9963 9964 9965 9966 9967 9968 9969 9970 9971 9972 9973 9974 9975 9976 9977 9978 9979 9980 9981 9982 9983 9984 9985 9986 9987 9988 9989 9990 9991 9992 9993 9994 9995 9996 9997 9998 9999 10000 10001 10002 10003 10004 10005 10006 10007 10008 10009 10010 10011 10012 10013 10014 10015 10016 10017 10018 10019 10020 10021 10022 10023 10024 10025 10026 10027 10028 10029 10030 10031 10032 10033 10034 10035 10036 10037 10038 10039 10040 10041 10042 10043 10044 10045 10046 10047 10048 10049 10050 10051 10052 10053 10054 10055 10056 10057 10058 10059 10060 10061 10062 10063 10064 10065 10066 10067 10068 10069 10070 10071 10072 10073 10074 10075 10076 10077 10078 10079 10080 10081 10082 10083 10084 10085 10086 10087 10088 10089 10090 10091 10092 10093 10094 10095 10096 10097 10098 10099 10100 10101 10102 10103 10104 10105 10106 10107 10108 10109 10110 10111 10112 10113 10114 10115 10116 10117 10118 10119 10120 10121 10122 10123 10124 10125 10126 10127 10128 10129 10130 10131 10132 10133 10134 10135 10136 10137 10138 10139 10140 10141 10142 10143 10144 10145 10146 10147 10148 10149 10150 10151 10152 10153 10154 10155 10156 10157 10158 10159 10160 10161 10162 10163 10164 10165 10166 10167 10168 10169 10170 10171 10172 10173 10174 10175 10176 10177 10178 10179 10180 10181 10182 10183 10184 10185 10186 10187 10188 10189 10190 10191 10192 10193 10194 10195 10196 10197 10198 10199 10200 10201 10202 10203 10204 10205 10206 10207 10208 10209 10210 10211 10212 10213 10214 10215 10216 10217 10218 10219 10220 10221 10222 10223 10224 10225 10226 10227 10228 10229 10230 10231 10232 10233 10234 10235 10236 10237 10238 10239 10240 10241 10242 10243 10244 10245 10246 10247 10248 10249 10250 10251 10252 10253 10254 10255 10256 10257 10258 10259 10260 10261 10262 10263 10264 10265 10266 10267 10268 10269 10270 10271 10272 10273 10274 10275 10276 10277 10278 10279 10280 10281 10282 10283 10284 10285 10286 10287 10288 10289 10290 10291 10292 10293 10294 10295 10296 10297 10298 10299 10300 10301 10302 10303 10304 10305 10306 10307 10308 10309 10310 10311 10312 10313 10314 10315 10316 10317 10318 10319 10320 10321 10322 10323 10324 10325 10326 10327 10328 10329 10330 10331 10332 10333 10334 10335 10336 10337 10338 10339 10340 10341 10342 10343 10344 10345 10346 10347 10348 10349 10350 10351 10352 10353 10354 10355 10356 10357 10358 10359 10360 10361 10362 10363 10364 10365 10366 10367 10368 10369 10370 10371 10372 10373 10374 10375 10376 10377 10378 10379 10380 10381 10382 10383 10384 10385 10386 10387 10388 10389 10390 10391 10392 10393 10394 10395 10396 10397 10398 10399 10400 10401 10402 10403 10404 10405 10406 10407 10408 10409 10410 10411 10412 10413 10414 10415 10416 10417 10418 10419 10420 10421 10422 10423 10424 10425 10426 10427 10428 10429 10430 10431 10432 10433 10434 10435 10436 10437 10438 10439 10440 10441 10442 10443 10444 10445 10446 10447 10448 10449 10450 10451 10452 10453 10454 10455 10456 10457 10458 10459 10460 10461 10462 10463 10464 10465 10466 10467 10468 10469 10470 10471 10472 10473 10474 10475 10476 10477 10478 10479 10480 10481 10482 10483 10484 10485 10486 10487 10488 10489 10490 10491 10492 10493 10494 10495 10496 10497 10498 10499 10500 10501 10502 10503 10504 10505 10506 10507 10508 10509 10510 10511 10512 10513 10514 10515 10516 10517 10518 10519 10520 10521 10522 10523 10524 10525 10526 10527 10528 10529 10530 10531 10532 10533 10534 10535 10536 10537 10538 10539 10540 10541 10542 10543 10544 10545 10546 10547 10548 10549 10550 10551 10552 10553 10554 10555 10556 10557 10558 10559 10560 10561 10562 10563 10564 10565 10566 10567 10568 10569 10570 10571 10572 10573 10574 10575 10576 10577 10578 10579 10580 10581 10582 10583 10584 10585 10586 10587 10588 10589 10590 10591 10592 10593 10594 10595 10596 10597 10598 10599 10600 10601 10602 10603 10604 10605 10606 10607 10608 10609 10610 10611 10612 10613 10614 10615 10616 10617 10618 10619 10620 10621 10622 10623 10624 10625 10626 10627 10628 10629 10630 10631 10632 10633 10634 10635 10636 10637 10638 10639 10640 10641 10642 10643 10644 10645 10646 10647 10648 10649 10650 10651 10652 10653 10654 10655 10656 10657 10658 10659 10660 10661 10662 10663 10664 10665 10666 10667 10668 10669 10670 10671 10672 10673 10674 10675 10676 10677 10678 10679 10680 10681 10682 10683 10684 10685 10686 10687 10688 10689 10690 10691 10692 10693 10694 10695 10696 10697 10698 10699 10700 10701 10702 10703 10704 10705 10706 10707 10708 10709 10710 10711 10712 10713 10714 10715 10716 10717 10718 10719 10720 10721 10722 10723 10724 10725 10726 10727 10728 10729 10730 10731 10732 10733 10734 10735 10736 10737 10738 10739 10740 10741 10742 10743 10744 10745 10746 10747 10748 10749 10750 10751 10752 10753 10754 10755 10756 10757 10758 10759 10760 10761 10762 10763 10764 10765 10766 10767 10768 10769 10770 10771 10772 10773 10774 10775 10776 10777 10778 10779 10780 10781 10782 10783 10784 10785 10786 10787 10788 10789 10790 10791 10792 10793 10794 10795 10796 10797 10798 10799 10800 10801 10802 10803 10804 10805 10806 10807 10808 10809 10810 10811 10812 10813 10814 10815 10816 10817 10818 10819 10820 10821 10822 10823 10824 10825 10826 10827 10828 10829 10830 10831 10832 10833 10834 10835 10836 10837 10838 10839 10840 10841 10842 10843 10844 10845 10846 10847 10848 10849 10850 10851 10852 10853 10854 10855 10856 10857 10858 10859 10860 10861 10862 10863 10864 10865 10866 10867 10868 10869 10870 10871 10872 10873 10874 10875 10876 10877 10878 10879 10880 10881 10882 10883 10884 10885 10886 10887 10888 10889 10890 10891 10892 10893 10894 10895 10896 10897 10898 10899 10900 10901 10902 10903 10904 10905 10906 10907 10908 10909 10910 10911 10912 10913 10914 10915 10916 10917 10918 10919 10920 10921 10922 10923 10924 10925 10926 10927 10928 10929 10930 10931 10932 10933 10934 10935 10936 10937 10938 10939 10940 10941 10942 10943 10944 10945 10946 10947 10948 10949 10950 10951 10952 10953 10954 10955 10956 10957 10958 10959 10960 10961 10962 10963 10964 10965 10966 10967 10968 10969 10970 10971 10972 10973 10974 10975 10976 10977 10978 10979 10980 10981 10982 10983 10984 10985 10986 10987 10988 10989 10990 10991 10992 10993 10994 10995 10996 10997 10998 10999 11000 11001 11002 11003 11004 11005 11006 11007 11008 11009 11010 11011 11012 11013 11014 11015 11016 11017 11018 11019 11020 11021 11022 11023 11024 11025 11026 11027 11028 11029 11030 11031 11032 11033 11034 11035 11036 11037 11038 11039 11040 11041 11042 11043 11044 11045 11046 11047 11048 11049 11050 11051 11052 11053 11054 11055 11056 11057 11058 11059 11060 11061 11062 11063 11064 11065 11066 11067 11068 11069 11070 11071 11072 11073 11074 11075 11076 11077 11078 11079 11080 11081 11082 11083 11084 11085 11086 11087 11088 11089 11090 11091 11092 11093 11094 11095 11096 11097 11098 11099 11100 11101 11102 11103 11104 11105 11106 11107 11108 11109 11110 11111 11112 11113 11114 11115 11116 11117 11118 11119 11120 11121 11122 11123 11124 11125 11126 11127 11128 11129 11130 11131 11132 11133 11134 11135 11136 11137 11138 11139 11140 11141 11142 11143 11144 11145 11146 11147 11148 11149 11150 11151 11152 11153 11154 11155 11156 11157 11158 11159 11160 11161 11162 11163 11164 11165 11166 11167 11168 11169 11170 11171 11172 11173 11174 11175 11176 11177 11178 11179 11180 11181 11182 11183 11184 11185 11186 11187 11188 11189 11190 11191 11192 11193 11194 11195 11196 11197 11198 11199 11200 11201 11202 11203 11204 11205 11206 11207 11208 11209 11210 11211 11212 11213 11214 11215 11216 11217 11218 11219 11220 11221 11222 11223 11224 11225 11226 11227 11228 11229 11230 11231 11232 11233 11234 11235 11236 11237 11238 11239 11240 11241 11242 11243 11244 11245 11246 11247 11248 11249 11250 11251 11252 11253 11254 11255 11256 11257 11258 11259 11260 11261 11262 11263 11264 11265 11266 11267 11268 11269 11270 11271 11272 11273 11274 11275 11276 11277 11278 11279 11280 11281 11282 11283 11284 11285 11286 11287 11288 11289 11290 11291 11292 11293 11294 11295 11296 11297 11298 11299 11300 11301 11302 11303 11304 11305 11306 11307 11308 11309 11310 11311 11312 11313 11314 11315 11316 11317 11318 11319 11320 11321 11322 11323 11324 11325 11326 11327 11328 11329 11330 11331 11332 11333 11334 11335 11336 11337 11338 11339 11340 11341 11342 11343 11344 11345 11346 11347 11348 11349 11350 11351 11352 11353 11354 11355 11356 11357 11358 11359 11360 11361 11362 11363 11364 11365 11366 11367 11368 11369 11370 11371 11372 11373 11374 11375 11376 11377 11378 11379 11380 11381 11382 11383 11384 11385 11386 11387 11388 11389 11390 11391 11392 11393 11394 11395 11396 11397 11398 11399 11400 11401 11402 11403 11404 11405 11406 11407 11408 11409 11410 11411 11412 11413 11414 11415 11416 11417 11418 11419 11420 11421 11422 11423 11424 11425 11426 11427 11428 11429 11430 11431 11432 11433 11434 11435 11436 11437 11438 11439 11440 11441 11442 11443 11444 11445 11446 11447 11448 11449 11450 11451 11452 11453 11454 11455 11456 11457 11458 11459 11460 11461 11462 11463 11464 11465 11466 11467 11468 11469 11470 11471 11472 11473 11474 11475 11476 11477 11478 11479 11480 11481 11482 11483 11484 11485 11486 11487 11488 11489 11490 11491 11492 11493 11494 11495 11496 11497 11498 11499 11500 11501 11502 11503 11504 11505 11506 11507 11508 11509 11510 11511 11512 11513 11514 11515 11516 11517 11518 11519 11520 11521 11522 11523 11524 11525 11526 11527 11528 11529 11530 11531 11532 11533 11534 11535 11536 11537 11538 11539 11540 11541 11542 11543 11544 11545 11546 11547 11548 11549 11550 11551 11552 11553 11554 11555 11556 11557 11558 11559 11560 11561 11562 11563 11564 11565 11566 11567 11568 11569 11570 11571 11572 11573 11574 11575 11576 11577 11578 11579 11580 11581 11582 11583 11584 11585 11586 11587 11588 11589 11590 11591 11592 11593 11594 11595 11596 11597 11598 11599 11600 11601 11602 11603 11604 11605 11606 11607 11608 11609 11610 11611 11612 11613 11614 11615 11616 11617 11618 11619 11620 11621 11622 11623 11624 11625 11626 11627 11628 11629 11630 11631 11632 11633 11634 11635 11636 11637 11638 11639 11640 11641 11642 11643 11644 11645 11646 11647 11648 11649 11650 11651 11652 11653 11654 11655 11656 11657 11658 11659 11660 11661 11662 11663 11664 11665 11666 11667 11668 11669 11670 11671 11672 11673 11674 11675 11676 11677 11678 11679 11680 11681 11682 11683 11684 11685 11686 11687 11688 11689 11690 11691 11692 11693 11694 11695 11696 11697 11698 11699 11700 11701 11702 11703 11704 11705 11706 11707 11708 11709 11710 11711 11712 11713 11714 11715 11716 11717 11718 11719 11720 11721 11722 11723 11724 11725 11726 11727 11728 11729 11730 11731 11732 11733 11734 11735 11736 11737 11738 11739 11740 11741 11742 11743 11744 11745 11746 11747 11748 11749 11750 11751 11752 11753 11754 11755 11756 11757 11758 11759 11760 11761 11762 11763 11764 11765 11766 11767 11768 11769 11770 11771 11772 11773 11774 11775 11776 11777 11778 11779 11780 11781 11782 11783 11784 11785 11786 11787 11788 11789 11790 11791 11792 11793 11794 11795 11796 11797 11798 11799 11800 11801 11802 11803 11804 11805 11806 11807 11808 11809 11810 11811 11812 11813 11814 11815 11816 11817 11818 11819 11820 11821 11822 11823 11824 11825 11826 11827 11828 11829 11830 11831 11832 11833 11834 11835 11836 11837 11838 11839 11840 11841 11842 11843 11844 11845 11846 11847 11848 11849 11850 11851 11852 11853 11854 11855 11856 11857 11858 11859 11860 11861 11862 11863 11864 11865 11866 11867 11868 11869 11870 11871 11872 11873 11874 11875 11876 11877 11878 11879 11880 11881 11882 11883 11884 11885 11886 11887 11888 11889 11890 11891 11892 11893 11894 11895 11896 11897 11898 11899 11900 11901 11902 11903 11904 11905 11906 11907 11908 11909 11910 11911 11912 11913 11914 11915 11916 11917 11918 11919 11920 11921 11922 11923 11924 11925 11926 11927 11928 11929 11930 11931 11932 11933 11934 11935 11936 11937 11938 11939 11940 11941 11942 11943 11944 11945 11946 11947 11948 11949 11950 11951 11952 11953 11954 11955 11956 11957 11958 11959 11960 11961 11962 11963 11964 11965 11966 11967 11968 11969 11970 11971 11972 11973 11974 11975 11976 11977 11978 11979 11980 11981 11982 11983 11984 11985 11986 11987 11988 11989 11990 11991 11992 11993 11994 11995 11996 11997 11998 11999 12000 12001 12002 12003 12004 12005 12006 12007 12008 12009 12010 12011 12012 12013 12014 12015 12016 12017 12018 12019 12020 12021 12022 12023 12024 12025 12026 12027 12028 12029 12030 12031 12032 12033 12034 12035 12036 12037 12038 12039 12040 12041 12042 12043 12044 12045 12046 12047 12048 12049 12050 12051 12052 12053 12054 12055 12056 12057 12058 12059 12060 12061 12062 12063 12064 12065 12066 12067 12068 12069 12070 12071 12072 12073 12074 12075 12076 12077 12078 12079 12080 12081 12082 12083 12084 12085 12086 12087 12088 12089 12090 12091 12092 12093 12094 12095 12096 12097 12098 12099 12100 12101 12102 12103 12104 12105 12106 12107 12108 12109 12110 12111 12112 12113 12114 12115 12116 12117 12118 12119 12120 12121 12122 12123 12124 12125 12126 12127 12128 12129 12130 12131 12132 12133 12134 12135 12136 12137 12138 12139 12140 12141 12142 12143 12144 12145 12146 12147 12148 12149 12150 12151 12152 12153 12154 12155 12156 12157 12158 12159 12160 12161 12162 12163 12164 12165 12166 12167 12168 12169 12170 12171 12172 12173 12174 12175 12176 12177 12178 12179 12180 12181 12182 12183 12184 12185 12186 12187 12188 12189 12190 12191 12192 12193 12194 12195 12196 12197 12198 12199 12200 12201 12202 12203 12204 12205 12206 12207 12208 12209 12210 12211 12212 12213 12214 12215 12216 12217 12218 12219 12220 12221 12222 12223 12224 12225 12226 12227 12228 12229 12230 12231 12232 12233 12234 12235 12236 12237 12238 12239 12240 12241 12242 12243 12244 12245 12246 12247 12248 12249 12250 12251 12252 12253 12254 12255 12256 12257 12258 12259 12260 12261 12262 12263 12264 12265 12266 12267 12268 12269 12270 12271 12272 12273 12274 12275 12276 12277 12278 12279 12280 12281 12282 12283 12284 12285 12286 12287 12288 12289 12290 12291 12292 12293 12294 12295 12296 12297 12298 12299 12300 12301 12302 12303 12304 12305 12306 12307 12308 12309 12310 12311 12312 12313 12314 12315 12316 12317 12318 12319 12320 12321 12322 12323 12324 12325 12326 12327 12328 12329 12330 12331 12332 12333 12334 12335 12336 12337 12338 12339 12340 12341 12342 12343 12344 12345 12346 12347 12348 12349 12350 12351 12352 12353 12354 12355 12356 12357 12358 12359 12360 12361 12362 12363 12364 12365 12366 12367 12368 12369 12370 12371 12372 12373 12374 12375 12376 12377 12378 12379 12380 12381 12382 12383 12384 12385 12386 12387 12388 12389 12390 12391 12392 12393 12394 12395 12396 12397 12398 12399 12400 12401 12402 12403 12404 12405 12406 12407 12408 12409 12410 12411 12412 12413 12414 12415 12416 12417 12418 12419 12420 12421 12422 12423 12424 12425 12426 12427 12428 12429 12430 12431 12432 12433 12434 12435 12436 12437 12438 12439 12440 12441 12442 12443 12444 12445 12446 12447 12448 12449 12450 12451 12452 12453 12454 12455 12456 12457 12458 12459 12460 12461 12462 12463 12464 12465 12466 12467 12468 12469 12470 12471 12472 12473 12474 12475 12476 12477 12478 12479 12480 12481 12482 12483 12484 12485 12486 12487 12488 12489 12490 12491 12492 12493 12494 12495 12496 12497 12498 12499 12500 12501 12502 12503 12504 12505 12506 12507 12508 12509 12510 12511 12512 12513 12514 12515 12516 12517 12518 12519 12520 12521 12522 12523 12524 12525 12526 12527 12528 12529 12530 12531 12532 12533 12534 12535 12536 12537 12538 12539 12540 12541 12542 12543 12544 12545 12546 12547 12548 12549 12550 12551 12552 12553 12554 12555 12556 12557 12558 12559 12560 12561 12562 12563 12564 12565 12566 12567 12568 12569 12570 12571 12572 12573 12574 12575 12576 12577 12578 12579 12580 12581 12582 12583 12584 12585 12586 12587 12588 12589 12590 12591 12592 12593 12594 12595 12596 12597 12598 12599 12600 12601 12602 12603 12604 12605 12606 12607 12608 12609 12610 12611 12612 12613 12614 12615 12616 12617 12618 12619 12620 12621 12622 12623 12624 12625 12626 12627 12628 12629 12630 12631 12632 12633 12634 12635 12636 12637 12638 12639 12640 12641 12642 12643 12644 12645 12646 12647 12648 12649 12650 12651 12652 12653 12654 12655 12656 12657 12658 12659 12660 12661 12662 12663 12664 12665 12666 12667 12668 12669 12670 12671 12672 12673 12674 12675 12676 12677 12678 12679 12680 12681 12682 12683 12684 12685 12686 12687 12688 12689 12690 12691 12692 12693 12694 12695 12696 12697 12698 12699 12700 12701 12702 12703 12704 12705 12706 12707 12708 12709 12710 12711 12712 12713 12714 12715 12716 12717 12718 12719 12720 12721 12722 12723 12724 12725 12726 12727 12728 12729 12730 12731 12732 12733 12734 12735 12736 12737 12738 12739 12740 12741 12742 12743 12744 12745 12746 12747 12748 12749 12750 12751 12752 12753 12754 12755 12756 12757 12758 12759 12760 12761 12762 12763 12764 12765 12766 12767 12768 12769 12770 12771 12772 12773 12774 12775 12776 12777 12778 12779 12780 12781 12782 12783 12784 12785 12786 12787 12788 12789 12790 12791 12792 12793 12794 12795 12796 12797 12798 12799 12800 12801 12802 12803 12804 12805 12806 12807 12808 12809 12810 12811 12812 12813 12814 12815 12816 12817 12818 12819 12820 12821 12822 12823 12824 12825 12826 12827 12828 12829 12830 12831 12832 12833 12834 12835 12836 12837 12838 12839 12840 12841 12842 12843 12844 12845 12846 12847 12848 12849 12850 12851 12852 12853 12854 12855 12856 12857 12858 12859 12860 12861 12862 12863 12864 12865 12866 12867 12868 12869 12870 12871 12872 12873 12874 12875 12876 12877 12878 12879 12880 12881 12882 12883 12884 12885 12886 12887 12888 12889 12890 12891 12892 12893 12894 12895 12896 12897 12898 12899 12900 12901 12902 12903 12904 12905 12906 12907 12908 12909 12910 12911 12912 12913 12914 12915 12916 12917 12918 12919 12920 12921 12922 12923 12924 12925 12926 12927 12928 12929 12930 12931 12932 12933 12934 12935 12936 12937 12938 12939 12940 12941 12942 12943 12944 12945 12946 12947 12948 12949 12950 12951 12952 12953 12954 12955 12956 12957 12958 12959 12960 12961 12962 12963 12964 12965 12966 12967 12968 12969 12970 12971 12972 12973 12974 12975 12976 12977 12978 12979 12980 12981 12982 12983 12984 12985 12986 12987 12988 12989 12990 12991 12992 12993 12994 12995 12996 12997 12998 12999 13000 13001 13002 13003 13004 13005 13006 13007 13008 13009 13010 13011 13012 13013 13014 13015 13016 13017 13018 13019 13020 13021 13022 13023 13024 13025 13026 13027 13028 13029 13030 13031 13032 13033 13034 13035 13036 13037 13038 13039 13040 13041 13042 13043 13044 13045 13046 13047 13048 13049 13050 13051 13052 13053 13054 13055 13056 13057 13058 13059 13060 13061 13062 13063 13064 13065 13066 13067 13068 13069 13070 13071 13072 13073 13074 13075 13076 13077 13078 13079 13080 13081 13082 13083 13084 13085 13086 13087 13088 13089 13090 13091 13092 13093 13094 13095 13096 13097 13098 13099 13100 13101 13102 13103 13104 13105 13106 13107 13108 13109 13110 13111 13112 13113 13114 13115 13116 13117 13118 13119 13120 13121 13122 13123 13124 13125 13126 13127 13128 13129 13130 13131 13132 13133 13134 13135 13136 13137 13138 13139 13140 13141 13142 13143 13144 13145 13146 13147 13148 13149 13150 13151 13152 13153 13154 13155 13156 13157 13158 13159 13160 13161 13162 13163 13164 13165 13166 13167 13168 13169 13170 13171 13172 13173 13174 13175 13176 13177 13178 13179 13180 13181 13182 13183 13184 13185 13186 13187 13188 13189 13190 13191 13192 13193 13194 13195 13196 13197 13198 13199 13200 13201 13202 13203 13204 13205 13206 13207 13208 13209 13210 13211 13212 13213 13214 13215 13216 13217 13218 13219 13220 13221 13222 13223 13224 13225 13226 13227 13228 13229 13230 13231 13232 13233 13234 13235 13236 13237 13238 13239 13240 13241 13242 13243 13244 13245 13246 13247 13248 13249 13250 13251 13252 13253 13254 13255 13256 13257 13258 13259 13260 13261 13262 13263 13264 13265 13266 13267 13268 13269 13270 13271 13272 13273 13274 13275 13276 13277 13278 13279 13280 13281 13282 13283 13284 13285 13286 13287 13288 13289 13290 13291 13292 13293 13294 13295 13296 13297 13298 13299 13300 13301 13302 13303 13304 13305 13306 13307 13308 13309 13310 13311 13312 13313 13314 13315 13316 13317 13318 13319 13320 13321 13322 13323 13324 13325 13326 13327 13328 13329 13330 13331 13332 13333 13334 13335 13336 13337 13338 13339 13340 13341 13342 13343 13344 13345 13346 13347 13348 13349 13350 13351 13352 13353 13354 13355 13356 13357 13358 13359 13360 13361 13362 13363 13364 13365 13366 13367 13368 13369 13370 13371 13372 13373 13374 13375 13376 13377 13378 13379 13380 13381 13382 13383 13384 13385 13386 13387 13388 13389 13390 13391 13392 13393 13394 13395 13396 13397 13398 13399 13400 13401 13402 13403 13404 13405 13406 13407 13408 13409 13410 13411 13412 13413 13414 13415 13416 13417 13418 13419 13420 13421 13422 13423 13424 13425 13426 13427 13428 13429 13430 13431 13432 13433 13434 13435 13436 13437 13438 13439 13440 13441 13442 13443 13444 13445 13446 13447 13448 13449 13450 13451 13452 13453 13454 13455 13456 13457 13458 13459 13460 13461 13462 13463 13464 13465 13466 13467 13468 13469 13470 13471 13472 13473 13474 13475 13476 13477 13478 13479 13480 13481 13482 13483 13484 13485 13486 13487 13488 13489 13490 13491 13492 13493 13494 13495 13496 13497 13498 13499 13500 13501 13502 13503 13504 13505 13506 13507 13508 13509 13510 13511 13512 13513 13514 13515 13516 13517 13518 13519 13520 13521 13522 13523 13524 13525 13526 13527 13528 13529 13530 13531 13532 13533 13534 13535 13536 13537 13538 13539 13540 13541 13542 13543 13544 13545 13546 13547 13548 13549 13550 13551 13552 13553 13554 13555 13556 13557 13558 13559 13560 13561 13562 13563 13564 13565 13566 13567 13568 13569 13570 13571 13572 13573 13574 13575 13576 13577 13578 13579 13580 13581 13582 13583 13584 13585 13586 13587 13588 13589 13590 13591 13592 13593 13594 13595 13596 13597 13598 13599 13600 13601 13602 13603 13604 13605 13606 13607 13608 13609 13610 13611 13612 13613 13614 13615 13616 13617 13618 13619 13620 13621 13622 13623 13624 13625 13626 13627 13628 13629 13630 13631 13632 13633 13634 13635 13636 13637 13638 13639 13640 13641 13642 13643 13644 13645 13646 13647 13648 13649 13650 13651 13652 13653 13654 13655 13656 13657 13658 13659 13660 13661 13662 13663 13664 13665 13666 13667 13668 13669 13670 13671 13672 13673 13674 13675 13676 13677 13678 13679 13680 13681 13682 13683 13684 13685 13686 13687 13688 13689 13690 13691 13692 13693 13694 13695 13696 13697 13698 13699 13700 13701 13702 13703 13704 13705 13706 13707 13708 13709 13710 13711 13712 13713 13714 13715 13716 13717 13718 13719 13720 13721 13722 13723 13724 13725 13726 13727 13728 13729 13730 13731 13732 13733 13734 13735 13736 13737 13738 13739 13740 13741 13742 13743 13744 13745 13746 13747 13748 13749 13750 13751 13752 13753 13754 13755 13756 13757 13758 13759 13760 13761 13762 13763 13764 13765 13766 13767 13768 13769 13770 13771 13772 13773 13774 13775 13776 13777 13778 13779 13780 13781 13782 13783 13784 13785 13786 13787 13788 13789 13790 13791 13792 13793 13794 13795 13796 13797 13798 13799 13800 13801 13802 13803 13804 13805 13806 13807 13808 13809 13810 13811 13812 13813 13814 13815 13816 13817 13818 13819 13820 13821 13822 13823 13824 13825 13826 13827 13828 13829 13830 13831 13832 13833 13834 13835 13836 13837 13838 13839 13840 13841 13842 13843 13844 13845 13846 13847 13848 13849 13850 13851 13852 13853 13854 13855 13856 13857 13858 13859 13860 13861 13862 13863 13864 13865 13866 13867 13868 13869 13870 13871 13872 13873 13874 13875 13876 13877 13878 13879 13880 13881 13882 13883 13884 13885 13886 13887 13888 13889 13890 13891 13892 13893 13894 13895 13896 13897 13898 13899 13900 13901 13902 13903 13904 13905 13906 13907 13908 13909 13910 13911 13912 13913 13914 13915 13916 13917 13918 13919 13920 13921 13922 13923 13924 13925 13926 13927 13928 13929 13930 13931 13932 13933 13934 13935 13936 13937 13938 13939 13940 13941 13942 13943 13944 13945 13946 13947 13948 13949 13950 13951 13952 13953 13954 13955 13956 13957 13958 13959 13960 13961 13962 13963 13964 13965 13966 13967 13968 13969 13970 13971 13972 13973 13974 13975 13976 13977 13978 13979 13980 13981 13982 13983 13984 13985 13986 13987 13988 13989 13990 13991 13992 13993 13994 13995 13996 13997 13998 13999 14000 14001 14002 14003 14004 14005 14006 14007 14008 14009 14010 14011 14012 14013 14014 14015 14016 14017 14018 14019 14020 14021 14022 14023 14024 14025 14026 14027 14028 14029 14030 14031 14032 14033 14034 14035 14036 14037 14038 14039 14040 14041 14042 14043 14044 14045 14046 14047 14048 14049 14050 14051 14052 14053 14054 14055 14056 14057 14058 14059 14060 14061 14062 14063 14064 14065 14066 14067 14068 14069 14070 14071 14072 14073 14074 14075 14076 14077 14078 14079 14080 14081 14082 14083 14084 14085 14086 14087 14088 14089 14090 14091 14092 14093 14094 14095 14096 14097 14098 14099 14100 14101 14102 14103 14104 14105 14106 14107 14108 14109 14110 14111 14112 14113 14114 14115 14116 14117 14118 14119 14120 14121 14122 14123 14124 14125 14126 14127 14128 14129 14130 14131 14132 14133 14134 14135 14136 14137 14138 14139 14140 14141 14142 14143 14144 14145 14146 14147 14148 14149 14150 14151 14152 14153 14154 14155 14156 14157 14158 14159 14160 14161 14162 14163 14164 14165 14166 14167 14168 14169 14170 14171 14172 14173 14174 14175 14176 14177 14178 14179 14180 14181 14182 14183 14184 14185 14186 14187 14188 14189 14190 14191 14192 14193 14194 14195 14196 14197 14198 14199 14200 14201 14202 14203 14204 14205 14206 14207 14208 14209 14210 14211 14212 14213 14214 14215 14216 14217 14218 14219 14220 14221 14222 14223 14224 14225 14226 14227 14228 14229 14230 14231 14232 14233 14234 14235 14236 14237 14238 14239 14240 14241 14242 14243 14244 14245 14246 14247 14248 14249 14250 14251 14252 14253 14254 14255 14256 14257 14258 14259 14260 14261 14262 14263 14264 14265 14266 14267 14268 14269 14270 14271 14272 14273 14274 14275 14276 14277 14278 14279 14280 14281 14282 14283 14284 14285 14286 14287 14288 14289 14290 14291 14292 14293 14294 14295 14296 14297 14298 14299 14300 14301 14302 14303 14304 14305 14306 14307 14308 14309 14310 14311 14312 14313 14314 14315 14316 14317 14318 14319 14320 14321 14322 14323 14324 14325 14326 14327 14328 14329 14330 14331 14332 14333 14334 14335 14336 14337 14338 14339 14340 14341 14342 14343 14344 14345 14346 14347 14348 14349 14350 14351 14352 14353 14354 14355 14356 14357 14358 14359 14360 14361 14362 14363 14364 14365 14366 14367 14368 14369 14370 14371 14372 14373 14374 14375 14376 14377 14378 14379 14380 14381 14382 14383 14384 14385 14386 14387 14388 14389 14390 14391 14392 14393 14394 14395 14396 14397 14398 14399 14400 14401 14402 14403 14404 14405 14406 14407 14408 14409 14410 14411 14412 14413 14414 14415 14416 14417 14418 14419 14420 14421 14422 14423 14424 14425 14426 14427 14428 14429 14430 14431 14432 14433 14434 14435 14436 14437 14438 14439 14440 14441 14442 14443 14444 14445 14446 14447 14448 14449 14450 14451 14452 14453 14454 14455 14456 14457 14458 14459 14460 14461 14462 14463 14464 14465 14466 14467 14468 14469 14470 14471 14472 14473 14474 14475 14476 14477 14478 14479 14480 14481 14482 14483 14484 14485 14486 14487 14488 14489 14490 14491 14492 14493 14494 14495 14496 14497 14498 14499 14500 14501 14502 14503 14504 14505 14506 14507 14508 14509 14510 14511 14512 14513 14514 14515 14516 14517 14518 14519 14520 14521 14522 14523 14524 14525 14526 14527 14528 14529 14530 14531 14532 14533 14534 14535 14536 14537 14538 14539 14540 14541 14542 14543 14544 14545 14546 14547 14548 14549 14550 14551 14552 14553 14554 14555 14556 14557 14558 14559 14560 14561 14562 14563 14564 14565 14566 14567 14568 14569 14570 14571 14572 14573 14574 14575 14576 14577 14578 14579 14580 14581 14582 14583 14584 14585 14586 14587 14588 14589 14590 14591 14592 14593 14594 14595 14596 14597 14598 14599 14600 14601 14602 14603 14604 14605 14606 14607 14608 14609 14610 14611 14612 14613 14614 14615 14616 14617 14618 14619 14620 14621 14622 14623 14624 14625 14626 14627 14628 14629 14630 14631 14632 14633 14634 14635 14636 14637 14638 14639 14640 14641 14642 14643 14644 14645 14646 14647 14648 14649 14650 14651 14652 14653 14654 14655 14656 14657 14658 14659 14660 14661 14662 14663 14664 14665 14666 14667 14668 14669 14670 14671 14672 14673 14674 14675 14676 14677 14678 14679 14680 14681 14682 14683 14684 14685 14686 14687 14688 14689 14690 14691 14692 14693 14694 14695 14696 14697 14698 14699 14700 14701 14702 14703 14704 14705 14706 14707 14708 14709 14710 14711 14712 14713 14714 14715 14716 14717 14718 14719 14720 14721 14722 14723 14724 14725 14726 14727 14728 14729 14730 14731 14732 14733 14734 14735 14736 14737 14738 14739 14740 14741 14742 14743 14744 14745 14746 14747 14748 14749 14750 14751 14752 14753 14754 14755 14756 14757 14758 14759 14760 14761 14762 14763 14764 14765 14766 14767 14768 14769 14770 14771 14772 14773 14774 14775 14776 14777 14778 14779 14780 14781 14782 14783 14784 14785 14786 14787 14788 14789 14790 14791 14792 14793 14794 14795 14796 14797 14798 14799 14800 14801 14802 14803 14804 14805 14806 14807 14808 14809 14810 14811 14812 14813 14814 14815 14816 14817 14818 14819 14820 14821 14822 14823 14824 14825 14826 14827 14828 14829 14830 14831 14832 14833 14834 14835 14836 14837 14838 14839 14840 14841 14842 14843 14844 14845 14846 14847 14848 14849 14850 14851 14852 14853 14854 14855 14856 14857 14858 14859 14860 14861 14862 14863 14864 14865 14866 14867 14868 14869 14870 14871 14872 14873 14874 14875 14876 14877 14878 14879 14880 14881 14882 14883 14884 14885 14886 14887 14888 14889 14890 14891 14892 14893 14894 14895 14896 14897 14898 14899 14900 14901 14902 14903 14904 14905 14906 14907 14908 14909 14910 14911 14912 14913 14914 14915 14916 14917 14918 14919 14920 14921 14922 14923 14924 14925 14926 14927 14928 14929 14930 14931 14932 14933 14934 14935 14936 14937 14938 14939 14940 14941 14942 14943 14944 14945 14946 14947 14948 14949 14950 14951 14952 14953 14954 14955 14956 14957 14958 14959 14960 14961 14962 14963 14964 14965 14966 14967 14968 14969 14970 14971 14972 14973 14974 14975 14976 14977 14978 14979 14980 14981 14982 14983 14984 14985 14986 14987 14988 14989 14990 14991 14992 14993 14994 14995 14996 14997 14998 14999 15000 15001 15002 15003 15004 15005 15006 15007 15008 15009 15010 15011 15012 15013 15014 15015 15016 15017 15018 15019 15020 15021 15022 15023 15024 15025 15026 15027 15028 15029 15030 15031 15032 15033 15034 15035 15036 15037 15038 15039 15040 15041 15042 15043 15044 15045 15046 15047 15048 15049 15050 15051 15052 15053 15054 15055 15056 15057 15058 15059 15060 15061 15062 15063 15064 15065 15066 15067 15068 15069 15070 15071 15072 15073 15074 15075 15076 15077 15078 15079 15080 15081 15082 15083 15084 15085 15086 15087 15088 15089 15090 15091 15092 15093 15094 15095 15096 15097 15098 15099 15100 15101 15102 15103 15104 15105 15106 15107 15108 15109 15110 15111 15112 15113 15114 15115 15116 15117 15118 15119 15120 15121 15122 15123 15124 15125 15126 15127 15128 15129 15130 15131 15132 15133 15134 15135 15136 15137 15138 15139 15140 15141 15142 15143 15144 15145 15146 15147 15148 15149 15150 15151 15152 15153 15154 15155 15156 15157 15158 15159 15160 15161 15162 15163 15164 15165 15166 15167 15168 15169 15170 15171 15172 15173 15174 15175 15176 15177 15178 15179 15180 15181 15182 15183 15184 15185 15186 15187 15188 15189 15190 15191 15192 15193 15194 15195 15196 15197 15198 15199 15200 15201 15202 15203 15204 15205 15206 15207 15208 15209 15210 15211 15212 15213 15214 15215 15216 15217 15218 15219 15220 15221 15222 15223 15224 15225 15226 15227 15228 15229 15230 15231 15232 15233 15234 15235 15236 15237 15238 15239 15240 15241 15242 15243 15244 15245 15246 15247 15248 15249 15250 15251 15252 15253 15254 15255 15256 15257 15258 15259 15260 15261 15262 15263 15264 15265 15266 15267 15268 15269 15270 15271 15272 15273 15274 15275 15276 15277 15278 15279 15280 15281 15282 15283 15284 15285 15286 15287 15288 15289 15290 15291 15292 15293 15294 15295 15296 15297 15298 15299 15300 15301 15302 15303 15304 15305 15306 15307 15308 15309 15310 15311 15312 15313 15314 15315 15316 15317 15318 15319 15320 15321 15322 15323 15324 15325 15326 15327 15328 15329 15330 15331 15332 15333 15334 15335 15336 15337 15338 15339 15340 15341 15342 15343 15344 15345 15346 15347 15348 15349 15350 15351 15352 15353 15354 15355 15356 15357 15358 15359 15360 15361 15362 15363 15364 15365 15366 15367 15368 15369 15370 15371 15372 15373 15374 15375 15376 15377 15378 15379 15380 15381 15382 15383 15384 15385 15386 15387 15388 15389 15390 15391 15392 15393 15394 15395 15396 15397 15398 15399 15400 15401 15402 15403 15404 15405 15406 15407 15408 15409 15410 15411 15412 15413 15414 15415 15416 15417 15418 15419 15420 15421 15422 15423 15424 15425 15426 15427 15428 15429 15430 15431 15432 15433 15434 15435 15436 15437 15438 15439 15440 15441 15442 15443 15444 15445 15446 15447 15448 15449 15450 15451 15452 15453 15454 15455 15456 15457 15458 15459 15460 15461 15462 15463 15464 15465 15466 15467 15468 15469 15470 15471 15472 15473 15474 15475 15476 15477 15478 15479 15480 15481 15482 15483 15484 15485 15486 15487 15488 15489 15490 15491 15492 15493 15494 15495 15496 15497 15498 15499 15500 15501 15502 15503 15504 15505 15506 15507 15508 15509 15510 15511 15512 15513 15514 15515 15516 15517 15518 15519 15520 15521 15522 15523 15524 15525 15526 15527 15528 15529 15530 15531 15532 15533 15534 15535 15536 15537 15538 15539 15540 15541 15542 15543 15544 15545 15546 15547 15548 15549 15550 15551 15552 15553 15554 15555 15556 15557 15558 15559 15560 15561 15562 15563 15564 15565 15566 15567 15568 15569 15570 15571 15572 15573 15574 15575 15576 15577 15578 15579 15580 15581 15582 15583 15584 15585 15586 15587 15588 15589 15590 15591 15592 15593 15594 15595 15596 15597 15598 15599 15600 15601 15602 15603 15604 15605 15606 15607 15608 15609 15610 15611 15612 15613 15614 15615 15616 15617 15618 15619 15620 15621 15622 15623 15624 15625 15626 15627 15628 15629 15630 15631 15632 15633 15634 15635 15636 15637 15638 15639 15640 15641 15642 15643 15644 15645 15646 15647 15648 15649 15650 15651 15652 15653 15654 15655 15656 15657 15658 15659 15660 15661 15662 15663 15664 15665 15666 15667 15668 15669 15670 15671 15672 15673 15674 15675 15676 15677 15678 15679 15680 15681 15682 15683 15684 15685 15686 15687 15688 15689 15690 15691 15692 15693 15694 15695 15696 15697 15698 15699 15700 15701 15702 15703 15704 15705 15706 15707 15708 15709 15710 15711 15712 15713 15714 15715 15716 15717 15718 15719 15720 15721 15722 15723 15724 15725 15726 15727 15728 15729 15730 15731 15732 15733 15734 15735 15736 15737 15738 15739 15740 15741 15742 15743 15744 15745 15746 15747 15748 15749 15750 15751 15752 15753 15754 15755 15756 15757 15758 15759 15760 15761 15762 15763 15764 15765 15766 15767 15768 15769 15770 15771 15772 15773 15774 15775 15776 15777 15778 15779 15780 15781 15782 15783 15784 15785 15786 15787 15788 15789 15790 15791 15792 15793 15794 15795 15796 15797 15798 15799 15800 15801 15802 15803 15804 15805 15806 15807 15808 15809 15810 15811 15812 15813 15814 15815 15816 15817 15818 15819 15820 15821 15822 15823 15824 15825 15826 15827 15828 15829 15830 15831 15832 15833 15834 15835 15836 15837 15838 15839 15840 15841 15842 15843 15844 15845 15846 15847 15848 15849 15850 15851 15852 15853 15854 15855 15856 15857 15858 15859 15860 15861 15862 15863 15864 15865 15866 15867 15868 15869 15870 15871 15872 15873 15874 15875 15876 15877 15878 15879 15880 15881 15882 15883 15884 15885 15886 15887 15888 15889 15890 15891 15892 15893 15894 15895 15896 15897 15898 15899 15900 15901 15902 15903 15904 15905 15906 15907 15908 15909 15910 15911 15912 15913 15914 15915 15916 15917 15918 15919 15920 15921 15922 15923 15924 15925 15926 15927 15928 15929 15930 15931 15932 15933 15934 15935 15936 15937 15938 15939 15940 15941 15942 15943 15944 15945 15946 15947 15948 15949 15950 15951 15952 15953 15954 15955 15956 15957 15958 15959 15960 15961 15962 15963 15964 15965 15966 15967 15968 15969 15970 15971 15972 15973 15974 15975 15976 15977 15978 15979 15980 15981 15982 15983 15984 15985 15986 15987 15988 15989 15990 15991 15992 15993 15994 15995 15996 15997 15998 15999 16000 16001 16002 16003 16004 16005 16006 16007 16008 16009 16010 16011 16012 16013 16014 16015 16016 16017 16018 16019 16020 16021 16022 16023 16024 16025 16026 16027 16028 16029 16030 16031 16032 16033 16034 16035 16036 16037 16038 16039 16040 16041 16042 16043 16044 16045 16046 16047 16048 16049 16050 16051 16052 16053 16054 16055 16056 16057 16058 16059 16060 16061 16062 16063 16064 16065 16066 16067 16068 16069 16070 16071 16072 16073 16074 16075 16076 16077 16078 16079 16080 16081 16082 16083 16084 16085 16086 16087 16088 16089 16090 16091 16092 16093 16094 16095 16096 16097 16098 16099 16100 16101 16102 16103 16104 16105 16106 16107 16108 16109 16110 16111 16112 16113 16114 16115 16116 16117 16118 16119 16120 16121 16122 16123 16124 16125 16126 16127 16128 16129 16130 16131 16132 16133 16134 16135 16136 16137 16138 16139 16140 16141 16142 16143 16144 16145 16146 16147 16148 16149 16150 16151 16152 16153 16154 16155 16156 16157 16158 16159 16160 16161 16162 16163 16164 16165 16166 16167 16168 16169 16170 16171 16172 16173 16174 16175 16176 16177 16178 16179 16180 16181 16182 16183 16184 16185 16186 16187 16188 16189 16190 16191 16192 16193 16194 16195 16196 16197 16198 16199 16200 16201 16202 16203 16204 16205 16206 16207 16208 16209 16210 16211 16212 16213 16214 16215 16216 16217 16218 16219 16220 16221 16222 16223 16224 16225 16226 16227 16228 16229 16230 16231 16232 16233 16234 16235 16236 16237 16238 16239 16240 16241 16242 16243 16244 16245 16246 16247 16248 16249 16250 16251 16252 16253 16254 16255 16256 16257 16258 16259 16260 16261 16262 16263 16264 16265 16266 16267 16268 16269 16270 16271 16272 16273 16274 16275 16276 16277 16278 16279 16280 16281 16282 16283 16284 16285 16286 16287 16288 16289 16290 16291 16292 16293 16294 16295 16296 16297 16298 16299 16300 16301 16302 16303 16304 16305 16306 16307 16308 16309 16310 16311 16312 16313 16314 16315 16316 16317 16318 16319 16320 16321 16322 16323 16324 16325 16326 16327 16328 16329 16330 16331 16332 16333 16334 16335 16336 16337 16338 16339 16340 16341 16342 16343 16344 16345 16346 16347 16348 16349 16350 16351 16352 16353 16354 16355 16356 16357 16358 16359 16360 16361 16362 16363 16364 16365 16366 16367 16368 16369 16370 16371 16372 16373 16374 16375 16376 16377 16378 16379 16380 16381 16382 16383 16384 16385 16386 16387 16388 16389 16390 16391 16392 16393 16394 16395 16396 16397 16398 16399 16400 16401 16402 16403 16404 16405 16406 16407 16408 16409 16410 16411 16412 16413 16414 16415 16416 16417 16418 16419 16420 16421 16422 16423 16424 16425 16426 16427 16428 16429 16430 16431 16432 16433 16434 16435 16436 16437 16438 16439 16440 16441 16442 16443 16444 16445 16446 16447 16448 16449 16450 16451 16452 16453 16454 16455 16456 16457 16458 16459 16460 16461 16462 16463 16464 16465 16466 16467 16468 16469 16470 16471 16472 16473 16474 16475 16476 16477 16478 16479 16480 16481 16482 16483 16484 16485 16486 16487 16488 16489 16490 16491 16492 16493 16494 16495 16496 16497 16498 16499 16500 16501 16502 16503 16504 16505 16506 16507 16508 16509 16510 16511 16512 16513 16514 16515 16516 16517 16518 16519 16520 16521 16522 16523 16524 16525 16526 16527 16528 16529 16530 16531 16532 16533 16534 16535 16536 16537 16538 16539 16540 16541 16542 16543 16544 16545 16546 16547 16548 16549 16550 16551 16552 16553 16554 16555 16556 16557 16558 16559 16560 16561 16562 16563 16564 16565 16566 16567 16568 16569 16570 16571 16572 16573 16574 16575 16576 16577 16578 16579 16580 16581 16582 16583 16584 16585 16586 16587 16588 16589 16590 16591 16592 16593 16594 16595 16596 16597 16598 16599 16600 16601 16602 16603 16604 16605 16606 16607 16608 16609 16610 16611 16612 16613 16614 16615 16616 16617 16618 16619 16620 16621 16622 16623 16624 16625 16626 16627 16628 16629 16630 16631 16632 16633 16634 16635 16636 16637 16638 16639 16640 16641 16642 16643 16644 16645 16646 16647 16648 16649 16650 16651 16652 16653 16654 16655 16656 16657 16658 16659 16660 16661 16662 16663 16664 16665 16666 16667 16668 16669 16670 16671 16672 16673 16674 16675 16676 16677 16678 16679 16680 16681 16682 16683 16684 16685 16686 16687 16688 16689 16690 16691 16692 16693 16694 16695 16696 16697 16698 16699 16700 16701 16702 16703 16704 16705 16706 16707 16708 16709 16710 16711 16712 16713 16714 16715 16716 16717 16718 16719 16720 16721 16722 16723 16724 16725 16726 16727 16728 16729 16730 16731 16732 16733 16734 16735 16736 16737 16738 16739 16740 16741 16742 16743 16744 16745 16746 16747 16748 16749 16750 16751 16752 16753 16754 16755 16756 16757 16758 16759 16760 16761 16762 16763 16764 16765 16766 16767 16768 16769 16770 16771 16772 16773 16774 16775 16776 16777 16778 16779 16780 16781 16782 16783 16784 16785 16786 16787 16788 16789 16790 16791 16792 16793 16794 16795 16796 16797 16798 16799 16800 16801 16802 16803 16804 16805 16806 16807 16808 16809 16810 16811 16812 16813 16814 16815 16816 16817 16818 16819 16820 16821 16822 16823 16824 16825 16826 16827 16828 16829 16830 16831 16832 16833 16834 16835 16836 16837 16838 16839 16840 16841 16842 16843 16844 16845 16846 16847 16848 16849 16850 16851 16852 16853 16854 16855 16856 16857 16858 16859 16860 16861 16862 16863 16864 16865 16866 16867 16868 16869 16870 16871 16872 16873 16874 16875 16876 16877 16878 16879 16880 16881 16882 16883 16884 16885 16886 16887 16888 16889 16890 16891 16892 16893 16894 16895 16896 16897 16898 16899 16900 16901 16902 16903 16904 16905 16906 16907 16908 16909 16910 16911 16912 16913 16914 16915 16916 16917 16918 16919 16920 16921 16922 16923 16924 16925 16926 16927 16928 16929 16930 16931 16932 16933 16934 16935 16936 16937 16938 16939 16940 16941 16942 16943 16944 16945 16946 16947 16948 16949 16950 16951 16952 16953 16954 16955 16956 16957 16958 16959 16960 16961 16962 16963 16964 16965 16966 16967 16968 16969 16970 16971 16972 16973 16974 16975 16976 16977 16978 16979 16980 16981 16982 16983 16984 16985 16986 16987 16988 16989 16990 16991 16992 16993 16994 16995 16996 16997 16998 16999 17000 17001 17002 17003 17004 17005 17006 17007 17008 17009 17010 17011 17012 17013 17014 17015 17016 17017 17018 17019 17020 17021 17022 17023 17024 17025 17026 17027 17028 17029 17030 17031 17032 17033 17034 17035 17036 17037 17038 17039 17040 17041 17042 17043 17044 17045 17046 17047 17048 17049 17050 17051 17052 17053 17054 17055 17056 17057 17058 17059 17060 17061 17062 17063 17064 17065 17066 17067 17068 17069 17070 17071 17072 17073 17074 17075 17076 17077 17078 17079 17080 17081 17082 17083 17084 17085 17086 17087 17088 17089 17090 17091 17092 17093 17094 17095 17096 17097 17098 17099 17100 17101 17102 17103 17104 17105 17106 17107 17108 17109 17110 17111 17112 17113 17114 17115 17116 17117 17118 17119 17120 17121 17122 17123 17124 17125 17126 17127 17128 17129 17130 17131 17132 17133 17134 17135 17136 17137 17138 17139 17140 17141 17142 17143 17144 17145 17146 17147 17148 17149 17150 17151 17152 17153 17154 17155 17156 17157 17158 17159 17160 17161 17162 17163 17164 17165 17166 17167 17168 17169 17170 17171 17172 17173 17174 17175 17176 17177 17178 17179 17180 17181 17182 17183 17184 17185 17186 17187 17188 17189 17190 17191 17192 17193 17194 17195 17196 17197 17198 17199 17200 17201 17202 17203 17204 17205 17206 17207 17208 17209 17210 17211 17212 17213 17214 17215 17216 17217 17218 17219 17220 17221 17222 17223 17224 17225 17226 17227 17228 17229 17230 17231 17232 17233 17234 17235 17236 17237 17238 17239 17240 17241 17242 17243 17244 17245 17246 17247 17248 17249 17250 17251 17252 17253 17254 17255 17256 17257 17258 17259 17260 17261 17262 17263 17264 17265 17266 17267 17268 17269 17270 17271 17272 17273 17274 17275 17276 17277 17278 17279 17280 17281 17282 17283 17284 17285 17286 17287 17288 17289 17290 17291 17292 17293 17294 17295 17296 17297 17298 17299 17300 17301 17302 17303 17304 17305 17306 17307 17308 17309 17310 17311 17312 17313 17314 17315 17316 17317 17318 17319 17320 17321 17322 17323 17324 17325 17326 17327 17328 17329 17330 17331 17332 17333 17334 17335 17336 17337 17338 17339 17340 17341 17342 17343 17344 17345 17346 17347 17348 17349 17350 17351 17352 17353 17354 17355 17356 17357 17358 17359 17360 17361 17362 17363 17364 17365 17366 17367 17368 17369 17370 17371 17372 17373 17374 17375 17376 17377 17378 17379 17380 17381 17382 17383 17384 17385 17386 17387 17388 17389 17390 17391 17392 17393 17394 17395 17396 17397 17398 17399 17400 17401 17402 17403 17404 17405 17406 17407 17408 17409 17410 17411 17412 17413 17414 17415 17416 17417 17418 17419 17420 17421 17422 17423 17424 17425 17426 17427 17428 17429 17430 17431 17432 17433 17434 17435 17436 17437 17438 17439 17440 17441 17442 17443 17444 17445 17446 17447 17448 17449 17450 17451 17452 17453 17454 17455 17456 17457 17458 17459 17460 17461 17462 17463 17464 17465 17466 17467 17468 17469 17470 17471 17472 17473 17474 17475 17476 17477 17478 17479 17480 17481 17482 17483 17484 17485 17486 17487 17488 17489 17490 17491 17492 17493 17494 17495 17496 17497 17498 17499 17500 17501 17502 17503 17504 17505 17506 17507 17508 17509 17510 17511 17512 17513 17514 17515 17516 17517 17518 17519 17520 17521 17522 17523 17524 17525 17526 17527 17528 17529 17530 17531 17532 17533 17534 17535 17536 17537 17538 17539 17540 17541 17542 17543 17544 17545 17546 17547 17548 17549 17550 17551 17552 17553 17554 17555 17556 17557 17558 17559 17560 17561 17562 17563 17564 17565 17566 17567 17568 17569 17570 17571 17572 17573 17574 17575 17576 17577 17578 17579 17580 17581 17582 17583 17584 17585 17586 17587 17588 17589 17590 17591 17592 17593 17594 17595 17596 17597 17598 17599 17600 17601 17602 17603 17604 17605 17606 17607 17608 17609 17610 17611 17612 17613 17614 17615 17616 17617 17618 17619 17620 17621 17622 17623 17624 17625 17626 17627 17628 17629 17630 17631 17632 17633 17634 17635 17636 17637 17638 17639 17640 17641 17642 17643 17644 17645 17646 17647 17648 17649 17650 17651 17652 17653 17654 17655 17656 17657 17658 17659 17660 17661 17662 17663 17664 17665 17666 17667 17668 17669 17670 17671 17672 17673 17674 17675 17676 17677 17678 17679 17680 17681 17682 17683 17684 17685 17686 17687 17688 17689 17690 17691 17692 17693 17694 17695 17696 17697 17698 17699 17700 17701 17702 17703 17704 17705 17706 17707 17708 17709 17710 17711 17712 17713 17714 17715 17716 17717 17718 17719 17720 17721 17722 17723 17724 17725 17726 17727 17728 17729 17730 17731 17732 17733 17734 17735 17736 17737 17738 17739 17740 17741 17742 17743 17744 17745 17746 17747 17748 17749 17750 17751 17752 17753 17754 17755 17756 17757 17758 17759 17760 17761 17762 17763 17764 17765 17766 17767 17768 17769 17770 17771 17772 17773 17774 17775 17776 17777 17778 17779 17780 17781 17782 17783 17784 17785 17786 17787 17788 17789 17790 17791 17792 17793 17794 17795 17796 17797 17798 17799 17800 17801 17802 17803 17804 17805 17806 17807 17808 17809 17810 17811 17812 17813 17814 17815 17816 17817 17818 17819 17820 17821 17822 17823 17824 17825 17826 17827 17828 17829 17830 17831 17832 17833 17834 17835 17836 17837 17838 17839 17840 17841 17842 17843 17844 17845 17846 17847 17848 17849 17850 17851 17852 17853 17854 17855 17856 17857 17858 17859 17860 17861 17862 17863 17864 17865 17866 17867 17868 17869 17870 17871 17872 17873 17874 17875 17876 17877 17878 17879 17880 17881 17882 17883 17884 17885 17886 17887 17888 17889 17890 17891 17892 17893 17894 17895 17896 17897 17898 17899 17900 17901 17902 17903 17904 17905 17906 17907 17908 17909 17910 17911 17912 17913 17914 17915 17916 17917 17918 17919 17920 17921 17922 17923 17924 17925 17926 17927 17928 17929 17930 17931 17932 17933 17934 17935 17936 17937 17938 17939 17940 17941 17942 17943 17944 17945 17946 17947 17948 17949 17950 17951 17952 17953 17954 17955 17956 17957 17958 17959 17960 17961 17962 17963 17964 17965 17966 17967 17968 17969 17970 17971 17972 17973 17974 17975 17976 17977 17978 17979 17980 17981 17982 17983 17984 17985 17986 17987 17988 17989 17990 17991 17992 17993 17994 17995 17996 17997 17998 17999 18000 18001 18002 18003 18004 18005 18006 18007 18008 18009 18010 18011 18012 18013 18014 18015 18016 18017 18018 18019 18020 18021 18022 18023 18024 18025 18026 18027 18028 18029 18030 18031 18032 18033 18034 18035 18036 18037 18038 18039 18040 18041 18042 18043 18044 18045 18046 18047 18048 18049 18050 18051 18052 18053 18054 18055 18056 18057 18058 18059 18060 18061 18062 18063 18064 18065 18066 18067 18068 18069 18070 18071 18072 18073 18074 18075 18076 18077 18078 18079 18080 18081 18082 18083 18084 18085 18086 18087 18088 18089 18090 18091 18092 18093 18094 18095 18096 18097 18098 18099 18100 18101 18102 18103 18104 18105 18106 18107 18108 18109 18110 18111 18112 18113 18114 18115 18116 18117 18118 18119 18120 18121 18122 18123 18124 18125 18126 18127 18128 18129 18130 18131 18132 18133 18134 18135 18136 18137 18138 18139 18140 18141 18142 18143 18144 18145 18146 18147 18148 18149 18150 18151 18152 18153 18154 18155 18156 18157 18158 18159 18160 18161 18162 18163 18164 18165 18166 18167 18168 18169 18170 18171 18172 18173 18174 18175 18176 18177 18178 18179 18180 18181 18182 18183 18184 18185 18186 18187 18188 18189 18190 18191 18192 18193 18194 18195 18196 18197 18198 18199 18200 18201 18202 18203 18204 18205 18206 18207 18208 18209 18210 18211 18212 18213 18214 18215 18216 18217 18218 18219 18220 18221 18222 18223 18224 18225 18226 18227 18228 18229 18230 18231 18232 18233 18234 18235 18236 18237 18238 18239 18240 18241 18242 18243 18244 18245 18246 18247 18248 18249 18250 18251 18252 18253 18254 18255 18256 18257 18258 18259 18260 18261 18262 18263 18264 18265 18266 18267 18268 18269 18270 18271 18272 18273 18274 18275 18276 18277 18278 18279 18280 18281 18282 18283 18284 18285 18286 18287 18288 18289 18290 18291 18292 18293 18294 18295 18296 18297 18298 18299 18300 18301 18302 18303 18304 18305 18306 18307 18308 18309 18310 18311 18312 18313 18314 18315 18316 18317 18318 18319 18320 18321 18322 18323 18324 18325 18326 18327 18328 18329 18330 18331 18332 18333 18334 18335 18336 18337 18338 18339 18340 18341 18342 18343 18344 18345 18346 18347 18348 18349 18350 18351 18352 18353 18354 18355 18356 18357 18358 18359 18360 18361 18362 18363 18364 18365 18366 18367 18368 18369 18370 18371 18372 18373 18374 18375 18376 18377 18378 18379 18380 18381 18382 18383 18384 18385 18386 18387 18388 18389 18390 18391 18392 18393 18394 18395 18396 18397 18398 18399 18400 18401 18402 18403 18404 18405 18406 18407 18408 18409 18410 18411 18412 18413 18414 18415 18416 18417 18418 18419 18420 18421 18422 18423 18424 18425 18426 18427 18428 18429 18430 18431 18432 18433 18434 18435 18436 18437 18438 18439 18440 18441 18442 18443 18444 18445 18446 18447 18448 18449 18450 18451 18452 18453 18454 18455 18456 18457 18458 18459 18460 18461 18462 18463 18464 18465 18466 18467 18468 18469 18470 18471 18472 18473 18474 18475 18476 18477 18478 18479 18480 18481 18482 18483 18484 18485 18486 18487 18488 18489 18490 18491 18492 18493 18494 18495 18496 18497 18498 18499 18500 18501 18502 18503 18504 18505 18506 18507 18508 18509 18510 18511 18512 18513 18514 18515 18516 18517 18518 18519 18520 18521 18522 18523 18524 18525 18526 18527 18528 18529 18530 18531 18532 18533 18534 18535 18536 18537 18538 18539 18540 18541 18542 18543 18544 18545 18546 18547 18548 18549 18550 18551 18552 18553 18554 18555 18556 18557 18558 18559 18560 18561 18562 18563 18564 18565 18566 18567 18568 18569 18570 18571 18572 18573 18574 18575 18576 18577 18578 18579 18580 18581 18582 18583 18584 18585 18586 18587 18588 18589 18590 18591 18592 18593 18594 18595 18596 18597 18598 18599 18600 18601 18602 18603 18604 18605 18606 18607 18608 18609 18610 18611 18612 18613 18614 18615 18616 18617 18618 18619 18620 18621 18622 18623 18624 18625 18626 18627 18628 18629 18630 18631 18632 18633 18634 18635 18636 18637 18638 18639 18640 18641 18642 18643 18644 18645 18646 18647 18648 18649 18650 18651 18652 18653 18654 18655 18656 18657 18658 18659 18660 18661 18662 18663 18664 18665 18666 18667 18668 18669 18670 18671 18672 18673 18674 18675 18676 18677 18678 18679 18680 18681 18682 18683 18684 18685 18686 18687 18688 18689 18690 18691 18692 18693 18694 18695 18696 18697 18698 18699 18700 18701 18702 18703 18704 18705 18706 18707 18708 18709 18710 18711 18712 18713 18714 18715 18716 18717 18718 18719 18720 18721 18722 18723 18724 18725 18726 18727 18728 18729 18730 18731 18732 18733 18734 18735 18736 18737 18738 18739 18740 18741 18742 18743 18744 18745 18746 18747 18748 18749 18750 18751 18752 18753 18754 18755 18756 18757 18758 18759 18760 18761 18762 18763 18764 18765 18766 18767 18768 18769 18770 18771 18772 18773 18774 18775 18776 18777 18778 18779 18780 18781 18782 18783 18784 18785 18786 18787 18788 18789 18790 18791 18792 18793 18794 18795 18796 18797 18798 18799 18800 18801 18802 18803 18804 18805 18806 18807 18808 18809 18810 18811 18812 18813 18814 18815 18816 18817 18818 18819 18820 18821 18822 18823 18824 18825 18826 18827 18828 18829 18830 18831 18832 18833 18834 18835 18836 18837 18838 18839 18840 18841 18842 18843 18844 18845 18846 18847 18848 18849 18850 18851 18852 18853 18854 18855 18856 18857 18858 18859 18860 18861 18862 18863 18864 18865 18866 18867 18868 18869 18870 18871 18872 18873 18874 18875 18876 18877 18878 18879 18880 18881 18882 18883 18884 18885 18886 18887 18888 18889 18890 18891 18892 18893 18894 18895 18896 18897 18898 18899 18900 18901 18902 18903 18904 18905 18906 18907 18908 18909 18910 18911 18912 18913 18914 18915 18916 18917 18918 18919 18920 18921 18922 18923 18924 18925 18926 18927 18928 18929 18930 18931 18932 18933 18934 18935 18936 18937 18938 18939 18940 18941 18942 18943 18944 18945 18946 18947 18948 18949 18950 18951 18952 18953 18954 18955 18956 18957 18958 18959 18960 18961 18962 18963 18964 18965 18966 18967 18968 18969 18970 18971 18972 18973 18974 18975 18976 18977 18978 18979 18980 18981 18982 18983 18984 18985 18986 18987 18988 18989 18990 18991 18992 18993 18994 18995 18996 18997 18998 18999 19000 19001 19002 19003 19004 19005 19006 19007 19008 19009 19010 19011 19012 19013 19014 19015 19016 19017 19018 19019 19020 19021 19022 19023 19024 19025 19026 19027 19028 19029 19030 19031 19032 19033 19034 19035 19036 19037 19038 19039 19040 19041 19042 19043 19044 19045 19046 19047 19048 19049 19050 19051 19052 19053 19054 19055 19056 19057 19058 19059 19060 19061 19062 19063 19064 19065 19066 19067 19068 19069 19070 19071 19072 19073 19074 19075 19076 19077 19078 19079 19080 19081 19082 19083 19084 19085 19086 19087 19088 19089 19090 19091 19092 19093 19094 19095 19096 19097 19098 19099 19100 19101 19102 19103 19104 19105 19106 19107 19108 19109 19110 19111 19112 19113 19114 19115 19116 19117 19118 19119 19120 19121 19122 19123 19124 19125 19126 19127 19128 19129 19130 19131 19132 19133 19134 19135 19136 19137 19138 19139 19140 19141 19142 19143 19144 19145 19146 19147 19148 19149 19150 19151 19152 19153 19154 19155 19156 19157 19158 19159 19160 19161 19162 19163 19164 19165 19166 19167 19168 19169 19170 19171 19172 19173 19174 19175 19176 19177 19178 19179 19180 19181 19182 19183 19184 19185 19186 19187 19188 19189 19190 19191 19192 19193 19194 19195 19196 19197 19198 19199 19200 19201 19202 19203 19204 19205 19206 19207 19208 19209 19210 19211 19212 19213 19214 19215 19216 19217 19218 19219 19220 19221 19222 19223 19224 19225 19226 19227 19228 19229 19230 19231 19232 19233 19234 19235 19236 19237 19238 19239 19240 19241 19242 19243 19244 19245 19246 19247 19248 19249 19250 19251 19252 19253 19254 19255 19256 19257 19258 19259 19260 19261 19262 19263 19264 19265 19266 19267 19268 19269 19270 19271 19272 19273 19274 19275 19276 19277 19278 19279 19280 19281 19282 19283 19284 19285 19286 19287 19288 19289 19290 19291 19292 19293 19294 19295 19296 19297 19298 19299 19300 19301 19302 19303 19304 19305 19306 19307 19308 19309 19310 19311 19312 19313 19314 19315 19316 19317 19318 19319 19320 19321 19322 19323 19324 19325 19326 19327 19328 19329 19330 19331 19332 19333 19334 19335 19336 19337 19338 19339 19340 19341 19342 19343 19344 19345 19346 19347 19348 19349 19350 19351 19352 19353 19354 19355 19356 19357 19358 19359 19360 19361 19362 19363 19364 19365 19366 19367 19368 19369 19370 19371 19372 19373 19374 19375 19376 19377 19378 19379 19380 19381 19382 19383 19384 19385 19386 19387 19388 19389 19390 19391 19392 19393 19394 19395 19396 19397 19398 19399 19400 19401 19402 19403 19404 19405 19406 19407 19408 19409 19410 19411 19412 19413 19414 19415 19416 19417 19418 19419 19420 19421 19422 19423 19424 19425 19426 19427 19428 19429 19430 19431 19432 19433 19434 19435 19436 19437 19438 19439 19440 19441 19442 19443 19444 19445 19446 19447 19448 19449 19450 19451 19452 19453 19454 19455 19456 19457 19458 19459 19460 19461 19462 19463 19464 19465 19466 19467 19468 19469 19470 19471 19472 19473 19474 19475 19476 19477 19478 19479 19480 19481 19482 19483 19484 19485 19486 19487 19488 19489 19490 19491 19492 19493 19494 19495 19496 19497 19498 19499 19500 19501 19502 19503 19504 19505 19506 19507 19508 19509 19510 19511 19512 19513 19514 19515 19516 19517 19518 19519 19520 19521 19522 19523 19524 19525 19526 19527 19528 19529 19530 19531 19532 19533 19534 19535 19536 19537 19538 19539 19540 19541 19542 19543 19544 19545 19546 19547 19548 19549 19550 19551 19552 19553 19554 19555 19556 19557 19558 19559 19560 19561 19562 19563 19564 19565 19566 19567 19568 19569 19570 19571 19572 19573 19574 19575 19576 19577 19578 19579 19580 19581 19582 19583 19584 19585 19586 19587 19588 19589 19590 19591 19592 19593 19594 19595 19596 19597 19598 19599 19600 19601 19602 19603 19604 19605 19606 19607 19608 19609 19610 19611 19612 19613 19614 19615 19616 19617 19618 19619 19620 19621 19622 19623 19624 19625 19626 19627 19628 19629 19630 19631 19632 19633 19634 19635 19636 19637 19638 19639 19640 19641 19642 19643 19644 19645 19646 19647 19648 19649 19650 19651 19652 19653 19654 19655 19656 19657 19658 19659 19660 19661 19662 19663 19664 19665 19666 19667 19668 19669 19670 19671 19672 19673 19674 19675 19676 19677 19678 19679 19680 19681 19682 19683 19684 19685 19686 19687 19688 19689 19690 19691 19692 19693 19694 19695 19696 19697 19698 19699 19700 19701 19702 19703 19704 19705 19706 19707 19708 19709 19710 19711 19712 19713 19714 19715 19716 19717 19718 19719 19720 19721 19722 19723 19724 19725 19726 19727 19728 19729 19730 19731 19732 19733 19734 19735 19736 19737 19738 19739 19740 19741 19742 19743 19744 19745 19746 19747 19748 19749 19750 19751 19752 19753 19754 19755 19756 19757 19758 19759 19760 19761 19762 19763 19764 19765 19766 19767 19768 19769 19770 19771 19772 19773 19774 19775 19776 19777 19778 19779 19780 19781 19782 19783 19784 19785 19786 19787 19788 19789 19790 19791 19792 19793 19794 19795 19796 19797 19798 19799 19800 19801 19802 19803 19804 19805 19806 19807 19808 19809 19810 19811 19812 19813 19814 19815 19816 19817 19818 19819 19820 19821 19822 19823 19824 19825 19826 19827 19828 19829 19830 19831 19832 19833 19834 19835 19836 19837 19838 19839 19840 19841 19842 19843 19844 19845 19846 19847 19848 19849 19850 19851 19852 19853 19854 19855 19856 19857 19858 19859 19860 19861 19862 19863 19864 19865 19866 19867 19868 19869 19870 19871 19872 19873 19874 19875 19876 19877 19878 19879 19880 19881 19882 19883 19884 19885 19886 19887 19888 19889 19890 19891 19892 19893 19894 19895 19896 19897 19898 19899 19900 19901 19902 19903 19904 19905 19906 19907 19908 19909 19910 19911 19912 19913 19914 19915 19916 19917 19918 19919 19920 19921 19922 19923 19924 19925 19926 19927 19928 19929 19930 19931 19932 19933 19934 19935 19936 19937 19938 19939 19940 19941 19942 19943 19944 19945 19946 19947 19948 19949 19950 19951 19952 19953 19954 19955 19956 19957 19958 19959 19960 19961 19962 19963 19964 19965 19966 19967 19968 19969 19970 19971 19972 19973 19974 19975 19976 19977 19978 19979 19980 19981 19982 19983 19984 19985 19986 19987 19988 19989 19990 19991 19992 19993 19994 19995 19996 19997 19998 19999 20000 20001 20002 20003 20004 20005 20006 20007 20008 20009 20010 20011 20012 20013 20014 20015 20016 20017 20018 20019 20020 20021 20022 20023 20024 20025 20026 20027 20028 20029 20030 20031 20032 20033 20034 20035 20036 20037 20038 20039 20040 20041 20042 20043 20044 20045 20046 20047 20048 20049 20050 20051 20052 20053 20054 20055 20056 20057 20058 20059 20060 20061 20062 20063 20064 20065 20066 20067 20068 20069 20070 20071 20072 20073 20074 20075 20076 20077 20078 20079 20080 20081 20082 20083 20084 20085 20086 20087 20088 20089 20090 20091 20092 20093 20094 20095 20096 20097 20098 20099 20100 20101 20102 20103 20104 20105 20106 20107 20108 20109 20110 20111 20112 20113 20114 20115 20116 20117 20118 20119 20120 20121 20122 20123 20124 20125 20126 20127 20128 20129 20130 20131 20132 20133 20134 20135 20136 20137 20138 20139 20140 20141 20142 20143 20144 20145 20146 20147 20148 20149 20150 20151 20152 20153 20154 20155 20156 20157 20158 20159 20160 20161 20162 20163 20164 20165 20166 20167 20168 20169 20170 20171 20172 20173 20174 20175 20176 20177 20178 20179 20180 20181 20182 20183 20184 20185 20186 20187 20188 20189 20190 20191 20192 20193 20194 20195 20196 20197 20198 20199 20200 20201 20202 20203 20204 20205 20206 20207 20208 20209 20210 20211 20212 20213 20214 20215 20216 20217 20218 20219 20220 20221 20222 20223 20224 20225 20226 20227 20228 20229 20230 20231 20232 20233 20234 20235 20236 20237 20238 20239 20240 20241 20242 20243 20244 20245 20246 20247 20248 20249 20250 20251 20252 20253 20254 20255 20256 20257 20258 20259 20260 20261 20262 20263 20264 20265 20266 20267 20268 20269 20270 20271 20272 20273 20274 20275 20276 20277 20278 20279 20280 20281 20282 20283 20284 20285 20286 20287 20288 20289 20290 20291 20292 20293 20294 20295 20296 20297 20298 20299 20300 20301 20302 20303 20304 20305 20306 20307 20308 20309 20310 20311 20312 20313 20314 20315 20316 20317 20318 20319 20320 20321 20322 20323 20324 20325 20326 20327 20328 20329 20330 20331 20332 20333 20334 20335 20336 20337 20338 20339 20340 20341 20342 20343 20344 20345 20346 20347 20348 20349 20350 20351 20352 20353 20354 20355 20356 20357 20358 20359 20360 20361 20362 20363 20364 20365 20366 20367 20368 20369 20370 20371 20372 20373 20374 20375 20376 20377 20378 20379 20380 20381 20382 20383 20384 20385 20386 20387 20388 20389 20390 20391 20392 20393 20394 20395 20396 20397 20398 20399 20400 20401 20402 20403 20404 20405 20406 20407 20408 20409 20410 20411 20412 20413 20414 20415 20416 20417 20418 20419 20420 20421 20422 20423 20424 20425 20426 20427 20428 20429 20430 20431 20432 20433 20434 20435 20436 20437 20438 20439 20440 20441 20442 20443 20444 20445 20446 20447 20448 20449 20450 20451 20452 20453 20454 20455 20456 20457 20458 20459 20460 20461 20462 20463 20464 20465 20466 20467 20468 20469 20470 20471 20472 20473 20474 20475 20476 20477 20478 20479 20480 20481 20482 20483 20484 20485 20486 20487 20488 20489 20490 20491 20492 20493 20494 20495 20496 20497 20498 20499 20500 20501 20502 20503 20504 20505 20506 20507 20508 20509 20510 20511 20512 20513 20514 20515 20516 20517 20518 20519 20520 20521 20522 20523 20524 20525 20526 20527 20528 20529 20530 20531 20532 20533 20534 20535 20536 20537 20538 20539 20540 20541 20542 20543 20544 20545 20546 20547 20548 20549 20550 20551 20552 20553 20554 20555 20556 20557 20558 20559 20560 20561 20562 20563 20564 20565 20566 20567 20568 20569 20570 20571 20572 20573 20574 20575 20576 20577 20578 20579 20580 20581 20582 20583 20584 20585 20586 20587 20588 20589 20590 20591 20592 20593 20594 20595 20596 20597 20598 20599 20600 20601 20602 20603 20604 20605 20606 20607 20608 20609 20610 20611 20612 20613 20614 20615 20616 20617 20618 20619 20620 20621 20622 20623 20624 20625 20626 20627 20628 20629 20630 20631 20632 20633 20634 20635 20636 20637 20638 20639 20640 20641 20642 20643 20644 20645 20646 20647 20648 20649 20650 20651 20652 20653 20654 20655 20656 20657 20658 20659 20660 20661 20662 20663 20664 20665 20666 20667 20668 20669 20670 20671 20672 20673 20674 20675 20676 20677 20678 20679 20680 20681 20682 20683 20684 20685 20686 20687 20688 20689 20690 20691 20692 20693 20694 20695 20696 20697 20698 20699 20700 20701 20702 20703 20704 20705 20706 20707 20708 20709 20710 20711 20712 20713 20714 20715 20716 20717 20718 20719 20720 20721 20722 20723 20724 20725 20726 20727 20728 20729 20730 20731 20732 20733 20734 20735 20736 20737 20738 20739 20740 20741 20742 20743 20744 20745 20746 20747 20748 20749 20750 20751 20752 20753 20754 20755 20756 20757 20758 20759 20760 20761 20762 20763 20764 20765 20766 20767 20768 20769 20770 20771 20772 20773 20774 20775 20776 20777 20778 20779 20780 20781 20782 20783 20784 20785 20786 20787 20788 20789 20790 20791 20792 20793 20794 20795 20796 20797 20798 20799 20800 20801 20802 20803 20804 20805 20806 20807 20808 20809 20810 20811 20812 20813 20814 20815 20816 20817 20818 20819 20820 20821 20822 20823 20824 20825 20826 20827 20828 20829 20830 20831 20832 20833 20834 20835 20836 20837 20838 20839 20840 20841 20842 20843 20844 20845 20846 20847 20848 20849 20850 20851 20852 20853 20854 20855 20856 20857 20858 20859 20860 20861 20862 20863 20864 20865 20866 20867 20868 20869 20870 20871 20872 20873 20874 20875 20876 20877 20878 20879 20880 20881 20882 20883 20884 20885 20886 20887 20888 20889 20890 20891 20892 20893 20894 20895 20896 20897 20898 20899 20900 20901 20902 20903 20904 20905 20906 20907 20908 20909 20910 20911 20912 20913 20914 20915 20916 20917 20918 20919 20920 20921 20922 20923 20924 20925 20926 20927 20928 20929 20930 20931 20932 20933 20934 20935 20936 20937 20938 20939 20940 20941 20942 20943 20944 20945 20946 20947 20948 20949 20950 20951 20952 20953 20954 20955 20956 20957 20958 20959 20960 20961 20962 20963 20964 20965 20966 20967 20968 20969 20970 20971 20972 20973 20974 20975 20976 20977 20978 20979 20980 20981 20982 20983 20984 20985 20986 20987 20988 20989 20990 20991 20992 20993 20994 20995 20996 20997 20998 20999 21000 21001 21002 21003 21004 21005 21006 21007 21008 21009 21010 21011 21012 21013 21014 21015 21016 21017 21018 21019 21020 21021 21022 21023 21024 21025 21026 21027 21028 21029 21030 21031 21032 21033 21034 21035 21036 21037 21038 21039 21040 21041 21042 21043 21044 21045 21046 21047 21048 21049 21050 21051 21052 21053 21054 21055 21056 21057 21058 21059 21060 21061 21062 21063 21064 21065 21066 21067 21068 21069 21070 21071 21072 21073 21074 21075 21076 21077 21078 21079 21080 21081 21082 21083 21084 21085 21086 21087 21088 21089 21090 21091 21092 21093 21094 21095 21096 21097 21098 21099 21100 21101 21102 21103 21104 21105 21106 21107 21108 21109 21110 21111 21112 21113 21114 21115 21116 21117 21118 21119 21120 21121 21122 21123 21124 21125 21126 21127 21128 21129 21130 21131 21132 21133 21134 21135 21136 21137 21138 21139 21140 21141 21142 21143 21144 21145 21146 21147 21148 21149 21150 21151 21152 21153 21154 21155 21156 21157 21158 21159 21160 21161 21162 21163 21164 21165 21166 21167 21168 21169 21170 21171 21172 21173 21174 21175 21176 21177 21178 21179 21180 21181 21182 21183 21184 21185 21186 21187 21188 21189 21190 21191 21192 21193 21194 21195 21196 21197 21198 21199 21200 21201 21202 21203 21204 21205 21206 21207 21208 21209 21210 21211 21212 21213 21214 21215 21216 21217 21218 21219 21220 21221 21222 21223 21224 21225 21226 21227 21228 21229 21230 21231 21232 21233 21234 21235 21236 21237 21238 21239 21240 21241 21242 21243 21244 21245 21246 21247 21248 21249 21250 21251 21252 21253 21254 21255 21256 21257 21258 21259 21260 21261 21262 21263 21264 21265 21266 21267 21268 21269 21270 21271 21272 21273 21274 21275 21276 21277 21278 21279 21280 21281 21282 21283 21284 21285 21286 21287 21288 21289 21290 21291 21292 21293 21294 21295 21296 21297 21298 21299 21300 21301 21302 21303 21304 21305 21306 21307 21308 21309 21310 21311 21312 21313 21314 21315 21316 21317 21318 21319 21320 21321 21322 21323 21324 21325 21326 21327 21328 21329 21330 21331 21332 21333 21334 21335 21336 21337 21338 21339 21340 21341 21342 21343 21344 21345 21346 21347 21348 21349 21350 21351 21352 21353 21354 21355 21356 21357 21358 21359 21360 21361 21362 21363 21364 21365 21366 21367 21368 21369 21370 21371 21372 21373 21374 21375 21376 21377 21378 21379 21380 21381 21382 21383 21384 21385 21386 21387 21388 21389 21390 21391 21392 21393 21394 21395 21396 21397 21398 21399 21400 21401 21402 21403 21404 21405 21406 21407 21408 21409 21410 21411 21412 21413 21414 21415 21416 21417 21418 21419 21420 21421 21422 21423 21424 21425 21426 21427 21428 21429 21430 21431 21432 21433 21434 21435 21436 21437 21438 21439 21440 21441 21442 21443 21444 21445 21446 21447 21448 21449 21450 21451 21452 21453 21454 21455 21456 21457 21458 21459 21460 21461 21462 21463 21464 21465 21466 21467 21468 21469 21470 21471 21472 21473 21474 21475 21476 21477 21478 21479 21480 21481 21482 21483 21484 21485 21486 21487 21488 21489 21490 21491 21492 21493 21494 21495 21496 21497 21498 21499 21500 21501 21502 21503 21504 21505 21506 21507 21508 21509 21510 21511 21512 21513 21514 21515 21516 21517 21518 21519 21520 21521 21522 21523 21524 21525 21526 21527 21528 21529 21530 21531 21532 21533 21534 21535 21536 21537 21538 21539 21540 21541 21542 21543 21544 21545 21546 21547 21548 21549 21550 21551 21552 21553 21554 21555 21556 21557 21558 21559 21560 21561 21562 21563 21564 21565 21566 21567 21568 21569 21570 21571 21572 21573 21574 21575 21576 21577 21578 21579 21580 21581 21582 21583 21584 21585 21586 21587 21588 21589 21590 21591 21592 21593 21594 21595 21596 21597 21598 21599 21600 21601 21602 21603 21604 21605 21606 21607 21608 21609 21610 21611 21612 21613 21614 21615 21616 21617 21618 21619 21620 21621 21622 21623 21624 21625 21626 21627 21628 21629 21630 21631 21632 21633 21634 21635 21636 21637 21638 21639 21640 21641 21642 21643 21644 21645 21646 21647 21648 21649 21650 21651 21652 21653 21654 21655 21656 21657 21658 21659 21660 21661 21662 21663 21664 21665 21666 21667 21668 21669 21670 21671 21672 21673 21674 21675 21676 21677 21678 21679 21680 21681 21682 21683 21684 21685 21686 21687 21688 21689 21690 21691 21692 21693 21694 21695 21696 21697 21698 21699 21700 21701 21702 21703 21704 21705 21706 21707 21708 21709 21710 21711 21712 21713 21714 21715 21716 21717 21718 21719 21720 21721 21722 21723 21724 21725 21726 21727 21728 21729 21730 21731 21732 21733 21734 21735 21736 21737 21738 21739 21740 21741 21742 21743 21744 21745 21746 21747 21748 21749 21750 21751 21752 21753 21754 21755 21756 21757 21758 21759 21760 21761 21762 21763 21764 21765 21766 21767 21768 21769 21770 21771 21772 21773 21774 21775 21776 21777 21778 21779 21780 21781 21782 21783 21784 21785 21786 21787 21788 21789 21790 21791 21792 21793 21794 21795 21796 21797 21798 21799 21800 21801 21802 21803 21804 21805 21806 21807 21808 21809 21810 21811 21812 21813 21814 21815 21816 21817 21818 21819 21820 21821 21822 21823 21824 21825 21826 21827 21828 21829 21830 21831 21832 21833 21834 21835 21836 21837 21838 21839 21840 21841 21842 21843 21844 21845 21846 21847 21848 21849 21850 21851 21852 21853 21854 21855 21856 21857 21858 21859 21860 21861 21862 21863 21864 21865 21866 21867 21868 21869 21870 21871 21872 21873 21874 21875 21876 21877 21878 21879 21880 21881 21882 21883 21884 21885 21886 21887 21888 21889 21890 21891 21892 21893 21894 21895 21896 21897 21898 21899 21900 21901 21902 21903 21904 21905 21906 21907 21908 21909 21910 21911 21912 21913 21914 21915 21916 21917 21918 21919 21920 21921 21922 21923 21924 21925 21926 21927 21928 21929 21930 21931 21932 21933 21934 21935 21936 21937 21938 21939 21940 21941 21942 21943 21944 21945 21946 21947 21948 21949 21950 21951 21952 21953 21954 21955 21956 21957 21958 21959 21960 21961 21962 21963 21964 21965 21966 21967 21968 21969 21970 21971 21972 21973 21974 21975 21976 21977 21978 21979 21980 21981 21982 21983 21984 21985 21986 21987 21988 21989 21990 21991 21992 21993 21994 21995 21996 21997 21998 21999 22000 22001 22002 22003 22004 22005 22006 22007 22008 22009 22010 22011 22012 22013 22014 22015 22016 22017 22018 22019 22020 22021 22022 22023 22024 22025 22026 22027 22028 22029 22030 22031 22032 22033 22034 22035 22036 22037 22038 22039 22040 22041 22042 22043 22044 22045 22046 22047 22048 22049 22050 22051 22052 22053 22054 22055 22056 22057 22058 22059 22060 22061 22062 22063 22064 22065 22066 22067 22068 22069 22070 22071 22072 22073 22074 22075 22076 22077 22078 22079 22080 22081 22082 22083 22084 22085 22086 22087 22088 22089 22090 22091 22092 22093 22094 22095 22096 22097 22098 22099 22100 22101 22102 22103 22104 22105 22106 22107 22108 22109 22110 22111 22112 22113 22114 22115 22116 22117 22118 22119 22120 22121 22122 22123 22124 22125 22126 22127 22128 22129 22130 22131 22132 22133 22134 22135 22136 22137 22138 22139 22140 22141 22142 22143 22144 22145 22146 22147 22148 22149 22150 22151 22152 22153 22154 22155 22156 22157 22158 22159 22160 22161 22162 22163 22164 22165 22166 22167 22168 22169 22170 22171 22172 22173 22174 22175 22176 22177 22178 22179 22180 22181 22182 22183 22184 22185 22186 22187 22188 22189 22190 22191 22192 22193 22194 22195 22196 22197 22198 22199 22200 22201 22202 22203 22204 22205 22206 22207 22208 22209 22210 22211 22212 22213 22214 22215 22216 22217 22218 22219 22220 22221 22222 22223 22224 22225 22226 22227 22228 22229 22230 22231 22232 22233 22234 22235 22236 22237 22238 22239 22240 22241 22242 22243 22244 22245 22246 22247 22248 22249 22250 22251 22252 22253 22254 22255 22256 22257 22258 22259 22260 22261 22262 22263 22264 22265 22266 22267 22268 22269 22270 22271 22272 22273 22274 22275 22276 22277 22278 22279 22280 22281 22282 22283 22284 22285 22286 22287 22288 22289 22290 22291 22292 22293 22294 22295 22296 22297 22298 22299 22300 22301 22302 22303 22304 22305 22306 22307 22308 22309 22310 22311 22312 22313 22314 22315 22316 22317 22318 22319 22320 22321 22322 22323 22324 22325 22326 22327 22328 22329 22330 22331 22332 22333 22334 22335 22336 22337 22338 22339 22340 22341 22342 22343 22344 22345 22346 22347 22348 22349 22350 22351 22352 22353 22354 22355 22356 22357 22358 22359 22360 22361 22362 22363 22364 22365 22366 22367 22368 22369 22370 22371 22372 22373 22374 22375 22376 22377 22378 22379 22380 22381 22382 22383 22384 22385 22386 22387 22388 22389 22390 22391 22392 22393 22394 22395 22396 22397 22398 22399 22400 22401 22402 22403 22404 22405 22406 22407 22408 22409 22410 22411 22412 22413 22414 22415 22416 22417 22418 22419 22420 22421 22422 22423 22424 22425 22426 22427 22428 22429 22430 22431 22432 22433 22434 22435 22436 22437 22438 22439 22440 22441 22442 22443 22444 22445 22446 22447 22448 22449 22450 22451 22452 22453 22454 22455 22456 22457 22458 22459 22460 22461 22462 22463 22464 22465 22466 22467 22468 22469 22470 22471 22472 22473 22474 22475 22476 22477 22478 22479 22480 22481 22482 22483 22484 22485 22486 22487 22488 22489 22490 22491 22492 22493 22494 22495 22496 22497 22498 22499 22500 22501 22502 22503 22504 22505 22506 22507 22508 22509 22510 22511 22512 22513 22514 22515 22516 22517 22518 22519 22520 22521 22522 22523 22524 22525 22526 22527 22528 22529 22530 22531 22532 22533 22534 22535 22536 22537 22538 22539 22540 22541 22542 22543 22544 22545 22546 22547 22548 22549 22550 22551 22552 22553 22554 22555 22556 22557 22558 22559 22560 22561 22562 22563 22564 22565 22566 22567 22568 22569 22570 22571 22572 22573 22574 22575 22576 22577 22578 22579 22580 22581 22582 22583 22584 22585 22586 22587 22588 22589 22590 22591 22592 22593 22594 22595 22596 22597 22598 22599 22600 22601 22602 22603 22604 22605 22606 22607 22608 22609 22610 22611 22612 22613 22614 22615 22616 22617 22618 22619 22620 22621 22622 22623 22624 22625 22626 22627 22628 22629 22630 22631 22632 22633 22634 22635 22636 22637 22638 22639 22640 22641 22642 22643 22644 22645 22646 22647 22648 22649 22650 22651 22652 22653 22654 22655 22656 22657 22658 22659 22660 22661 22662 22663 22664 22665 22666 22667 22668 22669 22670 22671 22672 22673 22674 22675 22676 22677 22678 22679 22680 22681 22682 22683 22684 22685 22686 22687 22688 22689 22690 22691 22692 22693 22694 22695 22696 22697 22698 22699 22700 22701 22702 22703 22704 22705 22706 22707 22708 22709 22710 22711 22712 22713 22714 22715 22716 22717 22718 22719 22720 22721 22722 22723 22724 22725 22726 22727 22728 22729 22730 22731 22732 22733 22734 22735 22736 22737 22738 22739 22740 22741 22742 22743 22744 22745 22746 22747 22748 22749 22750 22751 22752 22753 22754 22755 22756 22757 22758 22759 22760 22761 22762 22763 22764 22765 22766 22767 22768 22769 22770 22771 22772 22773 22774 22775 22776 22777 22778 22779 22780 22781 22782 22783 22784 22785 22786 22787 22788 22789 22790 22791 22792 22793 22794 22795 22796 22797 22798 22799 22800 22801 22802 22803 22804 22805 22806 22807 22808 22809 22810 22811 22812 22813 22814 22815 22816 22817 22818 22819 22820 22821 22822 22823 22824 22825 22826 22827 22828 22829 22830 22831 22832 22833 22834 22835 22836 22837 22838 22839 22840 22841 22842 22843 22844 22845 22846 22847 22848 22849 22850 22851 22852 22853 22854 22855 22856 22857 22858 22859 22860 22861 22862 22863 22864 22865 22866 22867 22868 22869 22870 22871 22872 22873 22874 22875 22876 22877 22878 22879 22880 22881 22882 22883 22884 22885 22886 22887 22888 22889 22890 22891 22892 22893 22894 22895 22896 22897 22898 22899 22900 22901 22902 22903 22904 22905 22906 22907 22908 22909 22910 22911 22912 22913 22914 22915 22916 22917 22918 22919 22920 22921 22922 22923 22924 22925 22926 22927 22928 22929 22930 22931 22932 22933 22934 22935 22936 22937 22938 22939 22940 22941 22942 22943 22944 22945 22946 22947 22948 22949 22950 22951 22952 22953 22954 22955 22956 22957 22958 22959 22960 22961 22962 22963 22964 22965 22966 22967 22968 22969 22970 22971 22972 22973 22974 22975 22976 22977 22978 22979 22980 22981 22982 22983 22984 22985 22986 22987 22988 22989 22990 22991 22992 22993 22994 22995 22996 22997 22998 22999 23000 23001 23002 23003 23004 23005 23006 23007 23008 23009 23010 23011 23012 23013 23014 23015 23016 23017 23018 23019 23020 23021 23022 23023 23024 23025 23026 23027 23028 23029 23030 23031 23032 23033 23034 23035 23036 23037 23038 23039 23040 23041 23042 23043 23044 23045 23046 23047 23048 23049 23050 23051 23052 23053 23054 23055 23056 23057 23058 23059 23060 23061 23062 23063 23064 23065 23066 23067 23068 23069 23070 23071 23072 23073 23074 23075 23076 23077 23078 23079 23080 23081 23082 23083 23084 23085 23086 23087 23088 23089 23090 23091 23092 23093 23094 23095 23096 23097 23098 23099 23100 23101 23102 23103 23104 23105 23106 23107 23108 23109 23110 23111 23112 23113 23114 23115 23116 23117 23118 23119 23120 23121 23122 23123 23124 23125 23126 23127 23128 23129 23130 23131 23132 23133 23134 23135 23136 23137 23138 23139 23140 23141 23142 23143 23144 23145 23146 23147 23148 23149 23150 23151 23152 23153 23154 23155 23156 23157 23158 23159 23160 23161 23162 23163 23164 23165 23166 23167 23168 23169 23170 23171 23172 23173 23174 23175 23176 23177 23178 23179 23180 23181 23182 23183 23184 23185 23186 23187 23188 23189 23190 23191 23192 23193 23194 23195 23196 23197 23198 23199 23200 23201 23202 23203 23204 23205 23206 23207 23208 23209 23210 23211 23212 23213 23214 23215 23216 23217 23218 23219 23220 23221 23222 23223 23224 23225 23226 23227 23228 23229 23230 23231 23232 23233 23234 23235 23236 23237 23238 23239 23240 23241 23242 23243 23244 23245 23246 23247 23248 23249 23250 23251 23252 23253 23254 23255 23256 23257 23258 23259 23260 23261 23262 23263 23264 23265 23266 23267 23268 23269 23270 23271 23272 23273 23274 23275 23276 23277 23278 23279 23280 23281 23282 23283 23284 23285 23286 23287 23288 23289 23290 23291 23292 23293 23294 23295 23296 23297 23298 23299 23300 23301 23302 23303 23304 23305 23306 23307 23308 23309 23310 23311 23312 23313 23314 23315 23316 23317 23318 23319 23320 23321 23322 23323 23324 23325 23326 23327 23328 23329 23330 23331 23332 23333 23334 23335 23336 23337 23338 23339 23340 23341 23342 23343 23344 23345 23346 23347 23348 23349 23350 23351 23352 23353 23354 23355 23356 23357 23358 23359 23360 23361 23362 23363 23364 23365 23366 23367 23368 23369 23370 23371 23372 23373 23374 23375 23376 23377 23378 23379 23380 23381 23382 23383 23384 23385 23386 23387 23388 23389 23390 23391 23392 23393 23394 23395 23396 23397 23398 23399 23400 23401 23402 23403 23404 23405 23406 23407 23408 23409 23410 23411 23412 23413 23414 23415 23416 23417 23418 23419 23420 23421 23422 23423 23424 23425 23426 23427 23428 23429 23430 23431 23432 23433 23434 23435 23436 23437 23438 23439 23440 23441 23442 23443 23444 23445 23446 23447 23448 23449 23450 23451 23452 23453 23454 23455 23456 23457 23458 23459 23460 23461 23462 23463 23464 23465 23466 23467 23468 23469 23470 23471 23472 23473 23474 23475 23476 23477 23478 23479 23480 23481 23482 23483 23484 23485 23486 23487 23488 23489 23490 23491 23492 23493 23494 23495 23496 23497 23498 23499 23500 23501 23502 23503 23504 23505 23506 23507 23508 23509 23510 23511 23512 23513 23514 23515 23516 23517 23518 23519 23520 23521 23522 23523 23524 23525 23526 23527 23528 23529 23530 23531 23532 23533 23534 23535 23536 23537 23538 23539 23540 23541 23542 23543 23544 23545 23546 23547 23548 23549 23550 23551 23552 23553 23554 23555 23556 23557 23558 23559 23560 23561 23562 23563 23564 23565 23566 23567 23568 23569 23570 23571 23572 23573 23574 23575 23576 23577 23578 23579 23580 23581 23582 23583 23584 23585 23586 23587 23588 23589 23590 23591 23592 23593 23594 23595 23596 23597 23598 23599 23600 23601 23602 23603 23604 23605 23606 23607 23608 23609 23610 23611 23612 23613 23614 23615 23616 23617 23618 23619 23620 23621 23622 23623 23624 23625 23626 23627 23628 23629 23630 23631 23632 23633 23634 23635 23636 23637 23638 23639 23640 23641 23642 23643 23644 23645 23646 23647 23648 23649 23650 23651 23652 23653 23654 23655 23656 23657 23658 23659 23660 23661 23662 23663 23664 23665 23666 23667 23668 23669 23670 23671 23672 23673 23674 23675 23676 23677 23678 23679 23680 23681 23682 23683 23684 23685 23686 23687 23688 23689 23690 23691 23692 23693 23694 23695 23696 23697 23698 23699 23700 23701 23702 23703 23704 23705 23706 23707 23708 23709 23710 23711 23712 23713 23714 23715 23716 23717 23718 23719 23720 23721 23722 23723 23724 23725 23726 23727 23728 23729 23730 23731 23732 23733 23734 23735 23736 23737 23738 23739 23740 23741 23742 23743 23744 23745 23746 23747 23748 23749 23750 23751 23752 23753 23754 23755 23756 23757 23758 23759 23760 23761 23762 23763 23764 23765 23766 23767 23768 23769 23770 23771 23772 23773 23774 23775 23776 23777 23778 23779 23780 23781 23782 23783 23784 23785 23786 23787 23788 23789 23790 23791 23792 23793 23794 23795 23796 23797 23798 23799 23800 23801 23802 23803 23804 23805 23806 23807 23808 23809 23810 23811 23812 23813 23814 23815 23816 23817 23818 23819 23820 23821 23822 23823 23824 23825 23826 23827 23828 23829 23830 23831 23832 23833 23834 23835 23836 23837 23838 23839 23840 23841 23842 23843 23844 23845 23846 23847 23848 23849 23850 23851 23852 23853 23854 23855 23856 23857 23858 23859 23860 23861 23862 23863 23864 23865 23866 23867 23868 23869 23870 23871 23872 23873 23874 23875 23876 23877 23878 23879 23880 23881 23882 23883 23884 23885 23886 23887 23888 23889 23890 23891 23892 23893 23894 23895 23896 23897 23898 23899 23900 23901 23902 23903 23904 23905 23906 23907 23908 23909 23910 23911 23912 23913 23914 23915 23916 23917 23918 23919 23920 23921 23922 23923 23924 23925 23926 23927 23928 23929 23930 23931 23932 23933 23934 23935 23936 23937 23938 23939 23940 23941 23942 23943 23944 23945 23946 23947 23948 23949 23950 23951 23952 23953 23954 23955 23956 23957 23958 23959 23960 23961 23962 23963 23964 23965 23966 23967 23968 23969 23970 23971 23972 23973 23974 23975 23976 23977 23978 23979 23980 23981 23982 23983 23984 23985 23986 23987 23988 23989 23990 23991 23992 23993 23994 23995 23996 23997 23998 23999 24000 24001 24002 24003 24004 24005 24006 24007 24008 24009 24010 24011 24012 24013 24014 24015 24016 24017 24018 24019 24020 24021 24022 24023 24024 24025 24026 24027 24028 24029 24030 24031 24032 24033 24034 24035 24036 24037 24038 24039 24040 24041 24042 24043 24044 24045 24046 24047 24048 24049 24050 24051 24052 24053 24054 24055 24056 24057 24058 24059 24060 24061 24062 24063 24064 24065 24066 24067 24068 24069 24070 24071 24072 24073 24074 24075 24076 24077 24078 24079 24080 24081 24082 24083 24084 24085 24086 24087 24088 24089 24090 24091 24092 24093 24094 24095 24096 24097 24098 24099 24100 24101 24102 24103 24104 24105 24106 24107 24108 24109 24110 24111 24112 24113 24114 24115 24116 24117 24118 24119 24120 24121 24122 24123 24124 24125 24126 24127 24128 24129 24130 24131 24132 24133 24134 24135 24136 24137 24138 24139 24140 24141 24142 24143 24144 24145 24146 24147 24148 24149 24150 24151 24152 24153 24154 24155 24156 24157 24158 24159 24160 24161 24162 24163 24164 24165 24166 24167 24168 24169 24170 24171 24172 24173 24174 24175 24176 24177 24178 24179 24180 24181 24182 24183 24184 24185 24186 24187 24188 24189 24190 24191 24192 24193 24194 24195 24196 24197 24198 24199 24200 24201 24202 24203 24204 24205 24206 24207 24208 24209 24210 24211 24212 24213 24214 24215 24216 24217 24218 24219 24220 24221 24222 24223 24224 24225 24226 24227 24228 24229 24230 24231 24232 24233 24234 24235 24236 24237 24238 24239 24240 24241 24242 24243 24244 24245 24246 24247 24248 24249 24250 24251 24252 24253 24254 24255 24256 24257 24258 24259 24260 24261 24262 24263 24264 24265 24266 24267 24268 24269 24270 24271 24272 24273 24274 24275 24276 24277 24278 24279 24280 24281 24282 24283 24284 24285 24286 24287 24288 24289 24290 24291 24292 24293 24294 24295 24296 24297 24298 24299 24300 24301 24302 24303 24304 24305 24306 24307 24308 24309 24310 24311 24312 24313 24314 24315 24316 24317 24318 24319 24320 24321 24322 24323 24324 24325 24326 24327 24328 24329 24330 24331 24332 24333 24334 24335 24336 24337 24338 24339 24340 24341 24342 24343 24344 24345 24346 24347 24348 24349 24350 24351 24352 24353 24354 24355 24356 24357 24358 24359 24360 24361 24362 24363 24364 24365 24366 24367 24368 24369 24370 24371 24372 24373 24374 24375 24376 24377 24378 24379 24380 24381 24382 24383 24384 24385 24386 24387 24388 24389 24390 24391 24392 24393 24394 24395 24396 24397 24398 24399 24400 24401 24402 24403 24404 24405 24406 24407 24408 24409 24410 24411 24412 24413 24414 24415 24416 24417 24418 24419 24420 24421 24422 24423 24424 24425 24426 24427 24428 24429 24430 24431 24432 24433 24434 24435 24436 24437 24438 24439 24440 24441 24442 24443 24444 24445 24446 24447 24448 24449 24450 24451 24452 24453 24454 24455 24456 24457 24458 24459 24460 24461 24462 24463 24464 24465 24466 24467 24468 24469 24470 24471 24472 24473 24474 24475 24476 24477 24478 24479 24480 24481 24482 24483 24484 24485 24486 24487 24488 24489 24490 24491 24492 24493 24494 24495 24496 24497 24498 24499 24500 24501 24502 24503 24504 24505 24506 24507 24508 24509 24510 24511 24512 24513 24514 24515 24516 24517 24518 24519 24520 24521 24522 24523 24524 24525 24526 24527 24528 24529 24530 24531 24532 24533 24534 24535 24536 24537 24538 24539 24540 24541 24542 24543 24544 24545 24546 24547 24548 24549 24550 24551 24552 24553 24554 24555 24556 24557 24558 24559 24560 24561 24562 24563 24564 24565 24566 24567 24568 24569 24570 24571 24572 24573 24574 24575 24576 24577 24578 24579 24580 24581 24582 24583 24584 24585 24586 24587 24588 24589 24590 24591 24592 24593 24594 24595 24596 24597 24598 24599 24600 24601 24602 24603 24604 24605 24606 24607 24608 24609 24610 24611 24612 24613 24614 24615 24616 24617 24618 24619 24620 24621 24622 24623 24624 24625 24626 24627 24628 24629 24630 24631 24632 24633 24634 24635 24636 24637 24638 24639 24640 24641 24642 24643 24644 24645 24646 24647 24648 24649 24650 24651 24652 24653 24654 24655 24656 24657 24658 24659 24660 24661 24662 24663 24664 24665 24666 24667 24668 24669 24670 24671 24672 24673 24674 24675 24676 24677 24678 24679 24680 24681 24682 24683 24684 24685 24686 24687 24688 24689 24690 24691 24692 24693 24694 24695 24696 24697 24698 24699 24700 24701 24702 24703 24704 24705 24706 24707 24708 24709 24710 24711 24712 24713 24714 24715 24716 24717 24718 24719 24720 24721 24722 24723 24724 24725 24726 24727 24728 24729 24730 24731 24732 24733 24734 24735 24736 24737 24738 24739 24740 24741 24742 24743 24744 24745 24746 24747 24748 24749 24750 24751 24752 24753 24754 24755 24756 24757 24758 24759 24760 24761 24762 24763 24764 24765 24766 24767 24768 24769 24770 24771 24772 24773 24774 24775 24776 24777 24778 24779 24780 24781 24782 24783 24784 24785 24786 24787 24788 24789 24790 24791 24792 24793 24794 24795 24796 24797 24798 24799 24800 24801 24802 24803 24804 24805 24806 24807 24808 24809 24810 24811 24812 24813 24814 24815 24816 24817 24818 24819 24820 24821 24822 24823 24824 24825 24826 24827 24828 24829 24830 24831 24832 24833 24834 24835 24836 24837 24838 24839 24840 24841 24842 24843 24844 24845 24846 24847 24848 24849 24850 24851 24852 24853 24854 24855 24856 24857 24858 24859 24860 24861 24862 24863 24864 24865 24866 24867 24868 24869 24870 24871 24872 24873 24874 24875 24876 24877 24878 24879 24880 24881 24882 24883 24884 24885 24886 24887 24888 24889 24890 24891 24892 24893 24894 24895 24896 24897 24898 24899 24900 24901 24902 24903 24904 24905 24906 24907 24908 24909 24910 24911 24912 24913 24914 24915 24916 24917 24918 24919 24920 24921 24922 24923 24924 24925 24926 24927 24928 24929 24930 24931 24932 24933 24934 24935 24936 24937 24938 24939 24940 24941 24942 24943 24944 24945 24946 24947 24948 24949 24950 24951 24952 24953 24954 24955 24956 24957 24958 24959 24960 24961 24962 24963 24964 24965 24966 24967 24968 24969 24970 24971 24972 24973 24974 24975 24976 24977 24978 24979 24980 24981 24982 24983 24984 24985 24986 24987 24988 24989 24990 24991 24992 24993 24994 24995 24996 24997 24998 24999 25000 25001 25002 25003 25004 25005 25006 25007 25008 25009 25010 25011 25012 25013 25014 25015 25016 25017 25018 25019 25020 25021 25022 25023 25024 25025 25026 25027 25028 25029 25030 25031 25032 25033 25034 25035 25036 25037 25038 25039 25040 25041 25042 25043 25044 25045 25046 25047 25048 25049 25050 25051 25052 25053 25054 25055 25056 25057 25058 25059 25060 25061 25062 25063 25064 25065 25066 25067 25068 25069 25070 25071 25072 25073 25074 25075 25076 25077 25078 25079 25080 25081 25082 25083 25084 25085 25086 25087 25088 25089 25090 25091 25092 25093 25094 25095 25096 25097 25098 25099 25100 25101 25102 25103 25104 25105 25106 25107 25108 25109 25110 25111 25112 25113 25114 25115 25116 25117 25118 25119 25120 25121 25122 25123 25124 25125 25126 25127 25128 25129 25130 25131 25132 25133 25134 25135 25136 25137 25138 25139 25140 25141 25142 25143 25144 25145 25146 25147 25148 25149 25150 25151 25152 25153 25154 25155 25156 25157 25158 25159 25160 25161 25162 25163 25164 25165 25166 25167 25168 25169 25170 25171 25172 25173 25174 25175 25176 25177 25178 25179 25180 25181 25182 25183 25184 25185 25186 25187 25188 25189 25190 25191 25192 25193 25194 25195 25196 25197 25198 25199 25200 25201 25202 25203 25204 25205 25206 25207 25208 25209 25210 25211 25212 25213 25214 25215 25216 25217 25218 25219 25220 25221 25222 25223 25224 25225 25226 25227 25228 25229 25230 25231 25232 25233 25234 25235 25236 25237 25238 25239 25240 25241 25242 25243 25244 25245 25246 25247 25248 25249 25250 25251 25252 25253 25254 25255 25256 25257 25258 25259 25260 25261 25262 25263 25264 25265 25266 25267 25268 25269 25270 25271 25272 25273 25274 25275 25276 25277 25278 25279 25280 25281 25282 25283 25284 25285 25286 25287 25288 25289 25290 25291 25292 25293 25294 25295 25296 25297 25298 25299 25300 25301 25302 25303 25304 25305 25306 25307 25308 25309 25310 25311 25312 25313 25314 25315 25316 25317 25318 25319 25320 25321 25322 25323 25324 25325 25326 25327 25328 25329 25330 25331 25332 25333 25334 25335 25336 25337 25338 25339 25340 25341 25342 25343 25344 25345 25346 25347 25348 25349 25350 25351 25352 25353 25354 25355 25356 25357 25358 25359 25360 25361 25362 25363 25364 25365 25366 25367 25368 25369 25370 25371 25372 25373 25374 25375 25376 25377 25378 25379 25380 25381 25382 25383 25384 25385 25386 25387 25388 25389 25390 25391 25392 25393 25394 25395 25396 25397 25398 25399 25400 25401 25402 25403 25404 25405 25406 25407 25408 25409 25410 25411 25412 25413 25414 25415 25416 25417 25418 25419 25420 25421 25422 25423 25424 25425 25426 25427 25428 25429 25430 25431 25432 25433 25434 25435 25436 25437 25438 25439 25440 25441 25442 25443 25444 25445 25446 25447 25448 25449 25450 25451 25452 25453 25454 25455 25456 25457 25458 25459 25460 25461 25462 25463 25464 25465 25466 25467 25468 25469 25470 25471 25472 25473 25474 25475 25476 25477 25478 25479 25480 25481 25482 25483 25484 25485 25486 25487 25488 25489 25490 25491 25492 25493 25494 25495 25496 25497 25498 25499 25500 25501 25502 25503 25504 25505 25506 25507 25508 25509 25510 25511 25512 25513 25514 25515 25516 25517 25518 25519 25520 25521 25522 25523 25524 25525 25526 25527 25528 25529 25530 25531 25532 25533 25534 25535 25536 25537 25538 25539 25540 25541 25542 25543 25544 25545 25546 25547 25548 25549 25550 25551 25552 25553 25554 25555 25556 25557 25558 25559 25560 25561 25562 25563 25564 25565 25566 25567 25568 25569 25570 25571 25572 25573 25574 25575 25576 25577 25578 25579 25580 25581 25582 25583 25584 25585 25586 25587 25588 25589 25590 25591 25592 25593 25594 25595 25596 25597 25598 25599 25600 25601 25602 25603 25604 25605 25606 25607 25608 25609 25610 25611 25612 25613 25614 25615 25616 25617 25618 25619 25620 25621 25622 25623 25624 25625 25626 25627 25628 25629 25630 25631 25632 25633 25634 25635 25636 25637 25638 25639 25640 25641 25642 25643 25644 25645 25646 25647 25648 25649 25650 25651 25652 25653 25654 25655 25656 25657 25658 25659 25660 25661 25662 25663 25664 25665 25666 25667 25668 25669 25670 25671 25672 25673 25674 25675 25676 25677 25678 25679 25680 25681 25682 25683 25684 25685 25686 25687 25688 25689 25690 25691 25692 25693 25694 25695 25696 25697 25698 25699 25700 25701 25702 25703 25704 25705 25706 25707 25708 25709 25710 25711 25712 25713 25714 25715 25716 25717 25718 25719 25720 25721 25722 25723 25724 25725 25726 25727 25728 25729 25730 25731 25732 25733 25734 25735 25736 25737 25738 25739 25740 25741 25742 25743 25744 25745 25746 25747 25748 25749 25750 25751 25752 25753 25754 25755 25756 25757 25758 25759 25760 25761 25762 25763 25764 25765 25766 25767 25768 25769 25770 25771 25772 25773 25774 25775 25776 25777 25778 25779 25780 25781 25782 25783 25784 25785 25786 25787 25788 25789 25790 25791 25792 25793 25794 25795 25796 25797 25798 25799 25800 25801 25802 25803 25804 25805 25806 25807 25808 25809 25810 25811 25812 25813 25814 25815 25816 25817 25818 25819 25820 25821 25822 25823 25824 25825 25826 25827 25828 25829 25830 25831 25832 25833 25834 25835 25836 25837 25838 25839 25840 25841 25842 25843 25844 25845 25846 25847 25848 25849 25850 25851 25852 25853 25854 25855 25856 25857 25858 25859 25860 25861 25862 25863 25864 25865 25866 25867 25868 25869 25870 25871 25872 25873 25874 25875 25876 25877 25878 25879 25880 25881 25882 25883 25884 25885 25886 25887 25888 25889 25890 25891 25892 25893 25894 25895 25896 25897 25898 25899 25900 25901 25902 25903 25904 25905 25906 25907 25908 25909 25910 25911 25912 25913 25914 25915 25916 25917 25918 25919 25920 25921 25922 25923 25924 25925 25926 25927 25928 25929 25930 25931 25932 25933 25934 25935 25936 25937 25938 25939 25940 25941 25942 25943 25944 25945 25946 25947 25948 25949 25950 25951 25952 25953 25954 25955 25956 25957 25958 25959 25960 25961 25962 25963 25964 25965 25966 25967 25968 25969 25970 25971 25972 25973 25974 25975 25976 25977 25978 25979 25980 25981 25982 25983 25984 25985 25986 25987 25988 25989 25990 25991 25992 25993 25994 25995 25996 25997 25998 25999 26000 26001 26002 26003 26004 26005 26006 26007 26008 26009 26010 26011 26012 26013 26014 26015 26016 26017 26018 26019 26020 26021 26022 26023 26024 26025 26026 26027 26028 26029 26030 26031 26032 26033 26034 26035 26036 26037 26038 26039 26040 26041 26042 26043 26044 26045 26046 26047 26048 26049 26050 26051 26052 26053 26054 26055 26056 26057 26058 26059 26060 26061 26062 26063 26064 26065 26066 26067 26068 26069 26070 26071 26072 26073 26074 26075 26076 26077 26078 26079 26080 26081 26082 26083 26084 26085 26086 26087 26088 26089 26090 26091 26092 26093 26094 26095 26096 26097 26098 26099 26100 26101 26102 26103 26104 26105 26106 26107 26108 26109 26110 26111 26112 26113 26114 26115 26116 26117 26118 26119 26120 26121 26122 26123 26124 26125 26126 26127 26128 26129 26130 26131 26132 26133 26134 26135 26136 26137 26138 26139 26140 26141 26142 26143 26144 26145 26146 26147 26148 26149 26150 26151 26152 26153 26154 26155 26156 26157 26158 26159 26160 26161 26162 26163 26164 26165 26166 26167 26168 26169 26170 26171 26172 26173 26174 26175 26176 26177 26178 26179 26180 26181 26182 26183 26184 26185 26186 26187 26188 26189 26190 26191 26192 26193 26194 26195 26196 26197 26198 26199 26200 26201 26202 26203 26204 26205 26206 26207 26208 26209 26210 26211 26212 26213 26214 26215 26216 26217 26218 26219 26220 26221 26222 26223 26224 26225 26226 26227 26228 26229 26230 26231 26232 26233 26234 26235 26236 26237 26238 26239 26240 26241 26242 26243 26244 26245 26246 26247 26248 26249 26250 26251 26252 26253 26254 26255 26256 26257 26258 26259 26260 26261 26262 26263 26264 26265 26266 26267 26268 26269 26270 26271 26272 26273 26274 26275 26276 26277 26278 26279 26280 26281 26282 26283 26284 26285 26286 26287 26288 26289 26290 26291 26292 26293 26294 26295 26296 26297 26298 26299 26300 26301 26302 26303 26304 26305 26306 26307 26308 26309 26310 26311 26312 26313 26314 26315 26316 26317 26318 26319 26320 26321 26322 26323 26324 26325 26326 26327 26328 26329 26330 26331 26332 26333 26334 26335 26336 26337 26338 26339 26340 26341 26342 26343 26344 26345 26346 26347 26348 26349 26350 26351 26352 26353 26354 26355 26356 26357 26358 26359 26360 26361 26362 26363 26364 26365 26366 26367 26368 26369 26370 26371 26372 26373 26374 26375 26376 26377 26378 26379 26380 26381 26382 26383 26384 26385 26386 26387 26388 26389 26390 26391 26392 26393 26394 26395 26396 26397 26398 26399 26400 26401 26402 26403 26404 26405 26406 26407 26408 26409 26410 26411 26412 26413 26414 26415 26416 26417 26418 26419 26420 26421 26422 26423 26424 26425 26426 26427 26428 26429 26430 26431 26432 26433 26434 26435 26436 26437 26438 26439 26440 26441 26442 26443 26444 26445 26446 26447 26448 26449 26450 26451 26452 26453 26454 26455 26456 26457 26458 26459 26460 26461 26462 26463 26464 26465 26466 26467 26468 26469 26470 26471 26472 26473 26474 26475 26476 26477 26478 26479 26480 26481 26482 26483 26484 26485 26486 26487 26488 26489 26490 26491 26492 26493 26494 26495 26496 26497 26498 26499 26500 26501 26502 26503 26504 26505 26506 26507 26508 26509 26510 26511 26512 26513 26514 26515 26516 26517 26518 26519 26520 26521 26522 26523 26524 26525 26526 26527 26528 26529 26530 26531 26532 26533 26534 26535 26536 26537 26538 26539 26540 26541 26542 26543 26544 26545 26546 26547 26548 26549 26550 26551 26552 26553 26554 26555 26556 26557 26558 26559 26560 26561 26562 26563 26564 26565 26566 26567 26568 26569 26570 26571 26572 26573 26574 26575 26576 26577 26578 26579 26580 26581 26582 26583 26584 26585 26586 26587 26588 26589 26590 26591 26592 26593 26594 26595 26596 26597 26598 26599 26600 26601 26602 26603 26604 26605 26606 26607 26608 26609 26610 26611 26612 26613 26614 26615 26616 26617 26618 26619 26620 26621 26622 26623 26624 26625 26626 26627 26628 26629 26630 26631 26632 26633 26634 26635 26636 26637 26638 26639 26640 26641 26642 26643 26644 26645 26646 26647 26648 26649 26650 26651 26652 26653 26654 26655 26656 26657 26658 26659 26660 26661 26662 26663 26664 26665 26666 26667 26668 26669 26670 26671 26672 26673 26674 26675 26676 26677 26678 26679 26680 26681 26682 26683 26684 26685 26686 26687 26688 26689 26690 26691 26692 26693 26694 26695 26696 26697 26698 26699 26700 26701 26702 26703 26704 26705 26706 26707 26708 26709 26710 26711 26712 26713 26714 26715 26716 26717 26718 26719 26720 26721 26722 26723 26724 26725 26726 26727 26728 26729 26730 26731 26732 26733 26734 26735 26736 26737 26738 26739 26740 26741 26742 26743 26744 26745 26746 26747 26748 26749 26750 26751 26752 26753 26754 26755 26756 26757 26758 26759 26760 26761 26762 26763 26764 26765 26766 26767 26768 26769 26770 26771 26772 26773 26774 26775 26776 26777 26778 26779 26780 26781 26782 26783 26784 26785 26786 26787 26788 26789 26790 26791 26792 26793 26794 26795 26796 26797 26798 26799 26800 26801 26802 26803 26804 26805 26806 26807 26808 26809 26810 26811 26812 26813 26814 26815 26816 26817 26818 26819 26820 26821 26822 26823 26824 26825 26826 26827 26828 26829 26830 26831 26832 26833 26834 26835 26836 26837 26838 26839 26840 26841 26842 26843 26844 26845 26846 26847 26848 26849 26850 26851 26852 26853 26854 26855 26856 26857 26858 26859 26860 26861 26862 26863 26864 26865 26866 26867 26868 26869 26870 26871 26872 26873 26874 26875 26876 26877 26878 26879 26880 26881 26882 26883 26884 26885 26886 26887 26888 26889 26890 26891 26892 26893 26894 26895 26896 26897 26898 26899 26900 26901 26902 26903 26904 26905 26906 26907 26908 26909 26910 26911 26912 26913 26914 26915 26916 26917 26918 26919 26920 26921 26922 26923 26924 26925 26926 26927 26928 26929 26930 26931 26932 26933 26934 26935 26936 26937 26938 26939 26940 26941 26942 26943 26944 26945 26946 26947 26948 26949 26950 26951 26952 26953 26954 26955 26956 26957 26958 26959 26960 26961 26962 26963 26964 26965 26966 26967 26968 26969 26970 26971 26972 26973 26974 26975 26976 26977 26978 26979 26980 26981 26982 26983 26984 26985 26986 26987 26988 26989 26990 26991 26992 26993 26994 26995 26996 26997 26998 26999 27000 27001 27002 27003 27004 27005 27006 27007 27008 27009 27010 27011 27012 27013 27014 27015 27016 27017 27018 27019 27020 27021 27022 27023 27024 27025 27026 27027 27028 27029 27030 27031 27032 27033 27034 27035 27036 27037 27038 27039 27040 27041 27042 27043 27044 27045 27046 27047 27048 27049 27050 27051 27052 27053 27054 27055 27056 27057 27058 27059 27060 27061 27062 27063 27064 27065 27066 27067 27068 27069 27070 27071 27072 27073 27074 27075 27076 27077 27078 27079 27080 27081 27082 27083 27084 27085 27086 27087 27088 27089 27090 27091 27092 27093 27094 27095 27096 27097 27098 27099 27100 27101 27102 27103 27104 27105 27106 27107 27108 27109 27110 27111 27112 27113 27114 27115 27116 27117 27118 27119 27120 27121 27122 27123 27124 27125 27126 27127 27128 27129 27130 27131 27132 27133 27134 27135 27136 27137 27138 27139 27140 27141 27142 27143 27144 27145 27146 27147 27148 27149 27150 27151 27152 27153 27154 27155 27156 27157 27158 27159 27160 27161 27162 27163 27164 27165 27166 27167 27168 27169 27170 27171 27172 27173 27174 27175 27176 27177 27178 27179 27180 27181 27182 27183 27184 27185 27186 27187 27188 27189 27190 27191 27192 27193 27194 27195 27196 27197 27198 27199 27200 27201 27202 27203 27204 27205 27206 27207 27208 27209 27210 27211 27212 27213 27214 27215 27216 27217 27218 27219 27220 27221 27222 27223 27224 27225 27226 27227 27228 27229 27230 27231 27232 27233 27234 27235 27236 27237 27238 27239 27240 27241 27242 27243 27244 27245 27246 27247 27248 27249 27250 27251 27252 27253 27254 27255 27256 27257 27258 27259 27260 27261 27262 27263 27264 27265 27266 27267 27268 27269 27270 27271 27272 27273 27274 27275 27276 27277 27278 27279 27280 27281 27282 27283 27284 27285 27286 27287 27288 27289 27290 27291 27292 27293 27294 27295 27296 27297 27298 27299 27300 27301 27302 27303 27304 27305 27306 27307 27308 27309 27310 27311 27312 27313 27314 27315 27316 27317 27318 27319 27320 27321 27322 27323 27324 27325 27326 27327 27328 27329 27330 27331 27332 27333 27334 27335 27336 27337 27338 27339 27340 27341 27342 27343 27344 27345 27346 27347 27348 27349 27350 27351 27352 27353 27354 27355 27356 27357 27358 27359 27360 27361 27362 27363 27364 27365 27366 27367 27368 27369 27370 27371 27372 27373 27374 27375 27376 27377 27378 27379 27380 27381 27382 27383 27384 27385 27386 27387 27388 27389 27390 27391 27392 27393 27394 27395 27396 27397 27398 27399 27400 27401 27402 27403 27404 27405 27406 27407 27408 27409 27410 27411 27412 27413 27414 27415 27416 27417 27418 27419 27420 27421 27422 27423 27424 27425 27426 27427 27428 27429 27430 27431 27432 27433 27434 27435 27436 27437 27438 27439 27440 27441 27442 27443 27444 27445 27446 27447 27448 27449 27450 27451 27452 27453 27454 27455 27456 27457 27458 27459 27460 27461 27462 27463 27464 27465 27466 27467 27468 27469 27470 27471 27472 27473 27474 27475 27476 27477 27478 27479 27480 27481 27482 27483 27484 27485 27486 27487 27488 27489 27490 27491 27492 27493 27494 27495 27496 27497 27498 27499 27500 27501 27502 27503 27504 27505 27506 27507 27508 27509 27510 27511 27512 27513 27514 27515 27516 27517 27518 27519 27520 27521 27522 27523 27524 27525 27526 27527 27528 27529 27530 27531 27532 27533 27534 27535 27536 27537 27538 27539 27540 27541 27542 27543 27544 27545 27546 27547 27548 27549 27550 27551 27552 27553 27554 27555 27556 27557 27558 27559 27560 27561 27562 27563 27564 27565 27566 27567 27568 27569 27570 27571 27572 27573 27574 27575 27576 27577 27578 27579 27580 27581 27582 27583 27584 27585 27586 27587 27588 27589 27590 27591 27592 27593 27594 27595 27596 27597 27598 27599 27600 27601 27602 27603 27604 27605 27606 27607 27608 27609 27610 27611 27612 27613 27614 27615 27616 27617 27618 27619 27620 27621 27622 27623 27624 27625 27626 27627 27628 27629 27630 27631 27632 27633 27634 27635 27636 27637 27638 27639 27640 27641 27642 27643 27644 27645 27646 27647 27648 27649 27650 27651 27652 27653 27654 27655 27656 27657 27658 27659 27660 27661 27662 27663 27664 27665 27666 27667 27668 27669 27670 27671 27672 27673 27674 27675 27676 27677 27678 27679 27680 27681 27682 27683 27684 27685 27686 27687 27688 27689 27690 27691 27692 27693 27694 27695 27696 27697 27698 27699 27700 27701 27702 27703 27704 27705 27706 27707 27708 27709 27710 27711 27712 27713 27714 27715 27716 27717 27718 27719 27720 27721 27722 27723 27724 27725 27726 27727 27728 27729 27730 27731 27732 27733 27734 27735 27736 27737 27738 27739 27740 27741 27742 27743 27744 27745 27746 27747 27748 27749 27750 27751 27752 27753 27754 27755 27756 27757 27758 27759 27760 27761 27762 27763 27764 27765 27766 27767 27768 27769 27770 27771 27772 27773 27774 27775 27776 27777 27778 27779 27780 27781 27782 27783 27784 27785 27786 27787 27788 27789 27790 27791 27792 27793 27794 27795 27796 27797 27798 27799 27800 27801 27802 27803 27804 27805 27806 27807 27808 27809 27810 27811 27812 27813 27814 27815 27816 27817 27818 27819 27820 27821 27822 27823 27824 27825 27826 27827 27828 27829 27830 27831 27832 27833 27834 27835 27836 27837 27838 27839 27840 27841 27842 27843 27844 27845 27846 27847 27848 27849 27850 27851 27852 27853 27854 27855 27856 27857 27858 27859 27860 27861 27862 27863 27864 27865 27866 27867 27868 27869 27870 27871 27872 27873 27874 27875 27876 27877 27878 27879 27880 27881 27882 27883 27884 27885 27886 27887 27888 27889 27890 27891 27892 27893 27894 27895 27896 27897 27898 27899 27900 27901 27902 27903 27904 27905 27906 27907 27908 27909 27910 27911 27912 27913 27914 27915 27916 27917 27918 27919 27920 27921 27922 27923 27924 27925 27926 27927 27928 27929 27930 27931 27932 27933 27934 27935 27936 27937 27938 27939 27940 27941 27942 27943 27944 27945 27946 27947 27948 27949 27950 27951 27952 27953 27954 27955 27956 27957 27958 27959 27960 27961 27962 27963 27964 27965 27966 27967 27968 27969 27970 27971 27972 27973 27974 27975 27976 27977 27978 27979 27980 27981 27982 27983 27984 27985 27986 27987 27988 27989 27990 27991 27992 27993 27994 27995 27996 27997 27998 27999 28000 28001 28002 28003 28004 28005 28006 28007 28008 28009 28010 28011 28012 28013 28014 28015 28016 28017 28018 28019 28020 28021 28022 28023 28024 28025 28026 28027 28028 28029 28030 28031 28032 28033 28034 28035 28036 28037 28038 28039 28040 28041 28042 28043 28044 28045 28046 28047 28048 28049 28050 28051 28052 28053 28054 28055 28056 28057 28058 28059 28060 28061 28062 28063 28064 28065 28066 28067 28068 28069 28070 28071 28072 28073 28074 28075 28076 28077 28078 28079 28080 28081 28082 28083 28084 28085 28086 28087 28088 28089 28090 28091 28092 28093 28094 28095 28096 28097 28098 28099 28100 28101 28102 28103 28104 28105 28106 28107 28108 28109 28110 28111 28112 28113 28114 28115 28116 28117 28118 28119 28120 28121 28122 28123 28124 28125 28126 28127 28128 28129 28130 28131 28132 28133 28134 28135 28136 28137 28138 28139 28140 28141 28142 28143 28144 28145 28146 28147 28148 28149 28150 28151 28152 28153 28154 28155 28156 28157 28158 28159 28160 28161 28162 28163 28164 28165 28166 28167 28168 28169 28170 28171 28172 28173 28174 28175 28176 28177 28178 28179 28180 28181 28182 28183 28184 28185 28186 28187 28188 28189 28190 28191 28192 28193 28194 28195 28196 28197 28198 28199 28200 28201 28202 28203 28204 28205 28206 28207 28208 28209 28210 28211 28212 28213 28214 28215 28216 28217 28218 28219 28220 28221 28222 28223 28224 28225 28226 28227 28228 28229 28230 28231 28232 28233 28234 28235 28236 28237 28238 28239 28240 28241 28242 28243 28244 28245 28246 28247 28248 28249 28250 28251 28252 28253 28254 28255 28256 28257 28258 28259 28260 28261 28262 28263 28264 28265 28266 28267 28268 28269 28270 28271 28272 28273 28274 28275 28276 28277 28278 28279 28280 28281 28282 28283 28284 28285 28286 28287 28288 28289 28290 28291 28292 28293 28294 28295 28296 28297 28298 28299 28300 28301 28302 28303 28304 28305 28306 28307 28308 28309 28310 28311 28312 28313 28314 28315 28316 28317 28318 28319 28320 28321 28322 28323 28324 28325 28326 28327 28328 28329 28330 28331 28332 28333 28334 28335 28336 28337 28338 28339 28340 28341 28342 28343 28344 28345 28346 28347 28348 28349 28350 28351 28352 28353 28354 28355 28356 28357 28358 28359 28360 28361 28362 28363 28364 28365 28366 28367 28368 28369 28370 28371 28372 28373 28374 28375 28376 28377 28378 28379 28380 28381 28382 28383 28384 28385 28386 28387 28388 28389 28390 28391 28392 28393 28394 28395 28396 28397 28398 28399 28400 28401 28402 28403 28404 28405 28406 28407 28408 28409 28410 28411 28412 28413 28414 28415 28416 28417 28418 28419 28420 28421 28422 28423 28424 28425 28426 28427 28428 28429 28430 28431 28432 28433 28434 28435 28436 28437 28438 28439 28440 28441 28442 28443 28444 28445 28446 28447 28448 28449 28450 28451 28452 28453 28454 28455 28456 28457 28458 28459 28460 28461 28462 28463 28464 28465 28466 28467 28468 28469 28470 28471 28472 28473 28474 28475 28476 28477 28478 28479 28480 28481 28482 28483 28484 28485 28486 28487 28488 28489 28490 28491 28492 28493 28494 28495 28496 28497 28498 28499 28500 28501 28502 28503 28504 28505 28506 28507 28508 28509 28510 28511 28512 28513 28514 28515 28516 28517 28518 28519 28520 28521 28522 28523 28524 28525 28526 28527 28528 28529 28530 28531 28532 28533 28534 28535 28536 28537 28538 28539 28540 28541 28542 28543 28544 28545 28546 28547 28548 28549 28550 28551 28552 28553 28554 28555 28556 28557 28558 28559 28560 28561 28562 28563 28564 28565 28566 28567 28568 28569 28570 28571 28572 28573 28574 28575 28576 28577 28578 28579 28580 28581 28582 28583 28584 28585 28586 28587 28588 28589 28590 28591 28592 28593 28594 28595 28596 28597 28598 28599 28600 28601 28602 28603 28604 28605 28606 28607 28608 28609 28610 28611 28612 28613 28614 28615 28616 28617 28618 28619 28620 28621 28622 28623 28624 28625 28626 28627 28628 28629 28630 28631 28632 28633 28634 28635 28636 28637 28638 28639 28640 28641 28642 28643 28644 28645 28646 28647 28648 28649 28650 28651 28652 28653 28654 28655 28656 28657 28658 28659 28660 28661 28662 28663 28664 28665 28666 28667 28668 28669 28670 28671 28672 28673 28674 28675 28676 28677 28678 28679 28680 28681 28682 28683 28684 28685 28686 28687 28688 28689 28690 28691 28692 28693 28694 28695 28696 28697 28698 28699 28700 28701 28702 28703 28704 28705 28706 28707 28708 28709 28710 28711 28712 28713 28714 28715 28716 28717 28718 28719 28720 28721 28722 28723 28724 28725 28726 28727 28728 28729 28730 28731 28732 28733 28734 28735 28736 28737 28738 28739 28740 28741 28742 28743 28744 28745 28746 28747 28748 28749 28750 28751 28752 28753 28754 28755 28756 28757 28758 28759 28760 28761 28762 28763 28764 28765 28766 28767 28768 28769 28770 28771 28772 28773 28774 28775 28776 28777 28778 28779 28780 28781 28782 28783 28784 28785 28786 28787 28788 28789 28790 28791 28792 28793 28794 28795 28796 28797 28798 28799 28800 28801 28802 28803 28804 28805 28806 28807 28808 28809 28810 28811 28812 28813 28814 28815 28816 28817 28818 28819 28820 28821 28822 28823 28824 28825 28826 28827 28828 28829 28830 28831 28832 28833 28834 28835 28836 28837 28838 28839 28840 28841 28842 28843 28844 28845 28846 28847 28848 28849 28850 28851 28852 28853 28854 28855 28856 28857 28858 28859 28860 28861 28862 28863 28864 28865 28866 28867 28868 28869 28870 28871 28872 28873 28874 28875 28876 28877 28878 28879 28880 28881 28882 28883 28884 28885 28886 28887 28888 28889 28890 28891 28892 28893 28894 28895 28896 28897 28898 28899 28900 28901 28902 28903 28904 28905 28906 28907 28908 28909 28910 28911 28912 28913 28914 28915 28916 28917 28918 28919 28920 28921 28922 28923 28924 28925 28926 28927 28928 28929 28930 28931 28932 28933 28934 28935 28936 28937 28938 28939 28940 28941 28942 28943 28944 28945 28946 28947 28948 28949 28950 28951 28952 28953 28954 28955 28956 28957 28958 28959 28960 28961 28962 28963 28964 28965 28966 28967 28968 28969 28970 28971 28972 28973 28974 28975 28976 28977 28978 28979 28980 28981 28982 28983 28984 28985 28986 28987 28988 28989 28990 28991 28992 28993 28994 28995 28996 28997 28998 28999 29000 29001 29002 29003 29004 29005 29006 29007 29008 29009 29010 29011 29012 29013 29014 29015 29016 29017 29018 29019 29020 29021 29022 29023 29024 29025 29026 29027 29028 29029 29030 29031 29032 29033 29034 29035 29036 29037 29038 29039 29040 29041 29042 29043 29044 29045 29046 29047 29048 29049 29050 29051 29052 29053 29054 29055 29056 29057 29058 29059 29060 29061 29062 29063 29064 29065 29066 29067 29068 29069 29070 29071 29072 29073 29074 29075 29076 29077 29078 29079 29080 29081 29082 29083 29084 29085 29086 29087 29088 29089 29090 29091 29092 29093 29094 29095 29096 29097 29098 29099 29100 29101 29102 29103 29104 29105 29106 29107 29108 29109 29110 29111 29112 29113 29114 29115 29116 29117 29118 29119 29120 29121 29122 29123 29124 29125 29126 29127 29128 29129 29130 29131 29132 29133 29134 29135 29136 29137 29138 29139 29140 29141 29142 29143 29144 29145 29146 29147 29148 29149 29150 29151 29152 29153 29154 29155 29156 29157 29158 29159 29160 29161 29162 29163 29164 29165 29166 29167 29168 29169 29170 29171 29172 29173 29174 29175 29176 29177 29178 29179 29180 29181 29182 29183 29184 29185 29186 29187 29188 29189 29190 29191 29192 29193 29194 29195 29196 29197 29198 29199 29200 29201 29202 29203 29204 29205 29206 29207 29208 29209 29210 29211 29212 29213 29214 29215 29216 29217 29218 29219 29220 29221 29222 29223 29224 29225 29226 29227 29228 29229 29230 29231 29232 29233 29234 29235 29236 29237 29238 29239 29240 29241 29242 29243 29244 29245 29246 29247 29248 29249 29250 29251 29252 29253 29254 29255 29256 29257 29258 29259 29260 29261 29262 29263 29264 29265 29266 29267 29268 29269 29270 29271 29272 29273 29274 29275 29276 29277 29278 29279 29280 29281 29282 29283 29284 29285 29286 29287 29288 29289 29290 29291 29292 29293 29294 29295 29296 29297 29298 29299 29300 29301 29302 29303 29304 29305 29306 29307 29308 29309 29310 29311 29312 29313 29314 29315 29316 29317 29318 29319 29320 29321 29322 29323 29324 29325 29326 29327 29328 29329 29330 29331 29332 29333 29334 29335 29336 29337 29338 29339 29340 29341 29342 29343 29344 29345 29346 29347 29348 29349 29350 29351 29352 29353 29354 29355 29356 29357 29358 29359 29360 29361 29362 29363 29364 29365 29366 29367 29368 29369 29370 29371 29372 29373 29374 29375 29376 29377 29378 29379 29380 29381 29382 29383 29384 29385 29386 29387 29388 29389 29390 29391 29392 29393 29394 29395 29396 29397 29398 29399 29400 29401 29402 29403 29404 29405 29406 29407 29408 29409 29410 29411 29412 29413 29414 29415 29416 29417 29418 29419 29420 29421 29422 29423 29424 29425 29426 29427 29428 29429 29430 29431 29432 29433 29434 29435 29436 29437 29438 29439 29440 29441 29442 29443 29444 29445 29446 29447 29448 29449 29450 29451 29452 29453 29454 29455 29456 29457 29458 29459 29460 29461 29462 29463 29464 29465 29466 29467 29468 29469 29470 29471 29472 29473 29474 29475 29476 29477 29478 29479 29480 29481 29482 29483 29484 29485 29486 29487 29488 29489 29490 29491 29492 29493 29494 29495 29496 29497 29498 29499 29500 29501 29502 29503 29504 29505 29506 29507 29508 29509 29510 29511 29512 29513 29514 29515 29516 29517 29518 29519 29520 29521 29522 29523 29524 29525 29526 29527 29528 29529 29530 29531 29532 29533 29534 29535 29536 29537 29538 29539 29540 29541 29542 29543 29544 29545 29546 29547 29548 29549 29550 29551 29552 29553 29554 29555 29556 29557 29558 29559 29560 29561 29562 29563 29564 29565 29566 29567 29568 29569 29570 29571 29572 29573 29574 29575 29576 29577 29578 29579 29580 29581 29582 29583 29584 29585 29586 29587 29588 29589 29590 29591 29592 29593 29594 29595 29596 29597 29598 29599 29600 29601 29602 29603 29604 29605 29606 29607 29608 29609 29610 29611 29612 29613 29614 29615 29616 29617 29618 29619 29620 29621 29622 29623 29624 29625 29626 29627 29628 29629 29630 29631 29632 29633 29634 29635 29636 29637 29638 29639 29640 29641 29642 29643 29644 29645 29646 29647 29648 29649 29650 29651 29652 29653 29654 29655 29656 29657 29658 29659 29660 29661 29662 29663 29664 29665 29666 29667 29668 29669 29670 29671 29672 29673 29674 29675 29676 29677 29678 29679 29680 29681 29682 29683 29684 29685 29686 29687 29688 29689 29690 29691 29692 29693 29694 29695 29696 29697 29698 29699 29700 29701 29702 29703 29704 29705 29706 29707 29708 29709 29710 29711 29712 29713 29714 29715 29716 29717 29718 29719 29720 29721 29722 29723 29724 29725 29726 29727 29728 29729 29730 29731 29732 29733 29734 29735 29736 29737 29738 29739 29740 29741 29742 29743 29744 29745 29746 29747 29748 29749 29750 29751 29752 29753 29754 29755 29756 29757 29758 29759 29760 29761 29762 29763 29764 29765 29766 29767 29768 29769 29770 29771 29772 29773 29774 29775 29776 29777 29778 29779 29780 29781 29782 29783 29784 29785 29786 29787 29788 29789 29790 29791 29792 29793 29794 29795 29796 29797 29798 29799 29800 29801 29802 29803 29804 29805 29806 29807 29808 29809 29810 29811 29812 29813 29814 29815 29816 29817 29818 29819 29820 29821 29822 29823 29824 29825 29826 29827 29828 29829 29830 29831 29832 29833 29834 29835 29836 29837 29838 29839 29840 29841 29842 29843 29844 29845 29846 29847 29848 29849 29850 29851 29852 29853 29854 29855 29856 29857 29858 29859 29860 29861 29862 29863 29864 29865 29866 29867 29868 29869 29870 29871 29872 29873 29874 29875 29876 29877 29878 29879 29880 29881 29882 29883 29884 29885 29886 29887 29888 29889 29890 29891 29892 29893 29894 29895 29896 29897 29898 29899 29900 29901 29902 29903 29904 29905 29906 29907 29908 29909 29910 29911 29912 29913 29914 29915 29916 29917 29918 29919 29920 29921 29922 29923 29924 29925 29926 29927 29928 29929 29930 29931 29932 29933 29934 29935 29936 29937 29938 29939 29940 29941 29942 29943 29944 29945 29946 29947 29948 29949 29950 29951 29952 29953 29954 29955 29956 29957 29958 29959 29960 29961 29962 29963 29964 29965 29966 29967 29968 29969 29970 29971 29972 29973 29974 29975 29976 29977 29978 29979 29980 29981 29982 29983 29984 29985 29986 29987 29988 29989 29990 29991 29992 29993 29994 29995 29996 29997 29998 29999 30000 30001 30002 30003 30004 30005 30006 30007 30008 30009 30010 30011 30012 30013 30014 30015 30016 30017 30018 30019 30020 30021 30022 30023 30024 30025 30026 30027 30028 30029 30030 30031 30032 30033 30034 30035 30036 30037 30038 30039 30040 30041 30042 30043 30044 30045 30046 30047 30048 30049 30050 30051 30052 30053 30054 30055 30056 30057 30058 30059 30060 30061 30062 30063 30064 30065 30066 30067 30068 30069 30070 30071 30072 30073 30074 30075 30076 30077 30078 30079 30080 30081 30082 30083 30084 30085 30086 30087 30088 30089 30090 30091 30092 30093 30094 30095 30096 30097 30098 30099 30100 30101 30102 30103 30104 30105 30106 30107 30108 30109 30110 30111 30112 30113 30114 30115 30116 30117 30118 30119 30120 30121 30122 30123 30124 30125 30126 30127 30128 30129 30130 30131 30132 30133 30134 30135 30136 30137 30138 30139 30140 30141 30142 30143 30144 30145 30146 30147 30148 30149 30150 30151 30152 30153 30154 30155 30156 30157 30158 30159 30160 30161 30162 30163 30164 30165 30166 30167 30168 30169 30170 30171 30172 30173 30174 30175 30176 30177 30178 30179 30180 30181 30182 30183 30184 30185 30186 30187 30188 30189 30190 30191 30192 30193 30194 30195 30196 30197 30198 30199 30200 30201 30202 30203 30204 30205 30206 30207 30208 30209 30210 30211 30212 30213 30214 30215 30216 30217 30218 30219 30220 30221 30222 30223 30224 30225 30226 30227 30228 30229 30230 30231 30232 30233 30234 30235 30236 30237 30238 30239 30240 30241 30242 30243 30244 30245 30246 30247 30248 30249 30250 30251 30252 30253 30254 30255 30256 30257 30258 30259 30260 30261 30262 30263 30264 30265 30266 30267 30268 30269 30270 30271 30272 30273 30274 30275 30276 30277 30278 30279 30280 30281 30282 30283 30284 30285 30286 30287 30288 30289 30290 30291 30292 30293 30294 30295 30296 30297 30298 30299 30300 30301 30302 30303 30304 30305 30306 30307 30308 30309 30310 30311 30312 30313 30314 30315 30316 30317 30318 30319 30320 30321 30322 30323 30324 30325 30326 30327 30328 30329 30330 30331 30332 30333 30334 30335 30336 30337 30338 30339 30340 30341 30342 30343 30344 30345 30346 30347 30348 30349 30350 30351 30352 30353 30354 30355 30356 30357 30358 30359 30360 30361 30362 30363 30364 30365 30366 30367 30368 30369 30370 30371 30372 30373 30374 30375 30376 30377 30378 30379 30380 30381 30382 30383 30384 30385 30386 30387 30388 30389 30390 30391 30392 30393 30394 30395 30396 30397 30398 30399 30400 30401 30402 30403 30404 30405 30406 30407 30408 30409 30410 30411 30412 30413 30414 30415 30416 30417 30418 30419 30420 30421 30422 30423 30424 30425 30426 30427 30428 30429 30430 30431 30432 30433 30434 30435 30436 30437 30438 30439 30440 30441 30442 30443 30444 30445 30446 30447 30448 30449 30450 30451 30452 30453 30454 30455 30456 30457 30458 30459 30460 30461 30462 30463 30464 30465 30466 30467 30468 30469 30470 30471 30472 30473 30474 30475 30476 30477 30478 30479 30480 30481 30482 30483 30484 30485 30486 30487 30488 30489 30490 30491 30492 30493 30494 30495 30496 30497 30498 30499 30500 30501 30502 30503 30504 30505 30506 30507 30508 30509 30510 30511 30512 30513 30514 30515 30516 30517 30518 30519 30520 30521 30522 30523 30524 30525 30526 30527 30528 30529 30530 30531 30532 30533 30534 30535 30536 30537 30538 30539 30540 30541 30542 30543 30544 30545 30546 30547 30548 30549 30550 30551 30552 30553 30554 30555 30556 30557 30558 30559 30560 30561 30562 30563 30564 30565 30566 30567 30568 30569 30570 30571 30572 30573 30574 30575 30576 30577 30578 30579 30580 30581 30582 30583 30584 30585 30586 30587 30588 30589 30590 30591 30592 30593 30594 30595 30596 30597 30598 30599 30600 30601 30602 30603 30604 30605 30606 30607 30608 30609 30610 30611 30612 30613 30614 30615 30616 30617 30618 30619 30620 30621 30622 30623 30624 30625 30626 30627 30628 30629 30630 30631 30632 30633 30634 30635 30636 30637 30638 30639 30640 30641 30642 30643 30644 30645 30646 30647 30648 30649 30650 30651 30652 30653 30654 30655 30656 30657 30658 30659 30660 30661 30662 30663 30664 30665 30666 30667 30668 30669 30670 30671 30672 30673 30674 30675 30676 30677 30678 30679 30680 30681 30682 30683 30684 30685 30686 30687 30688 30689 30690 30691 30692 30693 30694 30695 30696 30697 30698 30699 30700 30701 30702 30703 30704 30705 30706 30707 30708 30709 30710 30711 30712 30713 30714 30715 30716 30717 30718 30719 30720 30721 30722 30723 30724 30725 30726 30727 30728 30729 30730 30731 30732 30733 30734 30735 30736 30737 30738 30739 30740 30741 30742 30743 30744 30745 30746 30747 30748 30749 30750 30751 30752 30753 30754 30755 30756 30757 30758 30759 30760 30761 30762 30763 30764 30765 30766 30767 30768 30769 30770 30771 30772 30773 30774 30775 30776 30777 30778 30779 30780 30781 30782 30783 30784 30785 30786 30787 30788 30789 30790 30791 30792 30793 30794 30795 30796 30797 30798 30799 30800 30801 30802 30803 30804 30805 30806 30807 30808 30809 30810 30811 30812 30813 30814 30815 30816 30817 30818 30819 30820 30821 30822 30823 30824 30825 30826 30827 30828 30829 30830 30831 30832 30833 30834 30835 30836 30837 30838 30839 30840 30841 30842 30843 30844 30845 30846 30847 30848 30849 30850 30851 30852 30853 30854 30855 30856 30857 30858 30859 30860 30861 30862 30863 30864 30865 30866 30867 30868 30869 30870 30871 30872 30873 30874 30875 30876 30877 30878 30879 30880 30881 30882 30883 30884 30885 30886 30887 30888 30889 30890 30891 30892 30893 30894 30895 30896 30897 30898 30899 30900 30901 30902 30903 30904 30905 30906 30907 30908 30909 30910 30911 30912 30913 30914 30915 30916 30917 30918 30919 30920 30921 30922 30923 30924 30925 30926 30927 30928 30929 30930 30931 30932 30933 30934 30935 30936 30937 30938 30939 30940 30941 30942 30943 30944 30945 30946 30947 30948 30949 30950 30951 30952 30953 30954 30955 30956 30957 30958 30959 30960 30961 30962 30963 30964 30965 30966 30967 30968 30969 30970 30971 30972 30973 30974 30975 30976 30977 30978 30979 30980 30981 30982 30983 30984 30985 30986 30987 30988 30989 30990 30991 30992 30993 30994 30995 30996 30997 30998 30999 31000 31001 31002 31003 31004 31005 31006 31007 31008 31009 31010 31011 31012 31013 31014 31015 31016 31017 31018 31019 31020 31021 31022 31023 31024 31025 31026 31027 31028 31029 31030 31031 31032 31033 31034 31035 31036 31037 31038 31039 31040 31041 31042 31043 31044 31045 31046 31047 31048 31049 31050 31051 31052 31053 31054 31055 31056 31057 31058 31059 31060 31061 31062 31063 31064 31065 31066 31067 31068 31069 31070 31071 31072 31073 31074 31075 31076 31077 31078 31079 31080 31081 31082 31083 31084 31085 31086 31087 31088 31089 31090 31091 31092 31093 31094 31095 31096 31097 31098 31099 31100 31101 31102 31103 31104 31105 31106 31107 31108 31109 31110 31111 31112 31113 31114 31115 31116 31117 31118 31119 31120 31121 31122 31123 31124 31125 31126 31127 31128 31129 31130 31131 31132 31133 31134 31135 31136 31137 31138 31139 31140 31141 31142 31143 31144 31145 31146 31147 31148 31149 31150 31151 31152 31153 31154 31155 31156 31157 31158 31159 31160 31161 31162 31163 31164 31165 31166 31167 31168 31169 31170 31171 31172 31173 31174 31175 31176 31177 31178 31179 31180 31181 31182 31183 31184 31185 31186 31187 31188 31189 31190 31191 31192 31193 31194 31195 31196 31197 31198 31199 31200 31201 31202 31203 31204 31205 31206 31207 31208 31209 31210 31211 31212 31213 31214 31215 31216 31217 31218 31219 31220 31221 31222 31223 31224 31225 31226 31227 31228 31229 31230 31231 31232 31233 31234 31235 31236 31237 31238 31239 31240 31241 31242 31243 31244 31245 31246 31247 31248 31249 31250 31251 31252 31253 31254 31255 31256 31257 31258 31259 31260 31261 31262 31263 31264 31265 31266 31267 31268 31269 31270 31271 31272 31273 31274 31275 31276 31277 31278 31279 31280 31281 31282 31283 31284 31285 31286 31287 31288 31289 31290 31291 31292 31293 31294 31295 31296 31297 31298 31299 31300 31301 31302 31303 31304 31305 31306 31307 31308 31309 31310 31311 31312 31313 31314 31315 31316 31317 31318 31319 31320 31321 31322 31323 31324 31325 31326 31327 31328 31329 31330 31331 31332 31333 31334 31335 31336 31337 31338 31339 31340 31341 31342 31343 31344 31345 31346 31347 31348 31349 31350 31351 31352 31353 31354 31355 31356 31357 31358 31359 31360 
</DataArray>
<DataArray type="UInt32" Name="offsets" format="ascii">
3 6 9 12 15 18 21 24 27 30 33 36 39 41 44 47 50 53 56 59 62 65 68 70 72 75 78 81 84 87 90 93 96 99 102 105 107 110 112 115 117 120 123 126 129 132 135 138 141 144 147 150 153 156 159 162 164 167 170 173 175 178 181 184 187 190 193 195 198 201 204 207 209 212 215 218 221 224 227 230 233 236 239 241 244 247 249 252 254 257 260 262 265 267 270 273 276 279 282 285 288 290 293 296 298 301 304 307 310 312 314 317 319 322 325 328 331 334 337 340 343 346 349 351 354 357 359 362 365 368 370 373 376 379 382 385 388 391 394 397 400 403 406 408 411 414 417 420 423 426 429 432 435 438 441 444 447 450 453 456 459 462 465 467 470 473 476 479 482 485 488 491 494 497 500 503 506 509 512 515 518 521 524 527 530 533 536 539 542 544 547 550 553 556 558 561 563 566 569 572 575 578 581 584 587 590 593 596 598 601 604 607 610 613 616 619 622 625 628 631 634 637 640 643 646 649 652 654 656 659 662 665 668 671 674 676 679 682 685 687 690 693 696 699 702 704 707 710 713 716 719 722 724 727 730 733 736 738 741 744 747 750 752 754 757 760 763 766 769 772 775 778 781 784 787 790 793 796 799 802 804 807 809 812 815 818 821 824 827 830 832 835 837 840 843 846 848 851 854 857 860 863 866 869 872 875 877 880 883 886 889 892 895 898 900 903 906 909 912 915 918 921 924 927 930 933 936 939 942 945 948 951 954 957 959 962 965 968 971 974 977 980 983 986 989 991 994 996 999 1002 1005 1007 1010 1013 1016 1019 1022 1025 1028 1031 1034 1037 1040 1043 1045 1048 1051 1053 1056 1058 1061 1064 1067 1069 1072 1075 1078 1081 1084 1087 1090 1093 1096 1098 1101 1104 1107 1109 1112 1115 1118 1121 1124 1127 1129 1132 1135 1138 1141 1144 1147 1150 1153 1156 1159 1162 1165 1167 1170 1173 1176 1179 1182 1184 1187 1189 1192 1195 1198 1200 1203 1206 1209 1212 1215 1218 1221 1224 1227 1230 1233 1236 1239 1242 1245 1247 1250 1252 1255 1258 1261 1264 1266 1269 1272 1275 1278 1281 1284 1287 1290 1292 1295 1298 1300 1303 1305 1308 1310 1313 1316 1319 1321 1323 1326 1329 1332 1335 1338 1341 1344 1346 1348 1351 1353 1356 1358 1361 1363 1366 1369 1372 1374 1377 1379 1382 1384 1387 1390 1392 1395 1398 1401 1403 1406 1409 1412 1415 1417 1420 1422 1425 1428 1431 1434 1436 1439 1442 1445 1448 1451 1453 1456 1459 1462 1465 1468 1470 1473 1476 1479 1481 1484 1486 1489 1492 1495 1497 1500 1503 1506 1509 1512 1515 1518 1520 1523 1526 1529 1532 1535 1537 1540 1543 1546 1549 1552 1554 1557 1559 1562 1565 1568 1571 1574 1577 1580 1583 1585 1588 1591 1594 1597 1600 1603 1605 1608 1611 1614 1617 1620 1623 1625 1628 1631 1634 1637 1639 1642 1645 1648 1650 1653 1656 1659 1662 1665 1668 1671 1674 1677 1679 1682 1685 1688 1691 1694 1697 1700 1703 1706 1709 1712 1715 1717 1720 1723 1726 1729 1732 1734 1737 1740 1742 1745 1748 1751 1754 1757 1760 1763 1765 1768 1771 1774 1777 1780 1783 1786 1788 1791 1793 1796 1799 1802 1804 1807 1810 1813 1816 1819 1822 1825 1828 1830 1833 1836 1839 1842 1844 1847 1850 1852 1855 1858 1861 1864 1867 1870 1873 1876 1879 1882 1885 1888 1891 1894 1897 1900 1903 1906 1908 1911 1914 1917 1920 1923 1926 1929 1932 1935 1938 1940 1943 1946 1949 1951 1954 1957 1960 1963 1965 1968 1971 1974 1977 1979 1982 1985 1988 1990 1993 1996 1999 2002 2005 2008 2011 2013 2016 2019 2021 2024 2027 2029 2032 2035 2038 2041 2044 2047 2050 2052 2055 2058 2061 2064 2067 2070 2073 2076 2079 2082 2085 2087 2090 2093 2096 2099 2102 2105 2108 2111 2114 2117 2120 2123 2125 2128 2131 2134 2137 2140 2143 2146 2149 2152 2155 2158 2161 2164 2166 2169 2172 2174 2177 2179 2181 2184 2186 2189 2192 2195 2198 2200 2203 2205 2208 2211 2213 2215 2218 2221 2223 2226 2229 2232 2234 2236 2239 2242 2245 2248 2251 2254 2257 2260 2263 2266 2269 2272 2275 2278 2281 2284 2287 2290 2293 2296 2299 2302 2305 2308 2311 2314 2316 2319 2322 2325 2328 2330 2333 2335 2338 2341 2344 2347 2350 2353 2355 2358 2361 2364 2367 2369 2372 2374 2377 2379 2381 2383 2385 2388 2390 2393 2396 2399 2402 2405 2408 2411 2414 2417 2420 2423 2426 2429 2431 2434 2437 2440 2442 2444 2447 2450 2453 2455 2458 2460 2463 2465 2468 2471 2473 2475 2477 2480 2482 2485 2488 2491 2494 2497 2500 2503 2506 2508 2511 2514 2517 2520 2523 2525 2527 2529 2532 2535 2538 2540 2542 2544 2546 2549 2552 2555 2558 2561 2564 2567 2570 2573 2576 2579 2582 2585 2588 2590 2593 2596 2599 2602 2605 2608 2611 2614 2617 2620 2623 2626 2628 2631 2634 2637 2640 2642 2645 2648 2651 2654 2656 2659 2662 2665 2668 2671 2673 2676 2679 2682 2685 2688 2691 2694 2697 2699 2702 2705 2708 2711 2713 2715 2718 2721 2723 2725 2728 2731 2734 2737 2739 2742 2744 2747 2750 2753 2756 2759 2762 2764 2767 2770 2773 2775 2778 2781 2784 2786 2788 2791 2793 2796 2799 2802 2805 2807 2810 2813 2816 2819 2822 2824 2827 2829 2831 2834 2837 2840 2843 2846 2849 2852 2855 2857 2860 2863 2866 2869 2872 2874 2876 2878 2881 2884 2887 2890 2893 2896 2898 2901 2904 2907 2909 2912 2915 2918 2921 2923 2925 2927 2930 2933 2936 2938 2941 2944 2947 2950 2953 2956 2959 2962 2964 2967 2970 2972 2975 2978 2981 2984 2987 2990 2993 2996 2999 3002 3005 3008 3011 3014 3017 3020 3023 3026 3029 3032 3035 3038 3041 3044 3047 3050 3053 3056 3059 3062 3065 3068 3071 3074 3077 3080 3083 3086 3089 3092 3095 3097 3100 3103 3106 3109 3112 3115 3118 3121 3124 3127 3130 3133 3136 3139 3142 3145 3148 3151 3154 3157 3160 3163 3166 3169 3172 3174 3177 3180 3183 3185 3188 3191 3194 3197 3200 3202 3205 3208 3211 3214 3216 3219 3222 3224 3227 3230 3233 3236 3238 3241 3244 3246 3249 3252 3255 3257 3260 3263 3265 3268 3271 3274 3277 3279 3282 3285 3288 3291 3294 3297 3299 3302 3305 3308 3310 3313 3316 3319 3322 3325 3328 3331 3333 3336 3339 3342 3345 3348 3351 3354 3357 3360 3363 3366 3369 3372 3375 3377 3380 3383 3386 3389 3392 3394 3397 3400 3403 3406 3409 3412 3415 3418 3421 3424 3427 3430 3433 3436 3439 3442 3445 3448 3451 3454 3457 3460 3463 3466 3469 3472 3475 3478 3480 3483 3486 3489 3492 3495 3498 3500 3502 3504 3506 3509 3512 3515 3518 3521 3524 3527 3530 3533 3536 3539 3542 3545 3548 3551 3554 3557 3560 3563 3565 3568 3571 3574 3577 3580 3583 3586 3589 3592 3594 3597 3600 3602 3605 3608 3611 3614 3617 3620 3623 3626 3629 3632 3635 3638 3641 3644 3647 3650 3653 3655 3658 3661 3664 3667 3669 3672 3675 3677 3680 3683 3685 3688 3691 3694 3697 3700 3703 3706 3709 3712 3715 3718 3721 3723 3726 3729 3732 3735 3738 3741 3744 3747 3750 3753 3756 3758 3761 3764 3767 3769 3772 3774 3776 3779 3782 3785 3788 3791 3794 3797 3800 3803 3806 3809 3812 3815 3817 3820 3823 3825 3827 3830 3833 3836 3838 3841 3844 3846 3849 3852 3855 3858 3860 3862 3865 3867 3870 3873 3876 3878 3881 3884 3887 3890 3893 3895 3898 3901 3903 3905 3908 3911 3913 3916 3919 3922 3925 3928 3931 3934 3937 3940 3942 3944 3947 3950 3953 3956 3959 3962 3965 3967 3970 3973 3976 3978 3981 3984 3987 3989 3992 3995 3998 4000 4003 4006 4009 4012 4015 4018 4021 4024 4027 4030 4033 4035 4038 4041 4044 4046 4049 4051 4054 4057 4060 4063 4066 4068 4071 4073 4076 4079 4081 4084 4087 4089 4091 4094 4097 4100 4102 4105 4108 4111 4113 4116 4119 4122 4124 4127 4130 4133 4136 4138 4140 4142 4145 4148 4151 4154 4157 4160 4163 4165 4168 4171 4174 4177 4179 4181 4184 4187 4190 4193 4196 4199 4202 4204 4207 4209 4212 4215 4218 4220 4223 4225 4228 4231 4234 4237 4240 4243 4246 4249 4252 4254 4257 4260 4263 4266 4269 4272 4275 4278 4281 4284 4287 4290 4293 4296 4299 4302 4305 4308 4311 4314 4317 4320 4323 4326 4328 4331 4334 4337 4339 4342 4345 4347 4350 4353 4356 4359 4362 4365 4367 4370 4372 4375 4378 4381 4383 4386 4388 4391 4394 4397 4399 4402 4405 4408 4411 4414 4417 4420 4423 4426 4429 4432 4435 4438 4441 4444 4447 4449 4452 4455 4458 4461 4464 4466 4469 4472 4475 4478 4481 4484 4487 4490 4493 4496 4499 4501 4504 4507 4510 4513 4516 4518 4521 4524 4527 4530 4533 4536 4539 4542 4545 4548 4551 4554 4557 4560 4562 4565 4568 4571 4573 4576 4579 4582 4585 4588 4591 4594 4597 4600 4603 4606 4609 4612 4615 4618 4620 4623 4626 4629 4632 4635 4638 4640 4643 4645 4648 4651 4654 4657 4660 4663 4666 4669 4671 4674 4676 4679 4682 4685 4688 4691 4694 4696 4699 4702 4705 4708 4711 4714 4717 4719 4722 4724 4726 4729 4732 4734 4737 4740 4743 4746 4748 4751 4753 4756 4758 4761 4764 4767 4770 4773 4776 4779 4782 4785 4788 4791 4794 4797 4800 4803 4806 4809 4812 4814 4817 4819 4822 4825 4828 4831 4834 4837 4840 4843 4846 4849 4852 4855 4858 4861 4863 4866 4868 4871 4874 4877 4879 4881 4884 4886 4889 4892 4895 4898 4900 4903 4906 4909 4912 4914 4916 4919 4922 4924 4926 4929 4932 4934 4936 4939 4942 4945 4948 4950 4953 4956 4958 4961 4964 4967 4969 4972 4974 4977 4979 4982 4985 4988 4990 4993 4996 4999 5001 5003 5005 5007 5010 5013 5016 5019 5021 5024 5027 5029 5032 5034 5037 5039 5042 5045 5048 5051 5054 5057 5060 5062 5064 5067 5070 5073 5076 5078 5080 5083 5086 5088 5091 5094 5096 5099 5102 5105 5108 5111 5114 5117 5120 5123 5126 5128 5131 5134 5137 5140 5143 5146 5148 5151 5154 5157 5159 5162 5165 5168 5170 5173 5176 5179 5182 5185 5188 5190 5193 5195 5198 5200 5203 5206 5209 5211 5214 5217 5219 5222 5225 5227 5230 5232 5235 5238 5240 5243 5246 5249 5252 5254 5257 5260 5263 5265 5268 5271 5274 5277 5280 5283 5286 5289 5292 5295 5298 5301 5304 5307 5310 5313 5316 5319 5322 5325 5328 5331 5334 5337 5340 5343 5346 5349 5352 5354 5356 5359 5362 5364 5367 5370 5373 5376 5379 5382 5385 5388 5391 5393 5396 5399 5402 5405 5408 5411 5414 5416 5418 5421 5424 5426 5429 5432 5435 5438 5441 5444 5447 5450 5453 5456 5459 5462 5465 5468 5471 5474 5477 5480 5482 5485 5488 5491 5494 5497 5500 5503 5506 5509 5512 5515 5518 5521 5524 5527 5530 5533 5536 5539 5542 5545 5548 5551 5554 5557 5560 5563 5566 5569 5572 5575 5578 5581 5584 5587 5590 5593 5596 5599 5602 5605 5608 5611 5614 5617 5620 5623 5626 5629 5632 5635 5638 5641 5644 5647 5650 5653 5656 5659 5662 5665 5668 5671 5674 5677 5680 5683 5686 5689 5692 5695 5698 5700 5703 5706 5709 5712 5715 5718 5721 5723 5726 5729 5732 5734 5737 5739 5742 5745 5748 5751 5754 5757 5760 5763 5766 5769 5772 5774 5777 5780 5783 5786 5789 5792 5795 5798 5801 5804 5807 5810 5813 5815 5818 5821 5824 5826 5829 5832 5834 5837 5840 5843 5846 5849 5851 5854 5856 5859 5862 5865 5868 5871 5874 5877 5880 5883 5885 5888 5891 5894 5897 5900 5903 5906 5908 5911 5914 5916 5919 5922 5924 5927 5930 5933 5936 5939 5942 5945 5948 5951 5954 5957 5960 5963 5966 5969 5971 5974 5977 5980 5983 5986 5989 5992 5995 5998 6001 6004 6007 6010 6013 6016 6019 6022 6025 6028 6031 6034 6037 6040 6043 6046 6049 6052 6055 6058 6061 6064 6067 6069 6072 6075 6078 6081 6084 6087 6090 6093 6096 6099 6102 6105 6108 6111 6114 6117 6120 6123 6126 6129 6132 6135 6138 6141 6144 6147 6150 6153 6156 6159 6162 6165 6168 6170 6173 6176 6179 6182 6185 6188 6191 6194 6197 6200 6203 6206 6209 6212 6215 6218 6221 6224 6227 6230 6233 6236 6239 6242 6245 6248 6251 6254 6257 6260 6263 6266 6269 6272 6275 6278 6281 6284 6287 6290 6293 6296 6299 6302 6305 6308 6311 6314 6317 6320 6323 6326 6329 6332 6335 6338 6341 6344 6347 6350 6353 6356 6359 6362 6365 6368 6371 6374 6377 6380 6383 6386 6389 6392 6395 6398 6401 6404 6407 6410 6413 6416 6419 6422 6425 6428 6430 6433 6436 6439 6441 6444 6447 6450 6453 6456 6459 6462 6465 6468 6470 6473 6476 6479 6481 6484 6487 6490 6493 6496 6498 6501 6503 6506 6509 6511 6514 6517 6519 6522 6525 6528 6531 6534 6537 6540 6543 6545 6548 6551 6554 6556 6559 6562 6565 6568 6571 6574 6577 6579 6581 6584 6587 6589 6592 6595 6597 6599 6602 6605 6608 6611 6614 6617 6620 6623 6626 6628 6631 6634 6637 6639 6642 6645 6648 6650 6653 6656 6658 6661 6664 6666 6669 6671 6673 6676 6678 6681 6684 6687 6690 6693 6696 6698 6700 6703 6706 6709 6712 6715 6718 6721 6724 6727 6730 6733 6736 6739 6742 6745 6748 6750 6753 6756 6758 6761 6764 6767 6769 6772 6775 6778 6781 6784 6787 6790 6793 6796 6799 6801 6804 6807 6810 6812 6815 6818 6821 6823 6826 6829 6832 6835 6837 6839 6842 6844 6847 6850 6852 6855 6857 6859 6862 6865 6868 6870 6873 6876 6879 6881 6883 6886 6889 6892 6895 6898 6900 6903 6906 6908 6911 6914 6917 6919 6922 6925 6928 6931 6934 6937 6940 6943 6946 6949 6952 6955 6957 6960 6963 6966 6969 6972 6975 6978 6981 6984 6986 6989 6992 6995 6998 7001 7004 7007 7010 7013 7016 7019 7022 7025 7028 7031 7034 7037 7040 7043 7046 7049 7051 7054 7057 7059 7062 7065 7068 7071 7074 7077 7080 7083 7086 7089 7092 7095 7098 7101 7104 7107 7110 7113 7116 7119 7122 7125 7128 7131 7134 7137 7140 7143 7146 7149 7152 7154 7157 7160 7163 7166 7169 7172 7175 7177 7180 7183 7186 7189 7192 7195 7198 7201 7204 7207 7210 7213 7216 7219 7222 7225 7228 7231 7234 7237 7240 7242 7245 7248 7251 7254 7257 7260 7263 7266 7268 7271 7274 7277 7280 7283 7285 7288 7291 7294 7296 7299 7302 7305 7308 7311 7314 7317 7320 7323 7326 7329 7332 7335 7337 7339 7342 7345 7348 7351 7353 7356 7359 7362 7365 7368 7371 7373 7376 7378 7381 7384 7387 7390 7392 7395 7398 7401 7404 7406 7408 7411 7414 7417 7419 7422 7425 7428 7431 7434 7437 7440 7443 7446 7448 7451 7454 7457 7460 7462 7465 7468 7471 7474 7477 7480 7483 7486 7489 7492 7495 7498 7501 7504 7507 7510 7512 7515 7518 7521 7524 7527 7530 7533 7536 7539 7541 7544 7547 7550 7553 7556 7559 7562 7565 7568 7571 7574 7577 7580 7583 7586 7589 7592 7595 7598 7601 7604 7607 7610 7613 7616 7619 7622 7624 7627 7630 7632 7635 7638 7641 7644 7647 7650 7653 7655 7658 7661 7664 7667 7670 7673 7676 7679 7682 7685 7688 7691 7694 7697 7700 7703 7705 7708 7711 7714 7717 7720 7723 7726 7729 7732 7735 7738 7741 7744 7747 7750 7753 7756 7759 7762 7765 7768 7771 7774 7777 7780 7782 7785 7788 7791 7794 7797 7800 7803 7805 7808 7811 7814 7817 7820 7823 7826 7828 7830 7832 7835 7838 7841 7844 7846 7849 7852 7854 7857 7860 7862 7864 7867 7870 7873 7875 7877 7880 7883 7886 7889 7892 7895 7898 7901 7904 7907 7910 7913 7916 7918 7921 7924 7927 7929 7932 7935 7938 7941 7943 7946 7949 7952 7955 7958 7961 7964 7967 7970 7973 7976 7979 7982 7985 7988 7991 7994 7997 8000 8003 8006 8009 8012 8015 8018 8021 8024 8027 8030 8033 8036 8039 8042 8045 8048 8051 8054 8057 8060 8063 8066 8069 8072 8075 8077 8080 8083 8086 8089 8092 8095 8098 8100 8103 8106 8109 8111 8114 8116 8118 8121 8124 8126 8129 8131 8133 8136 8139 8141 8144 8147 8150 8152 8155 8158 8161 8164 8167 8170 8173 8175 8178 8181 8183 8186 8189 8192 8195 8198 8201 8204 8207 8210 8213 8215 8218 8221 8224 8227 8230 8233 8236 8239 8242 8244 8247 8250 8253 8256 8258 8260 8263 8266 8269 8272 8275 8278 8281 8283 8286 8289 8292 8295 8298 8301 8304 8306 8308 8310 8313 8315 8317 8320 8323 8326 8329 8332 8335 8337 8340 8343 8346 8349 8352 8355 8358 8361 8364 8367 8370 8373 8376 8379 8382 8385 8388 8391 8394 8397 8400 8403 8406 8409 8412 8415 8418 8421 8424 8427 8430 8433 8436 8439 8442 8445 8448 8451 8454 8457 8460 8463 8466 8469 8472 8475 8478 8481 8484 8487 8490 8493 8496 8499 8502 8505 8508 8511 8514 8517 8520 8523 8526 8529 8532 8534 8537 8540 8543 8546 8549 8552 8555 8558 8560 8563 8565 8568 8571 8574 8577 8579 8582 8584 8587 8590 8593 8595 8598 8601 8604 8606 8609 8612 8615 8618 8621 8624 8627 8630 8633 8636 8639 8642 8644 8647 8650 8653 8656 8659 8662 8665 8668 8671 8673 8675 8678 8681 8683 8686 8689 8692 8694 8696 8699 8702 8704 8707 8710 8712 8715 8718 8720 8723 8725 8728 8731 8734 8736 8739 8742 8744 8747 8750 8753 8756 8759 8762 8765 8768 8770 8773 8776 8779 8781 8783 8786 8789 8792 8795 8798 8801 8804 8807 8810 8813 8816 8819 8821 8824 8827 8830 8833 8836 8839 8842 8845 8848 8851 8854 8857 8860 8863 8866 8869 8872 8875 8877 8880 8883 8886 8889 8892 8895 8898 8900 8903 8906 8909 8911 8914 8917 8920 8923 8926 8929 8932 8935 8938 8941 8944 8947 8950 8953 8956 8959 8962 8965 8968 8971 8974 8977 8980 8983 8986 8989 8992 8995 8998 9000 9002 9005 9008 9011 9014 9017 9019 9022 9025 9028 9031 9033 9036 9039 9042 9045 9048 9050 9053 9056 9059 9062 9065 9068 9071 9073 9076 9079 9082 9085 9088 9091 9094 9096 9099 9102 9105 9108 9111 9114 9117 9120 9123 9126 9129 9132 9135 9138 9141 9144 9147 9150 9153 9155 9158 9161 9164 9167 9170 9173 9176 9178 9181 9184 9187 9190 9193 9196 9199 9202 9205 9207 9210 9213 9215 9218 9221 9224 9227 9230 9232 9234 9237 9240 9243 9245 9248 9250 9253 9255 9258 9261 9264 9266 9269 9272 9275 9278 9281 9284 9287 9289 9292 9295 9298 9300 9303 9306 9309 9311 9314 9317 9320 9323 9326 9328 9331 9334 9337 9339 9341 9344 9346 9349 9352 9354 9357 9360 9363 9366 9368 9371 9374 9376 9378 9381 9384 9387 9389 9391 9394 9396 9399 9402 9405 9408 9411 9414 9417 9419 9422 9425 9427 9430 9433 9436 9438 9441 9443 9446 9448 9451 9454 9457 9460 9463 9466 9469 9472 9475 9477 9480 9483 9485 9488 9491 9494 9497 9500 9503 9506 9509 9512 9515 9518 9520 9523 9526 9528 9531 9534 9537 9540 9543 9546 9549 9551 9554 9557 9560 9563 9566 9569 9572 9575 9578 9580 9583 9585 9588 9590 9593 9596 9599 9602 9604 9607 9610 9613 9615 9617 9620 9623 9626 9628 9631 9634 9637 9640 9643 9646 9649 9651 9654 9657 9659 9662 9665 9667 9670 9673 9676 9679 9682 9685 9688 9691 9693 9696 9699 9702 9705 9708 9711 9713 9716 9719 9722 9725 9728 9731 9734 9737 9740 9743 9745 9748 9751 9754 9757 9760 9763 9766 9769 9772 9775 9778 9781 9784 9787 9790 9793 9796 9799 9802 9805 9808 9811 9814 9817 9820 9823 9826 9829 9832 9835 9838 9841 9844 9847 9850 9852 9855 9858 9861 9864 9867 9870 9873 9876 9879 9882 9885 9888 9891 9893 9896 9899 9902 9905 9907 9909 9911 9914 9917 9920 9923 9926 9929 9932 9935 9938 9941 9944 9947 9950 9953 9956 9958 9961 9964 9967 9970 9973 9975 9978 9980 9983 9986 9989 9992 9995 9998 10000 10003 10006 10009 10012 10015 10017 10020 10023 10026 10029 10032 10034 10037 10040 10043 10046 10049 10052 10054 10057 10060 10062 10065 10068 10071 10074 10076 10079 10082 10085 10088 10091 10094 10097 10100 10103 10106 10109 10112 10115 10118 10121 10124 10126 10129 10132 10135 10138 10141 10144 10147 10150 10152 10155 10158 10161 10164 10167 10170 10173 10176 10179 10181 10184 10187 10190 10193 10196 10199 10202 10205 10208 10211 10214 10217 10219 10222 10225 10228 10231 10233 10236 10239 10242 10245 10248 10251 10253 10255 10257 10260 10263 10266 10269 10272 10274 10276 10278 10281 10284 10287 10290 10293 10296 10299 10301 10303 10306 10309 10312 10315 10318 10321 10323 10326 10329 10332 10334 10337 10340 10343 10346 10349 10352 10355 10358 10361 10364 10367 10370 10372 10375 10378 10381 10384 10387 10389 10392 10395 10398 10401 10403 10406 10409 10412 10415 10417 10420 10423 10426 10429 10432 10435 10437 10439 10441 10444 10447 10450 10453 10456 10459 10462 10465 10468 10471 10474 10476 10479 10482 10485 10488 10491 10494 10497 10500 10503 10506 10509 10512 10515 10518 10521 10524 10527 10530 10533 10536 10539 10542 10545 10548 10551 10554 10557 10560 10563 10566 10569 10572 10575 10578 10581 10584 10587 10590 10593 10596 10599 10602 10605 10608 10611 10614 10616 10619 10621 10624 10627 10630 10633 10636 10639 10642 10645 10647 10650 10652 10655 10658 10661 10664 10667 10670 10672 10675 10678 10680 10683 10686 10689 10692 10695 10698 10701 10703 10706 10708 10711 10713 10716 10719 10722 10725 10727 10730 10732 10735 10738 10740 10743 10746 10749 10752 10755 10758 10761 10764 10767 10770 10772 10775 10778 10781 10783 10786 10789 10792 10795 10798 10801 10804 10806 10809 10812 10815 10818 10821 10824 10827 10830 10833 10836 10839 10842 10845 10848 10851 10854 10857 10860 10863 10866 10869 10872 10875 10878 10881 10884 10886 10889 10892 10895 10897 10900 10903 10905 10908 10911 10914 10917 10920 10923 10926 10929 10932 10934 10937 10940 10943 10946 10949 10952 10955 10958 10961 10964 10966 10969 10972 10974 10977 10980 10983 10986 10989 10992 10995 10998 11001 11004 11007 11010 11013 11016 11019 11022 11025 11028 11031 11034 11037 11040 11043 11046 11049 11052 11055 11057 11060 11063 11065 11068 11071 11074 11076 11079 11081 11084 11087 11090 11093 11096 11099 11102 11105 11107 11110 11113 11116 11118 11121 11124 11127 11130 11133 11136 11139 11141 11144 11147 11150 11153 11155 11158 11161 11163 11166 11169 11171 11174 11177 11180 11182 11185 11188 11191 11193 11196 11199 11201 11203 11206 11209 11211 11213 11216 11219 11222 11225 11228 11231 11234 11237 11240 11243 11245 11248 11251 11254 11257 11259 11262 11265 11268 11271 11274 11277 11280 11283 11286 11289 11292 11295 11297 11300 11302 11305 11308 11311 11314 11317 11320 11322 11325 11328 11330 11333 11336 11339 11342 11345 11348 11351 11354 11357 11360 11363 11366 11368 11371 11374 11377 11380 11382 11385 11388 11391 11393 11395 11398 11401 11404 11407 11410 11413 11416 11418 11421 11424 11427 11430 11433 11436 11439 11442 11445 11448 11450 11453 11456 11459 11462 11465 11468 11471 11474 11477 11480 11483 11486 11489 11491 11493 11496 11499 11501 11504 11507 11510 11513 11516 11519 11521 11524 11526 11529 11532 11535 11538 11540 11543 11545 11548 11551 11553 11555 11558 11561 11564 11567 11570 11573 11576 11579 11582 11585 11588 11591 11594 11597 11600 11603 11606 11609 11612 11615 11618 11621 11624 11627 11630 11633 11636 11639 11642 11645 11648 11651 11654 11657 11660 11663 11666 11669 11672 11675 11678 11681 11684 11687 11690 11693 11696 11699 11702 11705 11708 11711 11714 11717 11720 11723 11726 11729 11732 11734 11737 11740 11743 11746 11749 11752 11755 11758 11760 11763 11766 11768 11771 11774 11777 11780 11783 11786 11789 11792 11795 11798 11801 11804 11807 11810 11813 11816 11819 11822 11825 11828 11831 11834 11837 11840 11843 11846 11849 11852 11854 11857 11860 11863 11866 11869 11872 11875 11878 11880 11883 11885 11888 11891 11893 11896 11898 11901 11904 11907 11909 11912 11915 11918 11920 11923 11925 11928 11931 11934 11937 11940 11943 11946 11949 11952 11955 11958 11961 11964 11967 11970 11972 11975 11978 11980 11983 11986 11989 11992 11995 11998 12000 12003 12006 12008 12011 12014 12016 12019 12022 12025 12028 12031 12033 12036 12039 12041 12044 12047 12050 12052 12055 12058 12061 12064 12067 12070 12072 12074 12077 12080 12083 12085 12087 12089 12091 12094 12097 12100 12102 12105 12107 12110 12113 12116 12119 12122 12124 12127 12130 12133 12136 12139 12142 12144 12147 12150 12153 12156 12159 12162 12165 12168 12171 12174 12177 12180 12183 12186 12188 12191 12194 12197 12200 12202 12204 12207 12210 12213 12216 12219 12222 12225 12228 12231 12234 12237 12240 12243 12245 12248 12251 12253 12255 12258 12261 12263 12266 12269 12272 12275 12278 12281 12284 12287 12290 12293 12295 12298 12301 12304 12307 12310 12313 12316 12318 12321 12324 12327 12330 12333 12336 12339 12342 12345 12348 12350 12353 12356 12359 12362 12365 12368 12371 12374 12376 12379 12382 12385 12388 12391 12394 12397 12400 12403 12406 12409 12412 12415 12418 12421 12424 12427 12429 12432 12435 12438 12441 12443 12446 12448 12451 12454 12457 12460 12463 12466 12469 12472 12475 12478 12481 12484 12486 12489 12491 12494 12496 12499 12502 12505 12508 12511 12513 12516 12518 12521 12523 12526 12529 12532 12534 12536 12538 12541 12544 12547 12550 12552 12555 12558 12561 12563 12566 12568 12571 12574 12577 12580 12583 12586 12589 12591 12594 12596 12599 12602 12605 12608 12611 12614 12617 12619 12622 12624 12627 12630 12633 12636 12639 12641 12644 12647 12650 12652 12654 12657 12659 12662 12665 12668 12671 12674 12677 12680 12683 12685 12688 12691 12694 12697 12699 12702 12705 12708 12711 12714 12717 12720 12722 12725 12728 12731 12734 12737 12740 12743 12746 12749 12752 12755 12758 12761 12764 12767 12770 12773 12776 12779 12782 12785 12788 12791 12794 12796 12798 12801 12804 12807 12810 12813 12815 12817 12819 12822 12825 12827 12830 12833 12836 12839 12842 12845 12847 12850 12853 12855 12857 12860 12863 12866 12869 12872 12875 12878 12881 12884 12887 12890 12893 12895 12898 12901 12904 12907 12910 12913 12916 12919 12922 12925 12928 12931 12934 12937 12940 12943 12946 12949 12952 12955 12958 12961 12964 12967 12969 12971 12974 12976 12979 12982 12985 12988 12991 12994 12997 13000 13003 13006 13009 13012 13015 13017 13020 13023 13026 13029 13032 13035 13038 13040 13042 13045 13048 13051 13054 13057 13060 13063 13066 13068 13071 13073 13076 13079 13082 13084 13086 13088 13091 13093 13096 13099 13101 13104 13107 13109 13112 13115 13118 13121 13124 13127 13130 13133 13136 13139 13142 13145 13148 13151 13154 13157 13160 13163 13165 13168 13171 13174 13177 13180 13183 13186 13189 13192 13195 13198 13200 13203 13206 13209 13212 13215 13218 13221 13224 13226 13229 13232 13235 13238 13241 13244 13247 13250 13253 13256 13259 13262 13265 13268 13271 13274 13277 13280 13283 13286 13288 13291 13294 13297 13300 13303 13306 13308 13310 13313 13316 13319 13322 13325 13328 13330 13333 13336 13339 13342 13344 13347 13350 13353 13356 13359 13362 13365 13368 13371 13374 13377 13380 13383 13386 13389 13391 13394 13397 13400 13402 13405 13408 13411 13414 13417 13420 13423 13426 13429 13432 13435 13438 13441 13444 13447 13449 13452 13455 13458 13461 13464 13467 13469 13471 13473 13476 13479 13482 13485 13488 13491 13493 13496 13499 13501 13504 13507 13510 13513 13516 13519 13521 13524 13526 13529 13532 13535 13538 13541 13544 13547 13550 13552 13554 13556 13559 13562 13565 13568 13571 13574 13577 13580 13583 13586 13588 13591 13594 13596 13599 13602 13604 13606 13609 13612 13615 13618 13621 13624 13627 13630 13633 13635 13638 13641 13644 13647 13649 13651 13654 13656 13659 13662 13665 13668 13671 13674 13677 13680 13683 13685 13687 13690 13692 13695 13698 13701 13703 13706 13708 13711 13714 13717 13720 13723 13726 13729 13732 13735 13738 13741 13744 13747 13750 13752 13755 13758 13760 13763 13766 13769 13771 13774 13777 13780 13783 13785 13788 13791 13794 13797 13800 13803 13806 13809 13812 13815 13818 13821 13824 13826 13829 13832 13835 13838 13841 13844 13846 13849 13852 13855 13858 13861 13864 13867 13869 13872 13874 13877 13880 13883 13885 13888 13891 13894 13896 13899 13902 13905 13908 13911 13914 13916 13919 13921 13924 13927 13930 13933 13936 13939 13942 13944 13946 13949 13952 13954 13957 13960 13963 13965 13968 13971 13973 13976 13979 13982 13984 13987 13990 13993 13996 13999 14002 14004 14006 14009 14012 14015 14017 14019 14022 14024 14026 14029 14032 14035 14037 14039 14042 14045 14048 14051 14054 14056 14059 14062 14065 14068 14071 14074 14077 14080 14083 14086 14089 14092 14095 14098 14101 14104 14107 14110 14113 14116 14119 14122 14125 14128 14131 14134 14137 14139 14142 14145 14148 14151 14154 14157 14160 14163 14166 14169 14172 14175 14178 14180 14182 14185 14187 14189 14192 14195 14197 14199 14201 14204 14207 14209 14212 14214 14217 14220 14223 14226 14228 14231 14234 14237 14239 14242 14244 14247 14250 14252 14255 14258 14261 14264 14266 14268 14271 14274 14277 14280 14282 14285 14288 14290 14293 14296 14299 14302 14305 14308 14311 14314 14317 14319 14322 14325 14328 14330 14333 14336 14338 14340 14343 14346 14349 14352 14355 14358 14360 14363 14366 14369 14372 14375 14378 14380 14383 14386 14389 14392 14395 14398 14401 14404 14407 14409 14411 14414 14416 14419 14422 14425 14428 14431 14434 14437 14440 14443 14446 14449 14452 14455 14458 14461 14464 14467 14470 14473 14476 14479 14482 14485 14488 14491 14494 14497 14500 14503 14506 14509 14512 14515 14518 14520 14523 14526 14529 14532 14535 14538 14541 14544 14547 14550 14553 14556 14559 14561 14564 14567 14569 14571 14574 14577 14580 14583 14586 14589 14591 14594 14597 14599 14602 14605 14608 14610 14612 14615 14618 14621 14624 14627 14630 14633 14636 14638 14641 14644 14646 14649 14652 14655 14658 14661 14664 14667 14670 14673 14676 14679 14682 14684 14686 14689 14691 14694 14697 14699 14702 14705 14707 14710 14713 14716 14719 14721 14724 14727 14729 14732 14735 14737 14740 14743 14745 14748 14751 14753 14755 14758 14760 14763 14766 14769 14771 14774 14777 14780 14783 14786 14789 14792 14795 14798 14800 14803 14806 14809 14812 14815 14817 14820 14823 14825 14828 14831 14834 14837 14840 14843 14845 14848 14851 14854 14856 14858 14861 14864 14867 14870 14873 14875 14878 14880 14883 14886 14889 14891 14894 14897 14900 14903 14906 14909 14912 14915 14918 14921 14924 14927 14930 14933 14936 14938 14941 14944 14947 14950 14953 14956 14959 14962 14965 14968 14971 14974 14977 14980 14983 14985 14988 14991 14994 14997 15000 15003 15006 15009 15011 15014 15017 15020 15023 15026 15029 15032 15035 15038 15041 15044 15047 15050 15053 15056 15059 15062 15065 15068 15071 15074 15077 15080 15083 15086 15089 15092 15095 15098 15101 15104 15107 15110 15113 15116 15119 15122 15125 15128 15131 15133 15136 15138 15141 15144 15147 15150 15153 15156 15159 15162 15165 15168 15171 15174 15177 15180 15183 15186 15189 15192 15195 15198 15201 15204 15207 15210 15213 15216 15219 15222 15225 15228 15231 15234 15236 15239 15242 15245 15248 15251 15254 15256 15259 15262 15265 15268 15271 15274 15277 15280 15283 15286 15289 15292 15295 15297 15299 15302 15305 15307 15310 15313 15316 15319 15322 15325 15328 15331 15333 15336 15339 15342 15345 15348 15351 15354 15357 15360 15363 15366 15369 15372 15375 15378 15381 15384 15387 15390 15393 15396 15399 15402 15405 15408 15410 15412 15415 15418 15420 15423 15425 15428 15431 15434 15437 15440 15443 15446 15449 15452 15455 15458 15461 15464 15467 15470 15473 15476 15479 15481 15484 15486 15489 15491 15494 15497 15500 15503 15506 15509 15512 15515 15517 15520 15523 15526 15529 15532 15535 15538 15541 15543 15546 15549 15552 15555 15558 15561 15564 15567 15570 15573 15576 15579 15582 15585 15588 15591 15594 15597 15600 15603 15606 15609 15611 15614 15617 15620 15622 15624 15627 15630 15633 15636 15639 15642 15645 15648 15651 15654 15657 15660 15663 15666 15669 15671 15674 15677 15680 15683 15686 15689 15692 15695 15697 15700 15703 15706 15709 15712 15715 15718 15721 15724 15727 15730 15733 15736 15739 15742 15745 15748 15751 15754 15757 15759 15762 15765 15768 15771 15774 15777 15780 15783 15786 15789 15792 15794 15797 15800 15802 15805 15808 15811 15814 15817 15820 15823 15825 15828 15831 15833 15836 15839 15842 15845 15847 15850 15853 15855 15857 15860 15863 15866 15868 15871 15874 15877 15880 15883 15886 15888 15891 15894 15897 15900 15903 15906 15909 15912 15914 15917 15920 15923 15926 15929 15931 15934 15937 15940 15943 15946 15949 15951 15954 15957 15959 15962 15965 15968 15971 15974 15977 15980 15983 15986 15989 15991 15993 15996 15999 16001 16003 16006 16009 16012 16015 16018 16020 16023 16026 16028 16031 16033 16036 16039 16041 16044 16046 16049 16051 16054 16056 16059 16061 16064 16066 16069 16072 16075 16078 16081 16083 16086 16089 16092 16095 16097 16100 16102 16105 16108 16111 16113 16115 16118 16121 16124 16127 16130 16133 16136 16139 16142 16145 16148 16150 16153 16156 16159 16162 16165 16168 16171 16174 16177 16180 16183 16186 16189 16192 16195 16198 16201 16204 16207 16210 16213 16216 16219 16221 16224 16227 16230 16233 16236 16239 16242 16245 16248 16251 16254 16256 16259 16262 16264 16266 16268 16271 16274 16277 16280 16283 16286 16289 16292 16295 16298 16300 16302 16305 16308 16311 16314 16316 16319 16322 16325 16328 16331 16334 16336 16339 16342 16345 16348 16351 16354 16357 16360 16363 16365 16368 16370 16373 16376 16379 16382 16385 16388 16390 16393 16396 16399 16402 16405 16408 16411 16414 16417 16420 16423 16426 16429 16432 16435 16438 16441 16444 16447 16450 16453 16456 16459 16462 16465 16468 16471 16474 16477 16479 16482 16485 16487 16490 16493 16496 16499 16502 16505 16508 16510 16513 16516 16519 16522 16525 16528 16530 16533 16536 16539 16542 16544 16547 16549 16552 16555 16557 16560 16563 16566 16569 16572 16575 16578 16580 16583 16586 16589 16592 16594 16597 16600 16603 16606 16609 16611 16614 16617 16620 16623 16626 16628 16631 16634 16636 16639 16642 16645 16648 16651 16654 16657 16660 16663 16665 16668 16671 16674 16677 16680 16683 16686 16689 16691 16694 16696 16699 16701 16704 16707 16710 16713 16716 16719 16722 16725 16728 16731 16734 16737 16740 16743 16745 16748 16751 16754 16757 16759 16762 16764 16767 16769 16772 16775 16778 16780 16783 16786 16789 16791 16794 16796 16799 16802 16805 16808 16811 16814 16817 16820 16822 16825 16828 16831 16834 16837 16840 16843 16846 16848 16851 16854 16857 16860 16863 16866 16869 16872 16875 16878 16881 16884 16887 16890 16893 16896 16899 16902 16905 16908 16911 16914 16916 16918 16921 16924 16927 16929 16932 16934 16937 16939 16942 16945 16947 16950 16953 16955 16958 16961 16964 16966 16969 16972 16975 16978 16981 16984 16987 16990 16992 16995 16998 17000 17003 17006 17009 17012 17015 17018 17021 17024 17027 17029 17031 17034 17037 17040 17043 17045 17048 17051 17054 17057 17060 17063 17066 17069 17072 17075 17078 17081 17084 17086 17089 17092 17095 17097 17100 17102 17105 17107 17110 17113 17116 17118 17121 17124 17127 17130 17133 17136 17139 17142 17145 17148 17151 17154 17157 17160 17163 17166 17169 17172 17175 17178 17181 17184 17186 17189 17192 17195 17198 17201 17203 17206 17208 17211 17214 17217 17219 17222 17225 17228 17231 17234 17237 17240 17243 17246 17249 17252 17255 17258 17261 17264 17267 17270 17273 17276 17279 17282 17285 17288 17291 17294 17297 17300 17303 17306 17309 17312 17315 17318 17321 17324 17327 17330 17333 17336 17339 17342 17344 17347 17350 17353 17356 17359 17362 17365 17368 17371 17374 17377 17380 17383 17386 17389 17391 17394 17397 17400 17403 17406 17409 17412 17415 17418 17421 17424 17427 17430 17433 17435 17438 17441 17443 17446 17449 17452 17455 17458 17461 17464 17467 17470 17473 17476 17478 17481 17484 17487 17490 17492 17494 17497 17499 17501 17503 17506 17509 17512 17515 17518 17520 17523 17526 17528 17530 17533 17536 17539 17542 17545 17548 17551 17554 17557 17559 17562 17565 17568 17571 17573 17575 17577 17580 17583 17585 17588 17591 17593 17596 17598 17600 17603 17606 17609 17612 17615 17618 17621 17624 17627 17630 17633 17636 17639 17642 17644 17647 17650 17653 17656 17658 17661 17664 17666 17669 17671 17673 17676 17678 17680 17683 17686 17689 17691 17694 17697 17700 17702 17705 17708 17711 17714 17717 17720 17723 17726 17728 17731 17734 17736 17738 17740 17743 17746 17749 17752 17754 17757 17760 17763 17766 17768 17771 17774 17777 17780 17783 17786 17789 17792 17795 17797 17800 17803 17806 17809 17812 17814 17816 17819 17822 17825 17828 17831 17834 17837 17840 17843 17846 17849 17852 17855 17858 17861 17864 17867 17870 17873 17876 17879 17882 17885 17887 17890 17892 17895 17898 17900 17903 17906 17909 17912 17915 17918 17921 17924 17927 17930 17932 17935 17937 17940 17943 17946 17949 17951 17954 17957 17960 17963 17966 17969 17972 17975 17978 17981 17984 17987 17989 17992 17995 17997 18000 18002 18005 18007 18009 18012 18015 18018 18021 18023 18026 18028 18031 18033 18035 18038 18041 18043 18046 18049 18052 18055 18057 18060 18062 18065 18068 18071 18074 18076 18079 18082 18085 18088 18091 18094 18097 18100 18103 18106 18109 18112 18115 18118 18121 18123 18125 18128 18131 18134 18136 18139 18141 18144 18147 18149 18152 18154 18156 18159 18162 18165 18168 18171 18174 18176 18179 18182 18185 18187 18190 18193 18196 18198 18201 18204 18207 18210 18213 18216 18219 18222 18225 18228 18231 18234 18237 18240 18242 18245 18248 18251 18253 18256 18259 18261 18264 18267 18269 18272 18275 18278 18281 18284 18287 18290 18293 18295 18297 18300 18302 18305 18307 18310 18312 18314 18316 18318 18320 18323 18326 18329 18332 18335 18337 18340 18343 18346 18349 18351 18353 18356 18359 18361 18364 18366 18369 18372 18374 18376 18379 18381 18384 18387 18390 18393 18396 18399 18401 18403 18406 18409 18412 18415 18418 18421 18423 18426 18429 18432 18435 18437 18440 18442 18445 18448 18451 18454 18457 18460 18463 18466 18469 18472 18475 18478 18480 18483 18485 18488 18490 18493 18495 18498 18501 18503 18506 18508 18511 18514 18517 18520 18523 18526 18529 18532 18535 18538 18540 18543 18546 18549 18552 18555 18558 18561 18564 18566 18569 18572 18575 18578 18581 18583 18586 18589 18592 18595 18598 18600 18602 18605 18608 18611 18614 18616 18618 18621 18624 18627 18630 18633 18636 18639 18642 18645 18648 18651 18654 18656 18659 18662 18664 18667 18670 18673 18676 18678 18680 18682 18685 18688 18691 18693 18695 18698 18701 18703 18706 18709 18712 18715 18718 18721 18723 18726 18728 18730 18733 18736 18739 18742 18744 18746 18748 18751 18754 18756 18759 18762 18765 18767 18770 18773 18775 18778 18781 18784 18787 18790 18792 18794 18797 18800 18802 18805 18808 18811 18813 18816 18819 18822 18825 18828 18831 18834 18837 18840 18843 18846 18849 18852 18855 18857 18859 18862 18865 18867 18870 18872 18875 18878 18881 18884 18886 18889 18892 18895 18898 18901 18904 18906 18909 18911 18914 18917 18920 18923 18925 18927 18930 18932 18935 18938 18941 18943 18945 18948 18951 18953 18956 18959 18962 18965 18968 18971 18974 18976 18979 18982 18985 18987 18990 18993 18995 18998 19001 19003 19006 19009 19012 19014 19016 19019 19022 19024 19027 19030 19033 19036 19039 19042 19045 19048 19051 19054 19056 19059 19062 19065 19068 19071 19074 19077 19080 19083 19086 19089 19092 19095 19098 19100 19103 19106 19109 19112 19115 19118 19121 19124 19127 19130 19133 19136 19139 19142 19145 19148 19151 19154 19157 19160 19163 19165 19168 19171 19174 19177 19180 19182 19185 19188 19191 19194 19197 19200 19203 19206 19209 19212 19215 19218 19221 19224 19227 19230 19233 19236 19239 19242 19245 19248 19251 19254 19257 19260 19262 19265 19268 19271 19274 19277 19280 19283 19285 19288 19290 19293 19296 19299 19302 19305 19308 19310 19313 19316 19318 19321 19324 19327 19330 19333 19336 19339 19342 19345 19348 19351 19354 19357 19360 19363 19366 19369 19372 19375 19378 19381 19384 19387 19390 19393 19396 19399 19402 19404 19407 19410 19412 19415 19418 19421 19424 19427 19430 19433 19436 19439 19442 19445 19448 19451 19453 19456 19459 19462 19465 19467 19470 19473 19476 19479 19481 19484 19487 19490 19493 19496 19498 19501 19504 19507 19510 19512 19515 19518 19520 19523 19526 19529 19531 19534 19537 19540 19543 19545 19548 19551 19554 19557 19559 19562 19565 19568 19570 19572 19574 19577 19580 19582 19585 19588 19591 19594 19596 19598 19601 19603 19606 19609 19611 19614 19617 19620 19622 19625 19628 19630 19633 19636 19638 19640 19643 19646 19648 19651 19654 19657 19660 19663 19666 19669 19672 19675 19678 19681 19684 19687 19690 19693 19695 19698 19701 19704 19707 19710 19713 19716 19719 19722 19725 19728 19731 19734 19737 19740 19743 19746 19749 19752 19754 19757 19760 19763 19765 19768 19770 19773 19775 19778 19781 19784 19787 19789 19792 19795 19798 19801 19804 19807 19810 19813 19816 19819 19822 19825 19827 19830 19833 19836 19839 19842 19845 19848 19851 19853 19856 19859 19862 19865 19868 19871 19874 19877 19880 19883 19886 19889 19892 19895 19898 19901 19904 19907 19910 19913 19915 19918 19921 19924 19927 19930 19933 19936 19939 19941 19944 19947 19950 19953 19956 19959 19962 19965 19968 19971 19974 19977 19980 19982 19985 19987 19990 19992 19995 19998 20001 20004 20007 20010 20013 20016 20019 20022 20024 20027 20029 20032 20035 20038 20041 20044 20047 20050 20053 20056 20058 20061 20063 20066 20069 20071 20074 20077 20080 20083 20086 20089 20091 20094 20097 20100 20102 20104 20107 20110 20113 20116 20119 20122 20125 20128 20131 20134 20137 20140 20142 20145 20147 20150 20153 20156 20159 20162 20165 20168 20171 20174 20177 20180 20183 20186 20189 20191 20194 20197 20200 20203 20206 20208 20211 20214 20217 20220 20223 20226 20229 20232 20235 20238 20241 20244 20247 20250 20253 20256 20259 20262 20265 20268 20271 20274 20277 20280 20283 20286 20289 20292 20295 20298 20301 20304 20307 20310 20313 20315 20318 20321 20323 20326 20329 20331 20334 20337 20340 20343 20346 20349 20352 20355 20358 20361 20364 20367 20370 20373 20376 20379 20382 20385 20388 20391 20394 20397 20400 20403 20406 20409 20412 20415 20418 20421 20424 20427 20429 20432 20435 20438 20441 20444 20447 20450 20453 20456 20459 20462 20465 20468 20471 20473 20476 20479 20481 20484 20487 20489 20492 20495 20498 20501 20504 20507 20509 20511 20514 20517 20520 20523 20526 20529 20532 20535 20538 20541 20544 20547 20550 20553 20556 20559 20562 20565 20568 20571 20574 20577 20580 20583 20586 20589 20592 20595 20598 20601 20604 20607 20610 20613 20616 20619 20622 20625 20628 20631 20634 20637 20640 20643 20645 20648 20651 20654 20657 20660 20662 20664 20667 20670 20673 20676 20679 20682 20685 20688 20691 20694 20697 20700 20703 20706 20709 20712 20715 20718 20721 20724 20727 20730 20733 20736 20738 20741 20744 20747 20750 20753 20755 20758 20761 20764 20767 20770 20773 20776 20778 20781 20784 20787 20790 20793 20796 20799 20801 20804 20807 20810 20813 20816 20819 20822 20825 20828 20830 20833 20836 20839 20842 20845 20848 20851 20853 20856 20859 20861 20864 20867 20870 20873 20876 20879 20882 20885 20888 20891 20894 20897 20900 20903 20906 20909 20911 20914 20917 20919 20922 20925 20928 20931 20934 20937 20940 20943 20946 20949 20952 20955 20958 20961 20964 20967 20970 20973 20976 20979 20982 20984 20987 20990 20993 20996 20999 21002 21005 21007 21010 21013 21016 21019 21021 21024 21027 21030 21033 21036 21039 21042 21045 21048 21050 21053 21056 21059 21062 21065 21067 21070 21073 21076 21078 21081 21084 21087 21089 21092 21095 21097 21099 21102 21105 21108 21110 21113 21115 21118 21121 21124 21127 21130 21132 21135 21138 21141 21144 21147 21150 21153 21156 21159 21162 21165 21168 21170 21173 21175 21178 21181 21184 21187 21190 21193 21195 21198 21201 21204 21207 21210 21212 21215 21218 21221 21223 21226 21229 21232 21235 21238 21241 21244 21247 21249 21252 21255 21258 21261 21264 21267 21269 21272 21275 21278 21281 21284 21286 21289 21292 21294 21297 21299 21302 21305 21308 21311 21314 21317 21319 21322 21325 21328 21331 21333 21336 21339 21342 21345 21348 21350 21353 21356 21359 21362 21365 21368 21371 21374 21377 21380 21383 21386 21389 21392 21395 21397 21400 21403 21406 21409 21411 21413 21416 21419 21422 21425 21428 21431 21434 21437 21439 21442 21445 21448 21451 21454 21457 21460 21463 21466 21469 21472 21475 21477 21480 21483 21485 21488 21491 21493 21496 21499 21502 21505 21508 21511 21514 21516 21519 21521 21523 21526 21529 21531 21534 21537 21540 21543 21546 21549 21551 21554 21557 21559 21562 21564 21567 21570 21573 21576 21579 21582 21585 21588 21591 21594 21597 21600 21603 21605 21608 21611 21614 21617 21620 21623 21625 21628 21631 21634 21637 21640 21643 21646 21649 21652 21655 21658 21660 21663 21666 21668 21671 21674 21677 21679 21682 21685 21688 21691 21694 21697 21700 21703 21706 21708 21711 21714 21717 21720 21723 21726 21729 21731 21734 21737 21740 21743 21746 21749 21752 21754 21757 21760 21763 21765 21768 21771 21774 21777 21779 21782 21785 21788 21791 21794 21797 21799 21802 21805 21808 21811 21814 21817 21820 21823 21826 21829 21832 21835 21838 21841 21844 21846 21849 21851 21854 21857 21859 21862 21865 21868 21871 21874 21877 21880 21882 21885 21888 21891 21894 21897 21900 21903 21906 21909 21912 21915 21918 21921 21924 21927 21930 21933 21936 21939 21942 21945 21948 21951 21954 21957 21960 21963 21966 21969 21972 21975 21978 21981 21983 21986 21989 21992 21995 21998 22001 22004 22007 22010 22013 22016 22019 22021 22024 22027 22029 22032 22035 22038 22040 22043 22046 22049 22052 22054 22057 22060 22063 22066 22069 22071 22074 22077 22080 22083 22086 22089 22092 22095 22098 22101 22104 22107 22110 22113 22116 22119 22122 22125 22128 22131 22133 22135 22138 22141 22144 22146 22149 22152 22155 22158 22160 22163 22166 22169 22171 22174 22177 22179 22182 22185 22188 22191 22194 22197 22200 22202 22205 22208 22211 22214 22217 22220 22223 22226 22229 22232 22234 22237 22240 22243 22246 22249 22252 22255 22258 22261 22264 22267 22270 22273 22276 22279 22282 22285 22288 22291 22294 22297 22300 22303 22306 22309 22312 22315 22318 22321 22324 22327 22330 22332 22335 22338 22340 22343 22346 22349 22352 22355 22358 22360 22363 22366 22368 22371 22374 22377 22380 22383 22386 22389 22392 22395 22398 22401 22404 22406 22409 22411 22414 22417 22420 22423 22426 22429 22432 22435 22437 22440 22443 22446 22448 22451 22454 22457 22460 22463 22466 22468 22471 22474 22477 22480 22483 22486 22489 22492 22495 22498 22501 22504 22507 22510 22513 22515 22518 22521 22524 22527 22530 22533 22536 22539 22542 22545 22548 22551 22554 22557 22560 22563 22566 22569 22572 22575 22578 22581 22584 22587 22590 22593 22596 22599 22602 22605 22608 22611 22614 22617 22620 22623 22626 22628 22631 22634 22637 22639 22642 22645 22648 22651 22654 22657 22659 22662 22665 22668 22670 22673 22676 22679 22681 22684 22686 22688 22691 22694 22697 22700 22703 22706 22709 22712 22715 22718 22721 22724 22727 22729 22732 22735 22738 22741 22743 22746 22749 22752 22755 22757 22759 22762 22764 22767 22769 22772 22775 22778 22781 22784 22787 22789 22792 22795 22798 22800 22803 22806 22808 22811 22814 22816 22819 22822 22824 22827 22830 22832 22835 22838 22840 22843 22846 22848 22851 22854 22856 22859 22862 22864 22866 22869 22872 22875 22878 22881 22884 22887 22890 22893 22896 22899 22902 22905 22908 22911 22914 22917 22920 22923 22926 22929 22932 22935 22938 22941 22943 22946 22949 22952 22955 22958 22961 22963 22966 22969 22972 22975 22977 22980 22983 22985 22988 22990 22993 22996 22998 23001 23004 23007 23009 23012 23015 23018 23021 23024 23027 23030 23033 23036 23039 23042 23044 23047 23050 23053 23056 23059 23062 23065 23067 23070 23073 23076 23079 23082 23085 23087 23090 23093 23096 23099 23102 23105 23108 23111 23113 23116 23119 23122 23124 23127 23130 23133 23136 23139 23142 23145 23148 23151 23154 23157 23160 23163 23166 23169 23171 23173 23176 23179 23182 23185 23188 23191 23194 23197 23200 23203 23206 23209 23212 23215 23218 23221 23224 23227 23230 23233 23236 23239 23242 23245 23248 23251 23254 23257 23260 23263 23265 23268 23271 23274 23277 23280 23283 23286 23289 23291 23294 23297 23300 23303 23306 23309 23311 23314 23317 23320 23323 23326 23328 23331 23333 23336 23339 23342 23345 23348 23350 23353 23356 23359 23362 23365 23368 23371 23374 23377 23380 23382 23385 23388 23391 23394 23397 23400 23403 23406 23409 23411 23414 23417 23420 23423 23426 23429 23432 23435 23438 23441 23444 23446 23449 23452 23455 23458 23461 23464 23467 23470 23473 23476 23479 23482 23485 23487 23490 23493 23496 23498 23501 23504 23507 23509 23512 23515 23518 23520 23523 23526 23528 23531 23534 23537 23540 23543 23546 23549 23552 23555 23558 23561 23564 23567 23570 23573 23576 23579 23582 23585 23588 23591 23593 23596 23599 23602 23605 23608 23610 23613 23616 23619 23622 23625 23627 23630 23633 23636 23639 23642 23645 23648 23651 23654 23657 23660 23663 23666 23669 23672 23675 23678 23680 23683 23686 23689 23692 23695 23698 23701 23704 23707 23710 23713 23716 23719 23722 23725 23728 23731 23734 23737 23740 23743 23746 23748 23751 23754 23757 23760 23763 23766 23769 23772 23775 23778 23781 23784 23787 23790 23793 23796 23799 23802 23805 23808 23811 23814 23817 23820 23823 23826 23829 23832 23835 23838 23841 23844 23846 23849 23852 23855 23858 23861 23863 23865 23868 23871 23873 23876 23879 23882 23885 23888 23891 23894 23897 23900 23903 23906 23909 23912 23915 23918 23921 23924 23927 23930 23933 23936 23939 23942 23945 23948 23951 23954 23957 23960 23963 23965 23968 23971 23974 23976 23978 23981 23983 23986 23989 23991 23994 23997 23999 24002 24005 24007 24010 24013 24016 24018 24021 24023 24025 24028 24030 24033 24035 24038 24041 24044 24047 24049 24052 24055 24058 24061 24064 24066 24069 24072 24075 24078 24081 24084 24087 24089 24092 24095 24098 24100 24103 24106 24109 24112 24115 24117 24120 24122 24125 24128 24131 24134 24137 24140 24143 24145 24147 24150 24153 24156 24159 24162 24165 24167 24170 24173 24176 24179 24182 24184 24187 24190 24192 24195 24198 24200 24203 24206 24209 24212 24215 24218 24221 24224 24227 24230 24233 24236 24238 24241 24244 24247 24250 24253 24256 24259 24262 24265 24268 24271 24274 24276 24279 24282 24284 24287 24290 24293 24295 24298 24301 24304 24307 24310 24313 24316 24319 24322 24325 24328 24331 24334 24336 24339 24341 24344 24347 24350 24353 24356 24358 24361 24364 24367 24370 24373 24376 24379 24382 24385 24388 24391 24394 24397 24400 24403 24406 24409 24412 24414 24417 24419 24422 24425 24427 24429 24432 24435 24438 24441 24444 24447 24450 24452 24455 24458 24461 24464 24467 24469 24472 24474 24477 24480 24483 24485 24488 24490 24493 24496 24499 24502 24505 24507 24510 24513 24516 24519 24522 24525 24528 24531 24534 24537 24540 24543 24546 24549 24552 24554 24557 24560 24563 24566 24569 24572 24575 24578 24581 24584 24587 24590 24592 24595 24598 24601 24604 24607 24610 24613 24616 24618 24621 24624 24627 24630 24633 24635 24637 24640 24643 24645 24648 24650 24653 24655 24658 24661 24664 24667 24670 24673 24676 24679 24682 24685 24688 24691 24694 24697 24700 24703 24706 24709 24712 24715 24717 24720 24722 24725 24728 24731 24734 24736 24739 24742 24745 24748 24751 24754 24757 24760 24763 24765 24768 24771 24773 24776 24778 24781 24784 24787 24789 24791 24794 24796 24799 24802 24805 24808 24811 24814 24817 24820 24822 24824 24826 24829 24832 24835 24838 24841 24844 24846 24849 24852 24855 24858 24861 24864 24867 24870 24873 24876 24878 24881 24884 24887 24889 24892 24895 24898 24901 24904 24907 24910 24913 24916 24919 24921 24924 24927 24930 24932 24934 24937 24940 24943 24945 24948 24950 24952 24955 24958 24960 24963 24966 24969 24971 24974 24976 24979 24982 24985 24988 24991 24994 24997 25000 25003 25005 25007 25010 25013 25016 25018 25021 25024 25027 25030 25033 25036 25039 25041 25044 25047 25050 25053 25056 25059 25062 25064 25067 25070 25073 25076 25079 25082 25085 25088 25090 25093 25096 25099 25102 25105 25108 25111 25114 25116 25119 25122 25125 25127 25130 25133 25136 25139 25142 25144 25147 25150 25153 25156 25159 25162 25165 25168 25171 25174 25177 25179 25182 25185 25187 25190 25193 25196 25198 25201 25204 25207 25210 25213 25216 25219 25222 25225 25227 25230 25233 25236 25239 25241 25244 25247 25250 25253 25256 25259 25262 25265 25267 25270 25273 25276 25279 25282 25285 25288 25291 25294 25297 25299 25302 25305 25308 25311 25314 25317 25320 25322 25325 25328 25331 25334 25337 25339 25342 25345 25348 25351 25354 25356 25359 25362 25365 25368 25371 25374 25377 25380 25383 25386 25389 25392 25395 25398 25400 25403 25406 25409 25412 25415 25418 25421 25424 25427 25430 25433 25435 25438 25440 25443 25446 25449 25452 25455 25458 25461 25464 25467 25470 25473 25476 25479 25482 25484 25486 25489 25492 25494 25497 25500 25503 25505 25508 25511 25514 25517 25520 25522 25524 25527 25530 25532 25535 25538 25541 25544 25547 25550 25552 25555 25557 25560 25563 25566 25569 25572 25575 25578 25581 25584 25587 25590 25593 25596 25598 25601 25604 25607 25609 25611 25614 25617 25620 25623 25626 25629 25632 25635 25638 25641 25643 25646 25648 25651 25654 25657 25660 25663 25665 25668 25671 25673 25676 25679 25682 25685 25687 25690 25693 25695 25698 25700 25703 25705 25708 25711 25713 25716 25718 25720 25723 25725 25728 25731 25734 25736 25738 25741 25744 25746 25749 25752 25755 25757 25759 25761 25764 25767 25770 25773 25776 25779 25781 25784 25787 25790 25792 25794 25797 25800 25803 25805 25808 25811 25813 25816 25819 25822 25825 25827 25830 25832 25835 25838 25841 25844 25847 25849 25852 25855 25858 25861 25864 25867 25870 25873 25876 25879 25882 25885 25888 25891 25894 25897 25900 25903 25906 25909 25912 25915 25917 25920 25923 25926 25929 25932 25934 25936 25939 25941 25944 25947 25950 25953 25956 25958 25961 25964 25967 25970 25973 25975 25978 25981 25984 25986 25989 25991 25994 25997 26000 26003 26006 26008 26011 26013 26016 26019 26022 26025 26028 26031 26034 26037 26040 26042 26045 26048 26051 26053 26056 26059 26062 26064 26067 26070 26073 26076 26079 26082 26084 26087 26090 26092 26095 26098 26101 26104 26107 26110 26113 26115 26118 26121 26124 26127 26130 26133 26136 26139 26142 26145 26148 26151 26154 26157 26160 26163 26166 26168 26171 26174 26177 26180 26183 26186 26188 26191 26194 26197 26199 26201 26204 26207 26210 26213 26216 26219 26222 26225 26228 26231 26234 26237 26239 26241 26244 26247 26250 26253 26255 26258 26260 26263 26266 26269 26272 26275 26278 26281 26284 26287 26290 26293 26296 26299 26302 26305 26308 26311 26314 26317 26320 26323 26326 26329 26332 26335 26338 26341 26344 26347 26350 26353 26356 26359 26362 26365 26368 26371 26374 26377 26380 26383 26386 26389 26392 26394 26397 26400 26403 26406 26409 26411 26414 26417 26420 26423 26426 26429 26432 26434 26437 26439 26442 26445 26448 26451 26454 26457 26460 26462 26465 26468 26471 26474 26477 26480 26482 26485 26488 26491 26494 26497 26500 26503 26506 26509 26512 26515 26518 26521 26524 26526 26529 26532 26535 26538 26541 26544 26547 26550 26553 26556 26558 26561 26564 26567 26570 26573 26576 26579 26582 26585 26588 26591 26594 26597 26600 26603 26606 26609 26612 26615 26618 26621 26624 26627 26630 26633 26636 26639 26642 26645 26648 26651 26654 26656 26659 26662 26664 26667 26669 26672 26675 26677 26680 26683 26685 26688 26691 26693 26696 26699 26702 26705 26708 26711 26714 26716 26718 26721 26724 26727 26729 26732 26735 26738 26741 26744 26747 26750 26753 26756 26759 26762 26765 26768 26771 26774 26777 26780 26783 26786 26789 26792 26795 26798 26801 26804 26807 26810 26813 26816 26818 26821 26824 26827 26830 26833 26836 26839 26842 26845 26848 26851 26854 26857 26860 26863 26866 26869 26871 26874 26877 26880 26883 26886 26889 26891 26894 26897 26900 26903 26906 26909 26911 26914 26917 26920 26923 26926 26929 26932 26935 26938 26940 26942 26945 26948 26951 26954 26957 26960 26963 26966 26969 26971 26974 26977 26980 26983 26986 26989 26992 26995 26998 27001 27004 27007 27010 27013 27015 27018 27021 27024 27027 27030 27033 27036 27039 27041 27044 27047 27050 27053 27056 27058 27061 27064 27067 27069 27072 27075 27078 27081 27083 27085 27088 27091 27094 27097 27100 27103 27106 27108 27111 27114 27117 27120 27122 27125 27127 27130 27133 27136 27138 27141 27144 27146 27149 27152 27155 27158 27161 27164 27167 27170 27173 27176 27179 27182 27185 27188 27190 27193 27195 27198 27201 27203 27206 27209 27212 27214 27217 27220 27223 27226 27229 27232 27235 27238 27241 27244 27247 27250 27253 27256 27259 27262 27265 27268 27271 27274 27277 27280 27283 27286 27289 27292 27295 27298 27301 27304 27306 27309 27312 27315 27318 27321 27324 27327 27330 27333 27336 27339 27342 27345 27348 27351 27354 27356 27359 27362 27365 27368 27371 27373 27376 27379 27382 27385 27388 27391 27393 27396 27399 27402 27405 27408 27411 27414 27416 27419 27421 27423 27426 27429 27432 27435 27437 27440 27442 27445 27447 27449 27452 27454 27457 27459 27461 27464 27466 27468 27470 27473 27476 27479 27482 27484 27487 27489 27491 27494 27497 27499 27502 27505 27508 27510 27513 27516 27518 27521 27524 27526 27529 27532 27534 27537 27539 27542 27545 27547 27550 27553 27556 27559 27562 27565 27568 27571 27574 27577 27579 27582 27584 27586 27589 27592 27595 27598 27600 27602 27605 27608 27611 27614 27616 27619 27622 27624 27626 27629 27632 27635 27638 27641 27644 27647 27650 27653 27656 27659 27662 27665 27667 27670 27673 27676 27679 27682 27685 27687 27689 27691 27693 27696 27699 27702 27705 27708 27711 27714 27717 27720 27722 27725 27728 27731 27734 27737 27740 27743 27746 27749 27752 27755 27758 27761 27764 27767 27770 27773 27776 27779 27782 27784 27787 27790 27793 27795 27798 27801 27804 27807 27810 27812 27815 27817 27820 27823 27826 27829 27831 27833 27836 27839 27842 27845 27848 27851 27854 27857 27860 27863 27866 27869 27872 27875 27878 27881 27884 27886 27889 27892 27895 27898 27901 27904 27907 27910 27913 27916 27919 27922 27925 27927 27930 27933 27935 27937 27940 27943 27946 27949 27952 27954 27957 27960 27963 27966 27969 27972 27975 27978 27980 27983 27986 27988 27991 27994 27997 28000 28003 28006 28009 28012 28015 28018 28021 28024 28027 28030 28033 28036 28039 28042 28045 28048 28051 28054 28057 28060 28063 28066 28068 28071 28074 28077 28080 28083 28086 28088 28091 28094 28097 28100 28103 28106 28109 28112 28115 28118 28121 28124 28127 28130 28133 28136 28139 28142 28145 28148 28151 28154 28157 28159 28162 28165 28168 28171 28174 28177 28180 28183 28186 28189 28192 28195 28198 28201 28204 28207 28210 28213 28216 28219 28222 28225 28228 28231 28234 28237 28240 28243 28246 28249 28252 28255 28258 28261 28264 28267 28270 28273 28276 28279 28282 28285 28288 28291 28294 28297 28300 28303 28306 28309 28312 28315 28318 28321 28324 28327 28330 28333 28336 28339 28342 28345 28348 28351 28354 28356 28359 28362 28365 28368 28371 28374 28377 28380 28383 28386 28389 28392 28395 28398 28401 28403 28406 28409 28411 28413 28416 28419 28422 28425 28428 28431 28434 28437 28439 28442 28445 28447 28450 28453 28456 28458 28461 28464 28467 28470 28473 28476 28479 28482 28485 28487 28490 28493 28496 28498 28501 28504 28507 28509 28512 28515 28518 28521 28524 28527 28530 28533 28536 28538 28541 28544 28546 28548 28550 28553 28556 28559 28562 28564 28567 28570 28573 28576 28578 28581 28584 28587 28590 28592 28595 28598 28601 28604 28607 28610 28613 28616 28619 28622 28625 28628 28631 28634 28637 28640 28643 28646 28649 28652 28655 28658 28661 28664 28667 28670 28673 28676 28679 28682 28685 28688 28691 28694 28697 28700 28703 28706 28709 28712 28715 28718 28721 28724 28727 28730 28733 28736 28739 28742 28745 28748 28751 28754 28757 28760 28763 28766 28769 28771 28773 28776 28779 28782 28785 28788 28791 28794 28797 28800 28803 28806 28809 28812 28815 28818 28821 28824 28827 28830 28833 28835 28838 28841 28844 28847 28850 28852 28855 28858 28861 28864 28867 28870 28873 28876 28879 28882 28885 28888 28891 28894 28897 28900 28903 28906 28909 28912 28915 28917 28920 28923 28926 28929 28932 28934 28937 28940 28943 28946 28948 28951 28954 28957 28960 28963 28966 28969 28972 28975 28978 28981 28984 28987 28990 28993 28996 28999 29002 29005 29008 29011 29014 29017 29020 29023 29025 29028 29031 29034 29037 29039 29042 29045 29048 29051 29054 29057 29060 29063 29066 29069 29072 29075 29078 29081 29084 29087 29090 29093 29096 29099 29102 29105 29108 29111 29114 29117 29120 29123 29126 29129 29132 29135 29138 29141 29144 29147 29150 29153 29156 29159 29162 29165 29168 29171 29174 29177 29180 29183 29186 29189 29192 29195 29198 29201 29204 29207 29210 29213 29216 29219 29222 29225 29228 29231 29234 29237 29240 29243 29246 29249 29252 29255 29258 29261 29264 29266 29269 29272 29275 29278 29281 29284 29287 29290 29293 29296 29299 29302 29305 29308 29311 29314 29317 29320 29323 29326 29329 29332 29335 29338 29341 29344 29346 29349 29352 29355 29358 29361 29364 29367 29370 29373 29376 29379 29382 29385 29388 29391 29394 29397 29400 29403 29406 29409 29412 29415 29418 29421 29424 29427 29430 29432 29435 29438 29441 29444 29447 29450 29453 29456 29459 29462 29465 29468 29471 29474 29477 29480 29483 29486 29489 29492 29495 29498 29501 29504 29506 29509 29512 29515 29518 29521 29524 29527 29530 29533 29536 29538 29540 29543 29546 29549 29552 29555 29558 29561 29563 29566 29569 29572 29575 29578 29581 29584 29587 29590 29593 29596 29599 29602 29605 29608 29611 29613 29616 29619 29622 29625 29628 29631 29634 29637 29640 29643 29645 29648 29651 29654 29657 29659 29662 29665 29668 29671 29674 29677 29680 29683 29686 29688 29691 29694 29697 29700 29703 29706 29708 29710 29713 29716 29719 29722 29725 29728 29731 29734 29737 29740 29742 29745 29748 29751 29754 29756 29759 29762 29765 29767 29770 29773 29776 29779 29782 29785 29788 29791 29793 29796 29799 29802 29804 29807 29810 29813 29816 29819 29822 29825 29828 29831 29834 29837 29840 29842 29845 29848 29851 29854 29857 29859 29862 29865 29868 29870 29873 29876 29879 29882 29885 29887 29890 29893 29895 29897 29900 29902 29905 29908 29911 29914 29917 29920 29923 29926 29929 29932 29935 29938 29941 29944 29947 29950 29952 29955 29958 29961 29964 29967 29970 29973 29976 29979 29982 29985 29988 29991 29994 29997 30000 30003 30006 30009 30012 30015 30018 30021 30024 30027 30030 30033 30036 30039 30042 30045 30048 30051 30054 30057 30060 30063 30066 30068 30071 30074 30077 30080 30083 30086 30088 30091 30093 30096 30099 30102 30105 30107 30110 30113 30116 30119 30122 30125 30128 30131 30134 30137 30140 30143 30146 30149 30152 30154 30157 30160 30163 30166 30169 30172 30175 30177 30180 30183 30186 30189 30192 30195 30198 30201 30204 30207 30210 30213 30216 30219 30222 30225 30228 30231 30234 30237 30240 30243 30246 30249 30252 30255 30258 30261 30264 30267 30270 30273 30276 30279 30282 30285 30288 30291 30294 30297 30300 30303 30306 30309 30312 30315 30318 30321 30324 30327 30330 30333 30336 30339 30342 30345 30348 30351 30354 30357 30360 30363 30366 30369 30372 30375 30378 30381 30384 30387 30390 30393 30396 30399 30402 30405 30408 30411 30414 30417 30420 30423 30426 30429 30432 30435 30438 30441 30444 30447 30450 30453 30455 30458 30461 30464 30467 30470 30473 30476 30479 30482 30485 30488 30491 30494 30497 30500 30503 30506 30509 30512 30515 30518 30521 30524 30527 30530 30533 30536 30539 30542 30545 30548 30550 30553 30556 30558 30561 30563 30566 30569 30572 30574 30577 30580 30583 30586 30589 30591 30594 30597 30600 30602 30605 30607 30609 30611 30614 30617 30620 30623 30625 30628 30631 30634 30637 30640 30643 30646 30649 30652 30655 30658 30661 30663 30666 30668 30671 30674 30677 30680 30683 30686 30688 30691 30694 30696 30699 30702 30704 30707 30710 30713 30715 30718 30721 30724 30727 30730 30733 30736 30738 30741 30744 30747 30750 30752 30755 30757 30760 30762 30765 30768 30771 30774 30776 30779 30782 30785 30788 30791 30793 30796 30798 30801 30803 30806 30809 30811 30813 30816 30819 30822 30825 30828 30831 30833 30836 30839 30842 30845 30848 30851 30854 30857 30860 30862 30865 30868 30870 30873 30876 30879 30882 30885 30888 30891 30894 30896 30899 30902 30905 30907 30910 30913 30915 30918 30921 30923 30926 30929 30931 30933 30935 30938 30941 30944 30947 30949 30952 30955 30958 30961 30964 30967 30970 30972 30974 30976 30978 30980 30983 30986 30989 30992 30995 30998 31001 31004 31007 31010 31013 31016 31019 31022 31024 31027 31030 31032 31035 31038 31041 31044 31047 31050 31053 31056 31059 31062 31065 31067 31070 31073 31076 31079 31082 31085 31088 31091 31094 31097 31099 31102 31105 31108 31111 31114 31117 31120 31123 31126 31129 31131 31134 31137 31140 31143 31146 31149 31152 31155 31158 31161 31164 31167 31170 31173 31176 31179 31182 31185 31188 31191 31194 31197 31200 31203 31206 31209 31212 31215 31218 31221 31224 31227 31230 31233 31236 31239 31242 31245 31248 31251 31254 31257 31260 31263 31266 31268 31271 31274 31276 31279 31282 31285 31288 31291 31294 31296 31299 31301 31304 31307 31310 31313 31316 31318 31320 31323 31326 31329 31332 31334 31337 31340 31343 31346 31349 31352 31355 31358 31361 
</DataArray>
<DataArray type="UInt32" Name="types" format="ascii">
5 5 5 5 5 5 5 5 5 5 5 5 5 3 5 5 5 5 5 5 5 5 5 3 3 5 5 5 5 5 5 5 5 5 5 5 3 5 3 5 3 5 5 5 5 5 5 5 5 5 5 5 5 5 5 5 3 5 5 5 3 5 5 5 5 5 5 3 5 5 5 5 3 5 5 5 5 5 5 5 5 5 5 3 5 5 3 5 3 5 5 3 5 3 5 5 5 5 5 5 5 3 5 5 3 5 5 5 5 3 3 5 3 5 5 5 5 5 5 5 5 5 5 3 5 5 3 5 5 5 3 5 5 5 5 5 5 5 5 5 5 5 5 3 5 5 5 5 5 5 5 5 5 5 5 5 5 5 5 5 5 5 5 3 5 5 5 5 5 5 5 5 5 5 5 5 5 5 5 5 5 5 5 5 5 5 5 5 5 3 5 5 5 5 3 5 3 5 5 5 5 5 5 5 5 5 5 5 3 5 5 5 5 5 5 5 5 5 5 5 5 5 5 5 5 5 5 3 3 5 5 5 5 5 5 3 5 5 5 3 5 5 5 5 5 3 5 5 5 5 5 5 3 5 5 5 5 3 5 5 5 5 3 3 5 5 5 5 5 5 5 5 5 5 5 5 5 5 5 5 3 5 3 5 5 5 5 5 5 5 3 5 3 5 5 5 3 5 5 5 5 5 5 5 5 5 3 5 5 5 5 5 5 5 3 5 5 5 5 5 5 5 5 5 5 5 5 5 5 5 5 5 5 5 3 5 5 5 5 5 5 5 5 5 5 3 5 3 5 5 5 3 5 5 5 5 5 5 5 5 5 5 5 5 3 5 5 3 5 3 5 5 5 3 5 5 5 5 5 5 5 5 5 3 5 5 5 3 5 5 5 5 5 5 3 5 5 5 5 5 5 5 5 5 5 5 5 3 5 5 5 5 5 3 5 3 5 5 5 3 5 5 5 5 5 5 5 5 5 5 5 5 5 5 5 3 5 3 5 5 5 5 3 5 5 5 5 5 5 5 5 3 5 5 3 5 3 5 3 5 5 5 3 3 5 5 5 5 5 5 5 3 3 5 3 5 3 5 3 5 5 5 3 5 3 5 3 5 5 3 5 5 5 3 5 5 5 5 3 5 3 5 5 5 5 3 5 5 5 5 5 3 5 5 5 5 5 3 5 5 5 3 5 3 5 5 5 3 5 5 5 5 5 5 5 3 5 5 5 5 5 3 5 5 5 5 5 3 5 3 5 5 5 5 5 5 5 5 3 5 5 5 5 5 5 3 5 5 5 5 5 5 3 5 5 5 5 3 5 5 5 3 5 5 5 5 5 5 5 5 5 3 5 5 5 5 5 5 5 5 5 5 5 5 3 5 5 5 5 5 3 5 5 3 5 5 5 5 5 5 5 3 5 5 5 5 5 5 5 3 5 3 5 5 5 3 5 5 5 5 5 5 5 5 3 5 5 5 5 3 5 5 3 5 5 5 5 5 5 5 5 5 5 5 5 5 5 5 5 5 5 3 5 5 5 5 5 5 5 5 5 5 3 5 5 5 3 5 5 5 5 3 5 5 5 5 3 5 5 5 3 5 5 5 5 5 5 5 3 5 5 3 5 5 3 5 5 5 5 5 5 5 3 5 5 5 5 5 5 5 5 5 5 5 3 5 5 5 5 5 5 5 5 5 5 5 5 3 5 5 5 5 5 5 5 5 5 5 5 5 5 3 5 5 3 5 3 3 5 3 5 5 5 5 3 5 3 5 5 3 3 5 5 3 5 5 5 3 3 5 5 5 5 5 5 5 5 5 5 5 5 5 5 5 5 5 5 5 5 5 5 5 5 5 5 3 5 5 5 5 3 5 3 5 5 5 5 5 5 3 5 5 5 5 3 5 3 5 3 3 3 3 5 3 5 5 5 5 5 5 5 5 5 5 5 5 5 3 5 5 5 3 3 5 5 5 3 5 3 5 3 5 5 3 3 3 5 3 5 5 5 5 5 5 5 5 3 5 5 5 5 5 3 3 3 5 5 5 3 3 3 3 5 5 5 5 5 5 5 5 5 5 5 5 5 5 3 5 5 5 5 5 5 5 5 5 5 5 5 3 5 5 5 5 3 5 5 5 5 3 5 5 5 5 5 3 5 5 5 5 5 5 5 5 3 5 5 5 5 3 3 5 5 3 3 5 5 5 5 3 5 3 5 5 5 5 5 5 3 5 5 5 3 5 5 5 3 3 5 3 5 5 5 5 3 5 5 5 5 5 3 5 3 3 5 5 5 5 5 5 5 5 3 5 5 5 5 5 3 3 3 5 5 5 5 5 5 3 5 5 5 3 5 5 5 5 3 3 3 5 5 5 3 5 5 5 5 5 5 5 5 3 5 5 3 5 5 5 5 5 5 5 5 5 5 5 5 5 5 5 5 5 5 5 5 5 5 5 5 5 5 5 5 5 5 5 5 5 5 5 5 5 5 5 5 5 3 5 5 5 5 5 5 5 5 5 5 5 5 5 5 5 5 5 5 5 5 5 5 5 5 5 3 5 5 5 3 5 5 5 5 5 3 5 5 5 5 3 5 5 3 5 5 5 5 3 5 5 3 5 5 5 3 5 5 3 5 5 5 5 3 5 5 5 5 5 5 3 5 5 5 3 5 5 5 5 5 5 5 3 5 5 5 5 5 5 5 5 5 5 5 5 5 5 3 5 5 5 5 5 3 5 5 5 5 5 5 5 5 5 5 5 5 5 5 5 5 5 5 5 5 5 5 5 5 5 5 5 5 3 5 5 5 5 5 5 3 3 3 3 5 5 5 5 5 5 5 5 5 5 5 5 5 5 5 5 5 5 5 3 5 5 5 5 5 5 5 5 5 3 5 5 3 5 5 5 5 5 5 5 5 5 5 5 5 5 5 5 5 5 3 5 5 5 5 3 5 5 3 5 5 3 5 5 5 5 5 5 5 5 5 5 5 5 3 5 5 5 5 5 5 5 5 5 5 5 3 5 5 5 3 5 3 3 5 5 5 5 5 5 5 5 5 5 5 5 5 3 5 5 3 3 5 5 5 3 5 5 3 5 5 5 5 3 3 5 3 5 5 5 3 5 5 5 5 5 3 5 5 3 3 5 5 3 5 5 5 5 5 5 5 5 5 3 3 5 5 5 5 5 5 5 3 5 5 5 3 5 5 5 3 5 5 5 3 5 5 5 5 5 5 5 5 5 5 5 3 5 5 5 3 5 3 5 5 5 5 5 3 5 3 5 5 3 5 5 3 3 5 5 5 3 5 5 5 3 5 5 5 3 5 5 5 5 3 3 3 5 5 5 5 5 5 5 3 5 5 5 5 3 3 5 5 5 5 5 5 5 3 5 3 5 5 5 3 5 3 5 5 5 5 5 5 5 5 5 3 5 5 5 5 5 5 5 5 5 5 5 5 5 5 5 5 5 5 5 5 5 5 5 5 3 5 5 5 3 5 5 3 5 5 5 5 5 5 3 5 3 5 5 5 3 5 3 5 5 5 3 5 5 5 5 5 5 5 5 5 5 5 5 5 5 5 5 3 5 5 5 5 5 3 5 5 5 5 5 5 5 5 5 5 5 3 5 5 5 5 5 3 5 5 5 5 5 5 5 5 5 5 5 5 5 5 3 5 5 5 3 5 5 5 5 5 5 5 5 5 5 5 5 5 5 5 3 5 5 5 5 5 5 3 5 3 5 5 5 5 5 5 5 5 3 5 3 5 5 5 5 5 5 3 5 5 5 5 5 5 5 3 5 3 3 5 5 3 5 5 5 5 3 5 3 5 3 5 5 5 5 5 5 5 5 5 5 5 5 5 5 5 5 5 5 3 5 3 5 5 5 5 5 5 5 5 5 5 5 5 5 5 3 5 3 5 5 5 3 3 5 3 5 5 5 5 3 5 5 5 5 3 3 5 5 3 3 5 5 3 3 5 5 5 5 3 5 5 3 5 5 5 3 5 3 5 3 5 5 5 3 5 5 5 3 3 3 3 5 5 5 5 3 5 5 3 5 3 5 3 5 5 5 5 5 5 5 3 3 5 5 5 5 3 3 5 5 3 5 5 3 5 5 5 5 5 5 5 5 5 5 3 5 5 5 5 5 5 3 5 5 5 3 5 5 5 3 5 5 5 5 5 5 3 5 3 5 3 5 5 5 3 5 5 3 5 5 3 5 3 5 5 3 5 5 5 5 3 5 5 5 3 5 5 5 5 5 5 5 5 5 5 5 5 5 5 5 5 5 5 5 5 5 5 5 5 5 5 5 5 5 3 3 5 5 3 5 5 5 5 5 5 5 5 5 3 5 5 5 5 5 5 5 3 3 5 5 3 5 5 5 5 5 5 5 5 5 5 5 5 5 5 5 5 5 5 3 5 5 5 5 5 5 5 5 5 5 5 5 5 5 5 5 5 5 5 5 5 5 5 5 5 5 5 5 5 5 5 5 5 5 5 5 5 5 5 5 5 5 5 5 5 5 5 5 5 5 5 5 5 5 5 5 5 5 5 5 5 5 5 5 5 5 5 5 5 5 5 5 3 5 5 5 5 5 5 5 3 5 5 5 3 5 3 5 5 5 5 5 5 5 5 5 5 5 3 5 5 5 5 5 5 5 5 5 5 5 5 5 3 5 5 5 3 5 5 3 5 5 5 5 5 3 5 3 5 5 5 5 5 5 5 5 5 3 5 5 5 5 5 5 5 3 5 5 3 5 5 3 5 5 5 5 5 5 5 5 5 5 5 5 5 5 5 3 5 5 5 5 5 5 5 5 5 5 5 5 5 5 5 5 5 5 5 5 5 5 5 5 5 5 5 5 5 5 5 5 3 5 5 5 5 5 5 5 5 5 5 5 5 5 5 5 5 5 5 5 5 5 5 5 5 5 5 5 5 5 5 5 5 5 3 5 5 5 5 5 5 5 5 5 5 5 5 5 5 5 5 5 5 5 5 5 5 5 5 5 5 5 5 5 5 5 5 5 5 5 5 5 5 5 5 5 5 5 5 5 5 5 5 5 5 5 5 5 5 5 5 5 5 5 5 5 5 5 5 5 5 5 5 5 5 5 5 5 5 5 5 5 5 5 5 5 5 5 5 5 5 3 5 5 5 3 5 5 5 5 5 5 5 5 5 3 5 5 5 3 5 5 5 5 5 3 5 3 5 5 3 5 5 3 5 5 5 5 5 5 5 5 3 5 5 5 3 5 5 5 5 5 5 5 3 3 5 5 3 5 5 3 3 5 5 5 5 5 5 5 5 5 3 5 5 5 3 5 5 5 3 5 5 3 5 5 3 5 3 3 5 3 5 5 5 5 5 5 3 3 5 5 5 5 5 5 5 5 5 5 5 5 5 5 5 5 3 5 5 3 5 5 5 3 5 5 5 5 5 5 5 5 5 5 3 5 5 5 3 5 5 5 3 5 5 5 5 3 3 5 3 5 5 3 5 3 3 5 5 5 3 5 5 5 3 3 5 5 5 5 5 3 5 5 3 5 5 5 3 5 5 5 5 5 5 5 5 5 5 5 5 3 5 5 5 5 5 5 5 5 5 3 5 5 5 5 5 5 5 5 5 5 5 5 5 5 5 5 5 5 5 5 5 3 5 5 3 5 5 5 5 5 5 5 5 5 5 5 5 5 5 5 5 5 5 5 5 5 5 5 5 5 5 5 5 5 5 5 3 5 5 5 5 5 5 5 3 5 5 5 5 5 5 5 5 5 5 5 5 5 5 5 5 5 5 5 5 5 3 5 5 5 5 5 5 5 5 3 5 5 5 5 5 3 5 5 5 3 5 5 5 5 5 5 5 5 5 5 5 5 5 3 3 5 5 5 5 3 5 5 5 5 5 5 3 5 3 5 5 5 5 3 5 5 5 5 3 3 5 5 5 3 5 5 5 5 5 5 5 5 5 3 5 5 5 5 3 5 5 5 5 5 5 5 5 5 5 5 5 5 5 5 5 3 5 5 5 5 5 5 5 5 5 3 5 5 5 5 5 5 5 5 5 5 5 5 5 5 5 5 5 5 5 5 5 5 5 5 5 5 5 3 5 5 3 5 5 5 5 5 5 5 3 5 5 5 5 5 5 5 5 5 5 5 5 5 5 5 5 3 5 5 5 5 5 5 5 5 5 5 5 5 5 5 5 5 5 5 5 5 5 5 5 5 5 3 5 5 5 5 5 5 5 3 5 5 5 5 5 5 5 3 3 3 5 5 5 5 3 5 5 3 5 5 3 3 5 5 5 3 3 5 5 5 5 5 5 5 5 5 5 5 5 5 3 5 5 5 3 5 5 5 5 3 5 5 5 5 5 5 5 5 5 5 5 5 5 5 5 5 5 5 5 5 5 5 5 5 5 5 5 5 5 5 5 5 5 5 5 5 5 5 5 5 5 5 5 5 3 5 5 5 5 5 5 5 3 5 5 5 3 5 3 3 5 5 3 5 3 3 5 5 3 5 5 5 3 5 5 5 5 5 5 5 3 5 5 3 5 5 5 5 5 5 5 5 5 5 3 5 5 5 5 5 5 5 5 5 3 5 5 5 5 3 3 5 5 5 5 5 5 5 3 5 5 5 5 5 5 5 3 3 3 5 3 3 5 5 5 5 5 5 3 5 5 5 5 5 5 5 5 5 5 5 5 5 5 5 5 5 5 5 5 5 5 5 5 5 5 5 5 5 5 5 5 5 5 5 5 5 5 5 5 5 5 5 5 5 5 5 5 5 5 5 5 5 5 5 5 5 5 5 5 5 5 5 5 5 3 5 5 5 5 5 5 5 5 3 5 3 5 5 5 5 3 5 3 5 5 5 3 5 5 5 3 5 5 5 5 5 5 5 5 5 5 5 5 3 5 5 5 5 5 5 5 5 5 3 3 5 5 3 5 5 5 3 3 5 5 3 5 5 3 5 5 3 5 3 5 5 5 3 5 5 3 5 5 5 5 5 5 5 5 3 5 5 5 3 3 5 5 5 5 5 5 5 5 5 5 5 5 3 5 5 5 5 5 5 5 5 5 5 5 5 5 5 5 5 5 5 3 5 5 5 5 5 5 5 3 5 5 5 3 5 5 5 5 5 5 5 5 5 5 5 5 5 5 5 5 5 5 5 5 5 5 5 5 5 5 5 5 5 3 3 5 5 5 5 5 3 5 5 5 5 3 5 5 5 5 5 3 5 5 5 5 5 5 5 3 5 5 5 5 5 5 5 3 5 5 5 5 5 5 5 5 5 5 5 5 5 5 5 5 5 5 5 3 5 5 5 5 5 5 5 3 5 5 5 5 5 5 5 5 5 3 5 5 3 5 5 5 5 5 3 3 5 5 5 3 5 3 5 3 5 5 5 3 5 5 5 5 5 5 5 3 5 5 5 3 5 5 5 3 5 5 5 5 5 3 5 5 5 3 3 5 3 5 5 3 5 5 5 5 3 5 5 3 3 5 5 5 3 3 5 3 5 5 5 5 5 5 5 3 5 5 3 5 5 5 3 5 3 5 3 5 5 5 5 5 5 5 5 5 3 5 5 3 5 5 5 5 5 5 5 5 5 5 5 3 5 5 3 5 5 5 5 5 5 5 3 5 5 5 5 5 5 5 5 5 3 5 3 5 3 5 5 5 5 3 5 5 5 3 3 5 5 5 3 5 5 5 5 5 5 5 3 5 5 3 5 5 3 5 5 5 5 5 5 5 5 3 5 5 5 5 5 5 3 5 5 5 5 5 5 5 5 5 5 3 5 5 5 5 5 5 5 5 5 5 5 5 5 5 5 5 5 5 5 5 5 5 5 5 5 5 5 5 5 5 5 5 5 5 5 3 5 5 5 5 5 5 5 5 5 5 5 5 5 3 5 5 5 5 3 3 3 5 5 5 5 5 5 5 5 5 5 5 5 5 5 5 3 5 5 5 5 5 3 5 3 5 5 5 5 5 5 3 5 5 5 5 5 3 5 5 5 5 5 3 5 5 5 5 5 5 3 5 5 3 5 5 5 5 3 5 5 5 5 5 5 5 5 5 5 5 5 5 5 5 5 3 5 5 5 5 5 5 5 5 3 5 5 5 5 5 5 5 5 5 3 5 5 5 5 5 5 5 5 5 5 5 5 3 5 5 5 5 3 5 5 5 5 5 5 3 3 3 5 5 5 5 5 3 3 3 5 5 5 5 5 5 5 3 3 5 5 5 5 5 5 3 5 5 5 3 5 5 5 5 5 5 5 5 5 5 5 5 3 5 5 5 5 5 3 5 5 5 5 3 5 5 5 5 3 5 5 5 5 5 5 3 3 3 5 5 5 5 5 5 5 5 5 5 5 3 5 5 5 5 5 5 5 5 5 5 5 5 5 5 5 5 5 5 5 5 5 5 5 5 5 5 5 5 5 5 5 5 5 5 5 5 5 5 5 5 5 5 5 5 5 5 3 5 3 5 5 5 5 5 5 5 5 3 5 3 5 5 5 5 5 5 3 5 5 3 5 5 5 5 5 5 5 3 5 3 5 3 5 5 5 5 3 5 3 5 5 3 5 5 5 5 5 5 5 5 5 5 3 5 5 5 3 5 5 5 5 5 5 5 3 5 5 5 5 5 5 5 5 5 5 5 5 5 5 5 5 5 5 5 5 5 5 5 5 5 5 3 5 5 5 3 5 5 3 5 5 5 5 5 5 5 5 5 3 5 5 5 5 5 5 5 5 5 5 3 5 5 3 5 5 5 5 5 5 5 5 5 5 5 5 5 5 5 5 5 5 5 5 5 5 5 5 5 5 5 3 5 5 3 5 5 5 3 5 3 5 5 5 5 5 5 5 5 3 5 5 5 3 5 5 5 5 5 5 5 3 5 5 5 5 3 5 5 3 5 5 3 5 5 5 3 5 5 5 3 5 5 3 3 5 5 3 3 5 5 5 5 5 5 5 5 5 5 3 5 5 5 5 3 5 5 5 5 5 5 5 5 5 5 5 5 3 5 3 5 5 5 5 5 5 3 5 5 3 5 5 5 5 5 5 5 5 5 5 5 5 3 5 5 5 5 3 5 5 5 3 3 5 5 5 5 5 5 5 3 5 5 5 5 5 5 5 5 5 5 3 5 5 5 5 5 5 5 5 5 5 5 5 5 3 3 5 5 3 5 5 5 5 5 5 3 5 3 5 5 5 5 3 5 3 5 5 3 3 5 5 5 5 5 5 5 5 5 5 5 5 5 5 5 5 5 5 5 5 5 5 5 5 5 5 5 5 5 5 5 5 5 5 5 5 5 5 5 5 5 5 5 5 5 5 5 5 5 5 5 5 5 5 5 5 5 5 5 3 5 5 5 5 5 5 5 5 3 5 5 3 5 5 5 5 5 5 5 5 5 5 5 5 5 5 5 5 5 5 5 5 5 5 5 5 5 5 5 5 3 5 5 5 5 5 5 5 5 3 5 3 5 5 3 5 3 5 5 5 3 5 5 5 3 5 3 5 5 5 5 5 5 5 5 5 5 5 5 5 5 5 3 5 5 3 5 5 5 5 5 5 3 5 5 3 5 5 3 5 5 5 5 5 3 5 5 3 5 5 5 3 5 5 5 5 5 5 3 3 5 5 5 3 3 3 3 5 5 5 3 5 3 5 5 5 5 5 3 5 5 5 5 5 5 3 5 5 5 5 5 5 5 5 5 5 5 5 5 5 3 5 5 5 5 3 3 5 5 5 5 5 5 5 5 5 5 5 5 5 3 5 5 3 3 5 5 3 5 5 5 5 5 5 5 5 5 5 3 5 5 5 5 5 5 5 3 5 5 5 5 5 5 5 5 5 5 3 5 5 5 5 5 5 5 5 3 5 5 5 5 5 5 5 5 5 5 5 5 5 5 5 5 5 3 5 5 5 5 3 5 3 5 5 5 5 5 5 5 5 5 5 5 5 3 5 3 5 3 5 5 5 5 5 3 5 3 5 3 5 5 5 3 3 3 5 5 5 5 3 5 5 5 3 5 3 5 5 5 5 5 5 5 3 5 3 5 5 5 5 5 5 5 3 5 3 5 5 5 5 5 3 5 5 5 3 3 5 3 5 5 5 5 5 5 5 5 3 5 5 5 5 3 5 5 5 5 5 5 5 3 5 5 5 5 5 5 5 5 5 5 5 5 5 5 5 5 5 5 5 5 5 5 5 5 3 3 5 5 5 5 5 3 3 3 5 5 3 5 5 5 5 5 5 3 5 5 3 3 5 5 5 5 5 5 5 5 5 5 5 5 3 5 5 5 5 5 5 5 5 5 5 5 5 5 5 5 5 5 5 5 5 5 5 5 5 3 3 5 3 5 5 5 5 5 5 5 5 5 5 5 5 5 3 5 5 5 5 5 5 5 3 3 5 5 5 5 5 5 5 5 3 5 3 5 5 5 3 3 3 5 3 5 5 3 5 5 3 5 5 5 5 5 5 5 5 5 5 5 5 5 5 5 5 5 5 3 5 5 5 5 5 5 5 5 5 5 5 3 5 5 5 5 5 5 5 5 3 5 5 5 5 5 5 5 5 5 5 5 5 5 5 5 5 5 5 5 5 3 5 5 5 5 5 5 3 3 5 5 5 5 5 5 3 5 5 5 5 3 5 5 5 5 5 5 5 5 5 5 5 5 5 5 5 3 5 5 5 3 5 5 5 5 5 5 5 5 5 5 5 5 5 5 5 3 5 5 5 5 5 5 3 3 3 5 5 5 5 5 5 3 5 5 3 5 5 5 5 5 5 3 5 3 5 5 5 5 5 5 5 5 3 3 3 5 5 5 5 5 5 5 5 5 5 3 5 5 3 5 5 3 3 5 5 5 5 5 5 5 5 5 3 5 5 5 5 3 3 5 3 5 5 5 5 5 5 5 5 5 3 3 5 3 5 5 5 3 5 3 5 5 5 5 5 5 5 5 5 5 5 5 5 5 3 5 5 3 5 5 5 3 5 5 5 5 3 5 5 5 5 5 5 5 5 5 5 5 5 5 3 5 5 5 5 5 5 3 5 5 5 5 5 5 5 3 5 3 5 5 5 3 5 5 5 3 5 5 5 5 5 5 3 5 3 5 5 5 5 5 5 5 3 3 5 5 3 5 5 5 3 5 5 3 5 5 5 3 5 5 5 5 5 5 3 3 5 5 5 3 3 5 3 3 5 5 5 3 3 5 5 5 5 5 3 5 5 5 5 5 5 5 5 5 5 5 5 5 5 5 5 5 5 5 5 5 5 5 5 5 5 5 3 5 5 5 5 5 5 5 5 5 5 5 5 5 3 3 5 3 3 5 5 3 3 3 5 5 3 5 3 5 5 5 5 3 5 5 5 3 5 3 5 5 3 5 5 5 5 3 3 5 5 5 5 3 5 5 3 5 5 5 5 5 5 5 5 5 3 5 5 5 3 5 5 3 3 5 5 5 5 5 5 3 5 5 5 5 5 5 3 5 5 5 5 5 5 5 5 5 3 3 5 3 5 5 5 5 5 5 5 5 5 5 5 5 5 5 5 5 5 5 5 5 5 5 5 5 5 5 5 5 5 5 5 5 5 5 3 5 5 5 5 5 5 5 5 5 5 5 5 5 3 5 5 3 3 5 5 5 5 5 5 3 5 5 3 5 5 5 3 3 5 5 5 5 5 5 5 5 3 5 5 3 5 5 5 5 5 5 5 5 5 5 5 5 3 3 5 3 5 5 3 5 5 3 5 5 5 5 3 5 5 3 5 5 3 5 5 3 5 5 3 3 5 3 5 5 5 3 5 5 5 5 5 5 5 5 5 3 5 5 5 5 5 3 5 5 3 5 5 5 5 5 5 3 5 5 5 3 3 5 5 5 5 5 3 5 3 5 5 5 3 5 5 5 5 5 5 5 5 5 5 5 5 5 5 5 3 5 5 5 5 5 5 5 5 5 5 5 5 5 5 5 3 5 5 5 5 5 5 5 5 3 5 5 5 5 5 5 5 5 5 5 5 5 5 5 5 5 5 5 5 5 5 5 5 5 5 5 5 5 5 5 5 5 5 5 5 5 5 5 5 5 3 5 3 5 5 5 5 5 5 5 5 5 5 5 5 5 5 5 5 5 5 5 5 5 5 5 5 5 5 5 5 5 5 5 5 3 5 5 5 5 5 5 3 5 5 5 5 5 5 5 5 5 5 5 5 5 3 3 5 5 3 5 5 5 5 5 5 5 5 3 5 5 5 5 5 5 5 5 5 5 5 5 5 5 5 5 5 5 5 5 5 5 5 5 5 3 3 5 5 3 5 3 5 5 5 5 5 5 5 5 5 5 5 5 5 5 5 5 5 5 3 5 3 5 3 5 5 5 5 5 5 5 5 3 5 5 5 5 5 5 5 5 3 5 5 5 5 5 5 5 5 5 5 5 5 5 5 5 5 5 5 5 5 5 5 3 5 5 5 3 3 5 5 5 5 5 5 5 5 5 5 5 5 5 5 5 3 5 5 5 5 5 5 5 5 3 5 5 5 5 5 5 5 5 5 5 5 5 5 5 5 5 5 5 5 5 3 5 5 5 5 5 5 5 5 5 5 5 3 5 5 3 5 5 5 5 5 5 5 3 5 5 3 5 5 5 5 3 5 5 3 3 5 5 5 3 5 5 5 5 5 5 3 5 5 5 5 5 5 5 5 3 5 5 5 5 5 3 5 5 5 5 5 5 3 5 5 3 5 5 5 5 5 5 5 5 5 5 3 3 5 5 3 3 5 5 5 5 5 3 5 5 3 5 3 5 5 3 5 3 5 3 5 3 5 3 5 3 5 5 5 5 5 3 5 5 5 5 3 5 3 5 5 5 3 3 5 5 5 5 5 5 5 5 5 5 5 3 5 5 5 5 5 5 5 5 5 5 5 5 5 5 5 5 5 5 5 5 5 5 5 3 5 5 5 5 5 5 5 5 5 5 5 3 5 5 3 3 3 5 5 5 5 5 5 5 5 5 5 3 3 5 5 5 5 3 5 5 5 5 5 5 3 5 5 5 5 5 5 5 5 5 3 5 3 5 5 5 5 5 5 3 5 5 5 5 5 5 5 5 5 5 5 5 5 5 5 5 5 5 5 5 5 5 5 5 5 5 5 5 5 3 5 5 3 5 5 5 5 5 5 5 3 5 5 5 5 5 5 3 5 5 5 5 3 5 3 5 5 3 5 5 5 5 5 5 5 3 5 5 5 5 3 5 5 5 5 5 3 5 5 5 5 5 3 5 5 3 5 5 5 5 5 5 5 5 5 3 5 5 5 5 5 5 5 5 3 5 3 5 3 5 5 5 5 5 5 5 5 5 5 5 5 5 5 3 5 5 5 5 3 5 3 5 3 5 5 5 3 5 5 5 3 5 3 5 5 5 5 5 5 5 5 3 5 5 5 5 5 5 5 5 3 5 5 5 5 5 5 5 5 5 5 5 5 5 5 5 5 5 5 5 5 5 5 3 3 5 5 5 3 5 3 5 3 5 5 3 5 5 3 5 5 5 3 5 5 5 5 5 5 5 5 3 5 5 3 5 5 5 5 5 5 5 5 5 3 3 5 5 5 5 3 5 5 5 5 5 5 5 5 5 5 5 5 5 3 5 5 5 3 5 3 5 3 5 5 5 3 5 5 5 5 5 5 5 5 5 5 5 5 5 5 5 5 5 5 5 5 5 5 3 5 5 5 5 5 3 5 3 5 5 5 3 5 5 5 5 5 5 5 5 5 5 5 5 5 5 5 5 5 5 5 5 5 5 5 5 5 5 5 5 5 5 5 5 5 5 5 5 5 5 5 5 5 3 5 5 5 5 5 5 5 5 5 5 5 5 5 5 5 3 5 5 5 5 5 5 5 5 5 5 5 5 5 5 3 5 5 3 5 5 5 5 5 5 5 5 5 5 5 3 5 5 5 5 3 3 5 3 3 3 5 5 5 5 5 3 5 5 3 3 5 5 5 5 5 5 5 5 5 3 5 5 5 5 3 3 3 5 5 3 5 5 3 5 3 3 5 5 5 5 5 5 5 5 5 5 5 5 5 5 3 5 5 5 5 3 5 5 3 5 3 3 5 3 3 5 5 5 3 5 5 5 3 5 5 5 5 5 5 5 5 3 5 5 3 3 3 5 5 5 5 3 5 5 5 5 3 5 5 5 5 5 5 5 5 5 3 5 5 5 5 5 3 3 5 5 5 5 5 5 5 5 5 5 5 5 5 5 5 5 5 5 5 5 5 5 5 3 5 3 5 5 3 5 5 5 5 5 5 5 5 5 5 3 5 3 5 5 5 5 3 5 5 5 5 5 5 5 5 5 5 5 5 3 5 5 3 5 3 5 3 3 5 5 5 5 3 5 3 5 3 3 5 5 3 5 5 5 5 3 5 3 5 5 5 5 3 5 5 5 5 5 5 5 5 5 5 5 5 5 5 5 3 3 5 5 5 3 5 3 5 5 3 5 3 3 5 5 5 5 5 5 3 5 5 5 3 5 5 5 3 5 5 5 5 5 5 5 5 5 5 5 5 5 5 3 5 5 5 3 5 5 3 5 5 3 5 5 5 5 5 5 5 5 3 3 5 3 5 3 5 3 3 3 3 3 5 5 5 5 5 3 5 5 5 5 3 3 5 5 3 5 3 5 5 3 3 5 3 5 5 5 5 5 5 3 3 5 5 5 5 5 5 3 5 5 5 5 3 5 3 5 5 5 5 5 5 5 5 5 5 5 5 3 5 3 5 3 5 3 5 5 3 5 3 5 5 5 5 5 5 5 5 5 5 3 5 5 5 5 5 5 5 5 3 5 5 5 5 5 3 5 5 5 5 5 3 3 5 5 5 5 3 3 5 5 5 5 5 5 5 5 5 5 5 5 3 5 5 3 5 5 5 5 3 3 3 5 5 5 3 3 5 5 3 5 5 5 5 5 5 3 5 3 3 5 5 5 5 3 3 3 5 5 3 5 5 5 3 5 5 3 5 5 5 5 5 3 3 5 5 3 5 5 5 3 5 5 5 5 5 5 5 5 5 5 5 5 5 5 3 3 5 5 3 5 3 5 5 5 5 3 5 5 5 5 5 5 3 5 3 5 5 5 5 3 3 5 3 5 5 5 3 3 5 5 3 5 5 5 5 5 5 5 3 5 5 5 3 5 5 3 5 5 3 5 5 5 3 3 5 5 3 5 5 5 5 5 5 5 5 5 5 3 5 5 5 5 5 5 5 5 5 5 5 5 5 5 3 5 5 5 5 5 5 5 5 5 5 5 5 5 5 5 5 5 5 5 5 5 3 5 5 5 5 5 3 5 5 5 5 5 5 5 5 5 5 5 5 5 5 5 5 5 5 5 5 5 5 5 5 5 5 3 5 5 5 5 5 5 5 3 5 3 5 5 5 5 5 5 3 5 5 3 5 5 5 5 5 5 5 5 5 5 5 5 5 5 5 5 5 5 5 5 5 5 5 5 5 5 5 5 3 5 5 3 5 5 5 5 5 5 5 5 5 5 5 5 5 3 5 5 5 5 3 5 5 5 5 3 5 5 5 5 5 3 5 5 5 5 3 5 5 3 5 5 5 3 5 5 5 5 3 5 5 5 5 3 5 5 5 3 3 3 5 5 3 5 5 5 5 3 3 5 3 5 5 3 5 5 5 3 5 5 3 5 5 3 3 5 5 3 5 5 5 5 5 5 5 5 5 5 5 5 5 5 5 3 5 5 5 5 5 5 5 5 5 5 5 5 5 5 5 5 5 5 5 3 5 5 5 3 5 3 5 3 5 5 5 5 3 5 5 5 5 5 5 5 5 5 5 5 5 3 5 5 5 5 5 5 5 5 3 5 5 5 5 5 5 5 5 5 5 5 5 5 5 5 5 5 5 5 5 3 5 5 5 5 5 5 5 5 3 5 5 5 5 5 5 5 5 5 5 5 5 5 3 5 3 5 3 5 5 5 5 5 5 5 5 5 5 3 5 3 5 5 5 5 5 5 5 5 5 3 5 3 5 5 3 5 5 5 5 5 5 3 5 5 5 3 3 5 5 5 5 5 5 5 5 5 5 5 5 3 5 3 5 5 5 5 5 5 5 5 5 5 5 5 5 5 3 5 5 5 5 5 3 5 5 5 5 5 5 5 5 5 5 5 5 5 5 5 5 5 5 5 5 5 5 5 5 5 5 5 5 5 5 5 5 5 5 5 3 5 5 3 5 5 3 5 5 5 5 5 5 5 5 5 5 5 5 5 5 5 5 5 5 5 5 5 5 5 5 5 5 5 5 5 5 5 5 3 5 5 5 5 5 5 5 5 5 5 5 5 5 5 3 5 5 3 5 5 3 5 5 5 5 5 5 3 3 5 5 5 5 5 5 5 5 5 5 5 5 5 5 5 5 5 5 5 5 5 5 5 5 5 5 5 5 5 5 5 5 5 5 5 5 5 5 5 5 5 5 5 5 3 5 5 5 5 5 3 3 5 5 5 5 5 5 5 5 5 5 5 5 5 5 5 5 5 5 5 5 5 5 5 5 3 5 5 5 5 5 3 5 5 5 5 5 5 5 3 5 5 5 5 5 5 5 3 5 5 5 5 5 5 5 5 5 3 5 5 5 5 5 5 5 3 5 5 3 5 5 5 5 5 5 5 5 5 5 5 5 5 5 5 5 3 5 5 3 5 5 5 5 5 5 5 5 5 5 5 5 5 5 5 5 5 5 5 5 5 3 5 5 5 5 5 5 5 3 5 5 5 5 3 5 5 5 5 5 5 5 5 5 3 5 5 5 5 5 3 5 5 5 3 5 5 5 3 5 5 3 3 5 5 5 3 5 3 5 5 5 5 5 3 5 5 5 5 5 5 5 5 5 5 5 5 3 5 3 5 5 5 5 5 5 3 5 5 5 5 5 3 5 5 5 3 5 5 5 5 5 5 5 5 3 5 5 5 5 5 5 3 5 5 5 5 5 3 5 5 3 5 3 5 5 5 5 5 5 3 5 5 5 5 3 5 5 5 5 5 3 5 5 5 5 5 5 5 5 5 5 5 5 5 5 5 3 5 5 5 5 3 3 5 5 5 5 5 5 5 5 3 5 5 5 5 5 5 5 5 5 5 5 5 3 5 5 3 5 5 3 5 5 5 5 5 5 5 3 5 3 3 5 5 3 5 5 5 5 5 5 3 5 5 3 5 3 5 5 5 5 5 5 5 5 5 5 5 5 5 3 5 5 5 5 5 5 3 5 5 5 5 5 5 5 5 5 5 5 3 5 5 3 5 5 5 3 5 5 5 5 5 5 5 5 5 3 5 5 5 5 5 5 5 3 5 5 5 5 5 5 5 3 5 5 5 3 5 5 5 5 3 5 5 5 5 5 5 3 5 5 5 5 5 5 5 5 5 5 5 5 5 5 5 3 5 3 5 5 3 5 5 5 5 5 5 5 3 5 5 5 5 5 5 5 5 5 5 5 5 5 5 5 5 5 5 5 5 5 5 5 5 5 5 5 5 5 5 5 5 5 3 5 5 5 5 5 5 5 5 5 5 5 5 3 5 5 3 5 5 5 3 5 5 5 5 3 5 5 5 5 5 3 5 5 5 5 5 5 5 5 5 5 5 5 5 5 5 5 5 5 5 5 3 3 5 5 5 3 5 5 5 5 3 5 5 5 3 5 5 3 5 5 5 5 5 5 5 3 5 5 5 5 5 5 5 5 5 5 3 5 5 5 5 5 5 5 5 5 5 5 5 5 5 5 5 5 5 5 5 5 5 5 5 5 5 5 5 5 5 5 5 3 5 5 3 5 5 5 5 5 5 3 5 5 3 5 5 5 5 5 5 5 5 5 5 5 5 3 5 3 5 5 5 5 5 5 5 5 3 5 5 5 3 5 5 5 5 5 5 3 5 5 5 5 5 5 5 5 5 5 5 5 5 5 5 3 5 5 5 5 5 5 5 5 5 5 5 5 5 5 5 5 5 5 5 5 5 5 5 5 5 5 5 5 5 5 5 5 5 5 5 5 5 3 5 5 5 3 5 5 5 5 5 5 3 5 5 5 3 5 5 5 3 5 3 3 5 5 5 5 5 5 5 5 5 5 5 5 5 3 5 5 5 5 3 5 5 5 5 3 3 5 3 5 3 5 5 5 5 5 5 3 5 5 5 3 5 5 3 5 5 3 5 5 3 5 5 3 5 5 3 5 5 3 5 5 3 5 5 3 3 5 5 5 5 5 5 5 5 5 5 5 5 5 5 5 5 5 5 5 5 5 5 5 5 5 3 5 5 5 5 5 5 3 5 5 5 5 3 5 5 3 5 3 5 5 3 5 5 5 3 5 5 5 5 5 5 5 5 5 5 5 3 5 5 5 5 5 5 5 3 5 5 5 5 5 5 3 5 5 5 5 5 5 5 5 3 5 5 5 3 5 5 5 5 5 5 5 5 5 5 5 5 5 5 5 3 3 5 5 5 5 5 5 5 5 5 5 5 5 5 5 5 5 5 5 5 5 5 5 5 5 5 5 5 5 5 5 3 5 5 5 5 5 5 5 5 3 5 5 5 5 5 5 3 5 5 5 5 5 3 5 3 5 5 5 5 5 3 5 5 5 5 5 5 5 5 5 5 3 5 5 5 5 5 5 5 5 5 3 5 5 5 5 5 5 5 5 5 5 5 3 5 5 5 5 5 5 5 5 5 5 5 5 5 3 5 5 5 3 5 5 5 3 5 5 5 3 5 5 3 5 5 5 5 5 5 5 5 5 5 5 5 5 5 5 5 5 5 5 5 5 3 5 5 5 5 5 3 5 5 5 5 5 3 5 5 5 5 5 5 5 5 5 5 5 5 5 5 5 5 5 3 5 5 5 5 5 5 5 5 5 5 5 5 5 5 5 5 5 5 5 5 5 5 3 5 5 5 5 5 5 5 5 5 5 5 5 5 5 5 5 5 5 5 5 5 5 5 5 5 5 5 5 5 5 5 5 3 5 5 5 5 5 3 3 5 5 3 5 5 5 5 5 5 5 5 5 5 5 5 5 5 5 5 5 5 5 5 5 5 5 5 5 5 5 5 5 5 3 5 5 5 3 3 5 3 5 5 3 5 5 3 5 5 3 5 5 5 3 5 3 3 5 3 5 3 5 5 5 5 3 5 5 5 5 5 3 5 5 5 5 5 5 5 3 5 5 5 3 5 5 5 5 5 3 5 3 5 5 5 5 5 5 5 3 3 5 5 5 5 5 5 3 5 5 5 5 5 3 5 5 3 5 5 3 5 5 5 5 5 5 5 5 5 5 5 5 3 5 5 5 5 5 5 5 5 5 5 5 5 3 5 5 3 5 5 5 3 5 5 5 5 5 5 5 5 5 5 5 5 5 3 5 3 5 5 5 5 5 3 5 5 5 5 5 5 5 5 5 5 5 5 5 5 5 5 5 5 3 5 3 5 5 3 3 5 5 5 5 5 5 5 3 5 5 5 5 5 3 5 3 5 5 5 3 5 3 5 5 5 5 5 3 5 5 5 5 5 5 5 5 5 5 5 5 5 5 5 3 5 5 5 5 5 5 5 5 5 5 5 5 3 5 5 5 5 5 5 5 5 3 5 5 5 5 5 3 3 5 5 3 5 3 5 3 5 5 5 5 5 5 5 5 5 5 5 5 5 5 5 5 5 5 5 5 3 5 3 5 5 5 5 3 5 5 5 5 5 5 5 5 5 3 5 5 3 5 3 5 5 5 3 3 5 3 5 5 5 5 5 5 5 5 3 3 3 5 5 5 5 5 5 3 5 5 5 5 5 5 5 5 5 5 3 5 5 5 3 5 5 5 5 5 5 5 5 5 5 3 5 5 5 3 3 5 5 5 3 5 3 3 5 5 3 5 5 5 3 5 3 5 5 5 5 5 5 5 5 5 3 3 5 5 5 3 5 5 5 5 5 5 5 3 5 5 5 5 5 5 5 3 5 5 5 5 5 5 5 5 3 5 5 5 5 5 5 5 5 3 5 5 5 3 5 5 5 5 5 3 5 5 5 5 5 5 5 5 5 5 5 3 5 5 3 5 5 5 3 5 5 5 5 5 5 5 5 5 3 5 5 5 5 3 5 5 5 5 5 5 5 5 3 5 5 5 5 5 5 5 5 5 5 3 5 5 5 5 5 5 5 3 5 5 5 5 5 3 5 5 5 5 5 3 5 5 5 5 5 5 5 5 5 5 5 5 5 5 3 5 5 5 5 5 5 5 5 5 5 5 3 5 3 5 5 5 5 5 5 5 5 5 5 5 5 5 5 3 3 5 5 3 5 5 5 3 5 5 5 5 5 3 3 5 5 3 5 5 5 5 5 5 3 5 3 5 5 5 5 5 5 5 5 5 5 5 5 5 3 5 5 5 3 3 5 5 5 5 5 5 5 5 5 5 3 5 3 5 5 5 5 5 3 5 5 3 5 5 5 5 3 5 5 3 5 3 5 3 5 5 3 5 3 3 5 3 5 5 5 3 3 5 5 3 5 5 5 3 3 3 5 5 5 5 5 5 3 5 5 5 3 3 5 5 5 3 5 5 3 5 5 5 5 3 5 3 5 5 5 5 5 3 5 5 5 5 5 5 5 5 5 5 5 5 5 5 5 5 5 5 5 5 5 5 3 5 5 5 5 5 3 3 5 3 5 5 5 5 5 3 5 5 5 5 5 3 5 5 5 3 5 3 5 5 5 5 5 3 5 3 5 5 5 5 5 5 5 5 5 3 5 5 5 3 5 5 5 3 5 5 5 5 5 5 3 5 5 3 5 5 5 5 5 5 5 3 5 5 5 5 5 5 5 5 5 5 5 5 5 5 5 5 5 3 5 5 5 5 5 5 3 5 5 5 3 3 5 5 5 5 5 5 5 5 5 5 5 5 3 3 5 5 5 5 3 5 3 5 5 5 5 5 5 5 5 5 5 5 5 5 5 5 5 5 5 5 5 5 5 5 5 5 5 5 5 5 5 5 5 5 5 5 5 5 5 5 5 5 5 5 5 3 5 5 5 5 5 3 5 5 5 5 5 5 5 3 5 3 5 5 5 5 5 5 5 3 5 5 5 5 5 5 3 5 5 5 5 5 5 5 5 5 5 5 5 5 5 3 5 5 5 5 5 5 5 5 5 5 3 5 5 5 5 5 5 5 5 5 5 5 5 5 5 5 5 5 5 5 5 5 5 5 5 5 5 5 5 5 5 5 5 3 5 5 3 5 3 5 5 3 5 5 3 5 5 3 5 5 5 5 5 5 5 3 3 5 5 5 3 5 5 5 5 5 5 5 5 5 5 5 5 5 5 5 5 5 5 5 5 5 5 5 5 5 5 5 5 5 3 5 5 5 5 5 5 5 5 5 5 5 5 5 5 5 5 5 3 5 5 5 5 5 5 3 5 5 5 5 5 5 3 5 5 5 5 5 5 5 5 5 3 3 5 5 5 5 5 5 5 5 5 3 5 5 5 5 5 5 5 5 5 5 5 5 5 5 3 5 5 5 5 5 5 5 5 3 5 5 5 5 5 3 5 5 5 3 5 5 5 5 3 3 5 5 5 5 5 5 5 3 5 5 5 5 3 5 3 5 5 5 3 5 5 3 5 5 5 5 5 5 5 5 5 5 5 5 5 5 3 5 3 5 5 3 5 5 5 3 5 5 5 5 5 5 5 5 5 5 5 5 5 5 5 5 5 5 5 5 5 5 5 5 5 5 5 5 5 5 3 5 5 5 5 5 5 5 5 5 5 5 5 5 5 5 5 3 5 5 5 5 5 3 5 5 5 5 5 5 3 5 5 5 5 5 5 5 3 5 3 3 5 5 5 5 3 5 3 5 3 3 5 3 5 3 3 5 3 3 3 5 5 5 5 3 5 3 3 5 5 3 5 5 5 3 5 5 3 5 5 3 5 5 3 5 3 5 5 3 5 5 5 5 5 5 5 5 5 5 3 5 3 3 5 5 5 5 3 3 5 5 5 5 3 5 5 3 3 5 5 5 5 5 5 5 5 5 5 5 5 5 3 5 5 5 5 5 5 3 3 3 3 5 5 5 5 5 5 5 5 5 3 5 5 5 5 5 5 5 5 5 5 5 5 5 5 5 5 5 5 5 5 3 5 5 5 3 5 5 5 5 5 3 5 3 5 5 5 5 3 3 5 5 5 5 5 5 5 5 5 5 5 5 5 5 5 5 5 3 5 5 5 5 5 5 5 5 5 5 5 5 5 3 5 5 3 3 5 5 5 5 5 3 5 5 5 5 5 5 5 5 3 5 5 3 5 5 5 5 5 5 5 5 5 5 5 5 5 5 5 5 5 5 5 5 5 5 5 5 5 5 3 5 5 5 5 5 5 3 5 5 5 5 5 5 5 5 5 5 5 5 5 5 5 5 5 5 5 5 5 5 5 3 5 5 5 5 5 5 5 5 5 5 5 5 5 5 5 5 5 5 5 5 5 5 5 5 5 5 5 5 5 5 5 5 5 5 5 5 5 5 5 5 5 5 5 5 5 5 5 5 5 5 5 5 5 5 5 5 5 5 5 5 5 5 5 5 5 3 5 5 5 5 5 5 5 5 5 5 5 5 5 5 5 3 5 5 3 3 5 5 5 5 5 5 5 5 3 5 5 3 5 5 5 3 5 5 5 5 5 5 5 5 5 3 5 5 5 3 5 5 5 3 5 5 5 5 5 5 5 5 5 3 5 5 3 3 3 5 5 5 5 3 5 5 5 5 3 5 5 5 5 3 5 5 5 5 5 5 5 5 5 5 5 5 5 5 5 5 5 5 5 5 5 5 5 5 5 5 5 5 5 5 5 5 5 5 5 5 5 5 5 5 5 5 5 5 5 5 5 5 5 5 5 5 5 5 5 5 5 5 5 3 3 5 5 5 5 5 5 5 5 5 5 5 5 5 5 5 5 5 5 5 5 3 5 5 5 5 5 3 5 5 5 5 5 5 5 5 5 5 5 5 5 5 5 5 5 5 5 5 5 3 5 5 5 5 5 3 5 5 5 5 3 5 5 5 5 5 5 5 5 5 5 5 5 5 5 5 5 5 5 5 5 5 5 5 5 5 3 5 5 5 5 3 5 5 5 5 5 5 5 5 5 5 5 5 5 5 5 5 5 5 5 5 5 5 5 5 5 5 5 5 5 5 5 5 5 5 5 5 5 5 5 5 5 5 5 5 5 5 5 5 5 5 5 5 5 5 5 5 5 5 5 5 5 5 5 5 5 5 5 5 5 5 5 5 5 5 5 3 5 5 5 5 5 5 5 5 5 5 5 5 5 5 5 5 5 5 5 5 5 5 5 5 5 5 3 5 5 5 5 5 5 5 5 5 5 5 5 5 5 5 5 5 5 5 5 5 5 5 5 5 5 5 5 3 5 5 5 5 5 5 5 5 5 5 5 5 5 5 5 5 5 5 5 5 5 5 5 5 3 5 5 5 5 5 5 5 5 5 5 3 3 5 5 5 5 5 5 5 3 5 5 5 5 5 5 5 5 5 5 5 5 5 5 5 5 3 5 5 5 5 5 5 5 5 5 5 3 5 5 5 5 3 5 5 5 5 5 5 5 5 5 3 5 5 5 5 5 5 3 3 5 5 5 5 5 5 5 5 5 5 3 5 5 5 5 3 5 5 5 3 5 5 5 5 5 5 5 5 3 5 5 5 3 5 5 5 5 5 5 5 5 5 5 5 5 3 5 5 5 5 5 3 5 5 5 3 5 5 5 5 5 3 5 5 3 3 5 3 5 5 5 5 5 5 5 5 5 5 5 5 5 5 5 5 3 5 5 5 5 5 5 5 5 5 5 5 5 5 5 5 5 5 5 5 5 5 5 5 5 5 5 5 5 5 5 5 5 5 5 5 5 5 5 3 5 5 5 5 5 5 3 5 3 5 5 5 5 3 5 5 5 5 5 5 5 5 5 5 5 5 5 5 5 3 5 5 5 5 5 5 5 3 5 5 5 5 5 5 5 5 5 5 5 5 5 5 5 5 5 5 5 5 5 5 5 5 5 5 5 5 5 5 5 5 5 5 5 5 5 5 5 5 5 5 5 5 5 5 5 5 5 5 5 5 5 5 5 5 5 5 5 5 5 5 5 5 5 5 5 5 5 5 5 5 5 5 5 5 5 5 5 5 5 5 5 5 5 5 5 5 5 5 5 5 3 5 5 5 5 5 5 5 5 5 5 5 5 5 5 5 5 5 5 5 5 5 5 5 5 5 5 5 5 5 5 5 3 5 5 3 5 3 5 5 5 3 5 5 5 5 5 3 5 5 5 3 5 3 3 3 5 5 5 5 3 5 5 5 5 5 5 5 5 5 5 5 5 3 5 3 5 5 5 5 5 5 3 5 5 3 5 5 3 5 5 5 3 5 5 5 5 5 5 5 3 5 5 5 5 3 5 3 5 3 5 5 5 5 3 5 5 5 5 5 3 5 3 5 3 5 5 3 3 5 5 5 5 5 5 3 5 5 5 5 5 5 5 5 5 3 5 5 3 5 5 5 5 5 5 5 5 3 5 5 5 3 5 5 3 5 5 3 5 5 3 3 3 5 5 5 5 3 5 5 5 5 5 5 5 3 3 3 3 3 5 5 5 5 5 5 5 5 5 5 5 5 5 5 3 5 5 3 5 5 5 5 5 5 5 5 5 5 5 3 5 5 5 5 5 5 5 5 5 5 3 5 5 5 5 5 5 5 5 5 5 3 5 5 5 5 5 5 5 5 5 5 5 5 5 5 5 5 5 5 5 5 5 5 5 5 5 5 5 5 5 5 5 5 5 5 5 5 5 5 5 5 5 5 5 5 5 3 5 5 3 5 5 5 5 5 5 3 5 3 5 5 5 5 5 3 3 5 5 5 5 3 5 5 5 5 5 5 5 5 5 
</DataArray>
</Cells>
<PointData Scalars="" Vectors="displacement," Tensors="">
<DataArray type="Float64" Name="displacement" NumberOfComponents="3" format="ascii">
-0.024999699899226829 -1.000256134817593e-07 0 -0.023747633147290947 -5.245345689434783e-05 0 -0.021956707968586436 -2.6112900852939206e-07 0 -0.024999699899226829 -1.000256134817593e-07 0 -0.024997059587247621 2.6622590624563367e-07 0 -0.023747633147290947 -5.245345689434783e-05 0 -0.024997059587247621 2.6622590624563367e-07 0 -0.023972710238915795 -3.9961511070886958e-05 0 -0.02370445326958354 -2.5208482635012904e-05 0 -0.024997059587247621 2.6622590624563367e-07 0 -0.023972710238915795 -3.9961511070886958e-05 0 -0.023747633147290947 -5.245345689434783e-05 0 -0.023972710238915795 -3.9961511070886958e-05 0 -0.023405754053477997 -0.00010206766388782768 0 -0.02370445326958354 -2.5208482635012904e-05 0 -0.023972710238915795 -3.9961511070886958e-05 0 -0.023405754053477997 -0.00010206766388782768 0 -0.023747633147290947 -5.245345689434783e-05 0 -0.023747633147290947 -5.245345689434783e-05 0 -0.021956707968586436 -2.6112900852939206e-07 0 -0.022519985488328908 -0.00011166229158501456 0 -0.023405754053477997 -0.00010206766388782768 0 -0.023747633147290947 -5.245345689434783e-05 0 -0.022944272682374253 -0.00015800725812812182 0 -0.023747633147290947 -5.245345689434783e-05 0 -0.022944272682374253 -0.00015800725812812182 0 -0.022519985488328908 -0.00011166229158501456 0 -0.023405754053477997 -0.00010206766388782768 0 -0.022944272682374253 -0.00015800725812812182 0 -0.022660254067042526 -0.00021033483990913528 0 -0.022944272682374253 -0.00015800725812812182 0 -0.022611143535946853 -0.00023004545641289943 0 -0.022660254067042526 -0.00021033483990913528 0 -0.022944272682374253 -0.00015800725812812182 0 -0.022519985488328908 -0.00011166229158501456 0 -0.022611143535946853 -0.00023004545641289943 0 -0.022519985488328908 -0.00011166229158501456 0 -0.022611143535946853 -0.00023004545641289943 0 -0.021555638806514454 -0.00010326065963148215 0 -0.023180425237585955 -0.00027594287697873903 0 -0.022882889350630646 -0.00020609163748236609 0 -0.022045164267341415 -0.00041912470896586317 0 -0.021988516838443262 -0.00049933908893904581 0 -0.021989629760113729 -0.00052182007072817027 0 -0.022045164267341415 -0.00041912470896586317 0 -0.021989629760113729 -0.00052182007072817027 0 -0.022734890965935377 -0.00027005682088897221 0 -0.024457403040514764 -0.00012425554158829774 0 -0.02372995465116506 -0.0001322543664579699 0 -0.022734890965935377 -0.00027005682088897221 0 -0.022045164267341415 -0.00041912470896586317 0 -0.021841818033114527 -0.00043373825865902386 0 -0.021988516838443262 -0.00049933908893904581 0 -0.022045164267341415 -0.00041912470896586317 0 -0.021841818033114527 -0.00043373825865902386 0 -0.021812293452438798 -0.00034546926736417919 0 -0.021930722889662749 -0.00053101130699016827 0 -0.021988516838443262 -0.00049933908893904581 0 -0.022077516316012999 -0.00044318236520171834 0 -0.021841818033114527 -0.00043373825865902386 0 -0.021930722889662749 -0.00053101130699016827 0 -0.021988516838443262 -0.00049933908893904581 0 -0.021988516838443262 -0.00049933908893904581 0 -0.022077516316012999 -0.00044318236520171834 0 -0.021989629760113729 -0.00052182007072817027 0 -0.021930722889662749 -0.00053101130699016827 0 -0.022077516316012999 -0.00044318236520171834 0 -0.022401191622164838 -0.00017295487992439432 0 -0.022554628684098334 -0.00025680213322662736 0 -0.023901543315949719 -7.0008222542685016e-05 0 -0.022210744931637057 -0.00036572148434679054 0 -0.022380788341256133 -0.00014491017218666303 0 -0.022611143535946853 -0.00023004545641289943 0 -0.022660254067042526 -0.00021033483990913528 0 -0.022401191622164838 -0.00017295487992439432 0 -0.022077516316012999 -0.00044318236520171834 0 -0.021989629760113729 -0.00052182007072817027 0 -0.022401191622164838 -0.00017295487992439432 0 -0.024457403040514764 -0.00012425554158829774 0 -0.024391332039074877 -8.5423901811488439e-05 0 -0.02372995465116506 -0.0001322543664579699 0 -0.024457403040514764 -0.00012425554158829774 0 -0.024670549746433082 -4.524920407104946e-05 0 -0.024391332039074877 -8.5423901811488439e-05 0 -0.024670549746433082 -4.524920407104946e-05 0 -0.024726126847244061 -3.3323844938730262e-05 0 -0.024391332039074877 -8.5423901811488439e-05 0 -0.024670549746433082 -4.524920407104946e-05 0 -0.024859194834313005 -3.2649788210774053e-05 0 -0.024848491197096364 -6.6307518947305586e-06 0 -0.024457403040514764 -0.00012425554158829774 0 -0.024670549746433082 -4.524920407104946e-05 0 -0.024859194834313005 -3.2649788210774053e-05 0 -0.024670549746433082 -4.524920407104946e-05 0 -0.024848491197096364 -6.6307518947305586e-06 0 -0.024726126847244061 -3.3323844938730262e-05 0 -0.021989629760113729 -0.00052182007072817027 0 -0.022401191622164838 -0.00017295487992439432 0 -0.022374062366719568 -9.6980928995932315e-05 0 -0.023405754053477997 -0.00010206766388782768 0 -0.022660254067042526 -0.00021033483990913528 0 -0.02370445326958354 -2.5208482635012904e-05 0 -0.022660254067042526 -0.00021033483990913528 0 -0.022401191622164838 -0.00017295487992439432 0 -0.022374062366719568 -9.6980928995932315e-05 0 -0.023180425237585955 -0.00027594287697873903 0 -0.023901543315949719 -7.0008222542685016e-05 0 -0.024859194834313005 -3.2649788210774053e-05 0 -0.024999720888822703 5.9660463569402578e-08 0 -0.024848491197096364 -6.6307518947305586e-06 0 -0.024999866877112691 7.2701834979742382e-08 0 -0.023901543315949719 -7.0008222542685016e-05 0 -0.025000004807800378 -5.6896178196060069e-10 0 -0.024989957999667273 -3.6644665691753049e-06 0 -0.0249999834956025 -1.3370601537554548e-09 0 -0.023901543315949719 -7.0008222542685016e-05 0 -0.025000082480282015 -5.7325235035844857e-08 0 -0.024848491197096364 -6.6307518947305586e-06 0 -0.024999523890861183 -3.7149659922126811e-08 0 -0.024726126847244061 -3.3323844938730262e-05 0 -0.024999720888822703 5.9660463569402578e-08 0 -0.024848491197096364 -6.6307518947305586e-06 0 -0.024999523890861183 -3.7149659922126811e-08 0 -0.024999523890861183 -3.7149659922126811e-08 0 -0.024726126847244061 -3.3323844938730262e-05 0 -0.024757363924543644 -6.201716030330195e-05 0 -0.024757363924543644 -6.201716030330195e-05 0 -0.024999730515905011 -9.3610151030019213e-08 0 -0.024768804089046893 -6.0874534088814977e-05 0 -0.024999523890861183 -3.7149659922126811e-08 0 -0.024757363924543644 -6.201716030330195e-05 0 -0.024999730515905011 -9.3610151030019213e-08 0 -0.024757363924543644 -6.201716030330195e-05 0 -0.024768804089046893 -6.0874534088814977e-05 0 -0.024579352107598561 -7.8207061446592421e-05 0 -0.024757363924543644 -6.201716030330195e-05 0 -0.024391332039074877 -8.5423901811488439e-05 0 -0.024579352107598561 -7.8207061446592421e-05 0 -0.024726126847244061 -3.3323844938730262e-05 0 -0.024757363924543644 -6.201716030330195e-05 0 -0.024391332039074877 -8.5423901811488439e-05 0 -0.024999852084785355 -1.3575617847897092e-09 0 -0.024902180166294745 -2.8836513239517356e-05 0 -0.024905248971966682 5.7520011075699245e-06 0 -0.024999852084785355 -1.3575617847897092e-09 0 -0.024902180166294745 -2.8836513239517356e-05 0 -0.024999730515905011 -9.3610151030019213e-08 0 -0.024902180166294745 -2.8836513239517356e-05 0 -0.024999730515905011 -9.3610151030019213e-08 0 -0.024768804089046893 -6.0874534088814977e-05 0 -0.024902180166294745 -2.8836513239517356e-05 0 -0.024768804089046893 -6.0874534088814977e-05 0 -0.02484494023816166 -3.9441674001354844e-06 0 -0.024902180166294745 -2.8836513239517356e-05 0 -0.02484494023816166 -3.9441674001354844e-06 0 -0.024905248971966682 5.7520011075699245e-06 0 -0.02484494023816166 -3.9441674001354844e-06 0 -0.024830622694200045 1.0460378432455977e-05 0 -0.02479802205419783 2.1489388022417552e-05 0 -0.02484494023816166 -3.9441674001354844e-06 0 -0.024828951393470553 2.4245171701285997e-05 0 -0.02479802205419783 2.1489388022417552e-05 0 -0.024831771784290805 1.7997277155602278e-05 0 -0.024846058733362954 1.1648389940242171e-06 0 -0.024768804089046893 -6.0874534088814977e-05 0 -0.02484494023816166 -3.9441674001354844e-06 0 -0.024662279946828142 -4.3255085210242466e-05 0 -0.02484494023816166 -3.9441674001354844e-06 0 -0.024662279946828142 -4.3255085210242466e-05 0 -0.024793260422370129 8.5628969873508573e-05 0 -0.024662279946828142 -4.3255085210242466e-05 0 -0.024793260422370129 8.5628969873508573e-05 0 -0.024700320596183198 0.00032532944605234032 0 -0.024846058733362954 1.1648389940242171e-06 0 -0.023961324716892267 0.00013628921892842429 0 -0.024830622694200045 1.0460378432455977e-05 0 -0.02479291650170673 -2.5177201575040879e-05 0 -0.02479802205419783 2.1489388022417552e-05 0 -0.024830622694200045 1.0460378432455977e-05 0 -0.02479291650170673 -2.5177201575040879e-05 0 -0.024854008449635541 -3.7476931351387754e-05 0 -0.024391332039074877 -8.5423901811488439e-05 0 -0.024579352107598561 -7.8207061446592421e-05 0 -0.024339339020124987 -5.2783999615568379e-05 0 -0.024391332039074877 -8.5423901811488439e-05 0 -0.024339339020124987 -5.2783999615568379e-05 0 -0.02372995465116506 -0.0001322543664579699 0 -0.024768804089046893 -6.0874534088814977e-05 0 -0.024662279946828142 -4.3255085210242466e-05 0 -0.024579352107598561 -7.8207061446592421e-05 0 -0.024662279946828142 -4.3255085210242466e-05 0 -0.024579352107598561 -7.8207061446592421e-05 0 -0.024339339020124987 -5.2783999615568379e-05 0 -0.024606083699695688 0.00010093285082100023 0 -0.023961324716892267 0.00013628921892842429 0 -0.024339339020124987 -5.2783999615568379e-05 0 -0.024205543632808128 0.00027618090450319457 0 -0.02463566968829467 0.00036987608729044971 0 -0.024662279946828142 -4.3255085210242466e-05 0 -0.024339339020124987 -5.2783999615568379e-05 0 -0.024700320596183198 0.00032532944605234032 0 -0.024339339020124987 -5.2783999615568379e-05 0 -0.024205543632808128 0.00027618090450319457 0 -0.02372995465116506 -0.0001322543664579699 0 -0.022734890965935377 -0.00027005682088897221 0 -0.02204415896930734 -0.00031885420447973391 0 -0.021798191575468313 -0.00026202932608190198 0 -0.023554731889711255 -0.00020054869701947633 0 -0.023045710930654738 7.6592368737706413e-05 0 -0.024205543632808128 0.00027618090450319457 0 -0.02372995465116506 -0.0001322543664579699 0 -0.023935742920293417 0.00061946959501346112 0 -0.02372995465116506 -0.0001322543664579699 0 -0.022734890965935377 -0.00027005682088897221 0 -0.02204415896930734 -0.00031885420447973391 0 -0.024205543632808128 0.00027618090450319457 0 -0.023935742920293417 0.00061946959501346112 0 -0.024268808688492752 0.00057795150247216278 0 -0.024268808688492752 0.00057795150247216278 0 -0.024431270397549266 0.00080481152444638172 0 -0.02463566968829467 0.00036987608729044971 0 -0.024205543632808128 0.00027618090450319457 0 -0.024268808688492752 0.00057795150247216278 0 -0.02463566968829467 0.00036987608729044971 0 -0.024431270397549266 0.00080481152444638172 0 -0.024170594698753815 0.00086039978052984039 0 -0.024217789281286917 0.0011824648136076232 0 -0.024268808688492752 0.00057795150247216278 0 -0.024431270397549266 0.00080481152444638172 0 -0.024170594698753815 0.00086039978052984039 0 -0.02204415896930734 -0.00031885420447973391 0 -0.021566307302723305 -0.00017486090957862321 0 -0.021798191575468313 -0.00026202932608190198 0 -0.021566307302723305 -0.00017486090957862321 0 -0.02132300004778016 -0.00017748185757205236 0 -0.021798191575468313 -0.00026202932608190198 0 -0.023935742920293417 0.00061946959501346112 0 -0.024170594698753815 0.00086039978052984039 0 -0.024012824214021906 0.0010880995042487176 0 -0.023045710930654738 7.6592368737706413e-05 0 -0.02285006131514147 0.00047572377964998877 0 -0.023935742920293417 0.00061946959501346112 0 -0.024268808688492752 0.00057795150247216278 0 -0.024170594698753815 0.00086039978052984039 0 -0.02479291650170673 -2.5177201575040879e-05 0 -0.024854008449635541 -3.7476931351387754e-05 0 -0.024806557440081596 -0.00010430835683922774 0 -0.023125168365440769 0.00039273660253160293 0 -0.023961324716892267 0.00013628921892842429 0 -0.021897599175554679 4.52424446853257e-06 0 -0.022127189024356508 -0.0004815150818363604 0 -0.022480073190354947 -0.00011791578485491744 0 -0.023961324716892267 0.00013628921892842429 0 -0.023515049765916556 -0.00024033124119617676 0 -0.021897599175554679 4.52424446853257e-06 0 -0.022480073190354947 -0.00011791578485491744 0 -0.022109824366993429 0.00039314683186070194 0 -0.022480073190354947 -0.00011791578485491744 0 -0.022109824366993429 0.00039314683186070194 0 -0.022851101774704799 0.00025510372912395654 0 -0.023515049765916556 -0.00024033124119617676 0 -0.024009053479383452 0.00032605845059669939 0 -0.022109824366993429 0.00039314683186070194 0 -0.022529885327851322 0.00081721554361636193 0 -0.022851101774704799 0.00025510372912395654 0 -0.023728476302497681 0.00048046649777631992 0 -0.024009053479383452 0.00032605845059669939 0 -0.022109824366993429 0.00039314683186070194 0 -0.022162499768353657 0.00074728793117302889 0 -0.021782037323242392 0.00072669351933482909 0 -0.022162499768353657 0.00074728793117302889 0 -0.022529885327851322 0.00081721554361636193 0 -0.022197663030484628 0.0014010406202069634 0 -0.022109824366993429 0.00039314683186070194 0 -0.022162499768353657 0.00074728793117302889 0 -0.022529885327851322 0.00081721554361636193 0 -0.022162499768353657 0.00074728793117302889 0 -0.021782037323242392 0.00072669351933482909 0 -0.022197663030484628 0.0014010406202069634 0 -0.024012824214021906 0.0010880995042487176 0 -0.024217789281286917 0.0011824648136076232 0 -0.024041351304251769 0.0015206869787279885 0 -0.021566307302723305 -0.00017486090957862321 0 -0.021334695236061973 6.782066782809084e-05 0 -0.02132300004778016 -0.00017748185757205236 0 -0.021897599175554679 4.52424446853257e-06 0 -0.022109824366993429 0.00039314683186070194 0 -0.021662177792791591 0.00050986844641903544 0 -0.023125168365440769 0.00039273660253160293 0 -0.022964825572831808 0.00087842306474692215 0 -0.024170594698753815 0.00086039978052984039 0 -0.024012824214021906 0.0010880995042487176 0 -0.024217789281286917 0.0011824648136076232 0 -0.022109824366993429 0.00039314683186070194 0 -0.021662177792791591 0.00050986844641903544 0 -0.021782037323242392 0.00072669351933482909 0 -0.022964825572831808 0.00087842306474692215 0 -0.022353983535392977 0.00090046450245109334 0 -0.021662177792791591 0.00050986844641903544 0 -0.021782037323242392 0.00072669351933482909 0 -0.021486475541040613 0.00093081676499679855 0 -0.021782037323242392 0.00072669351933482909 0 -0.021486475541040613 0.00093081676499679855 0 -0.021700720745663177 0.0010170497365971528 0 -0.021566307302723305 -0.00017486090957862321 0 -0.021580132601679545 0.00041874429283656411 0 -0.021334695236061973 6.782066782809084e-05 0 -0.021580132601679545 0.00041874429283656411 0 -0.021277568836511721 0.0004567867391188721 0 -0.021547148649306225 0.00050073308981699201 0 -0.02285006131514147 0.00047572377964998877 0 -0.022353983535392977 0.00090046450245109334 0 -0.022353983535392977 0.00090046450245109334 0 -0.022302558205892508 0.00085818295012776095 0 -0.021580132601679545 0.00041874429283656411 0 -0.021334695236061973 6.782066782809084e-05 0 -0.021277568836511721 0.0004567867391188721 0 -0.021006453237425275 0.00028459156665294321 0 -0.020901879810596886 -9.1033272169619196e-06 0 -0.020688431375627023 1.1137272214056504e-05 0 -0.020382726946224193 3.6118139388226258e-05 0 -0.020937911529772629 -1.2128620584628116e-05 0 -0.020382726946224193 3.6118139388226258e-05 0 -0.020937911529772629 -1.2128620584628116e-05 0 -0.020400897080140878 -8.0933638262913082e-05 0 -0.021334695236061973 6.782066782809084e-05 0 -0.021277568836511721 0.0004567867391188721 0 -0.020937911529772629 -1.2128620584628116e-05 0 -0.021334695236061973 6.782066782809084e-05 0 -0.020937911529772629 -1.2128620584628116e-05 0 -0.02132300004778016 -0.00017748185757205236 0 -0.020937911529772629 -1.2128620584628116e-05 0 -0.02132300004778016 -0.00017748185757205236 0 -0.020948506333897738 -0.00016413170020244646 0 -0.02132300004778016 -0.00017748185757205236 0 -0.020948506333897738 -0.00016413170020244646 0 -0.021446850722283247 -0.00023826001449770603 0 -0.020937911529772629 -1.2128620584628116e-05 0 -0.020948506333897738 -0.00016413170020244646 0 -0.020400897080140878 -8.0933638262913082e-05 0 -0.020948506333897738 -0.00016413170020244646 0 -0.020400897080140878 -8.0933638262913082e-05 0 -0.020638151513202765 -0.00016922910383195471 0 -0.020382726946224193 3.6118139388226258e-05 0 -0.020400897080140878 -8.0933638262913082e-05 0 -0.019626607531593551 -2.5629207564144666e-05 0 -0.01963135902148417 -9.1690276440866442e-07 0 -0.020470106231375018 -2.2087155374418562e-05 0 -0.019626607531593551 -2.5629207564144666e-05 0 -0.020533181867526253 -9.8770285333184792e-05 0 -0.019804172879628559 -3.8149921357917105e-06 0 -0.020400897080140878 -8.0933638262913082e-05 0 -0.020638151513202765 -0.00016922910383195471 0 -0.019626607531593551 -2.5629207564144666e-05 0 -0.01963135902148417 -9.1690276440866442e-07 0 -0.020470106231375018 -2.2087155374418562e-05 0 -0.021555638806514454 -0.00010326065963148215 0 -0.020533181867526253 -9.8770285333184792e-05 0 -0.021463887176614748 -0.00023204330459046288 0 -0.021956707968586436 -2.6112900852939206e-07 0 -0.022519985488328908 -0.00011166229158501456 0 -0.021555638806514454 -0.00010326065963148215 0 -0.021956707968586436 -2.6112900852939206e-07 0 -0.01963135902148417 -9.1690276440866442e-07 0 -0.021555638806514454 -0.00010326065963148215 0 -0.021841818033114527 -0.00043373825865902386 0 -0.021367027041980582 -0.00028757754313386846 0 -0.021812293452438798 -0.00034546926736417919 0 -0.022210744931637057 -0.00036572148434679054 0 -0.021463887176614748 -0.00023204330459046288 0 -0.021367027041980582 -0.00028757754313386846 0 -0.021812293452438798 -0.00034546926736417919 0 -0.021713074372708439 -0.00027313197949082257 0 -0.021841818033114527 -0.00043373825865902386 0 -0.021930722889662749 -0.00053101130699016827 0 -0.021367027041980582 -0.00028757754313386846 0 -0.022734890965935377 -0.00027005682088897221 0 -0.022073167583699049 -0.00027584591014006047 0 -0.021798191575468313 -0.00026202932608190198 0 -0.022045164267341415 -0.00041912470896586317 0 -0.021812293452438798 -0.00034546926736417919 0 -0.022073167583699049 -0.00027584591014006047 0 -0.021812293452438798 -0.00034546926736417919 0 -0.022073167583699049 -0.00027584591014006047 0 -0.021713074372708439 -0.00027313197949082257 0 -0.022045164267341415 -0.00041912470896586317 0 -0.022734890965935377 -0.00027005682088897221 0 -0.022073167583699049 -0.00027584591014006047 0 -0.022073167583699049 -0.00027584591014006047 0 -0.021713074372708439 -0.00027313197949082257 0 -0.021798191575468313 -0.00026202932608190198 0 -0.021713074372708439 -0.00027313197949082257 0 -0.021798191575468313 -0.00026202932608190198 0 -0.021446850722283247 -0.00023826001449770603 0 -0.02132300004778016 -0.00017748185757205236 0 -0.021798191575468313 -0.00026202932608190198 0 -0.021446850722283247 -0.00023826001449770603 0 -0.021367027041980582 -0.00028757754313386846 0 -0.021713074372708439 -0.00027313197949082257 0 -0.021446850722283247 -0.00023826001449770603 0 -0.020948506333897738 -0.00016413170020244646 0 -0.020638151513202765 -0.00016922910383195471 0 -0.021367027041980582 -0.00028757754313386846 0 -0.020948506333897738 -0.00016413170020244646 0 -0.021367027041980582 -0.00028757754313386846 0 -0.021446850722283247 -0.00023826001449770603 0 -0.025097614816860212 -6.1567685168819063e-05 0 -0.024971981793147337 7.4960772340066333e-05 0 -0.025016394212453438 1.4465423604845079e-05 0 -0.024957023106402219 4.4685065142071292e-05 0 -0.024918635411794829 3.3862052267219113e-05 0 -0.025014642767957767 0.00011244694237772374 0 -0.02499012807619564 6.6841183936868645e-05 0 -0.025011449377431699 4.870289237999904e-05 0 -0.025014642767957767 0.00011244694237772374 0 -0.02499012807619564 6.6841183936868645e-05 0 -0.024976729741001593 0.00013239331746691367 0 -0.02499012807619564 6.6841183936868645e-05 0 -0.024947188276873498 0.00010324688311372481 0 -0.024976729741001593 0.00013239331746691367 0 -0.02499012807619564 6.6841183936868645e-05 0 -0.024991717892974937 1.8657261560667766e-05 0 -0.024965513239756529 4.7715200153289131e-05 0 -0.02499012807619564 6.6841183936868645e-05 0 -0.025011449377431699 4.870289237999904e-05 0 -0.024991717892974937 1.8657261560667766e-05 0 -0.025011449377431699 4.870289237999904e-05 0 -0.024991717892974937 1.8657261560667766e-05 0 -0.02498714705459788 1.7739338620788345e-05 0 -0.024999997804300702 1.6641988688676184e-08 0 -0.024991717892974937 1.8657261560667766e-05 0 -0.02498714705459788 1.7739338620788345e-05 0 -0.024999997804300702 1.6641988688676184e-08 0 -0.024991717892974937 1.8657261560667766e-05 0 -0.024999962396345304 -3.4626887104115472e-09 0 -0.024991717892974937 1.8657261560667766e-05 0 -0.024962299573355013 7.5104006642092925e-06 0 -0.024965513239756529 4.7715200153289131e-05 0 -0.024991717892974937 1.8657261560667766e-05 0 -0.024999962396345304 -3.4626887104115472e-09 0 -0.024962299573355013 7.5104006642092925e-06 0 -0.024999962396345304 -3.4626887104115472e-09 0 -0.024962299573355013 7.5104006642092925e-06 0 -0.024999879407245677 -1.9661836397053062e-08 0 -0.024962299573355013 7.5104006642092925e-06 0 -0.024892744086225039 1.63565456801066e-05 0 -0.024999879407245677 -1.9661836397053062e-08 0 -0.024962299573355013 7.5104006642092925e-06 0 -0.024905726014292275 6.9160366605602953e-05 0 -0.024892744086225039 1.63565456801066e-05 0 -0.024962299573355013 7.5104006642092925e-06 0 -0.024905726014292275 6.9160366605602953e-05 0 -0.024965513239756529 4.7715200153289131e-05 0 -0.02499012807619564 6.6841183936868645e-05 0 -0.024965513239756529 4.7715200153289131e-05 0 -0.024947188276873498 0.00010324688311372481 0 -0.024905726014292275 6.9160366605602953e-05 0 -0.024965513239756529 4.7715200153289131e-05 0 -0.024947188276873498 0.00010324688311372481 0 -0.024905726014292275 6.9160366605602953e-05 0 -0.024947188276873498 0.00010324688311372481 0 -0.024851260809818025 0.00016868299520212313 0 -0.024905726014292275 6.9160366605602953e-05 0 -0.024662022609275719 0.00011479141903220032 0 -0.024851260809818025 0.00016868299520212313 0 -0.024651263627081199 0.00012770643429353733 0 -0.02467379572214571 0.00018053016044014054 0 -0.024662022609275719 0.00011479141903220032 0 -0.024571612260411293 5.5532684654301334e-05 0 -0.024493697948109468 0.00017808886030687573 0 -0.024662022609275719 0.00011479141903220032 0 -0.024758735823329436 4.5770423559644176e-05 0 -0.024571612260411293 5.5532684654301334e-05 0 -0.024662022609275719 0.00011479141903220032 0 -0.024758735823329436 4.5770423559644176e-05 0 -0.024892744086225039 1.63565456801066e-05 0 -0.024905726014292275 6.9160366605602953e-05 0 -0.024662022609275719 0.00011479141903220032 0 -0.024892744086225039 1.63565456801066e-05 0 -0.024892744086225039 1.63565456801066e-05 0 -0.024999879407245677 -1.9661836397053062e-08 0 -0.024903186310944299 7.4183488239230977e-06 0 -0.024999879407245677 -1.9661836397053062e-08 0 -0.024903186310944299 7.4183488239230977e-06 0 -0.024999827655297908 1.5253677395146649e-08 0 -0.024758735823329436 4.5770423559644176e-05 0 -0.024903186310944299 7.4183488239230977e-06 0 -0.02485446073436608 2.1735800714145746e-05 0 -0.024758735823329436 4.5770423559644176e-05 0 -0.024892744086225039 1.63565456801066e-05 0 -0.024903186310944299 7.4183488239230977e-06 0 -0.02485446073436608 2.1735800714145746e-05 0 -0.024999827655297908 1.5253677395146649e-08 0 -0.024905248971966682 5.7520011075699245e-06 0 -0.024903186310944299 7.4183488239230977e-06 0 -0.02485446073436608 2.1735800714145746e-05 0 -0.024999827655297908 1.5253677395146649e-08 0 -0.024999852084785355 -1.3575617847897092e-09 0 -0.024999827655297908 1.5253677395146649e-08 0 -0.024905248971966682 5.7520011075699245e-06 0 -0.02485446073436608 2.1735800714145746e-05 0 -0.024905248971966682 5.7520011075699245e-06 0 -0.024828951393470553 2.4245171701285997e-05 0 -0.02484494023816166 -3.9441674001354844e-06 0 -0.024905248971966682 5.7520011075699245e-06 0 -0.024828951393470553 2.4245171701285997e-05 0 -0.02485446073436608 2.1735800714145746e-05 0 -0.024828951393470553 2.4245171701285997e-05 0 -0.024738291463148931 5.0460445166509302e-05 0 -0.024828951393470553 2.4245171701285997e-05 0 -0.024738291463148931 5.0460445166509302e-05 0 -0.02479802205419783 2.1489388022417552e-05 0 -0.024758735823329436 4.5770423559644176e-05 0 -0.024738291463148931 5.0460445166509302e-05 0 -0.024571612260411293 5.5532684654301334e-05 0 -0.024758735823329436 4.5770423559644176e-05 0 -0.02485446073436608 2.1735800714145746e-05 0 -0.024738291463148931 5.0460445166509302e-05 0 -0.024738291463148931 5.0460445166509302e-05 0 -0.024571612260411293 5.5532684654301334e-05 0 -0.024721622871579522 -2.0633325811534668e-07 0 -0.02479291650170673 -2.5177201575040879e-05 0 -0.024721622871579522 -2.0633325811534668e-07 0 -0.02479802205419783 2.1489388022417552e-05 0 -0.024738291463148931 5.0460445166509302e-05 0 -0.024721622871579522 -2.0633325811534668e-07 0 -0.02479802205419783 2.1489388022417552e-05 0 -0.02479291650170673 -2.5177201575040879e-05 0 -0.024806557440081596 -0.00010430835683922774 0 -0.024694695343689888 -9.7567969958304345e-05 0 -0.02479291650170673 -2.5177201575040879e-05 0 -0.024721622871579522 -2.0633325811534668e-07 0 -0.024694695343689888 -9.7567969958304345e-05 0 -0.024571612260411293 5.5532684654301334e-05 0 -0.02417791762260697 0.0002590412390922576 0 -0.024493697948109468 0.00017808886030687573 0 -0.024571612260411293 5.5532684654301334e-05 0 -0.024721622871579522 -2.0633325811534668e-07 0 -0.024694695343689888 -9.7567969958304345e-05 0 -0.02417791762260697 0.0002590412390922576 0 -0.024284547113980322 0.0003089385312154175 0 -0.024493697948109468 0.00017808886030687573 0 -0.024518379677385016 9.0554279489980232e-05 0 -0.024494062583504082 3.3391022992104801e-05 0 -0.02417791762260697 0.0002590412390922576 0 -0.024284547113980322 0.0003089385312154175 0 -0.024128369722011354 0.00042371373602174115 0 -0.024284547113980322 0.0003089385312154175 0 -0.024128369722011354 0.00042371373602174115 0 -0.02419977106853222 0.00041399859574509264 0 -0.024806557440081596 -0.00010430835683922774 0 -0.024694695343689888 -9.7567969958304345e-05 0 -0.024736138707354586 -0.00017227251007010999 0 -0.02417791762260697 0.0002590412390922576 0 -0.024047058587793664 0.00041265637260339314 0 -0.024128369722011354 0.00042371373602174115 0 -0.024494062583504082 3.3391022992104801e-05 0 -0.024009053479383452 0.00032605845059669939 0 -0.024160670692783135 0.00062451256953826597 0 -0.024130933441748766 0.00044076821211062715 0 -0.024018081592177536 0.00049642303641354174 0 -0.024009053479383452 0.00032605845059669939 0 -0.024079436784374519 0.00056815670604352714 0 -0.024263580676538696 0.00043122954278869066 0 -0.024130933441748766 0.00044076821211062715 0 -0.024157326455738561 0.00019785224802778724 0 -0.024263580676538696 0.00043122954278869066 0 -0.024160670692783135 0.00062451256953826597 0 -0.024130933441748766 0.00044076821211062715 0 -0.023928204446950933 0.00045635891335728306 0 -0.023981352523327001 0.00037397753626092857 0 -0.024018081592177536 0.00049642303641354174 0 -0.023928204446950933 0.00045635891335728306 0 -0.023981352523327001 0.00037397753626092857 0 -0.023814104553482342 0.00033306104604641007 0 -0.024130933441748766 0.00044076821211062715 0 -0.023981352523327001 0.00037397753626092857 0 -0.024018081592177536 0.00049642303641354174 0 -0.023928204446950933 0.00045635891335728306 0 -0.024018081592177536 0.00049642303641354174 0 -0.02401327366156859 0.00055922134279785026 0 -0.024018081592177536 0.00049642303641354174 0 -0.024128369722011354 0.00042371373602174115 0 -0.02401327366156859 0.00055922134279785026 0 -0.024047058587793664 0.00041265637260339314 0 -0.024018081592177536 0.00049642303641354174 0 -0.024128369722011354 0.00042371373602174115 0 -0.024128369722011354 0.00042371373602174115 0 -0.02419977106853222 0.00041399859574509264 0 -0.02401327366156859 0.00055922134279785026 0 -0.02401327366156859 0.00055922134279785026 0 -0.024428274174604036 0.00057216485165429733 0 -0.024358051856529849 0.00041233050022947934 0 -0.02419977106853222 0.00041399859574509264 0 -0.02401327366156859 0.00055922134279785026 0 -0.024358051856529849 0.00041233050022947934 0 -0.023983466460988773 0.00056333520811095044 0 -0.023846957436999747 0.00054036622450963703 0 -0.023928204446950933 0.00045635891335728306 0 -0.02401327366156859 0.00055922134279785026 0 -0.023694551848111388 0.00038821146597518803 0 -0.02401327366156859 0.00055922134279785026 0 -0.023694551848111388 0.00038821146597518803 0 -0.023256796205688272 0.00054130272085669878 0 -0.023928204446950933 0.00045635891335728306 0 -0.023694551848111388 0.00038821146597518803 0 -0.023814104553482342 0.00033306104604641007 0 -0.023694551848111388 0.00038821146597518803 0 -0.023256796205688272 0.00054130272085669878 0 -0.023381131138180553 0.0002463856098899845 0 -0.023256796205688272 0.00054130272085669878 0 -0.023088687492632574 0.0002859574519794262 0 -0.023381131138180553 0.0002463856098899845 0 -0.024428274174604036 0.00057216485165429733 0 -0.024358051856529849 0.00041233050022947934 0 -0.024499951903827547 0.0004353604774227343 0 -0.024358051856529849 0.00041233050022947934 0 -0.024402180124011966 0.00029334630473426706 0 -0.024497861535929297 0.0002988060565633466 0 -0.024358051856529849 0.00041233050022947934 0 -0.024497861535929297 0.0002988060565633466 0 -0.024499951903827547 0.0004353604774227343 0 -0.024402180124011966 0.00029334630473426706 0 -0.024517897129348459 0.00020716813303524667 0 -0.024497861535929297 0.0002988060565633466 0 -0.02419977106853222 0.00041399859574509264 0 -0.024358051856529849 0.00041233050022947934 0 -0.024402180124011966 0.00029334630473426706 0 -0.024284547113980322 0.0003089385312154175 0 -0.02419977106853222 0.00041399859574509264 0 -0.024402180124011966 0.00029334630473426706 0 -0.024662022609275719 0.00011479141903220032 0 -0.024493697948109468 0.00017808886030687573 0 -0.024517897129348459 0.00020716813303524667 0 -0.024402180124011966 0.00029334630473426706 0 -0.024493697948109468 0.00017808886030687573 0 -0.024517897129348459 0.00020716813303524667 0 -0.024284547113980322 0.0003089385312154175 0 -0.024402180124011966 0.00029334630473426706 0 -0.024493697948109468 0.00017808886030687573 0 -0.024517897129348459 0.00020716813303524667 0 -0.02451924609554243 0.00021795761301616706 0 -0.024497861535929297 0.0002988060565633466 0 -0.024662022609275719 0.00011479141903220032 0 -0.024517897129348459 0.00020716813303524667 0 -0.02451924609554243 0.00021795761301616706 0 -0.024947188276873498 0.00010324688311372481 0 -0.024851260809818025 0.00016868299520212313 0 -0.024934755215905397 0.00016578270569344515 0 -0.02451924609554243 0.00021795761301616706 0 -0.024564512327933573 0.00028051532035306234 0 -0.024497861535929297 0.0002988060565633466 0 -0.02467379572214571 0.00018053016044014054 0 -0.024792126169412086 0.00021523532571572016 0 -0.024792126169412086 0.00021523532571572016 0 -0.024494652028974426 0.00053437224982734856 0 -0.024947188276873498 0.00010324688311372481 0 -0.024934755215905397 0.00016578270569344515 0 -0.024976729741001593 0.00013239331746691367 0 -0.024557654747128278 0.00035966524873761661 0 -0.024589878402929023 0.00044737807901731451 0 -0.024655462329514287 0.00033692000580881745 0 -0.024564512327933573 0.00028051532035306234 0 -0.024557654747128278 0.00035966524873761661 0 -0.024655462329514287 0.00033692000580881745 0 -0.024557654747128278 0.00035966524873761661 0 -0.024497861535929297 0.0002988060565633466 0 -0.024499951903827547 0.0004353604774227343 0 -0.024564512327933573 0.00028051532035306234 0 -0.024557654747128278 0.00035966524873761661 0 -0.024497861535929297 0.0002988060565633466 0 -0.024428274174604036 0.00057216485165429733 0 -0.024499951903827547 0.0004353604774227343 0 -0.024501408719527339 0.00051675189383342261 0 -0.023846957436999747 0.00054036622450963703 0 -0.023727352105322039 0.00042789592405314918 0 -0.023256796205688272 0.00054130272085669878 0 -0.022939110535841054 0.00036325349537676962 0 -0.023088687492632574 0.0002859574519794262 0 -0.024428274174604036 0.00057216485165429733 0 -0.024501408719527339 0.00051675189383342261 0 -0.024544274004912419 0.00048412840921111037 0 -0.024544274004912419 0.00048412840921111037 0 -0.024399988506089116 0.00055971450457326262 0 -0.023632500472734949 0.0002554087335784496 0 -0.023727352105322039 0.00042789592405314918 0 -0.023200717316669697 0.00027397276229223621 0 -0.024501408719527339 0.00051675189383342261 0 -0.024544274004912419 0.00048412840921111037 0 -0.024399988506089116 0.00055971450457326262 0 -0.024501408719527339 0.00051675189383342261 0 -0.024399988506089116 0.00055971450457326262 0 -0.024589878402929023 0.00044737807901731451 0 -0.024557654747128278 0.00035966524873761661 0 -0.024499951903827547 0.0004353604774227343 0 -0.024589878402929023 0.00044737807901731451 0 -0.024499951903827547 0.0004353604774227343 0 -0.024501408719527339 0.00051675189383342261 0 -0.024589878402929023 0.00044737807901731451 0 -0.024399988506089116 0.00055971450457326262 0 -0.02399130728733493 0.0013206241865451967 0 -0.023824553530416744 0.00078140313094534654 0 -0.024426411461772948 0.00053791610478531903 0 -0.024223989664965338 0.00099810993709302347 0 -0.02399130728733493 0.0013206241865451967 0 -0.023412985414427913 0.001223184990925298 0 -0.023650258014051313 0.0015582489114814547 0 -0.02399130728733493 0.0013206241865451967 0 -0.023412985414427913 0.001223184990925298 0 -0.023824553530416744 0.00078140313094534654 0 -0.023412985414427913 0.001223184990925298 0 -0.023824553530416744 0.00078140313094534654 0 -0.023035410578257906 0.00057514472805818262 0 -0.023632500472734949 0.0002554087335784496 0 -0.023824553530416744 0.00078140313094534654 0 -0.023035410578257906 0.00057514472805818262 0 -0.024399988506089116 0.00055971450457326262 0 -0.023632500472734949 0.0002554087335784496 0 -0.023824553530416744 0.00078140313094534654 0 -0.023632500472734949 0.0002554087335784496 0 -0.023035410578257906 0.00057514472805818262 0 -0.022628189928501581 0.00021762871317610851 0 -0.022790319705128528 0.0010284437323887295 0 -0.023507805104775702 0.0017692186174643677 0 -0.023412985414427913 0.001223184990925298 0 -0.023035410578257906 0.00057514472805818262 0 -0.022825706180253442 0.0010739795620970309 0 -0.023412985414427913 0.001223184990925298 0 -0.022825706180253442 0.0010739795620970309 0 -0.023531922617619331 0.001801983569706789 0 -0.022848578744899223 0.0010302618732963076 0 -0.022749613372078224 0.0015982165902872852 0 -0.023531922617619331 0.001801983569706789 0 -0.022749613372078224 0.0015982165902872852 0 -0.023634060736023272 0.0020079028799282308 0 -0.023531922617619331 0.001801983569706789 0 -0.023773341164243837 0.00066793303926762854 0 -0.024494652028974426 0.00053437224982734856 0 -0.024943068448398241 -0.0002920238496623815 0 -0.025136526057196146 -0.00013929919877667335 0 -0.02499858122842737 -0.00010344666133738909 0 -0.023412985414427913 0.001223184990925298 0 -0.023650258014051313 0.0015582489114814547 0 -0.023531922617619331 0.001801983569706789 0 -0.023650258014051313 0.0015582489114814547 0 -0.023634060736023272 0.0020079028799282308 0 -0.023531922617619331 0.001801983569706789 0 -0.02399130728733493 0.0013206241865451967 0 -0.023650258014051313 0.0015582489114814547 0 -0.023634060736023272 0.0020079028799282308 0 -0.024223989664965338 0.00099810993709302347 0 -0.024494652028974426 0.00053437224982734856 0 -0.025097614816860212 -6.1567685168819063e-05 0 -0.024494652028974426 0.00053437224982734856 0 -0.024934755215905397 0.00016578270569344515 0 -0.024989742164694444 0.00018097649654218029 0 -0.024976729741001593 0.00013239331746691367 0 -0.025014642767957767 0.00011244694237772374 0 -0.024989742164694444 0.00018097649654218029 0 -0.024976729741001593 0.00013239331746691367 0 -0.025016394212453438 1.4465423604845079e-05 0 -0.025136526057196146 -0.00013929919877667335 0 -0.02499858122842737 -0.00010344666133738909 0 -0.025016394212453438 1.4465423604845079e-05 0 -0.02499858122842737 -0.00010344666133738909 0 -0.024853452559582524 2.1187143122606638e-06 0 -0.021212577015134969 -0.00064364354396228933 0 -0.021340979031318454 -0.0008903894674167506 0 -0.021034930165032873 -0.0008561203552445865 0 -0.021212577015134969 -0.00064364354396228933 0 -0.02150436873153205 -0.00071115838776283208 0 -0.021340979031318454 -0.0008903894674167506 0 -0.021212577015134969 -0.00064364354396228933 0 -0.02150436873153205 -0.00071115838776283208 0 -0.021520599427933981 -0.00044434005756429219 0 -0.02150436873153205 -0.00071115838776283208 0 -0.021728973170683605 -0.00078819188378627413 0 -0.021506230910976993 -0.00091646970550908534 0 -0.02150436873153205 -0.00071115838776283208 0 -0.021856057186353223 -0.00050898943874242136 0 -0.021728973170683605 -0.00078819188378627413 0 -0.02150436873153205 -0.00071115838776283208 0 -0.021520599427933981 -0.00044434005756429219 0 -0.021856057186353223 -0.00050898943874242136 0 -0.021520599427933981 -0.00044434005756429219 0 -0.021237198542257262 -0.0002694829702474028 0 -0.021913798839049346 2.1315884045606947e-05 0 -0.021520599427933981 -0.00044434005756429219 0 -0.021913798839049346 2.1315884045606947e-05 0 -0.021856057186353223 -0.00050898943874242136 0 -0.021212577015134969 -0.00064364354396228933 0 -0.021520599427933981 -0.00044434005756429219 0 -0.021237198542257262 -0.0002694829702474028 0 -0.022640806651054963 -0.00011844465502451986 0 -0.022712849245729444 0.00010871272618875779 0 -0.022553644707370622 4.6124271193687997e-05 0 -0.022773663293593715 0.0002628102896480133 0 -0.022712849245729444 0.00010871272618875779 0 -0.022628189928501581 0.00021762871317610851 0 -0.022712849245729444 0.00010871272618875779 0 -0.022553644707370622 4.6124271193687997e-05 0 -0.022628189928501581 0.00021762871317610851 0 -0.023200717316669697 0.00027397276229223621 0 -0.022682562098472862 0.00020811352647830627 0 -0.022773663293593715 0.0002628102896480133 0 -0.022712849245729444 0.00010871272618875779 0 -0.022888218575375662 5.6168130422168225e-05 0 -0.022424172497696016 -0.000226094614631217 0 -0.022297023776563372 1.9252455841886839e-05 0 -0.022640806651054963 -0.00011844465502451986 0 -0.022712849245729444 0.00010871272618875779 0 -0.022888218575375662 5.6168130422168225e-05 0 -0.022939110535841054 0.00036325349537676962 0 -0.022773663293593715 0.0002628102896480133 0 -0.022946780491913975 0.00020109024552843787 0 -0.022773663293593715 0.0002628102896480133 0 -0.022888218575375662 5.6168130422168225e-05 0 -0.022946780491913975 0.00020109024552843787 0 -0.022946780491913975 0.00020109024552843787 0 -0.023088687492632574 0.0002859574519794262 0 -0.023064278583096832 0.00014350754533075391 0 -0.022939110535841054 0.00036325349537676962 0 -0.022946780491913975 0.00020109024552843787 0 -0.023088687492632574 0.0002859574519794262 0 -0.021913798839049346 2.1315884045606947e-05 0 -0.022405512155943691 -0.00036502215717432944 0 -0.023064278583096832 0.00014350754533075391 0 -0.022405512155943691 -0.00036502215717432944 0 -0.023103112575792426 -0.00034218445146299398 0 -0.023064278583096832 0.00014350754533075391 0 -0.022297023776563372 1.9252455841886839e-05 0 -0.023067685518534206 0.0001527066801741853 0 -0.022888218575375662 5.6168130422168225e-05 0 -0.022946780491913975 0.00020109024552843787 0 -0.023064278583096832 0.00014350754533075391 0 -0.022933288427583756 -0.00029050218500816064 0 -0.023223209084900553 -0.00015399217014821533 0 -0.022405512155943691 -0.00036502215717432944 0 -0.022450368361209325 -0.00075731741410786169 0 -0.023103112575792426 -0.00034218445146299398 0 -0.021913798839049346 2.1315884045606947e-05 0 -0.022405512155943691 -0.00036502215717432944 0 -0.021856057186353223 -0.00050898943874242136 0 -0.022405512155943691 -0.00036502215717432944 0 -0.021856057186353223 -0.00050898943874242136 0 -0.022049868793260322 -0.00067302963496779287 0 -0.022933288427583756 -0.00029050218500816064 0 -0.021739609218913204 -0.00099066224961674243 0 -0.022450368361209325 -0.00075731741410786169 0 -0.021814963356915795 -0.0010125926664874135 0 -0.021845779022113342 -0.00088579210716975294 0 -0.022049868793260322 -0.00067302963496779287 0 -0.022450368361209325 -0.00075731741410786169 0 -0.021845779022113342 -0.00088579210716975294 0 -0.021856057186353223 -0.00050898943874242136 0 -0.022049868793260322 -0.00067302963496779287 0 -0.021728973170683605 -0.00078819188378627413 0 -0.022049868793260322 -0.00067302963496779287 0 -0.021728973170683605 -0.00078819188378627413 0 -0.021845779022113342 -0.00088579210716975294 0 -0.021728973170683605 -0.00078819188378627413 0 -0.021703160275086002 -0.00089887744688300496 0 -0.021845779022113342 -0.00088579210716975294 0 -0.023176938010362864 -3.046657328433613e-05 0 -0.023335994931690803 -0.00014362970250707157 0 -0.022934613081356661 -0.00028084058072848762 0 -0.022405512155943691 -0.00036502215717432944 0 -0.022049868793260322 -0.00067302963496779287 0 -0.022450368361209325 -0.00075731741410786169 0 -0.023416198420845399 2.5210173495337822e-06 0 -0.023332931557559687 -1.7639969773955555e-05 0 -0.023335994931690803 -0.00014362970250707157 0 -0.023176938010362864 -3.046657328433613e-05 0 -0.023332931557559687 -1.7639969773955555e-05 0 -0.023335994931690803 -0.00014362970250707157 0 -0.02167062317400173 -0.001221399714552015 0 -0.02128248658271532 -0.0010211908787553161 0 -0.023416198420845399 2.5210173495337822e-06 0 -0.023491097619700918 5.0577159055568867e-05 0 -0.02348042879194278 2.7041190752662951e-05 0 -0.023416198420845399 2.5210173495337822e-06 0 -0.02348042879194278 2.7041190752662951e-05 0 -0.023335994931690803 -0.00014362970250707157 0 -0.023176938010362864 -3.046657328433613e-05 0 -0.023332931557559687 -1.7639969773955555e-05 0 -0.023394010719326321 7.3077884082960518e-05 0 -0.023416198420845399 2.5210173495337822e-06 0 -0.023491097619700918 5.0577159055568867e-05 0 -0.023394010719326321 7.3077884082960518e-05 0 -0.023416198420845399 2.5210173495337822e-06 0 -0.023332931557559687 -1.7639969773955555e-05 0 -0.023394010719326321 7.3077884082960518e-05 0 -0.023103112575792426 -0.00034218445146299398 0 -0.023320306967919986 0.00010800463544318031 0 -0.023546045942795496 4.9105947719687414e-05 0 -0.023103112575792426 -0.00034218445146299398 0 -0.023320306967919986 0.00010800463544318031 0 -0.023064278583096832 0.00014350754533075391 0 -0.023223209084900553 -0.00015399217014821533 0 -0.02351996257750243 5.1395304110190567e-05 0 -0.023088687492632574 0.0002859574519794262 0 -0.023064278583096832 0.00014350754533075391 0 -0.023381131138180553 0.0002463856098899845 0 -0.023320306967919986 0.00010800463544318031 0 -0.023381131138180553 0.0002463856098899845 0 -0.023512891211807573 0.00014035736379673416 0 -0.023320306967919986 0.00010800463544318031 0 -0.023064278583096832 0.00014350754533075391 0 -0.023381131138180553 0.0002463856098899845 0 -0.023694551848111388 0.00038821146597518803 0 -0.023814104553482342 0.00033306104604641007 0 -0.023636499960765653 0.00023475414300395419 0 -0.023814104553482342 0.00033306104604641007 0 -0.023636499960765653 0.00023475414300395419 0 -0.023846724381544303 0.00024322463543238567 0 -0.023694551848111388 0.00038821146597518803 0 -0.023381131138180553 0.0002463856098899845 0 -0.023636499960765653 0.00023475414300395419 0 -0.023381131138180553 0.0002463856098899845 0 -0.023636499960765653 0.00023475414300395419 0 -0.023512891211807573 0.00014035736379673416 0 -0.023636499960765653 0.00023475414300395419 0 -0.023512891211807573 0.00014035736379673416 0 -0.023646242852486975 7.327351282271939e-05 0 -0.023636499960765653 0.00023475414300395419 0 -0.023646242852486975 7.327351282271939e-05 0 -0.023846724381544303 0.00024322463543238567 0 -0.023512891211807573 0.00014035736379673416 0 -0.023646242852486975 7.327351282271939e-05 0 -0.023546045942795496 4.9105947719687414e-05 0 -0.023491097619700918 5.0577159055568867e-05 0 -0.023546045942795496 4.9105947719687414e-05 0 -0.023540134790919136 4.9141555895340213e-05 0 -0.023491097619700918 5.0577159055568867e-05 0 -0.023394010719326321 7.3077884082960518e-05 0 -0.023546045942795496 4.9105947719687414e-05 0 -0.023646242852486975 7.327351282271939e-05 0 -0.023546045942795496 4.9105947719687414e-05 0 -0.023540134790919136 4.9141555895340213e-05 0 -0.023320306967919986 0.00010800463544318031 0 -0.023512891211807573 0.00014035736379673416 0 -0.023546045942795496 4.9105947719687414e-05 0 -0.023646242852486975 7.327351282271939e-05 0 -0.02348815472224838 3.3260955309253825e-05 0 -0.023390109873084167 -6.9109364199892919e-05 0 -0.023540134790919136 4.9141555895340213e-05 0 -0.02348815472224838 3.3260955309253825e-05 0 -0.023471610493495807 6.1534577750920873e-05 0 -0.023646242852486975 7.327351282271939e-05 0 -0.023540134790919136 4.9141555895340213e-05 0 -0.02348815472224838 3.3260955309253825e-05 0 -0.023981352523327001 0.00037397753626092857 0 -0.023846724381544303 0.00024322463543238567 0 -0.024157326455738561 0.00019785224802778724 0 -0.023646242852486975 7.327351282271939e-05 0 -0.023846724381544303 0.00024322463543238567 0 -0.024157326455738561 0.00019785224802778724 0 -0.023291177431976198 9.952649844382206e-05 0 -0.024582642165696198 -5.7748782529481728e-05 0 -0.023981352523327001 0.00037397753626092857 0 -0.023814104553482342 0.00033306104604641007 0 -0.023846724381544303 0.00024322463543238567 0 -0.024130933441748766 0.00044076821211062715 0 -0.023981352523327001 0.00037397753626092857 0 -0.024157326455738561 0.00019785224802778724 0 -0.023390109873084167 -6.9109364199892919e-05 0 -0.02338715967230301 6.100764978745644e-05 0 -0.023250452064981275 6.4412762079670493e-05 0 -0.02348815472224838 3.3260955309253825e-05 0 -0.023390109873084167 -6.9109364199892919e-05 0 -0.02338715967230301 6.100764978745644e-05 0 -0.02338715967230301 6.100764978745644e-05 0 -0.023353395238041922 0.00012374924556150305 0 -0.023250452064981275 6.4412762079670493e-05 0 -0.02338715967230301 6.100764978745644e-05 0 -0.023471610493495807 6.1534577750920873e-05 0 -0.023353395238041922 0.00012374924556150305 0 -0.023491097619700918 5.0577159055568867e-05 0 -0.023471610493495807 6.1534577750920873e-05 0 -0.02348042879194278 2.7041190752662951e-05 0 -0.023491097619700918 5.0577159055568867e-05 0 -0.023540134790919136 4.9141555895340213e-05 0 -0.023471610493495807 6.1534577750920873e-05 0 -0.02348815472224838 3.3260955309253825e-05 0 -0.02338715967230301 6.100764978745644e-05 0 -0.023471610493495807 6.1534577750920873e-05 0 -0.018506506862133863 -0.0021218497742103927 0 -0.017537468173413086 -0.0022987763785852207 0 -0.017938246339226544 -0.0016881168401504398 0 -0.02167062317400173 -0.001221399714552015 0 -0.017210828243557571 0.00062304186770977563 0 -0.023471610493495807 6.1534577750920873e-05 0 -0.02348042879194278 2.7041190752662951e-05 0 -0.023353395238041922 0.00012374924556150305 0 -0.017210828243557571 0.00062304186770977563 0 -0.013538901718494586 -0.00078826415494890494 0 -0.01030265506878747 0.0017903023553294667 0 -0.010002098046644557 0.00073793088893523622 0 -0.010638434599618296 0.0010545392091355799 0 -0.010002098046644557 0.00073793088893523622 0 -0.010376778025554888 0.00070179415858584481 0 -0.010069348932338745 0.000482734391120896 0 -0.010002098046644557 0.00073793088893523622 0 -0.010376778025554888 0.00070179415858584481 0 -0.010638434599618296 0.0010545392091355799 0 -0.013538901718494586 -0.00078826415494890494 0 -0.014366600034977087 -0.00019879524246972259 0 -0.017938246339226544 -0.0016881168401504398 0 -0.018335678196579962 -0.0010371852171831761 0 -0.018577947951692507 -0.0015658080772677249 0 -0.018506506862133863 -0.0021218497742103927 0 -0.017938246339226544 -0.0016881168401504398 0 -0.018577947951692507 -0.0015658080772677249 0 -0.0099861246024074701 0.00048901365963954823 0 -0.010069348932338745 0.000482734391120896 0 -0.010011972099630055 0.00044438142285098436 0 -0.010002098046644557 0.00073793088893523622 0 -0.0099861246024074701 0.00048901365963954823 0 -0.010069348932338745 0.000482734391120896 0 -0.010376778025554888 0.00070179415858584481 0 -0.010069348932338745 0.000482734391120896 0 -0.010452183408030537 0.00049474094457175059 0 -0.010069348932338745 0.000482734391120896 0 -0.009820612983591076 0.0004907956533739084 0 -0.010452183408030537 0.00049474094457175059 0 -0.010069348932338745 0.000482734391120896 0 -0.009820612983591076 0.0004907956533739084 0 -0.010011972099630055 0.00044438142285098436 0 -0.009820612983591076 0.0004907956533739084 0 -0.0098251473226882227 0.00066678919002450014 0 -0.010011972099630055 0.00044438142285098436 0 -0.009820612983591076 0.0004907956533739084 0 -0.0098251473226882227 0.00066678919002450014 0 -0.00955449091982985 0.00066165345014703239 0 -0.0098251473226882227 0.00066678919002450014 0 -0.00955449091982985 0.00066165345014703239 0 -0.0094900491301903676 0.00080461656071939666 0 -0.010071630973417841 0.000653738826738965 0 -0.010011972099630055 0.00044438142285098436 0 -0.010291122935232556 0.00043660553589861917 0 -0.0098251473226882227 0.00066678919002450014 0 -0.010071630973417841 0.000653738826738965 0 -0.010011972099630055 0.00044438142285098436 0 -0.0092289245995557101 0.00027627980070266085 0 -0.012835599737599955 0.00063433131872201744 0 -0.0099861246024074701 0.00048901365963954823 0 -0.010011972099630055 0.00044438142285098436 0 -0.010020875538006789 0.00044578465502501574 0 -0.018744433276260759 -0.00035996200092486237 0 -0.019376392152305515 -0.00070974973870049929 0 -0.019084330755943735 -0.0012158284036776087 0 -0.014366600034977087 -0.00019879524246972259 0 -0.012835599737599955 0.00063433131872201744 0 -0.010071630973417841 0.000653738826738965 0 -0.010291122935232556 0.00043660553589861917 0 -0.010271228987459991 0.00078035483237671457 0 -0.012835599737599955 0.00063433131872201744 0 -0.010695114241033293 0.00085628838716854568 0 -0.010291122935232556 0.00043660553589861917 0 -0.010271228987459991 0.00078035483237671457 0 -0.010584079243776485 0.00074821970382341714 0 -0.011245465640067212 0.00088781752471744457 0 -0.011524726080088345 0.0009274719516580871 0 -0.01136849764161941 0.0011515516522773363 0 -0.018744433276260759 -0.00035996200092486237 0 -0.019376392152305515 -0.00070974973870049929 0 -0.019706074188678018 -0.00021849640403280159 0 -0.012835599737599955 0.00063433131872201744 0 -0.01601342646874648 0.00034293087117046961 0 -0.019376392152305515 -0.00070974973870049929 0 -0.019084330755943735 -0.0012158284036776087 0 -0.019853510533248169 -0.0010902852258917045 0 -0.019084330755943735 -0.0012158284036776087 0 -0.019714702749626695 -0.0015182094545930509 0 -0.019853510533248169 -0.0010902852258917045 0 -0.018335678196579962 -0.0010371852171831761 0 -0.019084330755943735 -0.0012158284036776087 0 -0.018577947951692507 -0.0015658080772677249 0 -0.018335678196579962 -0.0010371852171831761 0 -0.018744433276260759 -0.00035996200092486237 0 -0.019084330755943735 -0.0012158284036776087 0 -0.019084330755943735 -0.0012158284036776087 0 -0.018577947951692507 -0.0015658080772677249 0 -0.019077604524183042 -0.0016723123232652278 0 -0.018506506862133863 -0.0021218497742103927 0 -0.019077604524183042 -0.0016723123232652278 0 -0.019519889104273207 -0.0019267636327485495 0 -0.018506506862133863 -0.0021218497742103927 0 -0.018577947951692507 -0.0015658080772677249 0 -0.019077604524183042 -0.0016723123232652278 0 -0.019077604524183042 -0.0016723123232652278 0 -0.019519889104273207 -0.0019267636327485495 0 -0.019714702749626695 -0.0015182094545930509 0 -0.019084330755943735 -0.0012158284036776087 0 -0.019077604524183042 -0.0016723123232652278 0 -0.019714702749626695 -0.0015182094545930509 0 -0.02128248658271532 -0.0010211908787553161 0 -0.021739609218913204 -0.00099066224961674243 0 -0.019519889104273207 -0.0019267636327485495 0 -0.020101912193854262 -0.0015614246933726356 0 -0.020558968480919152 -0.0017028543651118864 0 -0.020101912193854262 -0.0015614246933726356 0 -0.019714702749626695 -0.0015182094545930509 0 -0.020181089875519958 -0.0013144282380839728 0 -0.019519889104273207 -0.0019267636327485495 0 -0.020101912193854262 -0.0015614246933726356 0 -0.019714702749626695 -0.0015182094545930509 0 -0.021739609218913204 -0.00099066224961674243 0 -0.021010833053049058 -0.001224709016696699 0 -0.021799600883142329 -0.001012742066021851 0 -0.021737181432663254 -0.0010003470724910635 0 -0.021147390399243373 -0.0010283671239256548 0 -0.020558968480919152 -0.0017028543651118864 0 -0.020543431898732759 -0.0013273537696663236 0 -0.021147390399243373 -0.0010283671239256548 0 -0.021703160275086002 -0.00089887744688300496 0 -0.021737181432663254 -0.0010003470724910635 0 -0.021506230910976993 -0.00091646970550908534 0 -0.021728973170683605 -0.00078819188378627413 0 -0.021703160275086002 -0.00089887744688300496 0 -0.021506230910976993 -0.00091646970550908534 0 -0.021703160275086002 -0.00089887744688300496 0 -0.021845779022113342 -0.00088579210716975294 0 -0.021737181432663254 -0.0010003470724910635 0 -0.021814963356915795 -0.0010125926664874135 0 -0.021845779022113342 -0.00088579210716975294 0 -0.021737181432663254 -0.0010003470724910635 0 -0.021739609218913204 -0.00099066224961674243 0 -0.021742418578574143 -0.00099070498159944845 0 -0.020101912193854262 -0.0015614246933726356 0 -0.020558968480919152 -0.0017028543651118864 0 -0.020543431898732759 -0.0013273537696663236 0 -0.020101912193854262 -0.0015614246933726356 0 -0.020543431898732759 -0.0013273537696663236 0 -0.020181089875519958 -0.0013144282380839728 0 -0.020543431898732759 -0.0013273537696663236 0 -0.020500111272757263 -0.0010086213457353754 0 -0.021147390399243373 -0.0010283671239256548 0 -0.020543431898732759 -0.0013273537696663236 0 -0.020500111272757263 -0.0010086213457353754 0 -0.020181089875519958 -0.0013144282380839728 0 -0.020500111272757263 -0.0010086213457353754 0 -0.019853510533248169 -0.0010902852258917045 0 -0.020221249886874001 -0.00061620861990722541 0 -0.020500111272757263 -0.0010086213457353754 0 -0.020181089875519958 -0.0013144282380839728 0 -0.019853510533248169 -0.0010902852258917045 0 -0.019714702749626695 -0.0015182094545930509 0 -0.020181089875519958 -0.0013144282380839728 0 -0.019853510533248169 -0.0010902852258917045 0 -0.020221249886874001 -0.00061620861990722541 0 -0.019706074188678018 -0.00021849640403280159 0 -0.020610032237394989 -0.00018466585356324421 0 -0.019376392152305515 -0.00070974973870049929 0 -0.020221249886874001 -0.00061620861990722541 0 -0.019706074188678018 -0.00021849640403280159 0 -0.019376392152305515 -0.00070974973870049929 0 -0.019853510533248169 -0.0010902852258917045 0 -0.020221249886874001 -0.00061620861990722541 0 -0.011524726080088345 0.0009274719516580871 0 -0.01198186485220306 0.00090911396353408848 0 -0.011699302961511435 0.001207170627137755 0 -0.011524726080088345 0.0009274719516580871 0 -0.01136849764161941 0.0011515516522773363 0 -0.011699302961511435 0.001207170627137755 0 -0.01601342646874648 0.00034293087117046961 0 -0.016504046941170736 0.00031607235724431267 0 -0.01198186485220306 0.00090911396353408848 0 -0.012177981996307543 0.0012674336030982399 0 -0.011699302961511435 0.001207170627137755 0 -0.020500111272757263 -0.0010086213457353754 0 -0.020221249886874001 -0.00061620861990722541 0 -0.021008792257268205 -0.00060149903138406963 0 -0.020221249886874001 -0.00061620861990722541 0 -0.020610032237394989 -0.00018466585356324421 0 -0.021008792257268205 -0.00060149903138406963 0 -0.020610032237394989 -0.00018466585356324421 0 -0.021008792257268205 -0.00060149903138406963 0 -0.021228487308173075 -0.00020549906415508038 0 -0.01198186485220306 0.00090911396353408848 0 -0.012711364296064303 0.00099500498355888567 0 -0.012177981996307543 0.0012674336030982399 0 -0.016504046941170736 0.00031607235724431267 0 -0.015493211372883488 0.00099123630806294098 0 -0.014963510997728096 0.0022549231847605478 0 -0.01486947650933663 0.0029153476766468011 0 -0.014373501498210456 0.0023117949694278351 0 -0.015493211372883488 0.00099123630806294098 0 -0.012666821350276167 0.0017639732243341785 0 -0.014963510997728096 0.0022549231847605478 0 -0.014020365723081908 0.0018250094134537318 0 -0.014373501498210456 0.0023117949694278351 0 -0.014963510997728096 0.0022549231847605478 0 -0.01486947650933663 0.0029153476766468011 0 -0.014901581150826654 0.0031375856226113735 0 -0.021008792257268205 -0.00060149903138406963 0 -0.021228487308173075 -0.00020549906415508038 0 -0.021339701553822889 -0.00085184643628513851 0 -0.015493211372883488 0.00099123630806294098 0 -0.018507301677263565 0.0010568678544342351 0 -0.021253862748683197 -0.00094732832277336196 0 -0.021339701553822889 -0.00085184643628513851 0 -0.021147390399243373 -0.0010283671239256548 0 -0.020500111272757263 -0.0010086213457353754 0 -0.021008792257268205 -0.00060149903138406963 0 -0.021147390399243373 -0.0010283671239256548 0 -0.021008792257268205 -0.00060149903138406963 0 -0.021339701553822889 -0.00085184643628513851 0 -0.021147390399243373 -0.0010283671239256548 0 -0.021737181432663254 -0.0010003470724910635 0 -0.021147390399243373 -0.0010283671239256548 0 -0.021506230910976993 -0.00091646970550908534 0 -0.021253862748683197 -0.00094732832277336196 0 -0.021147390399243373 -0.0010283671239256548 0 -0.021340979031318454 -0.0008903894674167506 0 -0.021147390399243373 -0.0010283671239256548 0 -0.021506230910976993 -0.00091646970550908534 0 -0.021340979031318454 -0.0008903894674167506 0 -0.02150436873153205 -0.00071115838776283208 0 -0.021506230910976993 -0.00091646970550908534 0 -0.021340979031318454 -0.0008903894674167506 0 -0.021253862748683197 -0.00094732832277336196 0 -0.021340979031318454 -0.0008903894674167506 0 -0.021034930165032873 -0.0008561203552445865 0 -0.01963135902148417 -9.1690276440866442e-07 0 -0.016503078879325894 2.5416344474519493e-06 0 -0.019626607531593551 -2.5629207564144666e-05 0 -0.019531905300699141 0.00039803791340931076 0 -0.019542302953535949 0.00060528845046711364 0 -0.018655599862367693 0.00088135393969822448 0 -0.019531905300699141 0.00039803791340931076 0 -0.018655599862367693 0.00088135393969822448 0 -0.019022130715473404 0.00022404140498981446 0 -0.019531905300699141 0.00039803791340931076 0 -0.019542302953535949 0.00060528845046711364 0 -0.019522624428621706 0.00039325218581172855 0 -0.019531905300699141 0.00039803791340931076 0 -0.019609200261336456 0.00037646693115027017 0 -0.019522624428621706 0.00039325218581172855 0 -0.019542302953535949 0.00060528845046711364 0 -0.019522624428621706 0.00039325218581172855 0 -0.019384494465539453 0.00015108949467490439 0 -0.016469943010040483 -0.00033357278024480033 0 -0.016959785001480633 1.0433653494920868e-05 0 -0.016583846261167622 0.00044330801882132715 0 -0.017977714519432791 0.00014333606662329167 0 -0.018461590039620487 -2.1897843169378393e-05 0 -0.016469943010040483 -0.00033357278024480033 0 -0.016959785001480633 1.0433653494920868e-05 0 -0.017586328657754207 -0.00025446711129092973 0 -0.017977714519432791 0.00014333606662329167 0 -0.017253525151436636 0.00030940996845707351 0 -0.016469943010040483 -0.00033357278024480033 0 -0.015786407731980218 -0.0001478692151526175 0 -0.01609578517844177 5.8337431450617855e-05 0 -0.015786407731980218 -0.0001478692151526175 0 -0.01609578517844177 5.8337431450617855e-05 0 -0.015662610763076967 -0.00010749256003730609 0 -0.016496617572058576 1.4635165938162312e-07 0 -0.015526222073989368 -4.392847466764582e-07 0 -0.015662610763076967 -0.00010749256003730609 0 -0.015786407731980218 -0.0001478692151526175 0 -0.016496617572058576 1.4635165938162312e-07 0 -0.015662610763076967 -0.00010749256003730609 0 -0.017253525151436636 0.00030940996845707351 0 -0.016498729187075831 1.7317598443764534e-07 0 -0.018655599862367693 0.00088135393969822448 0 -0.016503078879325894 2.5416344474519493e-06 0 -0.019022130715473404 0.00022404140498981446 0 -0.016503078879325894 2.5416344474519493e-06 0 -0.019022130715473404 0.00022404140498981446 0 -0.019626607531593551 -2.5629207564144666e-05 0 -0.019022130715473404 0.00022404140498981446 0 -0.019626607531593551 -2.5629207564144666e-05 0 -0.019951822129889211 0.00029006865320436802 0 -0.020382726946224193 3.6118139388226258e-05 0 -0.019626607531593551 -2.5629207564144666e-05 0 -0.019951822129889211 0.00029006865320436802 0 -0.019531905300699141 0.00039803791340931076 0 -0.019022130715473404 0.00022404140498981446 0 -0.019951822129889211 0.00029006865320436802 0 -0.019609200261336456 0.00037646693115027017 0 -0.019951822129889211 0.00029006865320436802 0 -0.019560416610529777 0.0004329065933790637 0 -0.019531905300699141 0.00039803791340931076 0 -0.019609200261336456 0.00037646693115027017 0 -0.019951822129889211 0.00029006865320436802 0 -0.019951822129889211 0.00029006865320436802 0 -0.01944300618250638 0.00058786732256807116 0 -0.019560416610529777 0.0004329065933790637 0 -0.020046775533070268 0.00021681416064980801 0 -0.01998319505443362 0.0010462263062692291 0 -0.020688431375627023 1.1137272214056504e-05 0 -0.019951822129889211 0.00029006865320436802 0 -0.020960091918997385 0.00047160097670877855 0 -0.020688431375627023 1.1137272214056504e-05 0 -0.020382726946224193 3.6118139388226258e-05 0 -0.019951822129889211 0.00029006865320436802 0 -0.021006453237425275 0.00028459156665294321 0 -0.01998319505443362 0.0010462263062692291 0 -0.021609294384385618 0.00083967039260388586 0 -0.021501504625289776 0.00083752958329005596 0 -0.021547148649306225 0.00050073308981699201 0 -0.018704173452798557 0.0016437794475405068 0 -0.01998319505443362 0.0010462263062692291 0 -0.021579226539237051 0.00043136054534053151 0 -0.021609294384385618 0.00083967039260388586 0 -0.021547148649306225 0.00050073308981699201 0 -0.022353983535392977 0.00090046450245109334 0 -0.018704173452798557 0.0016437794475405068 0 -0.021277568836511721 0.0004567867391188721 0 -0.021501504625289776 0.00083752958329005596 0 -0.021547148649306225 0.00050073308981699201 0 -0.02151492173162229 0.001197869738321601 0 -0.021700720745663177 0.0010170497365971528 0 -0.022011829818602082 0.0012013252323142827 0 -0.021486475541040613 0.00093081676499679855 0 -0.02151492173162229 0.001197869738321601 0 -0.021700720745663177 0.0010170497365971528 0 -0.018704173452798557 0.0016437794475405068 0 -0.020205150650130253 0.0011165690826957357 0 -0.018378679505429353 0.0011488621274098319 0 -0.019260446819953765 0.00037970646753356893 0 -0.014586469519874436 0.0025365028072662959 0 -0.014760377438548479 0.0026397570458525561 0 -0.014996260392791198 0.0025214054946322549 0 -0.014586469519874436 0.0025365028072662959 0 -0.014598310257785007 0.0026525850046848288 0 -0.014760377438548479 0.0026397570458525561 0 -0.014598310257785007 0.0026525850046848288 0 -0.014760377438548479 0.0026397570458525561 0 -0.014713862422568034 0.0028378228945357587 0 -0.019389909342401264 0.00048872328825192064 0 -0.01946486257995626 0.000431396659143793 0 -0.019560416610529777 0.0004329065933790637 0 -0.019389909342401264 0.00048872328825192064 0 -0.01946486257995626 0.000431396659143793 0 -0.019235056006234281 0.0004253745509449346 0 -0.019609200261336456 0.00037646693115027017 0 -0.01946486257995626 0.000431396659143793 0 -0.019560416610529777 0.0004329065933790637 0 -0.019022548287076994 0.0011509660492556061 0 -0.019044329338320922 0.0011507492138599586 0 -0.019014931043952424 0.001110335394952422 0 -0.018704173452798557 0.0016437794475405068 0 -0.018378679505429353 0.0011488621274098319 0 -0.01998319505443362 0.0010462263062692291 0 -0.018378679505429353 0.0011488621274098319 0 -0.01944300618250638 0.00058786732256807116 0 -0.019389909342401264 0.00048872328825192064 0 -0.019560416610529777 0.0004329065933790637 0 -0.024582642165696198 -5.7748782529481728e-05 0 -0.020205150650130253 0.0011165690826957357 0 -0.024263580676538696 0.00043122954278869066 0 -0.024157326455738561 0.00019785224802778724 0 -0.024324536899436099 0.00024253161511427536 0 -0.023728476302497681 0.00048046649777631992 0 -0.020205150650130253 0.0011165690826957357 0 -0.021782037323242392 0.00072669351933482909 0 -0.021700720745663177 0.0010170497365971528 0 -0.022011829818602082 0.0012013252323142827 0 -0.022424507607331608 0.00095623478914197836 0 -0.020205150650130253 0.0011165690826957357 0 -0.014760377438548479 0.0026397570458525561 0 -0.014996260392791198 0.0025214054946322549 0 -0.014713862422568034 0.0028378228945357587 0 -0.015105155983776842 0.0020075055959205956 0 -0.015511648758164517 0.0026348763445109727 0 -0.015059619613343005 0.002686559995952784 0 -0.015105155983776842 0.0020075055959205956 0 -0.015059619613343005 0.002686559995952784 0 -0.014713862422568034 0.0028378228945357587 0 -0.020205150650130253 0.0011165690826957357 0 -0.013307659848002043 0.0036633655693340413 0 -0.023390109873084167 -6.9109364199892919e-05 0 -0.02312385455884516 -7.8100459623009236e-05 0 -0.023250452064981275 6.4412762079670493e-05 0 -0.020205150650130253 0.0011165690826957357 0 -0.019569344449385309 0.0015680006361003698 0 -0.015944131799094929 0.0032779534966795019 0 -0.015511648758164517 0.0026348763445109727 0 -0.015302432687012356 0.0031538398643223553 0 -0.017210828243557571 0.00062304186770977563 0 -0.019569344449385309 0.0015680006361003698 0 -0.015511648758164517 0.0026348763445109727 0 -0.015302432687012356 0.0031538398643223553 0 -0.015059619613343005 0.002686559995952784 0 -0.015302432687012356 0.0031538398643223553 0 -0.014869206399727476 0.0028750748531744127 0 -0.014533784307399069 0.0029414976869658552 0 -0.013163983767053241 0.0026604496470671109 0 -0.014621999571369271 0.0029904987798119956 0 -0.015302432687012356 0.0031538398643223553 0 -0.015059619613343005 0.002686559995952784 0 -0.014869206399727476 0.0028750748531744127 0 -0.015059619613343005 0.002686559995952784 0 -0.014869206399727476 0.0028750748531744127 0 -0.014713862422568034 0.0028378228945357587 0 -0.014869206399727476 0.0028750748531744127 0 -0.014533784307399069 0.0029414976869658552 0 -0.014713862422568034 0.0028378228945357587 0 -0.016995125148593266 0.0017495750397209619 0 -0.01288820599868923 0.00034885645771070965 0 -0.018631024880488612 3.6881822917180486e-05 0 -0.018780441398056173 0.00030923613468997267 0 -0.018647564404857531 -2.5000771533261022e-06 0 -0.012156820746948386 0.0025149492541769883 0 -0.014533784307399069 0.0029414976869658552 0 -0.013124265751552688 0.00037344150017812778 0 -0.014533784307399069 0.0029414976869658552 0 -0.014799670101418621 0.0028884482670909991 0 -0.013124265751552688 0.00037344150017812778 0 -0.01030265506878747 0.0017903023553294667 0 -0.012156820746948386 0.0025149492541769883 0 -0.010638434599618296 0.0010545392091355799 0 -0.017210828243557571 0.00062304186770977563 0 -0.013163983767053241 0.0026604496470671109 0 -0.012156820746948386 0.0025149492541769883 0 -0.010638434599618296 0.0010545392091355799 0 -0.013124265751552688 0.00037344150017812778 0 -0.01045469814272681 0.0010706675022699051 0 -0.01288820599868923 0.00034885645771070965 0 -0.019522624428621706 0.00039325218581172855 0 -0.019235056006234281 0.0004253745509449346 0 -0.019384494465539453 0.00015108949467490439 0 -0.019609200261336456 0.00037646693115027017 0 -0.01946486257995626 0.000431396659143793 0 -0.019522624428621706 0.00039325218581172855 0 -0.01946486257995626 0.000431396659143793 0 -0.019522624428621706 0.00039325218581172855 0 -0.019235056006234281 0.0004253745509449346 0 -0.019310993261637932 0.0011516341991637011 0 -0.019235056006234281 0.0004253745509449346 0 -0.018780441398056173 0.00030923613468997267 0 -0.018378679505429353 0.0011488621274098319 0 -0.016995125148593266 0.0017495750397209619 0 -0.014598310257785007 0.0026525850046848288 0 -0.014713862422568034 0.0028378228945357587 0 -0.014799670101418621 0.0028884482670909991 0 -0.014533784307399069 0.0029414976869658552 0 -0.014713862422568034 0.0028378228945357587 0 -0.014799670101418621 0.0028884482670909991 0 -0.019235056006234281 0.0004253745509449346 0 -0.018780441398056173 0.00030923613468997267 0 -0.019002176618405538 0.00021515724020849082 0 -0.018631024880488612 3.6881822917180486e-05 0 -0.019002176618405538 0.00021515724020849082 0 -0.019384494465539453 0.00015108949467490439 0 -0.019235056006234281 0.0004253745509449346 0 -0.019002176618405538 0.00021515724020849082 0 -0.019384494465539453 0.00015108949467490439 0 -0.018620136383356641 1.4925614792366342e-05 0 -0.018461590039620487 -2.1897843169378393e-05 0 -0.018631024880488612 3.6881822917180486e-05 0 -0.017586328657754207 -0.00025446711129092973 0 -0.017836774752683308 0.00037152344869085488 0 -0.018631024880488612 3.6881822917180486e-05 0 -0.018780441398056173 0.00030923613468997267 0 -0.019002176618405538 0.00021515724020849082 0 -0.016959785001480633 1.0433653494920868e-05 0 -0.017586328657754207 -0.00025446711129092973 0 -0.017836774752683308 0.00037152344869085488 0 -0.016959785001480633 1.0433653494920868e-05 0 -0.017836774752683308 0.00037152344869085488 0 -0.016583846261167622 0.00044330801882132715 0 -0.010154289765160533 0.0010854482982665644 0 -0.010665042481624464 0.00060962174045245908 0 -0.011466920411584933 0.0010029340852597856 0 -0.014248759671811901 0.00069612362228315512 0 -0.013994842295409175 0.0007203125218665983 0 -0.010154289765160533 0.0010854482982665644 0 -0.0096100831131995731 0.00063647757202026415 0 -0.0093935015014874248 0.00093249160244184958 0 -0.018631024880488612 3.6881822917180486e-05 0 -0.017836774752683308 0.00037152344869085488 0 -0.018647564404857531 -2.5000771533261022e-06 0 -0.010154289765160533 0.0010854482982665644 0 -0.0096100831131995731 0.00063647757202026415 0 -0.010665042481624464 0.00060962174045245908 0 -0.014248759671811901 0.00069612362228315512 0 -0.01288820599868923 0.00034885645771070965 0 -0.0096100831131995731 0.00063647757202026415 0 -0.0092943693335152799 0.00062523182137099202 0 -0.0093935466834237785 0.00061955291922197967 0 -0.0096040882611908018 0.00061142240631994202 0 -0.0098265141038004437 0.00034868045433917384 0 -0.010665042481624464 0.00060962174045245908 0 -0.010362230914899703 2.073827693762416e-05 0 -0.011567381601291005 0.00014024261721658988 0 -0.0096100831131995731 0.00063647757202026415 0 -0.010665042481624464 0.00060962174045245908 0 -0.010362230914899703 2.073827693762416e-05 0 -0.010376778025554888 0.00070179415858584481 0 -0.010638434599618296 0.0010545392091355799 0 -0.010953941340928409 0.00094440058886210217 0 -0.01288820599868923 0.00034885645771070965 0 -0.0095910127782224547 0.0005418055989962245 0 -0.010376778025554888 0.00070179415858584481 0 -0.010953941340928409 0.00094440058886210217 0 -0.010452183408030537 0.00049474094457175059 0 -0.0096100831131995731 0.00063647757202026415 0 -0.0093935015014874248 0.00093249160244184958 0 -0.0094662461569434385 0.00057333670062500054 0 -0.0096100831131995731 0.00063647757202026415 0 -0.0094662461569434385 0.00057333670062500054 0 -0.0093935466834237785 0.00061955291922197967 0 -0.0093935015014874248 0.00093249160244184958 0 -0.0094662461569434385 0.00057333670062500054 0 -0.0094270568694457164 0.0005463981432760962 0 -0.0094662461569434385 0.00057333670062500054 0 -0.0094270568694457164 0.0005463981432760962 0 -0.0094589792911208559 0.00057166034618357929 0 -0.009820612983591076 0.0004907956533739084 0 -0.0094270568694457164 0.0005463981432760962 0 -0.0094589792911208559 0.00057166034618357929 0 -0.009820612983591076 0.0004907956533739084 0 -0.0094589792911208559 0.00057166034618357929 0 -0.00955449091982985 0.00066165345014703239 0 -0.0099633246250194901 0.00056271481085923573 0 -0.0095910127782224547 0.0005418055989962245 0 -0.0094662461569434385 0.00057333670062500054 0 -0.0094589792911208559 0.00057166034618357929 0 -0.0093935466834237785 0.00061955291922197967 0 -0.0094589792911208559 0.00057166034618357929 0 -0.0092753579523560999 0.00074034097225613555 0 -0.0093935466834237785 0.00061955291922197967 0 -0.0094589792911208559 0.00057166034618357929 0 -0.0092753579523560999 0.00074034097225613555 0 -0.00955449091982985 0.00066165345014703239 0 -0.0092753579523560999 0.00074034097225613555 0 -0.00955449091982985 0.00066165345014703239 0 -0.0094900491301903676 0.00080461656071939666 0 -0.0092943693335152799 0.00062523182137099202 0 -0.0092310716461029424 0.00075360194613164494 0 -0.0091612028361484892 0.00074025366165743258 0 -0.0098265141038004437 0.00034868045433917384 0 -0.010138333971066662 2.9202113071088014e-05 0 -0.0092943693335152799 0.00062523182137099202 0 -0.0093935466834237785 0.00061955291922197967 0 -0.0092310716461029424 0.00075360194613164494 0 -0.0092753579523560999 0.00074034097225613555 0 -0.0092310716461029424 0.00075360194613164494 0 -0.0091146261753754509 0.0009053773717006276 0 -0.0092753579523560999 0.00074034097225613555 0 -0.0093935466834237785 0.00061955291922197967 0 -0.0092310716461029424 0.00075360194613164494 0 -0.0092310716461029424 0.00075360194613164494 0 -0.0091612028361484892 0.00074025366165743258 0 -0.0091705411675345131 0.00082555644660508025 0 -0.011882214306513818 -0.0012727156976803065 0 -0.0118072547101603 -0.00048152257642134698 0 -0.011137304950567091 -0.00060307957056021752 0 -0.010794947349026111 0.00018660042434315302 0 -0.010138333971066662 2.9202113071088014e-05 0 -0.0091406389718673691 0.00080863010180496546 0 -0.0091612028361484892 0.00074025366165743258 0 -0.0091705411675345131 0.00082555644660508025 0 -0.010794947349026111 0.00018660042434315302 0 -0.012918158712520824 -0.00044639996303632521 0 -0.012305562520279695 -0.00012521489646369902 0 -0.012652182524344798 -0.00021001641598367564 0 -0.012332546869592984 -0.00016143730826835727 0 -0.011882214306513818 -0.0012727156976803065 0 -0.0118072547101603 -0.00048152257642134698 0 -0.012652182524344798 -0.00021001641598367564 0 -0.0118072547101603 -0.00048152257642134698 0 -0.011567381601291005 0.00014024261721658988 0 -0.012652182524344798 -0.00021001641598367564 0 -0.010362230914899703 2.073827693762416e-05 0 -0.011137304950567091 -0.00060307957056021752 0 -0.011567381601291005 0.00014024261721658988 0 -0.0118072547101603 -0.00048152257642134698 0 -0.011137304950567091 -0.00060307957056021752 0 -0.011567381601291005 0.00014024261721658988 0 -0.010665042481624464 0.00060962174045245908 0 -0.011567381601291005 0.00014024261721658988 0 -0.011466920411584933 0.0010029340852597856 0 -0.011567381601291005 0.00014024261721658988 0 -0.012778395866194392 0.00077219848852339403 0 -0.012652182524344798 -0.00021001641598367564 0 -0.011567381601291005 0.00014024261721658988 0 -0.011466920411584933 0.0010029340852597856 0 -0.012778395866194392 0.00077219848852339403 0 -0.013994842295409175 0.0007203125218665983 0 -0.014322093599694425 0.00051180502463426961 0 -0.016469943010040483 -0.00033357278024480033 0 -0.01609578517844177 5.8337431450617855e-05 0 -0.016583846261167622 0.00044330801882132715 0 -0.01609578517844177 5.8337431450617855e-05 0 -0.016583846261167622 0.00044330801882132715 0 -0.015833166143216438 0.00032201425831007192 0 -0.015526222073989368 -4.392847466764582e-07 0 -0.015662610763076967 -0.00010749256003730609 0 -0.014555438881816624 8.5566044707256818e-07 0 -0.015662610763076967 -0.00010749256003730609 0 -0.015833166143216438 0.00032201425831007192 0 -0.014555438881816624 8.5566044707256818e-07 0 -0.01609578517844177 5.8337431450617855e-05 0 -0.015662610763076967 -0.00010749256003730609 0 -0.015833166143216438 0.00032201425831007192 0 -0.012778395866194392 0.00077219848852339403 0 -0.014550863857023564 1.8700511294808165e-06 0 -0.012652182524344798 -0.00021001641598367564 0 -0.014322093599694425 0.00051180502463426961 0 -0.014553707943486708 2.098547233008256e-07 0 -0.014550863857023564 1.8700511294808165e-06 0 -0.012652182524344798 -0.00021001641598367564 0 -0.013132577106143963 -1.0731487134518014e-06 0 -0.012652182524344798 -0.00021001641598367564 0 -0.012332546869592984 -0.00016143730826835727 0 -0.013132577106143963 -1.0731487134518014e-06 0 -0.012332546869592984 -0.00016143730826835727 0 -0.013132577106143963 -1.0731487134518014e-06 0 -0.011978533383286879 -5.865358632260937e-05 0 -0.011978533383286879 -5.865358632260937e-05 0 -0.011141028151032687 0.00020075233157993975 0 -0.011710331872472479 5.5105510436688966e-07 0 -0.013132577106143963 -1.0731487134518014e-06 0 -0.011978533383286879 -5.865358632260937e-05 0 -0.011710331872472479 5.5105510436688966e-07 0 -0.012332546869592984 -0.00016143730826835727 0 -0.011978533383286879 -5.865358632260937e-05 0 -0.012163395298650409 -2.4085689290261991e-05 0 -0.011197479651424818 0.00038133664248822091 0 -0.011228919770399554 0.00022667187233521289 0 -0.011978533383286879 -5.865358632260937e-05 0 -0.012163395298650409 -2.4085689290261991e-05 0 -0.011141028151032687 0.00020075233157993975 0 -0.010289701756247573 0.00087628406749721752 0 -0.011141028151032687 0.00020075233157993975 0 -0.009923098387342566 0.00018022187192376672 0 -0.011141028151032687 0.00020075233157993975 0 -0.009923098387342566 0.00018022187192376672 0 -0.010103283469654738 -3.7716017223184707e-05 0 -0.011141028151032687 0.00020075233157993975 0 -0.011710331872472479 5.5105510436688966e-07 0 -0.010289438906706614 -2.9045782559933549e-07 0 -0.010794947349026111 0.00018660042434315302 0 -0.0091334407257847531 0.00073791088070502186 0 -0.0091406389718673691 0.00080863010180496546 0 -0.0091974302319918436 0.00084027085270674175 0 -0.0091705411675345131 0.00082555644660508025 0 -0.0097821206181602765 0.0012417293332912206 0 -0.009799204063404331 0.00066210258874467381 0 -0.0093280393538773595 0.00047921702622518521 0 -0.012305562520279695 -0.00012521489646369902 0 -0.012332546869592984 -0.00016143730826835727 0 -0.012163395298650409 -2.4085689290261991e-05 0 -0.010794947349026111 0.00018660042434315302 0 -0.011197479651424818 0.00038133664248822091 0 -0.0097821206181602765 0.0012417293332912206 0 -0.010289701756247573 0.00087628406749721752 0 -0.009799204063404331 0.00066210258874467381 0 -0.009799204063404331 0.00066210258874467381 0 -0.009923098387342566 0.00018022187192376672 0 -0.0093280393538773595 0.00047921702622518521 0 -0.009923098387342566 0.00018022187192376672 0 -0.0093280393538773595 0.00047921702622518521 0 -0.0095094721355262271 -7.4704276481432836e-05 0 -0.010289701756247573 0.00087628406749721752 0 -0.009799204063404331 0.00066210258874467381 0 -0.009923098387342566 0.00018022187192376672 0 -0.0093280393538773595 0.00047921702622518521 0 -0.0095094721355262271 -7.4704276481432836e-05 0 -0.009137499878999979 0.00012733946223282596 0 -0.0095094721355262271 -7.4704276481432836e-05 0 -0.0092146109695754996 -7.2757971492668058e-05 0 -0.009137499878999979 0.00012733946223282596 0 -0.009923098387342566 0.00018022187192376672 0 -0.0095094721355262271 -7.4704276481432836e-05 0 -0.010103283469654738 -3.7716017223184707e-05 0 -0.0095094721355262271 -7.4704276481432836e-05 0 -0.0090940736065678006 -0.00025287318088904157 0 -0.0090789335436019247 -0.00024474365302327376 0 -0.0095094721355262271 -7.4704276481432836e-05 0 -0.0095110305196153214 -0.00016117506680466933 0 -0.0090789335436019247 -0.00024474365302327376 0 -0.0094611426387308552 -9.8159831030463946e-05 0 -0.0092986065810438581 -0.00030071016297655216 0 -0.0095094721355262271 -7.4704276481432836e-05 0 -0.0094996791787745789 -0.00026821815452881495 0 -0.0092146109695754996 -7.2757971492668058e-05 0 -0.011141028151032687 0.00020075233157993975 0 -0.010289438906706614 -2.9045782559933549e-07 0 -0.010103283469654738 -3.7716017223184707e-05 0 -0.010289438906706614 -2.9045782559933549e-07 0 -0.010103283469654738 -3.7716017223184707e-05 0 -0.0095110305196153214 -0.00016117506680466933 0 -0.0095094721355262271 -7.4704276481432836e-05 0 -0.010103283469654738 -3.7716017223184707e-05 0 -0.0095110305196153214 -0.00016117506680466933 0 -0.010289438906706614 -2.9045782559933549e-07 0 -0.0095110305196153214 -0.00016117506680466933 0 -0.0088678030647032745 -2.7107117503316333e-07 0 -0.0088678030647032745 -2.7107117503316333e-07 0 -0.0078958807126522871 2.9451434034682533e-05 0 -0.0085026573997330438 -0.00015841470995895255 0 -0.0088678030647032745 -2.7107117503316333e-07 0 -0.0078958807126522871 2.9451434034682533e-05 0 -0.0074465030890117651 4.4088412705280144e-07 0 -0.0078958807126522871 2.9451434034682533e-05 0 -0.0085026573997330438 -0.00015841470995895255 0 -0.0069547422842851786 0.00032938106282363536 0 -0.0095110305196153214 -0.00016117506680466933 0 -0.0088678030647032745 -2.7107117503316333e-07 0 -0.0085026573997330438 -0.00015841470995895255 0 -0.0095110305196153214 -0.00016117506680466933 0 -0.0085026573997330438 -0.00015841470995895255 0 -0.0090789335436019247 -0.00024474365302327376 0 -0.0090940736065678006 -0.00025287318088904157 0 -0.0090789335436019247 -0.00024474365302327376 0 -0.0087470820462841326 -9.4277579008833547e-05 0 -0.0085026573997330438 -0.00015841470995895255 0 -0.0090789335436019247 -0.00024474365302327376 0 -0.0087470820462841326 -9.4277579008833547e-05 0 -0.0092986065810438581 -0.00030071016297655216 0 -0.0094136146897641371 -0.00036350158725751862 0 -0.0090940736065678006 -0.00025287318088904157 0 -0.0090550331747706655 -0.00013553160703254705 0 -0.0087470820462841326 -9.4277579008833547e-05 0 -0.0094996791787745789 -0.00026821815452881495 0 -0.0094468809330547354 -0.00073663595434460163 0 -0.0092146109695754996 -7.2757971492668058e-05 0 -0.0090550331747706655 -0.00013553160703254705 0 -0.0087470820462841326 -9.4277579008833547e-05 0 -0.0092514361821265864 0.00035083027541070704 0 -0.0085026573997330438 -0.00015841470995895255 0 -0.0087470820462841326 -9.4277579008833547e-05 0 -0.0069547422842851786 0.00032938106282363536 0 -0.0087470820462841326 -9.4277579008833547e-05 0 -0.0085847528724024864 0.00052493017968059468 0 -0.0069547422842851786 0.00032938106282363536 0 -0.0069768380659390918 0.0005360904803490738 0 -0.0069872600899595272 0.00036872188939226759 0 -0.0087470820462841326 -9.4277579008833547e-05 0 -0.0085847528724024864 0.00052493017968059468 0 -0.0092514361821265864 0.00035083027541070704 0 -0.0053303879740386993 0.00052388194643893668 0 -0.0048675964130023902 -4.7209929529801357e-06 0 -0.0046629296177447309 0.00047975525739750278 0 -0.0069768380659390918 0.0005360904803490738 0 -0.0068506398868406742 -0.00029591182191807488 0 -0.0053303879740386993 0.00052388194643893668 0 -0.0048675964130023902 -4.7209929529801357e-06 0 -0.0052203714252766781 -0.0002301562447320562 0 -0.0053303879740386993 0.00052388194643893668 0 -0.0069547422842851786 0.00032938106282363536 0 -0.0052203714252766781 -0.0002301562447320562 0 -0.0061744102478108673 3.2908611445517838e-05 0 -0.0069547422842851786 0.00032938106282363536 0 -0.0052203714252766781 -0.0002301562447320562 0 -0.0061744102478108673 3.2908611445517838e-05 0 -0.0074465030890117651 4.4088412705280144e-07 0 -0.0060250650280213001 -8.7343278295031216e-08 0 -0.0061744102478108673 3.2908611445517838e-05 0 -0.0074465030890117651 4.4088412705280144e-07 0 -0.0069547422842851786 0.00032938106282363536 0 -0.0078958807126522871 2.9451434034682533e-05 0 -0.0074465030890117651 4.4088412705280144e-07 0 -0.0069547422842851786 0.00032938106282363536 0 -0.005187197360719667 -0.00092685136334892389 0 -0.0048802026519483557 -0.00053999982169561681 0 -0.0048230552732801465 -0.00081171445639768587 0 -0.0063765414398464513 -0.0011213748373239114 0 -0.0067112397547908998 -0.0011577827300591958 0 -0.005187197360719667 -0.00092685136334892389 0 -0.0052503501444462301 -0.00060491525724638688 0 -0.0048802026519483557 -0.00053999982169561681 0 -0.005187197360719667 -0.00092685136334892389 0 -0.0052503501444462301 -0.00060491525724638688 0 -0.0056379035644161619 -0.00060479267048479143 0 -0.0052503501444462301 -0.00060491525724638688 0 -0.0050664568575130671 -0.00045884596319384363 0 -0.0052968111586184398 -0.00043021841890440943 0 -0.0050664568575130671 -0.00045884596319384363 0 -0.0048802026519483557 -0.00053999982169561681 0 -0.0048437337377640922 -0.00033853970139522386 0 -0.0052503501444462301 -0.00060491525724638688 0 -0.0050664568575130671 -0.00045884596319384363 0 -0.0048802026519483557 -0.00053999982169561681 0 -0.0048802026519483557 -0.00053999982169561681 0 -0.0044782727603334942 -0.00073190689797047949 0 -0.0046134382994732041 -0.00029260731197833646 0 -0.0048675964130023902 -4.7209929529801357e-06 0 -0.0046629296177447309 0.00047975525739750278 0 -0.0046134382994732041 -0.00029260731197833646 0 -0.0068506398868406742 -0.00029591182191807488 0 -0.0039860437646062688 -0.00032313351673606 0 -0.0048802026519483557 -0.00053999982169561681 0 -0.0044782727603334942 -0.00073190689797047949 0 -0.0048230552732801465 -0.00081171445639768587 0 -0.0068506398868406742 -0.00029591182191807488 0 -0.0067112397547908998 -0.0011577827300591958 0 -0.0092941007053461283 -0.0013299021953937962 0 -0.0085816183948074741 -0.0013357845004906524 0 -0.0089584969778925046 -0.0006062692569429991 0 -0.0085816183948074741 -0.0013357845004906524 0 -0.0089584969778925046 -0.0006062692569429991 0 -0.0082838902308785215 -0.00058294255268710846 0 -0.0094468809330547354 -0.00073663595434460163 0 -0.0092941007053461283 -0.0013299021953937962 0 -0.0089584969778925046 -0.0006062692569429991 0 -0.0094136146897641371 -0.00036350158725751862 0 -0.0068506398868406742 -0.00029591182191807488 0 -0.0094468809330547354 -0.00073663595434460163 0 -0.0089584969778925046 -0.0006062692569429991 0 -0.0092146109695754996 -7.2757971492668058e-05 0 -0.0089584969778925046 -0.0006062692569429991 0 -0.0082838902308785215 -0.00058294255268710846 0 -0.0088959628639882684 2.6744859082474436e-05 0 -0.0075789522152557368 -0.0013636432779092029 0 -0.0085816183948074741 -0.0013357845004906524 0 -0.0082838902308785215 -0.00058294255268710846 0 -0.0075789522152557368 -0.0013636432779092029 0 -0.0082838902308785215 -0.00058294255268710846 0 -0.0071675126382137943 -0.00043200495110644419 0 -0.0082838902308785215 -0.00058294255268710846 0 -0.0071675126382137943 -0.00043200495110644419 0 -0.0082323819361730059 0.00021001082579944524 0 -0.0071675126382137943 -0.00043200495110644419 0 -0.0082323819361730059 0.00021001082579944524 0 -0.0075123170036775246 0.00071227256097633842 0 -0.0082838902308785215 -0.00058294255268710846 0 -0.0082323819361730059 0.00021001082579944524 0 -0.0088959628639882684 2.6744859082474436e-05 0 -0.0082323819361730059 0.00021001082579944524 0 -0.0089196587784184864 0.00070493012452268577 0 -0.0088290261662413751 0.0010458545688421224 0 -0.0084547646366781026 0.0010893937323648993 0 -0.0087629973370422481 0.0010738121678862819 0 -0.0082323819361730059 0.00021001082579944524 0 -0.0075123170036775246 0.00071227256097633842 0 -0.0088290261662413751 0.0010458545688421224 0 -0.0092146109695754996 -7.2757971492668058e-05 0 -0.0088959628639882684 2.6744859082474436e-05 0 -0.009137499878999979 0.00012733946223282596 0 -0.0089584969778925046 -0.0006062692569429991 0 -0.0092146109695754996 -7.2757971492668058e-05 0 -0.0088959628639882684 2.6744859082474436e-05 0 -0.0082323819361730059 0.00021001082579944524 0 -0.0088959628639882684 2.6744859082474436e-05 0 -0.0089196587784184864 0.00070493012452268577 0 -0.0089016414238970373 4.2423408396870274e-05 0 -0.0091714563755415958 0.00040595111831092723 0 -0.0088959628639882684 2.6744859082474436e-05 0 -0.0089196587784184864 0.00070493012452268577 0 -0.009213905423522387 0.00072711473376352721 0 -0.0091974302319918436 0.00084027085270674175 0 -0.009213905423522387 0.00072711473376352721 0 -0.0091146261753754509 0.0009053773717006276 0 -0.0091334407257847531 0.00073791088070502186 0 -0.0091714563755415958 0.00040595111831092723 0 -0.0089196587784184864 0.00070493012452268577 0 -0.009213905423522387 0.00072711473376352721 0 -0.0091146261753754509 0.0009053773717006276 0 -0.0089196587784184864 0.00070493012452268577 0 -0.0091146261753754509 0.0009053773717006276 0 -0.0088290261662413751 0.0010458545688421224 0 -0.0091974302319918436 0.00084027085270674175 0 -0.0091146261753754509 0.0009053773717006276 0 -0.0091705411675345131 0.00082555644660508025 0 -0.0092310716461029424 0.00075360194613164494 0 -0.0091146261753754509 0.0009053773717006276 0 -0.0091705411675345131 0.00082555644660508025 0 -0.0094082995665161206 0.0015317218037746189 0 -0.0088290261662413751 0.0010458545688421224 0 -0.0095078765974761729 0.0010687638787237894 0 -0.0088290261662413751 0.0010458545688421224 0 -0.0091390416905775037 0.00087675892007273919 0 -0.0095078765974761729 0.0010687638787237894 0 -0.0091146261753754509 0.0009053773717006276 0 -0.0088290261662413751 0.0010458545688421224 0 -0.0091390416905775037 0.00087675892007273919 0 -0.0092753579523560999 0.00074034097225613555 0 -0.0091390416905775037 0.00087675892007273919 0 -0.0094900491301903676 0.00080461656071939666 0 -0.0092753579523560999 0.00074034097225613555 0 -0.0091146261753754509 0.0009053773717006276 0 -0.0091390416905775037 0.00087675892007273919 0 -0.0091390416905775037 0.00087675892007273919 0 -0.0094900491301903676 0.00080461656071939666 0 -0.0095078765974761729 0.0010687638787237894 0 -0.0094900491301903676 0.00080461656071939666 0 -0.0095078765974761729 0.0010687638787237894 0 -0.009946905953286702 0.00091077010034046281 0 -0.0098251473226882227 0.00066678919002450014 0 -0.0094900491301903676 0.00080461656071939666 0 -0.009946905953286702 0.00091077010034046281 0 -0.0095078765974761729 0.0010687638787237894 0 -0.009946905953286702 0.00091077010034046281 0 -0.0099767487779090693 0.0013892030425322634 0 -0.009946905953286702 0.00091077010034046281 0 -0.010407776106691864 0.001121076388908362 0 -0.0099767487779090693 0.0013892030425322634 0 -0.0098251473226882227 0.00066678919002450014 0 -0.010071630973417841 0.000653738826738965 0 -0.009946905953286702 0.00091077010034046281 0 -0.010071630973417841 0.000653738826738965 0 -0.009946905953286702 0.00091077010034046281 0 -0.010271228987459991 0.00078035483237671457 0 -0.010271228987459991 0.00078035483237671457 0 -0.010584079243776485 0.00074821970382341714 0 -0.010407776106691864 0.001121076388908362 0 -0.009946905953286702 0.00091077010034046281 0 -0.010271228987459991 0.00078035483237671457 0 -0.010407776106691864 0.001121076388908362 0 -0.010695114241033293 0.00085628838716854568 0 -0.011255198027781646 0.0013177488984278554 0 -0.010584079243776485 0.00074821970382341714 0 -0.010407776106691864 0.001121076388908362 0 -0.010946771253102394 0.0011385513797480848 0 -0.010407776106691864 0.001121076388908362 0 -0.010775643387681173 0.0014326592552998218 0 -0.010946771253102394 0.0011385513797480848 0 -0.010407776106691864 0.001121076388908362 0 -0.010426258105113087 0.0015320043937677994 0 -0.0099767487779090693 0.0013892030425322634 0 -0.010426258105113087 0.0015320043937677994 0 -0.010194218069196577 0.0017593502806874592 0 -0.0099767487779090693 0.0013892030425322634 0 -0.010407776106691864 0.001121076388908362 0 -0.010426258105113087 0.0015320043937677994 0 -0.010775643387681173 0.0014326592552998218 0 -0.010426258105113087 0.0015320043937677994 0 -0.010775643387681173 0.0014326592552998218 0 -0.01081930278715889 0.0017664691396140604 0 -0.01081930278715889 0.0017664691396140604 0 -0.010493115892337758 0.0018786690750181741 0 -0.010767960072761085 0.00212825434076484 0 -0.010426258105113087 0.0015320043937677994 0 -0.01081930278715889 0.0017664691396140604 0 -0.010493115892337758 0.0018786690750181741 0 -0.010194218069196577 0.0017593502806874592 0 -0.010493115892337758 0.0018786690750181741 0 -0.010279358628134229 0.0021706857533891782 0 -0.010426258105113087 0.0015320043937677994 0 -0.010194218069196577 0.0017593502806874592 0 -0.010493115892337758 0.0018786690750181741 0 -0.0081883923811347827 0.0010219880592984545 0 -0.0079056564507024585 0.0008165888286712251 0 -0.010194218069196577 0.0017593502806874592 0 -0.0098408368664492131 0.0018462692861878609 0 -0.010279358628134229 0.0021706857533891782 0 -0.010194218069196577 0.0017593502806874592 0 -0.0098408368664492131 0.0018462692861878609 0 -0.0099767487779090693 0.0013892030425322634 0 -0.0071675126382137943 -0.00043200495110644419 0 -0.0075123170036775246 0.00071227256097633842 0 -0.0064608682564674998 0.00018141097407179042 0 -0.0084547646366781026 0.0010893937323648993 0 -0.0081883923811347827 0.0010219880592984545 0 -0.0094082995665161206 0.0015317218037746189 0 -0.0098408368664492131 0.0018462692861878609 0 -0.0099767487779090693 0.0013892030425322634 0 -0.0094082995665161206 0.0015317218037746189 0 -0.0095078765974761729 0.0010687638787237894 0 -0.0099767487779090693 0.0013892030425322634 0 -0.011378262245510157 0.0026825287964586096 0 -0.011696818777961726 0.0021338263276741592 0 -0.011162226310005231 0.0022888456621094904 0 -0.011378262245510157 0.0026825287964586096 0 -0.011696818777961726 0.0021338263276741592 0 -0.01185797521843544 0.002445559587181493 0 -0.015493211372883488 0.00099123630806294098 0 -0.011454555572471058 0.0021295142211710427 0 -0.011478444644467014 0.001580425918272461 0 -0.011696818777961726 0.0021338263276741592 0 -0.012084861548896684 0.0016997359006813771 0 -0.011478444644467014 0.001580425918272461 0 -0.011696818777961726 0.0021338263276741592 0 -0.011162226310005231 0.0022888456621094904 0 -0.012711364296064303 0.00099500498355888567 0 -0.012177981996307543 0.0012674336030982399 0 -0.012449109407204575 0.0015897536656276317 0 -0.012177981996307543 0.0012674336030982399 0 -0.012449109407204575 0.0015897536656276317 0 -0.012079700312173038 0.0016431979422028157 0 -0.011454555572471058 0.0021295142211710427 0 -0.011577655748005806 0.002574917257415564 0 -0.011378262245510157 0.0026825287964586096 0 -0.011162226310005231 0.0022888456621094904 0 -0.010888898531738413 0.0029236829580265434 0 -0.012449109407204575 0.0015897536656276317 0 -0.012079700312173038 0.0016431979422028157 0 -0.012199372095078849 0.00219013243213434 0 -0.011817935964414607 0.0020116487439792267 0 -0.012079700312173038 0.0016431979422028157 0 -0.011699302961511435 0.001207170627137755 0 -0.011739476532636692 0.0016443186205796813 0 -0.011669948994573872 0.0012567806867209172 0 -0.011817935964414607 0.0020116487439792267 0 -0.012079700312173038 0.0016431979422028157 0 -0.012199372095078849 0.00219013243213434 0 -0.012177981996307543 0.0012674336030982399 0 -0.012079700312173038 0.0016431979422028157 0 -0.011699302961511435 0.001207170627137755 0 -0.01136849764161941 0.0011515516522773363 0 -0.011699302961511435 0.001207170627137755 0 -0.011469943427380785 0.0013884529862630208 0 -0.011538460702606808 0.0014471891866061253 0 -0.011699302961511435 0.001207170627137755 0 -0.011469943427380785 0.0013884529862630208 0 -0.010775643387681173 0.0014326592552998218 0 -0.01081930278715889 0.0017664691396140604 0 -0.01138419289208926 0.0016510469879099045 0 -0.010775643387681173 0.0014326592552998218 0 -0.010946771253102394 0.0011385513797480848 0 -0.01138419289208926 0.0016510469879099045 0 -0.011538460702606808 0.0014471891866061253 0 -0.011469943427380785 0.0013884529862630208 0 -0.01138419289208926 0.0016510469879099045 0 -0.011255198027781646 0.0013177488984278554 0 -0.011374955492626166 0.0016198701441689429 0 -0.01081930278715889 0.0017664691396140604 0 -0.011154155003546929 0.0020285750865761502 0 -0.010767960072761085 0.00212825434076484 0 -0.01081930278715889 0.0017664691396140604 0 -0.011154155003546929 0.0020285750865761502 0 -0.01138419289208926 0.0016510469879099045 0 -0.011293191155687164 0.0027118173992292318 0 -0.011577655748005806 0.002574917257415564 0 -0.011154155003546929 0.0020285750865761502 0 -0.011539585199479679 0.0019203502597926643 0 -0.01138419289208926 0.0016510469879099045 0 -0.010712839825575284 0.0034087738628773385 0 -0.010928046489307742 0.003368094633685207 0 -0.010763423688140046 0.0036824548053580471 0 -0.011739476532636692 0.0016443186205796813 0 -0.011293191155687164 0.0027118173992292318 0 -0.011817935964414607 0.0020116487439792267 0 -0.011946819266816412 0.0027920085234603717 0 -0.012199372095078849 0.00219013243213434 0 -0.011538460702606808 0.0014471891866061253 0 -0.011539585199479679 0.0019203502597926643 0 -0.01138419289208926 0.0016510469879099045 0 -0.011378262245510157 0.0026825287964586096 0 -0.010888898531738413 0.0029236829580265434 0 -0.011106309657610322 0.0030445747849896969 0 -0.010888898531738413 0.0029236829580265434 0 -0.011106309657610322 0.0030445747849896969 0 -0.010928046489307742 0.003368094633685207 0 -0.010712839825575284 0.0034087738628773385 0 -0.010888898531738413 0.0029236829580265434 0 -0.010928046489307742 0.003368094633685207 0 -0.01080332765812562 0.0034807273303690996 0 -0.011111787802705846 0.0036180544811940593 0 -0.011124810172668184 0.0033458842275753474 0 -0.01080332765812562 0.0034807273303690996 0 -0.011111787802705846 0.0036180544811940593 0 -0.010872906605575994 0.0037896720656399561 0 -0.011068826724359496 0.0030869522002446976 0 -0.010863804783491478 0.0034453221768631307 0 -0.011106309657610322 0.0030445747849896969 0 -0.01080332765812562 0.0034807273303690996 0 -0.011124810172668184 0.0033458842275753474 0 -0.011124810172668184 0.0033458842275753474 0 -0.011324515939833222 0.0034470869441310574 0 -0.011394438264088216 0.003149996350662957 0 -0.011111787802705846 0.0036180544811940593 0 -0.011324515939833222 0.0034470869441310574 0 -0.011376006153666587 0.0037163418504709781 0 -0.011111787802705846 0.0036180544811940593 0 -0.011124810172668184 0.0033458842275753474 0 -0.011324515939833222 0.0034470869441310574 0 -0.011324515939833222 0.0034470869441310574 0 -0.011376006153666587 0.0037163418504709781 0 -0.01168912395231142 0.0034455157585407282 0 -0.011324515939833222 0.0034470869441310574 0 -0.011394438264088216 0.003149996350662957 0 -0.01168912395231142 0.0034455157585407282 0 -0.011394438264088216 0.003149996350662957 0 -0.01171461029978486 0.0030144782158296195 0 -0.01168912395231142 0.0034455157585407282 0 -0.011378262245510157 0.0026825287964586096 0 -0.011394438264088216 0.003149996350662957 0 -0.01171461029978486 0.0030144782158296195 0 -0.011378262245510157 0.0026825287964586096 0 -0.01171461029978486 0.0030144782158296195 0 -0.012072610936583471 0.0027035521362843416 0 -0.011378262245510157 0.0026825287964586096 0 -0.011106309657610322 0.0030445747849896969 0 -0.011394438264088216 0.003149996350662957 0 -0.011106309657610322 0.0030445747849896969 0 -0.011124810172668184 0.0033458842275753474 0 -0.011394438264088216 0.003149996350662957 0 -0.010682987714986705 0.0044212301471678759 0 -0.010790013735102882 0.0044816590900174907 0 -0.011267413002334662 0.0042022046353879456 0 -0.010685105215569739 0.0043970016987979147 0 -0.011750710938531415 0.0044577308714663167 0 -0.011267413002334662 0.0042022046353879456 0 -0.010973928413680778 0.0041330651840364571 0 -0.010685105215569739 0.0043970016987979147 0 -0.011267413002334662 0.0042022046353879456 0 -0.011279003952219025 0.0039721393769518009 0 -0.010973928413680778 0.0041330651840364571 0 -0.011267413002334662 0.0042022046353879456 0 -0.011279003952219025 0.0039721393769518009 0 -0.011697966987698342 0.0039247387488758369 0 -0.011376006153666587 0.0037163418504709781 0 -0.011697966987698342 0.0039247387488758369 0 -0.01168912395231142 0.0034455157585407282 0 -0.011376006153666587 0.0037163418504709781 0 -0.011279003952219025 0.0039721393769518009 0 -0.011697966987698342 0.0039247387488758369 0 -0.011111787802705846 0.0036180544811940593 0 -0.011376006153666587 0.0037163418504709781 0 -0.01108728400799756 0.0038846683869140437 0 -0.011376006153666587 0.0037163418504709781 0 -0.011279003952219025 0.0039721393769518009 0 -0.01108728400799756 0.0038846683869140437 0 -0.011279003952219025 0.0039721393769518009 0 -0.01108728400799756 0.0038846683869140437 0 -0.010973928413680778 0.0041330651840364571 0 -0.01108728400799756 0.0038846683869140437 0 -0.010839681071242772 0.0040519770414176462 0 -0.010973928413680778 0.0041330651840364571 0 -0.01108728400799756 0.0038846683869140437 0 -0.010872906605575994 0.0037896720656399561 0 -0.010839681071242772 0.0040519770414176462 0 -0.011111787802705846 0.0036180544811940593 0 -0.01108728400799756 0.0038846683869140437 0 -0.010872906605575994 0.0037896720656399561 0 -0.010863804783491478 0.0034453221768631307 0 -0.010776251215882738 0.0036499310555020473 0 -0.01080332765812562 0.0034807273303690996 0 -0.010872906605575994 0.0037896720656399561 0 -0.010592661331292053 0.003910393133519147 0 -0.010872906605575994 0.0037896720656399561 0 -0.010839681071242772 0.0040519770414176462 0 -0.010592661331292053 0.003910393133519147 0 -0.010839681071242772 0.0040519770414176462 0 -0.010663598041230639 0.0041715163600078032 0 -0.010592661331292053 0.003910393133519147 0 -0.010839681071242772 0.0040519770414176462 0 -0.010721929148479007 0.0042511363955830429 0 -0.010663598041230639 0.0041715163600078032 0 -0.010721929148479007 0.0042511363955830429 0 -0.010693448375599039 0.0042379867874430335 0 -0.010663598041230639 0.0041715163600078032 0 -0.010839681071242772 0.0040519770414176462 0 -0.010973928413680778 0.0041330651840364571 0 -0.010721929148479007 0.0042511363955830429 0 -0.010973928413680778 0.0041330651840364571 0 -0.010721929148479007 0.0042511363955830429 0 -0.010685105215569739 0.0043970016987979147 0 -0.010721929148479007 0.0042511363955830429 0 -0.010694657346136543 0.0042536536691261725 0 -0.010685105215569739 0.0043970016987979147 0 -0.010721929148479007 0.0042511363955830429 0 -0.010693448375599039 0.0042379867874430335 0 -0.010694657346136543 0.0042536536691261725 0 -0.010826352346427164 0.0030321156519141244 0 -0.010823533362971377 0.0030204779811212569 0 -0.010808667124442822 0.0030444962289328812 0 -0.010693448375599039 0.0042379867874430335 0 -0.010750493940636867 0.004221506536363078 0 -0.010694657346136543 0.0042536536691261725 0 -0.010693448375599039 0.0042379867874430335 0 -0.010750493940636867 0.004221506536363078 0 -0.010694084088661264 0.0042272201618881976 0 -0.010750493940636867 0.004221506536363078 0 -0.010694084088661264 0.0042272201618881976 0 -0.010860103933507885 0.0042030710714307295 0 -0.010740679166740983 0.003643969972616362 0 -0.010567167722532293 0.0031372799236118213 0 -0.010693448375599039 0.0042379867874430335 0 -0.010694084088661264 0.0042272201618881976 0 -0.010663598041230639 0.0041715163600078032 0 -0.010694084088661264 0.0042272201618881976 0 -0.010663598041230639 0.0041715163600078032 0 -0.010654549051802699 0.004150081149336066 0 -0.010746684088581034 0.0041223934191265861 0 -0.010776251215882738 0.0036499310555020473 0 -0.010840359205167207 0.0029859231775938889 0 -0.010842145643046454 0.0030109484356343943 0 -0.010823533362971377 0.0030204779811212569 0 -0.011293191155687164 0.0027118173992292318 0 -0.011119524474929946 0.0027040568471534275 0 -0.010740679166740983 0.003643969972616362 0 -0.010776251215882738 0.0036499310555020473 0 -0.011154155003546929 0.0020285750865761502 0 -0.011539585199479679 0.0019203502597926643 0 -0.011351862245296005 0.0023731019492364406 0 -0.011293191155687164 0.0027118173992292318 0 -0.010776251215882738 0.0036499310555020473 0 -0.010826352346427164 0.0030321156519141244 0 -0.010842145643046454 0.0030109484356343943 0 -0.010823533362971377 0.0030204779811212569 0 -0.011154155003546929 0.0020285750865761502 0 -0.011351862245296005 0.0023731019492364406 0 -0.01103670375462492 0.0023728740452230745 0 -0.011154155003546929 0.0020285750865761502 0 -0.01103670375462492 0.0023728740452230745 0 -0.010767960072761085 0.00212825434076484 0 -0.01103670375462492 0.0023728740452230745 0 -0.011159126853939671 0.0028114414218853227 0 -0.010742637419309734 0.0025172650323748444 0 -0.011119524474929946 0.0027040568471534275 0 -0.01023919100552682 0.0024344993372471739 0 -0.011351862245296005 0.0023731019492364406 0 -0.01103670375462492 0.0023728740452230745 0 -0.011159126853939671 0.0028114414218853227 0 -0.01023919100552682 0.0024344993372471739 0 -0.008838565372277802 0.00099582302944717024 0 -0.010826352346427164 0.0030321156519141244 0 -0.010808667124442822 0.0030444962289328812 0 -0.010813147137774369 0.0030481443725243634 0 -0.010860103933507885 0.0042030710714307295 0 -0.011092536932470833 0.0038857737764302304 0 -0.010854588857423502 0.0040925584440054848 0 -0.01023919100552682 0.0024344993372471739 0 -0.0084965121946442637 0.0018396664980528615 0 -0.010567167722532293 0.0031372799236118213 0 -0.0090407326456849579 0.0025430396932027009 0 -0.0088579817910046498 0.0012132812269374045 0 -0.0087035317986714801 0.001571536455278424 0 -0.0085032665285398115 0.001411719666258355 0 -0.0096233486992266318 0.0025923899960849897 0 -0.0095932357619144381 0.0025713906941265971 0 -0.0096832811709461307 0.0024060662099270624 0 -0.01023919100552682 0.0024344993372471739 0 -0.010567167722532293 0.0031372799236118213 0 -0.011092536932470833 0.0038857737764302304 0 -0.010759315680022688 0.0038771856381658223 0 -0.010854588857423502 0.0040925584440054848 0 -0.0095932357619144381 0.0025713906941265971 0 -0.009668440410978427 0.0023946051674555257 0 -0.0096832811709461307 0.0024060662099270624 0 -0.0079787564745605402 0.0020465718222844515 0 -0.0080053271598177853 0.0020672783511412676 0 -0.0080863428547945006 0.0017964950663980283 0 -0.0090407326456849579 0.0025430396932027009 0 -0.0084965121946442637 0.0018396664980528615 0 -0.0090407326456849579 0.0025430396932027009 0 -0.0072094152763654447 0.0015030306432031054 0 -0.011092536932470833 0.0038857737764302304 0 -0.010759315680022688 0.0038771856381658223 0 -0.010646180910508824 0.003466219555063555 0 -0.010759315680022688 0.0038771856381658223 0 -0.010756980633479287 0.0040588378176754716 0 -0.010854588857423502 0.0040925584440054848 0 -0.010759315680022688 0.0038771856381658223 0 -0.010638578104423556 0.0039645719853058899 0 -0.01053181287871249 0.0037217116849942314 0 -0.010759315680022688 0.0038771856381658223 0 -0.010756980633479287 0.0040588378176754716 0 -0.010638578104423556 0.0039645719853058899 0 -0.010671594328385629 0.004122249702066828 0 -0.010756980633479287 0.0040588378176754716 0 -0.010757708747217735 0.0041693146760743522 0 -0.010671594328385629 0.004122249702066828 0 -0.010756980633479287 0.0040588378176754716 0 -0.010638578104423556 0.0039645719853058899 0 -0.010756980633479287 0.0040588378176754716 0 -0.010854588857423502 0.0040925584440054848 0 -0.010757708747217735 0.0041693146760743522 0 -0.010860103933507885 0.0042030710714307295 0 -0.010854588857423502 0.0040925584440054848 0 -0.010757708747217735 0.0041693146760743522 0 -0.010750493940636867 0.004221506536363078 0 -0.010860103933507885 0.0042030710714307295 0 -0.010757708747217735 0.0041693146760743522 0 -0.010750493940636867 0.004221506536363078 0 -0.010757708747217735 0.0041693146760743522 0 -0.010694657346136543 0.0042536536691261725 0 -0.010671594328385629 0.004122249702066828 0 -0.010757708747217735 0.0041693146760743522 0 -0.010694657346136543 0.0042536536691261725 0 -0.010694657346136543 0.0042536536691261725 0 -0.010685105215569739 0.0043970016987979147 0 -0.010590897786621686 0.0041452062713036994 0 -0.010590897786621686 0.0041452062713036994 0 -0.010387927888345038 0.0038988990276886569 0 -0.010216054236389587 0.0041234687816991515 0 -0.010685105215569739 0.0043970016987979147 0 -0.010590897786621686 0.0041452062713036994 0 -0.010216054236389587 0.0041234687816991515 0 -0.010671594328385629 0.004122249702066828 0 -0.010590897786621686 0.0041452062713036994 0 -0.010638578104423556 0.0039645719853058899 0 -0.010671594328385629 0.004122249702066828 0 -0.010694657346136543 0.0042536536691261725 0 -0.010590897786621686 0.0041452062713036994 0 -0.010590897786621686 0.0041452062713036994 0 -0.010638578104423556 0.0039645719853058899 0 -0.010387927888345038 0.0038988990276886569 0 -0.010638578104423556 0.0039645719853058899 0 -0.01053181287871249 0.0037217116849942314 0 -0.010387927888345038 0.0038988990276886569 0 -0.01053181287871249 0.0037217116849942314 0 -0.010387927888345038 0.0038988990276886569 0 -0.010279044455586679 0.0036360481863954843 0 -0.010387927888345038 0.0038988990276886569 0 -0.010036390271316434 0.0037969432867832145 0 -0.010216054236389587 0.0041234687816991515 0 -0.010036390271316434 0.0037969432867832145 0 -0.010216054236389587 0.0041234687816991515 0 -0.0097462230144276882 0.0041040405654186631 0 -0.010387927888345038 0.0038988990276886569 0 -0.010036390271316434 0.0037969432867832145 0 -0.010279044455586679 0.0036360481863954843 0 -0.010685105215569739 0.0043970016987979147 0 -0.010216054236389587 0.0041234687816991515 0 -0.0097805573534743024 0.0045455593318873364 0 -0.0060280415326721716 -0.00093405317017878774 0 -0.0060919160208491533 -0.001082842914932404 0 -0.0063565482823711725 -0.00055459325506129168 0 -0.0060280415326721716 -0.00093405317017878774 0 -0.0060919160208491533 -0.001082842914932404 0 -0.0060413876089181915 -0.00082695317075626607 0 -0.0075789522152557368 -0.0013636432779092029 0 -0.0071675126382137943 -0.00043200495110644419 0 -0.0060919160208491533 -0.001082842914932404 0 -0.0063765414398464513 -0.0011213748373239114 0 -0.0061187655333043624 -0.0010956217556704144 0 -0.0071675126382137943 -0.00043200495110644419 0 -0.0060919160208491533 -0.001082842914932404 0 -0.0063565482823711725 -0.00055459325506129168 0 -0.0071675126382137943 -0.00043200495110644419 0 -0.0064608682564674998 0.00018141097407179042 0 -0.0063565482823711725 -0.00055459325506129168 0 -0.0064608682564674998 0.00018141097407179042 0 -0.0063565482823711725 -0.00055459325506129168 0 -0.0057930825497973012 -0.00042719141462429681 0 -0.0060280415326721716 -0.00093405317017878774 0 -0.0063565482823711725 -0.00055459325506129168 0 -0.0057930825497973012 -0.00042719141462429681 0 -0.0079056564507024585 0.0008165888286712251 0 -0.008838565372277802 0.00099582302944717024 0 -0.010493115892337758 0.0018786690750181741 0 -0.010279358628134229 0.0021706857533891782 0 -0.010767960072761085 0.00212825434076484 0 -0.010667201718195417 0.0026039611401043649 0 -0.008838565372277802 0.00099582302944717024 0 -0.010279358628134229 0.0021706857533891782 0 -0.010767960072761085 0.00212825434076484 0 -0.010723566886310621 0.002480400969480559 0 -0.01103670375462492 0.0023728740452230745 0 -0.010767960072761085 0.00212825434076484 0 -0.010742637419309734 0.0025172650323748444 0 -0.0057930825497973012 -0.00042719141462429681 0 -0.0054399939486181777 -0.00080450397875854397 0 -0.0057362659742418746 -0.00081948440062392313 0 -0.0060280415326721716 -0.00093405317017878774 0 -0.0057930825497973012 -0.00042719141462429681 0 -0.0057362659742418746 -0.00081948440062392313 0 -0.0054399939486181777 -0.00080450397875854397 0 -0.0057362659742418746 -0.00081948440062392313 0 -0.0057238803377997116 -0.0010668477276839716 0 -0.0060280415326721716 -0.00093405317017878774 0 -0.0057362659742418746 -0.00081948440062392313 0 -0.0057238803377997116 -0.0010668477276839716 0 -0.0060889409466051017 -0.00089079596915874306 0 -0.0058506174476351813 -0.0010813023137823993 0 -0.006278143958070654 -0.00087230587261918739 0 -0.0065457615458754123 -0.000657847536890369 0 -0.0061620923266283382 -0.00043598510423856516 0 -0.0060280415326721716 -0.00093405317017878774 0 -0.006278143958070654 -0.00087230587261918739 0 -0.0060413876089181915 -0.00082695317075626607 0 -0.006278143958070654 -0.00087230587261918739 0 -0.0061620923266283382 -0.00043598510423856516 0 -0.0060413876089181915 -0.00082695317075626607 0 -0.0054399939486181777 -0.00080450397875854397 0 -0.0057238803377997116 -0.0010668477276839716 0 -0.0054950299319497919 -0.0012395089331296298 0 -0.008838565372277802 0.00099582302944717024 0 -0.0067389643740504018 1.4700674008595013e-05 0 -0.0088579817910046498 0.0012132812269374045 0 -0.0085381110569165489 0.00098350644521524432 0 -0.0085032665285398115 0.001411719666258355 0 -0.0058506174476351813 -0.0010813023137823993 0 -0.0067389643740504018 1.4700674008595013e-05 0 -0.0073147173955387069 0.00075950993731937826 0 -0.0070299689888276059 0.00053368133186278859 0 -0.0069931001226578426 0.0010979439224611275 0 -0.0067389643740504018 1.4700674008595013e-05 0 -0.0061862643929751476 0.00029817683736681758 0 -0.0084965121946442637 0.0018396664980528615 0 -0.0072094152763654447 0.0015030306432031054 0 -0.0084965121946442637 0.0018396664980528615 0 -0.0067389643740504018 1.4700674008595013e-05 0 -0.0057030549102357851 -0.00055829595608472722 0 -0.0061862643929751476 0.00029817683736681758 0 -0.0065457615458754123 -0.000657847536890369 0 -0.0061620923266283382 -0.00043598510423856516 0 -0.0065210136625177663 -0.00025151544489159698 0 -0.0057030549102357851 -0.00055829595608472722 0 -0.005664216350894505 -0.00057068086149693179 0 -0.0061620923266283382 -0.00043598510423856516 0 -0.0060413876089181915 -0.00082695317075626607 0 -0.0056379035644161619 -0.00060479267048479143 0 -0.0054177058260465212 -0.00050116875821641193 0 -0.0056379035644161619 -0.00060479267048479143 0 -0.0052968111586184398 -0.00043021841890440943 0 -0.0060919160208491533 -0.001082842914932404 0 -0.0060413876089181915 -0.00082695317075626607 0 -0.0056379035644161619 -0.00060479267048479143 0 -0.005187197360719667 -0.00092685136334892389 0 -0.0060919160208491533 -0.001082842914932404 0 -0.0056379035644161619 -0.00060479267048479143 0 -0.0052503501444462301 -0.00060491525724638688 0 -0.0056379035644161619 -0.00060479267048479143 0 -0.0052968111586184398 -0.00043021841890440943 0 -0.0052968111586184398 -0.00043021841890440943 0 -0.0050904443818824653 -0.00032173149639343082 0 -0.005175030070136033 -0.00034752901249606556 0 -0.0050904443818824653 -0.00032173149639343082 0 -0.005175030070136033 -0.00034752901249606556 0 -0.0050488376701171194 -0.00028391138361807191 0 -0.0052968111586184398 -0.00043021841890440943 0 -0.005175030070136033 -0.00034752901249606556 0 -0.005284591538108189 -0.00040308542564572144 0 -0.0052374197336376837 -0.00034354874293889812 0 -0.005175030070136033 -0.00034752901249606556 0 -0.005284591538108189 -0.00040308542564572144 0 -0.0054177058260465212 -0.00050116875821641193 0 -0.0052968111586184398 -0.00043021841890440943 0 -0.005284591538108189 -0.00040308542564572144 0 -0.0054177058260465212 -0.00050116875821641193 0 -0.005284591538108189 -0.00040308542564572144 0 -0.0053633543981417434 -0.00043012535289891382 0 -0.0054177058260465212 -0.00050116875821641193 0 -0.0053633543981417434 -0.00043012535289891382 0 -0.0053983890384871856 -0.00044737821478889041 0 -0.0073147173955387069 0.00075950993731937826 0 -0.0071529414954912569 0.0011792372969692457 0 -0.0069931001226578426 0.0010979439224611275 0 -0.0061862643929751476 0.00029817683736681758 0 -0.0054214053648014935 0.00034735109707915041 0 -0.0053633543981417434 -0.00043012535289891382 0 -0.0053983890384871856 -0.00044737821478889041 0 -0.0053861617664197258 -0.0003920382628756744 0 -0.0060101175783999899 0.00097868009582755618 0 -0.0060051096378174939 0.00095792418886847714 0 -0.0060088591734893306 0.00094129605809364957 0 -0.0059979187959156161 0.00097348864479902928 0 -0.0060101175783999899 0.00097868009582755618 0 -0.0060008444956079167 0.00096422921396021059 0 -0.0072094152763654447 0.0015030306432031054 0 -0.0061862643929751476 0.00029817683736681758 0 -0.0055092208911305248 0.0014158953858463481 0 -0.0054944879519661545 0.0014870156302321856 0 -0.0072202372155724089 0.0022670506780093007 0 -0.0071394611626580872 0.0024313993528458583 0 -0.0074546193413069011 0.0026978538026301152 0 -0.0060101175783999899 0.00097868009582755618 0 -0.0060051096378174939 0.00095792418886847714 0 -0.0060008444956079167 0.00096422921396021059 0 -0.0071394611626580872 0.0024313993528458583 0 -0.0070478604444691537 0.0026201642016478793 0 -0.0074546193413069011 0.0026978538026301152 0 -0.0072094152763654447 0.0015030306432031054 0 -0.0064415308443523207 0.0015696070201418962 0 -0.0060051096378174939 0.00095792418886847714 0 -0.0060008444956079167 0.00096422921396021059 0 -0.0060040601263196061 0.00095428326346311482 0 -0.0064415308443523207 0.0015696070201418962 0 -0.0054944879519661545 0.0014870156302321856 0 -0.0040944015660368278 0.0012321529189003755 0 -0.0040359540989765704 0.0013666492647062337 0 -0.0041025127536489714 0.0016218944008867479 0 -0.0054944879519661545 0.0014870156302321856 0 -0.0056617145802914061 0.0026615835062272354 0 -0.0070478604444691537 0.0026201642016478793 0 -0.0072253851858808541 0.0035925001053453086 0 -0.0074546193413069011 0.0026978538026301152 0 -0.0054047498325661171 0.00080347592454284875 0 -0.0051992288115445748 0.0012001123052948859 0 -0.005421334640765189 0.00055509460154050839 0 -0.0054944879519661545 0.0014870156302321856 0 -0.0050254780873242198 0.00066012941839831011 0 -0.0054214053648014935 0.00034735109707915041 0 -0.0050254780873242198 0.00066012941839831011 0 -0.0054214053648014935 0.00034735109707915041 0 -0.0054944879519661545 0.0014870156302321856 0 -0.0060051096378174939 0.00095792418886847714 0 -0.0060088591734893306 0.00094129605809364957 0 -0.0060042169949247664 0.00095355628101666614 0 -0.0054214053648014935 0.00034735109707915041 0 -0.0052984256774995034 -0.00035355760737305615 0 -0.0052080610144960085 -0.00020627014136728888 0 -0.0052071099225516251 -0.00021132461286032126 0 -0.0052104405753146069 -0.00022929298355296618 0 -0.005284591538108189 -0.00040308542564572144 0 -0.0053633543981417434 -0.00043012535289891382 0 -0.0053184802559279208 -0.00037912999497870936 0 -0.0053633543981417434 -0.00043012535289891382 0 -0.0053861617664197258 -0.0003920382628756744 0 -0.0053184802559279208 -0.00037912999497870936 0 -0.0053861617664197258 -0.0003920382628756744 0 -0.0053184802559279208 -0.00037912999497870936 0 -0.0053092305290470742 -0.00031425476311191321 0 -0.0052374197336376837 -0.00034354874293889812 0 -0.005284591538108189 -0.00040308542564572144 0 -0.0053184802559279208 -0.00037912999497870936 0 -0.0052374197336376837 -0.00034354874293889812 0 -0.0053184802559279208 -0.00037912999497870936 0 -0.0053092305290470742 -0.00031425476311191321 0 -0.0052374197336376837 -0.00034354874293889812 0 -0.0053092305290470742 -0.00031425476311191321 0 -0.0052036789572489908 -0.00029196036790453503 0 -0.0052071099225516251 -0.00021132461286032126 0 -0.0052104405753146069 -0.00022929298355296618 0 -0.005205881404841844 -0.00024165643189877416 0 -0.0052984256774995034 -0.00035355760737305615 0 -0.0051923125318808607 -0.00021135856983316154 0 -0.0052104405753146069 -0.00022929298355296618 0 -0.0051857450356416158 -0.00023445420679481591 0 -0.005205881404841844 -0.00024165643189877416 0 -0.0053092305290470742 -0.00031425476311191321 0 -0.0052036789572489908 -0.00029196036790453503 0 -0.0051857450356416158 -0.00023445420679481591 0 -0.0040359540989765704 0.0013666492647062337 0 -0.0041025127536489714 0.0016218944008867479 0 -0.0040254627023575511 0.0016807021819513854 0 -0.0040359540989765704 0.0013666492647062337 0 -0.0040254627023575511 0.0016807021819513854 0 -0.0039763681736347343 0.0017396315517169696 0 -0.0046483088294837493 0.00061092930783802446 0 -0.0046294446699577645 0.0008370749553636771 0 -0.0045549713238063642 0.00083275533153556042 0 -0.0050254780873242198 0.00066012941839831011 0 -0.0049656546039188489 8.9124987091948593e-05 0 -0.0050254780873242198 0.00066012941839831011 0 -0.0040643455963977537 0.0015158104725655961 0 -0.0040129698710093774 0.0016053810489223689 0 -0.0040643455963977537 0.0015158104725655961 0 -0.0039679781632558659 0.0017419938854381356 0 -0.0038776904648408534 0.0021230379437558664 0 -0.004112581029842635 0.0020192537170598108 0 -0.0041025127536489714 0.0016218944008867479 0 -0.0040254627023575511 0.0016807021819513854 0 -0.004112581029842635 0.0020192537170598108 0 -0.0040254627023575511 0.0016807021819513854 0 -0.0039679781632558659 0.0017419938854381356 0 -0.004112581029842635 0.0020192537170598108 0 -0.0040643455963977537 0.0015158104725655961 0 -0.0038674351416457266 0.002153867082614099 0 -0.0056617145802914061 0.0026615835062272354 0 -0.0058917569068635094 0.0032056092724857153 0 -0.0049656546039188489 8.9124987091948593e-05 0 -0.0042886840282323575 0.00099497071757544239 0 -0.0040643455963977537 0.0015158104725655961 0 -0.0042886840282323575 0.00099497071757544239 0 -0.0051857450356416158 -0.00023445420679481591 0 -0.005205881404841844 -0.00024165643189877416 0 -0.0051470459447171641 -0.00013395856224949568 0 -0.0046294446699577645 0.0008370749553636771 0 -0.0045549713238063642 0.00083275533153556042 0 -0.0044634489813832993 0.0010551125126277375 0 -0.0051857450356416158 -0.00023445420679481591 0 -0.0050671675924502885 -0.00021093049599483195 0 -0.0051470459447171641 -0.00013395856224949568 0 -0.0052036789572489908 -0.00029196036790453503 0 -0.0051857450356416158 -0.00023445420679481591 0 -0.0051026804457005321 -0.0002656632762595972 0 -0.0051857450356416158 -0.00023445420679481591 0 -0.0050671675924502885 -0.00021093049599483195 0 -0.0051026804457005321 -0.0002656632762595972 0 -0.0050671675924502885 -0.00021093049599483195 0 -0.0051026804457005321 -0.0002656632762595972 0 -0.004919498046489266 -0.00025051538352255435 0 -0.004919498046489266 -0.00025051538352255435 0 -0.0050488376701171194 -0.00028391138361807191 0 -0.0048683114127896967 -0.00022334335511356741 0 -0.0051026804457005321 -0.0002656632762595972 0 -0.004919498046489266 -0.00025051538352255435 0 -0.0050488376701171194 -0.00028391138361807191 0 -0.0050904443818824653 -0.00032173149639343082 0 -0.0050488376701171194 -0.00028391138361807191 0 -0.0048683114127896967 -0.00022334335511356741 0 -0.005175030070136033 -0.00034752901249606556 0 -0.0050488376701171194 -0.00028391138361807191 0 -0.0051596187393993355 -0.00030570429145634204 0 -0.0052374197336376837 -0.00034354874293889812 0 -0.0052036789572489908 -0.00029196036790453503 0 -0.0051596187393993355 -0.00030570429145634204 0 -0.0052374197336376837 -0.00034354874293889812 0 -0.005175030070136033 -0.00034752901249606556 0 -0.0051596187393993355 -0.00030570429145634204 0 -0.0052036789572489908 -0.00029196036790453503 0 -0.0051026804457005321 -0.0002656632762595972 0 -0.0051596187393993355 -0.00030570429145634204 0 -0.0051026804457005321 -0.0002656632762595972 0 -0.0050488376701171194 -0.00028391138361807191 0 -0.0051596187393993355 -0.00030570429145634204 0 -0.010569734288949263 0.003216318140507705 0 -0.0046844456583258537 0.0038518321635276167 0 -0.010046461096576026 0.0032757716247110418 0 -0.0099404675547110771 0.0028885767214066739 0 -0.0096092311662738395 0.0031746148272050606 0 -0.0099782458478273658 0.0032873765647137834 0 -0.010046461096576026 0.0032757716247110418 0 -0.010035317304395344 0.0034897868440044175 0 -0.0099782458478273658 0.0032873765647137834 0 -0.010046461096576026 0.0032757716247110418 0 -0.010192201168909565 0.0034092291257955152 0 -0.010046461096576026 0.0032757716247110418 0 -0.010064188540068231 0.0035198217197828945 0 -0.0097807495639021906 0.0034944029209340866 0 -0.010036390271316434 0.0037969432867832145 0 -0.010064188540068231 0.0035198217197828945 0 -0.0097807495639021906 0.0034944029209340866 0 -0.010036390271316434 0.0037969432867832145 0 -0.010064188540068231 0.0035198217197828945 0 -0.010279044455586679 0.0036360481863954843 0 -0.010064188540068231 0.0035198217197828945 0 -0.010192201168909565 0.0034092291257955152 0 -0.010279044455586679 0.0036360481863954843 0 -0.010046461096576026 0.0032757716247110418 0 -0.010064188540068231 0.0035198217197828945 0 -0.010192201168909565 0.0034092291257955152 0 -0.010192201168909565 0.0034092291257955152 0 -0.010370361222586458 0.0034690962165222433 0 -0.010279044455586679 0.0036360481863954843 0 -0.01053181287871249 0.0037217116849942314 0 -0.010370361222586458 0.0034690962165222433 0 -0.010279044455586679 0.0036360481863954843 0 -0.01053181287871249 0.0037217116849942314 0 -0.010370361222586458 0.0034690962165222433 0 -0.010646180910508824 0.003466219555063555 0 -0.0091367476086248282 0.0030297017166971245 0 -0.0086758277524179323 0.0028742107484314478 0 -0.009208384510230096 0.0037063499062457081 0 -0.0099526920473162559 0.0032404564922604998 0 -0.0097434861631582621 0.0029237538073554822 0 -0.0099782458478273658 0.0032873765647137834 0 -0.0091367476086248282 0.0030297017166971245 0 -0.0086854813446115234 0.0022522213125143039 0 -0.0099782458478273658 0.0032873765647137834 0 -0.010370361222586458 0.0034690962165222433 0 -0.010646180910508824 0.003466219555063555 0 -0.0099782458478273658 0.0032873765647137834 0 -0.010192201168909565 0.0034092291257955152 0 -0.010370361222586458 0.0034690962165222433 0 -0.0099782458478273658 0.0032873765647137834 0 -0.0091367476086248282 0.0030297017166971245 0 -0.009208384510230096 0.0037063499062457081 0 -0.0085775199635019107 0.0028278954607159359 0 -0.0080148968459394787 0.0025550555541934907 0 -0.0086758277524179323 0.0028742107484314478 0 -0.007864554461673284 0.0025569672444820039 0 -0.0077817253402702761 0.0030872897071471069 0 -0.0086758277524179323 0.0028742107484314478 0 -0.0086854813446115234 0.0022522213125143039 0 -0.0079944310960088499 0.0024599308829844641 0 -0.0086758277524179323 0.0028742107484314478 0 -0.0077817253402702761 0.0030872897071471069 0 -0.0079883059964356348 0.0035804825708504219 0 -0.0091367476086248282 0.0030297017166971245 0 -0.0086758277524179323 0.0028742107484314478 0 -0.0086854813446115234 0.0022522213125143039 0 -0.0090407326456849579 0.0025430396932027009 0 -0.0097434861631582621 0.0029237538073554822 0 -0.0086854813446115234 0.0022522213125143039 0 -0.0079944310960088499 0.0024599308829844641 0 -0.0079197028818256063 0.0020825772891392368 0 -0.010759315680022688 0.0038771856381658223 0 -0.01053181287871249 0.0037217116849942314 0 -0.010646180910508824 0.003466219555063555 0 -0.007671991124292934 0.0014962913724493178 0 -0.0086854813446115234 0.0022522213125143039 0 -0.0079197028818256063 0.0020825772891392368 0 -0.0072202372155724089 0.0022670506780093007 0 -0.007864554461673284 0.0025569672444820039 0 -0.0074546193413069011 0.0026978538026301152 0 -0.0073479862272455721 0.002117922998073968 0 -0.0079944310960088499 0.0024599308829844641 0 -0.0079197028818256063 0.0020825772891392368 0 -0.0072094152763654447 0.0015030306432031054 0 -0.0080148968459394787 0.0025550555541934907 0 -0.007671991124292934 0.0014962913724493178 0 -0.0073479862272455721 0.002117922998073968 0 -0.0079197028818256063 0.0020825772891392368 0 -0.0072253851858808541 0.0035925001053453086 0 -0.0074546193413069011 0.0026978538026301152 0 -0.0077817253402702761 0.0030872897071471069 0 -0.007864554461673284 0.0025569672444820039 0 -0.0074546193413069011 0.0026978538026301152 0 -0.0077817253402702761 0.0030872897071471069 0 -0.0072253851858808541 0.0035925001053453086 0 -0.0077817253402702761 0.0030872897071471069 0 -0.0079883059964356348 0.0035804825708504219 0 -0.0072253851858808541 0.0035925001053453086 0 -0.0076712146343502286 0.0038825256765063604 0 -0.0079883059964356348 0.0035804825708504219 0 -0.0072253851858808541 0.0035925001053453086 0 -0.0076712146343502286 0.0038825256765063604 0 -0.0073786460048987333 0.0041562872792254577 0 -0.0076712146343502286 0.0038825256765063604 0 -0.0077065617409750424 0.0041560259211781423 0 -0.0073786460048987333 0.0041562872792254577 0 -0.0076712146343502286 0.0038825256765063604 0 -0.0079962721017452481 0.0039058656691475105 0 -0.0077065617409750424 0.0041560259211781423 0 -0.0056731162330430013 0.0038186255916068152 0 -0.0047282013114039985 0.0034663366461430093 0 -0.0079962721017452481 0.0039058656691475105 0 -0.0082327268512039191 0.0039014523061765855 0 -0.0079337170187667987 0.0042339517274060491 0 -0.0076712146343502286 0.0038825256765063604 0 -0.0079962721017452481 0.0039058656691475105 0 -0.0079883059964356348 0.0035804825708504219 0 -0.0086758277524179323 0.0028742107484314478 0 -0.0079883059964356348 0.0035804825708504219 0 -0.009208384510230096 0.0037063499062457081 0 -0.0079962721017452481 0.0039058656691475105 0 -0.0079883059964356348 0.0035804825708504219 0 -0.0082075651649879885 0.0036761594930932208 0 -0.0077418242382477302 0.003589987077958298 0 -0.0095535201705990638 0.0036914513545332666 0 -0.0095535201705990638 0.0036914513545332666 0 -0.0046844456583258537 0.0038518321635276167 0 -0.0082075651649879885 0.0036761594930932208 0 -0.0082327268512039191 0.0039014523061765855 0 -0.0083888016453873299 0.0037026037098902491 0 -0.0079962721017452481 0.0039058656691475105 0 -0.0082075651649879885 0.0036761594930932208 0 -0.0082327268512039191 0.0039014523061765855 0 -0.0056731162330430013 0.0038186255916068152 0 -0.0046844456583258537 0.0038518321635276167 0 -0.0046844456583258537 0.0038518321635276167 0 0.0025454783662679486 0.0033560804309115092 0 -0.0027284415646606675 0.0037865980403521474 0 -0.0012390032525763349 0.0050582946692072223 0 -0.00062597823592152094 0.0028038010830107813 0 -0.0099782458478273658 0.0032873765647137834 0 -0.009208384510230096 0.0037063499062457081 0 -0.010035317304395344 0.0034897868440044175 0 -0.0021961651956471533 0.0015102294917329713 0 -0.00062597823592152094 0.0028038010830107813 0 -0.00013154525634581686 0.00052207450703464862 0 0.00067460076816865447 0.0028129433567592368 0 0.00080422662126223719 0.0014839323439732616 0 0.002461725843516515 0.0019555176142861735 0 -0.00057117477333103227 0.0020349526097679827 0 0.0023880047110997082 0.0015649875209581539 0 -0.0027284415646606675 0.0037865980403521474 0 -0.0021961651956471533 0.0015102294917329713 0 -0.00062597823592152094 0.0028038010830107813 0 -0.00057117477333103227 0.0020349526097679827 0 -0.0047282013114039985 0.0034663366461430093 0 -0.0027284415646606675 0.0037865980403521474 0 -0.0021961651956471533 0.0015102294917329713 0 -0.0042394455595506416 0.0025017482957473366 0 0.00067460076816865447 0.0028129433567592368 0 -0.00039632171813018085 0.0022886519740722036 0 -0.00108708201501953 0.0036464818946626578 0 0.00067460076816865447 0.0028129433567592368 0 -0.00039632171813018085 0.0022886519740722036 0 0.00080422662126223719 0.0014839323439732616 0 -0.00039632171813018085 0.0022886519740722036 0 -0.0014648165935836218 0.0021215753051381293 0 -0.00108708201501953 0.0036464818946626578 0 -0.00039632171813018085 0.0022886519740722036 0 -0.0014648165935836218 0.0021215753051381293 0 -0.00089184240060876719 0.0013727523992790784 0 -0.0079962721017452481 0.0039058656691475105 0 -0.0079337170187667987 0.0042339517274060491 0 -0.0077065617409750424 0.0041560259211781423 0 -0.0047282013114039985 0.0034663366461430093 0 -0.0079980814279092122 0.0045701611782881747 0 -0.0078816400848456328 0.0042451929885579465 0 -0.0077065617409750424 0.0041560259211781423 0 -0.0074108459919125236 0.0046199284139924503 0 -0.0077065617409750424 0.0041560259211781423 0 -0.0073786460048987333 0.0041562872792254577 0 -0.0074108459919125236 0.0046199284139924503 0 -0.0014648165935836218 0.0021215753051381293 0 -0.0025514447461151379 0.0012567345141991848 0 -0.0026746904751664114 0.0022607280576489855 0 -0.0047282013114039985 0.0034663366461430093 0 -0.0042598834222818899 0.0030052765598185889 0 -0.0014648165935836218 0.0021215753051381293 0 -0.00108708201501953 0.0036464818946626578 0 -0.0026746904751664114 0.0022607280576489855 0 -0.0014648165935836218 0.0021215753051381293 0 -0.0025514447461151379 0.0012567345141991848 0 -0.00089184240060876719 0.0013727523992790784 0 0.0017900676631993049 0.0018415730138794622 0 0.0026627375159248051 0.0011163416855335046 0 0.0028978162942056495 0.0019253183773973624 0 0.00022977217829268682 0.0016584003864500211 0 0.00088004849676671395 0.0016334184717436951 0 0.00022977217829268682 0.0016584003864500211 0 -0.0042598834222818899 0.0030052765598185889 0 0.0017900676631993049 0.0018415730138794622 0 0.0026627375159248051 0.0011163416855335046 0 0.0019585667463336638 0.0004952142815506192 0 0.00022977217829268682 0.0016584003864500211 0 0.0023008243411579061 0.00058619507097670473 0 0.0026627375159248051 0.0011163416855335046 0 0.0028978162942056495 0.0019253183773973624 0 0.0036565334582167666 0.0010404739075122733 0 0.0026627375159248051 0.0011163416855335046 0 0.0036565334582167666 0.0010404739075122733 0 0.0030068954423490774 0.00027696777145148714 0 -0.00039632171813018085 0.0022886519740722036 0 -0.00089184240060876719 0.0013727523992790784 0 0.00080422662126223719 0.0014839323439732616 0 0.0028978162942056495 0.0019253183773973624 0 0.0040019613328649015 0.0020105434888463133 0 0.0036565334582167666 0.0010404739075122733 0 0.00088004849676671395 0.0016334184717436951 0 0.0024175806250959502 0.0017608785853039759 0 0.0036565334582167666 0.0010404739075122733 0 0.0045871336375923871 0.0013226493019183366 0 0.0044435388953748796 0.00061938506392006203 0 0.0045871336375923871 0.0013226493019183366 0 0.0053682959311641357 0.00082139911425454365 0 0.0044435388953748796 0.00061938506392006203 0 0.0040019613328649015 0.0020105434888463133 0 0.0036565334582167666 0.0010404739075122733 0 0.0045871336375923871 0.0013226493019183366 0 0.00080422662126223719 0.0014839323439732616 0 0.0025333096066773989 0.0016090197901364365 0 0.002461725843516515 0.0019555176142861735 0 0.0040019613328649015 0.0020105434888463133 0 0.0045871336375923871 0.0013226493019183366 0 0.0050838100140143012 0.0020880503388985361 0 0.0024175806250959502 0.0017608785853039759 0 0.003870412229917452 0.0017041451389419389 0 -0.0038731708406297334 0.0012483508277973628 0 -0.003775042491167916 0.0012549296626180467 0 -0.0039846664588591265 0.0009766379486926182 0 -0.0035770668430057584 0.0019802280957576246 0 -0.0042886840282323575 0.00099497071757544239 0 -0.0044487001064766529 0.00059880203125754045 0 -0.0042886840282323575 0.00099497071757544239 0 -0.0050045850247509068 0.00011148334784763134 0 -0.0047024273881598414 6.8710693941863578e-05 0 -0.0049207765898908089 -0.0001314944505657712 0 -0.0047024273881598414 6.8710693941863578e-05 0 -0.0049207765898908089 -0.0001314944505657712 0 -0.0045673112536077053 -0.00025912042818989386 0 -0.004919498046489266 -0.00025051538352255435 0 -0.0049207765898908089 -0.0001314944505657712 0 -0.0045673112536077053 -0.00025912042818989386 0 -0.0050671675924502885 -0.00021093049599483195 0 -0.0049207765898908089 -0.0001314944505657712 0 -0.0051470459447171641 -0.00013395856224949568 0 -0.0050671675924502885 -0.00021093049599483195 0 -0.004919498046489266 -0.00025051538352255435 0 -0.0049207765898908089 -0.0001314944505657712 0 -0.0050045850247509068 0.00011148334784763134 0 -0.0049207765898908089 -0.0001314944505657712 0 -0.0051470459447171641 -0.00013395856224949568 0 -0.0039163126221881612 0.0015800249853735755 0 -0.0034930766215444174 0.0021387469350087392 0 -0.0038776904648408534 0.0021230379437558664 0 -0.0034930766215444174 0.0021387469350087392 0 -0.0038776904648408534 0.0021230379437558664 0 -0.0037005238920135501 0.0024443975911398546 0 -0.0058917569068635094 0.0032056092724857153 0 -0.0042598834222818899 0.0030052765598185889 0 -0.0038776904648408534 0.0021230379437558664 0 -0.004112581029842635 0.0020192537170598108 0 -0.0041599150556948022 0.0025240183009442073 0 -0.0038776904648408534 0.0021230379437558664 0 -0.0041599150556948022 0.0025240183009442073 0 -0.0037005238920135501 0.0024443975911398546 0 -0.0041599150556948022 0.0025240183009442073 0 -0.0037005238920135501 0.0024443975911398546 0 -0.0037426204375779668 0.002864188948007313 0 -0.003325067585263854 0.0025213023649781042 0 -0.0037005238920135501 0.0024443975911398546 0 -0.0037426204375779668 0.002864188948007313 0 -0.003325067585263854 0.0025213023649781042 0 -0.0034930766215444174 0.0021387469350087392 0 -0.0037005238920135501 0.0024443975911398546 0 -0.00020583432115797777 0.0019072596434423746 0 -0.0022803866304512118 0.0019209674462957343 0 0.00022977217829268682 0.0016584003864500211 0 -0.00020583432115797777 0.0019072596434423746 0 -0.0042598834222818899 0.0030052765598185889 0 -0.00020583432115797777 0.0019072596434423746 0 0.0024286141806697326 0.0014732531374919507 0 0.0018203807520736537 0.0014279635136279685 0 0.0021590760071772178 0.0010662550965091083 0 -0.0017500686128469366 0.0024683203292171613 0 -0.0017016086367211373 0.0019173127389439915 0 -0.0009676218738655228 0.0025258573641156758 0 0.0021590760071772178 0.0010662550965091083 0 0.001834155649802414 0.0007738072669348032 0 0.0025525655362622747 0.00058824769011243364 0 0.0018203807520736537 0.0014279635136279685 0 0.0021590760071772178 0.0010662550965091083 0 0.001834155649802414 0.0007738072669348032 0 0.0024286141806697326 0.0014732531374919507 0 0.0021590760071772178 0.0010662550965091083 0 0.0025525655362622747 0.00058824769011243364 0 0.0018203807520736537 0.0014279635136279685 0 0.001834155649802414 0.0007738072669348032 0 0.001180295391639532 0.00086956419883920332 0 -0.00020583432115797777 0.0019072596434423746 0 0.0017976724166257046 0.00090810047724789063 0 0.001586941532356431 0.0012790946821460488 0 0.001180295391639532 0.00086956419883920332 0 0.0010080222807008258 0.001240440797446944 0 0.001180295391639532 0.00086956419883920332 0 0.0010080222807008258 0.001240440797446944 0 0.00078887052233989215 0.00073090406301307414 0 -0.003325067585263854 0.0025213023649781042 0 -0.0037426204375779668 0.002864188948007313 0 -0.0031544855439618429 0.0029008450874587403 0 -0.0035770668430057584 0.0019802280957576246 0 -0.0022803866304512118 0.0019209674462957343 0 -0.0038731708406297334 0.0012483508277973628 0 -0.003775042491167916 0.0012549296626180467 0 -0.0037620497964648814 0.0015109274890317749 0 -0.0047024273881598414 6.8710693941863578e-05 0 -0.0047055878553291207 0.00060129755992440273 0 -0.0042368680896528958 0.00021052188633691074 0 -0.003775042491167916 0.0012549296626180467 0 -0.0037620497964648814 0.0015109274890317749 0 -0.0035741825414179907 0.001523055264379863 0 -0.0050045850247509068 0.00011148334784763134 0 -0.0047024273881598414 6.8710693941863578e-05 0 -0.0047055878553291207 0.00060129755992440273 0 -0.0044487001064766529 0.00059880203125754045 0 -0.0041312954353588715 0.00098816209005524679 0 -0.0022803866304512118 0.0019209674462957343 0 -0.0041312954353588715 0.00098816209005524679 0 -0.0022803866304512118 0.0019209674462957343 0 -0.0014564892422727843 0.00082090633739469914 0 -0.0035343440448579954 0.0012753902333359631 0 -0.0036749073065256879 0.0012612436964928738 0 -0.0036321585656727997 0.0010722624586063634 0 -0.0036749073065256879 0.0012612436964928738 0 -0.0036321585656727997 0.0010722624586063634 0 -0.003843494585221948 0.0010153901242639998 0 -0.0041770104504993905 0.00059620690129753569 0 -0.003843494585221948 0.0010153901242639998 0 -0.003867012860143319 0.00097042466136187488 0 -0.0041312954353588715 0.00098816209005524679 0 -0.0037843437757770952 0.0010059984618583744 0 -0.0041770104504993905 0.00059620690129753569 0 -0.003751789111677659 0.000799235221217015 0 -0.0037311149151830199 0.00059328228959591766 0 -0.0041770104504993905 0.00059620690129753569 0 -0.003751789111677659 0.000799235221217015 0 -0.003867012860143319 0.00097042466136187488 0 -0.003540546718829279 0.00086419629838835506 0 -0.0037311149151830199 0.00059328228959591766 0 -0.0030862172748264199 0.0006986742794048012 0 -0.003540546718829279 0.00086419629838835506 0 -0.003751789111677659 0.000799235221217015 0 -0.003867012860143319 0.00097042466136187488 0 -0.003540546718829279 0.00086419629838835506 0 -0.003751789111677659 0.000799235221217015 0 -0.0037311149151830199 0.00059328228959591766 0 -0.0037311149151830199 0.00059328228959591766 0 -0.0034125589288095501 -4.0550093014805456e-05 0 -0.0031019041352222314 0.0002486649201632311 0 -0.0037311149151830199 0.00059328228959591766 0 -0.0042368680896528958 0.00021052188633691074 0 -0.0034125589288095501 -4.0550093014805456e-05 0 -0.0047055878553291207 0.00060129755992440273 0 -0.0037311149151830199 0.00059328228959591766 0 -0.0042368680896528958 0.00021052188633691074 0 -0.0041312954353588715 0.00098816209005524679 0 -0.0039075944822509149 0.00050530554239104067 0 -0.0047024273881598414 6.8710693941863578e-05 0 -0.0042368680896528958 0.00021052188633691074 0 -0.0045673112536077053 -0.00025912042818989386 0 -0.0042368680896528958 0.00021052188633691074 0 -0.0034125589288095501 -4.0550093014805456e-05 0 -0.0045673112536077053 -0.00025912042818989386 0 -0.0045426721451204679 -0.00026517483775072179 0 -0.0040519884735906401 -0.00038545035281965583 0 -0.0034125589288095501 -4.0550093014805456e-05 0 -0.0045673112536077053 -0.00025912042818989386 0 -0.0032954487267421156 -0.00066484536151113804 0 -0.0028850549677144075 -0.00039204077606461645 0 -0.0026296366174111321 -0.00042141434512239502 0 -0.0028373954957478568 -0.00036905021784305127 0 -0.0034125589288095501 -4.0550093014805456e-05 0 -0.0028850549677144075 -0.00039204077606461645 0 -0.0032954487267421156 -0.00066484536151113804 0 -0.0034125589288095501 -4.0550093014805456e-05 0 -0.0026490379034817225 -7.1720271647347978e-05 0 -0.0031019041352222314 0.0002486649201632311 0 -0.0034125589288095501 -4.0550093014805456e-05 0 -0.0028850549677144075 -0.00039204077606461645 0 -0.0026490379034817225 -7.1720271647347978e-05 0 -0.0028850549677144075 -0.00039204077606461645 0 -0.0026490379034817225 -7.1720271647347978e-05 0 -0.0026296366174111321 -0.00042141434512239502 0 -0.0026490379034817225 -7.1720271647347978e-05 0 -0.0024132607329242399 0.00034735298685464492 0 -0.0019270941567719445 -5.9580795588024302e-06 0 -0.0026490379034817225 -7.1720271647347978e-05 0 -0.0031019041352222314 0.0002486649201632311 0 -0.0024132607329242399 0.00034735298685464492 0 -0.0037311149151830199 0.00059328228959591766 0 -0.0031019041352222314 0.0002486649201632311 0 -0.0030862172748264199 0.0006986742794048012 0 -0.003540546718829279 0.00086419629838835506 0 -0.0030862172748264199 0.0006986742794048012 0 -0.0031794240724410797 0.001265955273500126 0 -0.0030862172748264199 0.0006986742794048012 0 -0.0027004254778555683 0.00084697452761277293 0 -0.0031794240724410797 0.001265955273500126 0 -0.0031019041352222314 0.0002486649201632311 0 -0.0030862172748264199 0.0006986742794048012 0 -0.0024132607329242399 0.00034735298685464492 0 -0.0030862172748264199 0.0006986742794048012 0 -0.0024132607329242399 0.00034735298685464492 0 -0.0027004254778555683 0.00084697452761277293 0 -0.0024132607329242399 0.00034735298685464492 0 -0.0027004254778555683 0.00084697452761277293 0 -0.0021808814167039625 0.0006840626471083112 0 -0.0027004254778555683 0.00084697452761277293 0 -0.0021808814167039625 0.0006840626471083112 0 -0.0025184345866233132 0.001174784658031182 0 -0.0021808814167039625 0.0006840626471083112 0 -0.0016674576638838251 0.00031948521387322463 0 -0.0015617232000356886 0.00089007722215121634 0 -0.0024132607329242399 0.00034735298685464492 0 -0.0021808814167039625 0.0006840626471083112 0 -0.0016674576638838251 0.00031948521387322463 0 -0.0016674576638838251 0.00031948521387322463 0 -0.00068604590291472772 0.00043629982269388341 0 -0.0015617232000356886 0.00089007722215121634 0 -0.00068604590291472772 0.00043629982269388341 0 -0.0010691931075930776 0.00012955733039322873 0 -8.5525288550103182e-05 0.00027930789525833937 0 -0.0016674576638838251 0.00031948521387322463 0 -0.00068604590291472772 0.00043629982269388341 0 -0.0010691931075930776 0.00012955733039322873 0 -0.0010691931075930776 0.00012955733039322873 0 -0.00099004252585601369 2.3688749084701692e-05 0 -0.0019858694825328031 -0.0001904453209866337 0 -0.0010691931075930776 0.00012955733039322873 0 -0.0019270941567719445 -5.9580795588024302e-06 0 -0.0019858694825328031 -0.0001904453209866337 0 -0.0016674576638838251 0.00031948521387322463 0 -0.0010691931075930776 0.00012955733039322873 0 -0.0019270941567719445 -5.9580795588024302e-06 0 -0.0026490379034817225 -7.1720271647347978e-05 0 -0.0019270941567719445 -5.9580795588024302e-06 0 -0.0022884156814040519 -0.00017542387630765637 0 -0.0024132607329242399 0.00034735298685464492 0 -0.0016674576638838251 0.00031948521387322463 0 -0.0019270941567719445 -5.9580795588024302e-06 0 -0.00033950597191385293 1.6205225383527083e-07 0 -0.00099004252585601369 2.3688749084701692e-05 0 0.00014018672083418844 0.00012482480202137978 0 -0.0010691931075930776 0.00012955733039322873 0 -0.00099004252585601369 2.3688749084701692e-05 0 -8.5525288550103182e-05 0.00027930789525833937 0 -0.00099004252585601369 2.3688749084701692e-05 0 -8.5525288550103182e-05 0.00027930789525833937 0 0.00014018672083418844 0.00012482480202137978 0 -0.00033950597191385293 1.6205225383527083e-07 0 -0.00099004252585601369 2.3688749084701692e-05 0 -0.0017608574338945852 -1.7681755832247643e-07 0 -0.00099004252585601369 2.3688749084701692e-05 0 -0.0017608574338945852 -1.7681755832247643e-07 0 -0.0022816468260479579 -0.00012036564218216082 0 -0.00099004252585601369 2.3688749084701692e-05 0 -0.0022816468260479579 -0.00012036564218216082 0 -0.0019858694825328031 -0.0001904453209866337 0 -0.0022816468260479579 -0.00012036564218216082 0 -0.0030530308584764748 -0.00021659560504420491 0 -0.0019858694825328031 -0.0001904453209866337 0 -0.0017608574338945852 -1.7681755832247643e-07 0 -0.0022816468260479579 -0.00012036564218216082 0 -0.0031823065109592729 -2.5307594474679363e-07 0 -0.0022816468260479579 -0.00012036564218216082 0 -0.0030530308584764748 -0.00021659560504420491 0 -0.0031823065109592729 -2.5307594474679363e-07 0 -0.0019270941567719445 -5.9580795588024302e-06 0 -0.0022884156814040519 -0.00017542387630765637 0 -0.0019858694825328031 -0.0001904453209866337 0 -0.0022884156814040519 -0.00017542387630765637 0 -0.0019858694825328031 -0.0001904453209866337 0 -0.0026296366174111321 -0.00042141434512239502 0 -0.0026490379034817225 -7.1720271647347978e-05 0 -0.0022884156814040519 -0.00017542387630765637 0 -0.0026296366174111321 -0.00042141434512239502 0 -0.0030530308584764748 -0.00021659560504420491 0 -0.0019858694825328031 -0.0001904453209866337 0 -0.0026296366174111321 -0.00042141434512239502 0 -0.0030530308584764748 -0.00021659560504420491 0 -0.0026296366174111321 -0.00042141434512239502 0 -0.0040267216205770355 -0.00018210745903858618 0 -0.0026296366174111321 -0.00042141434512239502 0 -0.0040267216205770355 -0.00018210745903858618 0 -0.0028373954957478568 -0.00036905021784305127 0 -0.0040267216205770355 -0.00018210745903858618 0 -0.0046536722935856647 -0.00035155285856738845 0 -0.004641778679322175 -8.565488018559771e-05 0 -0.0039794832989462339 -0.00018143957611093425 0 -0.0037613772089729919 -0.00025222023450263741 0 -0.0030530308584764748 -0.00021659560504420491 0 -0.0031823065109592729 -2.5307594474679363e-07 0 -0.0039662615343357211 -0.00012048940897794273 0 -0.0030530308584764748 -0.00021659560504420491 0 -0.0040267216205770355 -0.00018210745903858618 0 -0.0039662615343357211 -0.00012048940897794273 0 -0.0040267216205770355 -0.00018210745903858618 0 -0.0039662615343357211 -0.00012048940897794273 0 -0.0050714630386730977 -0.00013324383241771927 0 -0.0039662615343357211 -0.00012048940897794273 0 -0.0046035692453570785 -2.5533234012613238e-07 0 -0.0050714630386730977 -0.00013324383241771927 0 -0.0031823065109592729 -2.5307594474679363e-07 0 -0.0039662615343357211 -0.00012048940897794273 0 -0.0046035692453570785 -2.5533234012613238e-07 0 -0.0040267216205770355 -0.00018210745903858618 0 -0.0050714630386730977 -0.00013324383241771927 0 -0.0052203714252766781 -0.0002301562447320562 0 -0.0046035692453570785 -2.5533234012613238e-07 0 -0.0050714630386730977 -0.00013324383241771927 0 -0.0060250650280213001 -8.7343278295031216e-08 0 -0.0061744102478108673 3.2908611445517838e-05 0 -0.0050714630386730977 -0.00013324383241771927 0 -0.0052203714252766781 -0.0002301562447320562 0 -0.0061744102478108673 3.2908611445517838e-05 0 -0.0050714630386730977 -0.00013324383241771927 0 -0.0060250650280213001 -8.7343278295031216e-08 0 -0.0040267216205770355 -0.00018210745903858618 0 -0.0046536722935856647 -0.00035155285856738845 0 -0.0052203714252766781 -0.0002301562447320562 0 -0.0048675964130023902 -4.7209929529801357e-06 0 -0.0046536722935856647 -0.00035155285856738845 0 -0.0052203714252766781 -0.0002301562447320562 0 -0.0048675964130023902 -4.7209929529801357e-06 0 -0.0046536722935856647 -0.00035155285856738845 0 -0.0046134382994732041 -0.00029260731197833646 0 -0.0046536722935856647 -0.00035155285856738845 0 -0.0046134382994732041 -0.00029260731197833646 0 -0.004774844687783956 -0.00024407145079300579 0 -0.0048802026519483557 -0.00053999982169561681 0 -0.0046134382994732041 -0.00029260731197833646 0 -0.0048437337377640922 -0.00033853970139522386 0 -0.0046134382994732041 -0.00029260731197833646 0 -0.004774844687783956 -0.00024407145079300579 0 -0.0048437337377640922 -0.00033853970139522386 0 -0.0050664568575130671 -0.00045884596319384363 0 -0.0048437337377640922 -0.00033853970139522386 0 -0.004966285767839463 -0.00031651534142005294 0 -0.0050664568575130671 -0.00045884596319384363 0 -0.0052968111586184398 -0.00043021841890440943 0 -0.004966285767839463 -0.00031651534142005294 0 -0.0050904443818824653 -0.00032173149639343082 0 -0.004966285767839463 -0.00031651534142005294 0 -0.0048683114127896967 -0.00022334335511356741 0 -0.0052968111586184398 -0.00043021841890440943 0 -0.0050904443818824653 -0.00032173149639343082 0 -0.004966285767839463 -0.00031651534142005294 0 -0.004774844687783956 -0.00024407145079300579 0 -0.004966285767839463 -0.00031651534142005294 0 -0.0048683114127896967 -0.00022334335511356741 0 -0.004774844687783956 -0.00024407145079300579 0 -0.0048437337377640922 -0.00033853970139522386 0 -0.004966285767839463 -0.00031651534142005294 0 -0.004774844687783956 -0.00024407145079300579 0 -0.0048683114127896967 -0.00022334335511356741 0 -0.0047802310331970781 -0.00016117724173797613 0 -0.0045673112536077053 -0.00025912042818989386 0 -0.0048683114127896967 -0.00022334335511356741 0 -0.0047802310331970781 -0.00016117724173797613 0 -0.004919498046489266 -0.00025051538352255435 0 -0.0045673112536077053 -0.00025912042818989386 0 -0.0048683114127896967 -0.00022334335511356741 0 -0.0028850549677144075 -0.00039204077606461645 0 -0.0032954487267421156 -0.00066484536151113804 0 -0.0028373954957478568 -0.00036905021784305127 0 -0.0040519884735906401 -0.00038545035281965583 0 -0.0037613772089729919 -0.00025222023450263741 0 -0.004774844687783956 -0.00024407145079300579 0 -0.0047802310331970781 -0.00016117724173797613 0 -0.004641778679322175 -8.565488018559771e-05 0 -0.0046536722935856647 -0.00035155285856738845 0 -0.004774844687783956 -0.00024407145079300579 0 -0.004641778679322175 -8.565488018559771e-05 0 0.0017413961077616833 0.001469509505631432 0 0.0011808566887348212 0.0018719150933157282 0 0.0018253255072338108 0.002346468809888114 0 0.0032621670352711535 0.0011356687693409319 0 -0.0018272348933346765 0.002894619947277501 0 0.002368672897416847 0.0017096714430107822 0 0.0017413961077616833 0.001469509505631432 0 0.0018253255072338108 0.002346468809888114 0 0.002368672897416847 0.0017096714430107822 0 0.0018314430940190771 0.0023008314925363066 0 0.0027473841975009078 0.0020485946546788072 0 0.002368672897416847 0.0017096714430107822 0 0.0022612463471896093 0.0010878424478090831 0 0.0017413961077616833 0.001469509505631432 0 0.0022612463471896093 0.0010878424478090831 0 0.0017413961077616833 0.001469509505631432 0 0.0013820844871731644 0.0008841968559125011 0 0.0017413961077616833 0.001469509505631432 0 0.0011808566887348212 0.0018719150933157282 0 0.0013820844871731644 0.0008841968559125011 0 0.00052230468771620789 0.0017186376671704904 0 0.0033791407933041299 0.00094051436246447926 0 0.00052603074394978787 0.0013957264925246672 0 0.0011808566887348212 0.0018719150933157282 0 0.0013820844871731644 0.0008841968559125011 0 0.0041938487667590027 0.001708599624779575 0 0.0051145444964164023 0.0011474340589339197 0 0.0048859379775427437 0.00097906292727993377 0 0.0016354186615786523 0.0012951293965196772 0 0.00104991719329955 0.0012913055206228198 0 0.0012204598385146591 0.00097948497802572798 0 0.0041938487667590027 0.001708599624779575 0 0.0048859379775427437 0.00097906292727993377 0 0.0037233933748494585 0.0013631127999436997 0 0.00052230468771620789 0.0017186376671704904 0 0.0047792549516098275 0.0013625156652570672 0 -0.0034038136603273877 0.003778866680172915 0 -0.0033806566187644309 0.0038136962818099405 0 -0.0034374844194674787 0.0038443297483529539 0 -0.0034038136603273877 0.003778866680172915 0 -0.0034374844194674787 0.0038443297483529539 0 -0.0034748061665317758 0.0038392030797740808 0 0.00052230468771620789 0.0017186376671704904 0 -0.0011689586616751377 0.0029062822972415765 0 -0.0033806566187644309 0.0038136962818099405 0 -0.0034149547386367993 0.0038576360482563618 0 -0.0034374844194674787 0.0038443297483529539 0 -0.0034149547386367993 0.0038576360482563618 0 -0.0034374844194674787 0.0038443297483529539 0 -0.0034783777036185657 0.0038893011147073473 0 -0.0034374844194674787 0.0038443297483529539 0 -0.0034783777036185657 0.0038893011147073473 0 -0.0034723187263670922 0.0038713517353166876 0 -0.0034149547386367993 0.0038576360482563618 0 -0.0034783777036185657 0.0038893011147073473 0 -0.0034243257693987615 0.003899366041354642 0 -0.0057104867991281394 0.0036255604898307184 0 -0.0018272348933346765 0.002894619947277501 0 -0.0069278009837043719 0.0029563053709106076 0 -0.0063757188361471375 0.0028681669728943312 0 -0.0064035724207058978 0.0033056243156892699 0 -0.0069278009837043719 0.0029563053709106076 0 -0.0063959668111032101 0.0023612269329486507 0 -0.0063757188361471375 0.0028681669728943312 0 -0.0011689586616751377 0.0029062822972415765 0 -0.0018272348933346765 0.002894619947277501 0 -0.0033806566187644309 0.0038136962818099405 0 -0.0034149547386367993 0.0038576360482563618 0 -0.0033389516452755267 0.0038409228994110037 0 -0.0034149547386367993 0.0038576360482563618 0 -0.0034243257693987615 0.003899366041354642 0 -0.0033389516452755267 0.0038409228994110037 0 0.0018314430940190771 0.0023008314925363066 0 0.0024863945831848679 0.0027571941779571943 0 0.0027473841975009078 0.0020485946546788072 0 -0.0018272348933346765 0.002894619947277501 0 -0.0014130532826308747 0.0029291144527396847 0 -0.0063757188361471375 0.0028681669728943312 0 -0.0058952589119037023 0.0027294478080953713 0 -0.0060063582401994773 0.0031618255640266909 0 -0.0063959668111032101 0.0023612269329486507 0 -0.0063757188361471375 0.0028681669728943312 0 -0.0058952589119037023 0.0027294478080953713 0 -0.0014130532826308747 0.0029291144527396847 0 -0.0031638480152469325 0.0017774867277536674 0 -0.0058952589119037023 0.0027294478080953713 0 -0.0060063582401994773 0.0031618255640266909 0 -0.0053764298844226422 0.0030910192247415149 0 0.0024863945831848679 0.0027571941779571943 0 0.0030956650335534201 0.0024089711583589659 0 0.0031030039758075272 0.0032098768957462753 0 0.0030956650335534201 0.0024089711583589659 0 0.0037224815593260626 0.0024612198328520327 0 0.0031030039758075272 0.0032098768957462753 0 -0.0060215830312927631 -0.00069827276489498622 0 -0.0060085214179481155 -0.00080531541976826401 0 -0.0061199156179140317 -0.00064299219570421022 0 -0.00083224722575996209 0.00063787581796930935 0 -0.0031638480152469325 0.0017774867277536674 0 0.0030956650335534201 0.0024089711583589659 0 0.0036994389790671787 0.0020151496046862155 0 0.0032550100792641205 0.0017687053051862016 0 0.0030956650335534201 0.0024089711583589659 0 0.0037224815593260626 0.0024612198328520327 0 0.0036994389790671787 0.0020151496046862155 0 0.0030956650335534201 0.0024089711583589659 0 0.0027473841975009078 0.0020485946546788072 0 0.0032550100792641205 0.0017687053051862016 0 0.0024863945831848679 0.0027571941779571943 0 0.0030956650335534201 0.0024089711583589659 0 0.0027473841975009078 0.0020485946546788072 0 -0.0059969311144468761 -0.00054332452683832078 0 -0.0063523268691685897 -0.00053383413392600078 0 -0.0058825247054881142 -0.00078814897623145897 0 -0.0059388881358669104 -0.00070160648167351825 0 -0.0059339849461721734 -0.00081155401102185436 0 -0.0058825247054881142 -0.00078814897623145897 0 -0.0054955630568270745 -0.001012070200295849 0 -0.0061449722620664443 -0.00060112781551392204 0 -0.0059388881358669104 -0.00070160648167351825 0 -0.0059748693570598728 -0.00075548638898273012 0 -0.0059339849461721734 -0.00081155401102185436 0 -0.0059388881358669104 -0.00070160648167351825 0 -0.0059748693570598728 -0.00075548638898273012 0 -0.0060215830312927631 -0.00069827276489498622 0 -0.0059748693570598728 -0.00075548638898273012 0 -0.0060215830312927631 -0.00069827276489498622 0 -0.0060085214179481155 -0.00080531541976826401 0 -0.00083224722575996209 0.00063787581796930935 0 -0.001144437081734414 0.00044437794509185333 0 0.0037224815593260626 0.0024612198328520327 0 0.0042001300637849277 0.0017430575275602493 0 0.0036994389790671787 0.0020151496046862155 0 -0.0060085214179481155 -0.00080531541976826401 0 -0.0059339849461721734 -0.00081155401102185436 0 -0.0059173636606575635 -0.00097339270076127779 0 -0.0059748693570598728 -0.00075548638898273012 0 -0.0060085214179481155 -0.00080531541976826401 0 -0.0059339849461721734 -0.00081155401102185436 0 -0.0059339849461721734 -0.00081155401102185436 0 -0.0058840802836239246 -0.00087636711086064908 0 -0.0059173636606575635 -0.00097339270076127779 0 -0.0059339849461721734 -0.00081155401102185436 0 -0.0058840802836239246 -0.00087636711086064908 0 -0.0058825247054881142 -0.00078814897623145897 0 -0.0059173636606575635 -0.00097339270076127779 0 -0.0057979377449987974 -0.0009440031599146449 0 -0.0057992896270887559 -0.0011662955828765024 0 -0.0058840802836239246 -0.00087636711086064908 0 -0.0059173636606575635 -0.00097339270076127779 0 -0.0057979377449987974 -0.0009440031599146449 0 0.0039905459676369487 0.0017321309398851891 0 0.0045836576274549019 0.0011126912732682889 0 0.0042001300637849277 0.0017430575275602493 0 0.0040276787754213797 0.0017048563028948195 0 0.0041907624963351923 0.001598476052472252 0 0.0042001300637849277 0.0017430575275602493 0 0.0040276787754213797 0.0017048563028948195 0 0.0036994389790671787 0.0020151496046862155 0 0.0040276787754213797 0.0017048563028948195 0 0.0039083686768551082 0.0014527619888433767 0 0.003648286091572187 0.0015755166373494747 0 0.0040276787754213797 0.0017048563028948195 0 0.0036994389790671787 0.0020151496046862155 0 0.003648286091572187 0.0015755166373494747 0 0.0039083686768551082 0.0014527619888433767 0 0.003648286091572187 0.0015755166373494747 0 0.0036779326361262485 0.0012364912524492231 0 0.0039083686768551082 0.0014527619888433767 0 0.0039525372175419583 0.0011979218778318981 0 0.0036779326361262485 0.0012364912524492231 0 0.0039525372175419583 0.0011979218778318981 0 0.0036779326361262485 0.0012364912524492231 0 0.0038806778342764603 0.00084969429677116462 0 0.0039525372175419583 0.0011979218778318981 0 0.0040986850097924979 0.00097130386222385998 0 0.0038806778342764603 0.00084969429677116462 0 0.0042879059660209436 0.0010933704960282649 0 0.0040986850097924979 0.00097130386222385998 0 0.0042745927034563537 0.00074906069883611535 0 0.0039525372175419583 0.0011979218778318981 0 0.0042879059660209436 0.0010933704960282649 0 0.0040986850097924979 0.00097130386222385998 0 0.0039525372175419583 0.0011979218778318981 0 0.0042879059660209436 0.0010933704960282649 0 0.0041474656822529611 0.0013578252230814429 0 0.0040276787754213797 0.0017048563028948195 0 0.0039083686768551082 0.0014527619888433767 0 0.0041474656822529611 0.0013578252230814429 0 0.0040276787754213797 0.0017048563028948195 0 0.0041474656822529611 0.0013578252230814429 0 0.0045742620955239507 0.0013268537956668356 0 0.0039083686768551082 0.0014527619888433767 0 0.0039525372175419583 0.0011979218778318981 0 0.0041474656822529611 0.0013578252230814429 0 -0.001144437081734414 0.00044437794509185333 0 0.00080498911603125339 0.00054861434000026373 0 0.0042001300637849277 0.0017430575275602493 0 0.0041907624963351923 0.001598476052472252 0 0.0042187331311655954 0.0014655940071978759 0 0.0042879059660209436 0.0010933704960282649 0 0.0041474656822529611 0.0013578252230814429 0 0.0045742620955239507 0.0013268537956668356 0 0.0042879059660209436 0.0010933704960282649 0 0.0045742620955239507 0.0013268537956668356 0 0.0045568484787426597 0.00094367577827197155 0 0.0042879059660209436 0.0010933704960282649 0 0.0045568484787426597 0.00094367577827197155 0 0.0042745927034563537 0.00074906069883611535 0 0.0045742620955239507 0.0013268537956668356 0 0.0045568484787426597 0.00094367577827197155 0 0.0049820240299424997 0.00096710463012451885 0 0.0045836576274549019 0.0011126912732682889 0 0.00080498911603125339 0.00054861434000026373 0 0.0027473841975009078 0.0020485946546788072 0 0.0032550100792641205 0.0017687053051862016 0 0.0029420140596229313 0.0013384244652345056 0 0.002368672897416847 0.0017096714430107822 0 0.0027473841975009078 0.0020485946546788072 0 0.0029420140596229313 0.0013384244652345056 0 0.0036994389790671787 0.0020151496046862155 0 0.003648286091572187 0.0015755166373494747 0 0.0032550100792641205 0.0017687053051862016 0 0.003648286091572187 0.0015755166373494747 0 0.0032550100792641205 0.0017687053051862016 0 0.0033739029751804505 0.0013189387652747604 0 0.0033739029751804505 0.0013189387652747604 0 0.0031978073652293858 0.0010136937652451522 0 0.0029420140596229313 0.0013384244652345056 0 0.0032550100792641205 0.0017687053051862016 0 0.0033739029751804505 0.0013189387652747604 0 0.0029420140596229313 0.0013384244652345056 0 0.003648286091572187 0.0015755166373494747 0 0.0033739029751804505 0.0013189387652747604 0 0.0036779326361262485 0.0012364912524492231 0 0.0033739029751804505 0.0013189387652747604 0 0.0036779326361262485 0.0012364912524492231 0 0.0035208261584139312 0.00096291600470813912 0 0.0036779326361262485 0.0012364912524492231 0 0.0035208261584139312 0.00096291600470813912 0 0.0038806778342764603 0.00084969429677116462 0 0.0033739029751804505 0.0013189387652747604 0 0.0035208261584139312 0.00096291600470813912 0 0.0031978073652293858 0.0010136937652451522 0 0.0031978073652293858 0.0010136937652451522 0 0.0029420140596229313 0.0013384244652345056 0 0.0028910230627353806 0.00073213096260520908 0 0.0022612463471896093 0.0010878424478090831 0 0.0029420140596229313 0.0013384244652345056 0 0.0028910230627353806 0.00073213096260520908 0 0.002368672897416847 0.0017096714430107822 0 0.0022612463471896093 0.0010878424478090831 0 0.0029420140596229313 0.0013384244652345056 0 0.0028910230627353806 0.00073213096260520908 0 0.0030433888955093157 0.00010963393705023227 0 0.002239565652579083 0.00037879081158267389 0 0.0028910230627353806 0.00073213096260520908 0 0.0032331049949657869 0.00046685391341130084 0 0.0030433888955093157 0.00010963393705023227 0 0.0031978073652293858 0.0010136937652451522 0 0.0028910230627353806 0.00073213096260520908 0 0.0033398652359068904 0.00073686871831349962 0 0.0028910230627353806 0.00073213096260520908 0 0.0033398652359068904 0.00073686871831349962 0 0.0032331049949657869 0.00046685391341130084 0 0.0035208261584139312 0.00096291600470813912 0 0.0031978073652293858 0.0010136937652451522 0 0.0033398652359068904 0.00073686871831349962 0 0.0035208261584139312 0.00096291600470813912 0 0.0033398652359068904 0.00073686871831349962 0 0.0036873699587548206 0.00065367081329436997 0 0.0035208261584139312 0.00096291600470813912 0 0.0036873699587548206 0.00065367081329436997 0 0.0038806778342764603 0.00084969429677116462 0 0.0033398652359068904 0.00073686871831349962 0 0.0036873699587548206 0.00065367081329436997 0 0.0035481990440661077 0.00046617953528634893 0 0.0036873699587548206 0.00065367081329436997 0 0.0035481990440661077 0.00046617953528634893 0 0.003819040147410063 0.00034837094453473246 0 0.0036873699587548206 0.00065367081329436997 0 0.003819040147410063 0.00034837094453473246 0 0.0039315875449883785 0.00052643213262443809 0 0.0035481990440661077 0.00046617953528634893 0 0.003819040147410063 0.00034837094453473246 0 0.0036310331734898602 0.0002913876288397028 0 0.0033398652359068904 0.00073686871831349962 0 0.0035481990440661077 0.00046617953528634893 0 0.0032331049949657869 0.00046685391341130084 0 0.0035481990440661077 0.00046617953528634893 0 0.0032331049949657869 0.00046685391341130084 0 0.003340757722715628 0.00026128339554213172 0 0.0032331049949657869 0.00046685391341130084 0 0.003340757722715628 0.00026128339554213172 0 0.0030433888955093157 0.00010963393705023227 0 0.0036797763569540831 0.00016514766843209126 0 0.0030433888955093157 0.00010963393705023227 0 0.0041388843330711677 -0.00018351563875956193 0 0.0028089670396770584 0.00013385520327270024 0 0.0042492014370469327 -0.00021509567981468225 0 0.0036094416704104985 -0.00012085409489846854 0 0.0035037514349492349 2.0262785747458906e-05 0 0.0041388843330711677 -0.00018351563875956193 0 0.003340757722715628 0.00026128339554213172 0 0.0036797763569540831 0.00016514766843209126 0 0.0030433888955093157 0.00010963393705023227 0 0.0035481990440661077 0.00046617953528634893 0 0.003340757722715628 0.00026128339554213172 0 0.0036310331734898602 0.0002913876288397028 0 0.003819040147410063 0.00034837094453473246 0 0.0036797763569540831 0.00016514766843209126 0 0.0040720829652182511 0.00012460678270346411 0 0.003819040147410063 0.00034837094453473246 0 0.0036310331734898602 0.0002913876288397028 0 0.0036797763569540831 0.00016514766843209126 0 0.003340757722715628 0.00026128339554213172 0 0.0036310331734898602 0.0002913876288397028 0 0.0036797763569540831 0.00016514766843209126 0 0.0073523998377878945 0.00084647866702983795 0 0.009075581674035613 0.0013371734603101302 0 0.009075581674035613 0.0013371734603101302 0 0.0053135302932571541 0.0006787719599381562 0 0.009075581674035613 0.0013371734603101302 0 0.012367806281988499 0.0022571620983704399 0 0.0028089670396770584 0.00013385520327270024 0 0.0053135302932571541 0.0006787719599381562 0 0.0035300313544751783 -9.6650022977408582e-05 0 0.0035037514349492349 2.0262785747458906e-05 0 0.0033432803850250593 0.0001713976061272708 0 0.0036094416704104985 -0.00012085409489846854 0 0.0035300313544751783 -9.6650022977408582e-05 0 0.0035037514349492349 2.0262785747458906e-05 0 0.0046541462973340225 0.00060299424721495926 0 0.0049820240299424997 0.00096710463012451885 0 0.0049406552243241794 0.00021262861675996425 0 0.0045568484787426597 0.00094367577827197155 0 0.0046541462973340225 0.00060299424721495926 0 0.0049820240299424997 0.00096710463012451885 0 0.0045568484787426597 0.00094367577827197155 0 0.0046541462973340225 0.00060299424721495926 0 0.0042745927034563537 0.00074906069883611535 0 0.0046541462973340225 0.00060299424721495926 0 0.0043810840512747747 0.00047420623236205973 0 0.0042745927034563537 0.00074906069883611535 0 0.0046541462973340225 0.00060299424721495926 0 0.0043810840512747747 0.00047420623236205973 0 0.0044952506464528324 0.0002064274127638329 0 0.0043810840512747747 0.00047420623236205973 0 0.0041842836110593693 0.00050744619898169499 0 0.0042397894917559301 0.00031812465904539088 0 0.0041842836110593693 0.00050744619898169499 0 0.004046999175422678 0.00033217420333021271 0 0.0042397894917559301 0.00031812465904539088 0 0.0043810840512747747 0.00047420623236205973 0 0.0041842836110593693 0.00050744619898169499 0 0.0042745927034563537 0.00074906069883611535 0 0.0041842836110593693 0.00050744619898169499 0 0.0042745927034563537 0.00074906069883611535 0 0.0038806778342764603 0.00084969429677116462 0 0.0040986850097924979 0.00097130386222385998 0 0.0042745927034563537 0.00074906069883611535 0 0.0038806778342764603 0.00084969429677116462 0 0.0036873699587548206 0.00065367081329436997 0 0.0038806778342764603 0.00084969429677116462 0 0.0039315875449883785 0.00052643213262443809 0 0.0041842836110593693 0.00050744619898169499 0 0.0038806778342764603 0.00084969429677116462 0 0.0039315875449883785 0.00052643213262443809 0 0.0041842836110593693 0.00050744619898169499 0 0.0039315875449883785 0.00052643213262443809 0 0.004046999175422678 0.00033217420333021271 0 0.003819040147410063 0.00034837094453473246 0 0.0039315875449883785 0.00052643213262443809 0 0.004046999175422678 0.00033217420333021271 0 0.0040720829652182511 0.00012460678270346411 0 0.0044952506464528324 0.0002064274127638329 0 0.0045988000988046798 -0.0003099426715788823 0 0.0040720829652182511 0.00012460678270346411 0 0.0041388843330711677 -0.00018351563875956193 0 0.0056721728342154073 -0.00050134265372724519 0 0.0040720829652182511 0.00012460678270346411 0 0.0042397894917559301 0.00031812465904539088 0 0.0044952506464528324 0.0002064274127638329 0 0.0041743093136008573 9.9064399168827561e-05 0 0.0051367448486515175 -0.00042345691244558817 0 0.003819040147410063 0.00034837094453473246 0 0.004046999175422678 0.00033217420333021271 0 0.0040720829652182511 0.00012460678270346411 0 0.004046999175422678 0.00033217420333021271 0 0.0040720829652182511 0.00012460678270346411 0 0.0042397894917559301 0.00031812465904539088 0 0.0036797763569540831 0.00016514766843209126 0 0.0040720829652182511 0.00012460678270346411 0 0.0041388843330711677 -0.00018351563875956193 0 0.0043810840512747747 0.00047420623236205973 0 0.0042397894917559301 0.00031812465904539088 0 0.0044952506464528324 0.0002064274127638329 0 0.0044952506464528324 0.0002064274127638329 0 0.0045988000988046798 -0.0003099426715788823 0 0.0049406552243241794 0.00021262861675996425 0 0.0046541462973340225 0.00060299424721495926 0 0.0044952506464528324 0.0002064274127638329 0 0.0049406552243241794 0.00021262861675996425 0 0.0056721728342154073 -0.00050134265372724519 0 0.0044191712824747662 -0.00095038547197661826 0 0.0064618084271003771 -0.0022090123463595944 0 0.0041388843330711677 -0.00018351563875956193 0 0.0056721728342154073 -0.00050134265372724519 0 0.0044191712824747662 -0.00095038547197661826 0 0.01575199296948096 0.0021088271421527698 0 0.017228571799349227 0.0012294097290725845 0 0.015529097263515288 0.00080660577308719176 0 0.010086741189411004 0.00057558438931536139 0 0.011814523451446873 -0.00047293304634689901 0 0.014359288319369137 0.002862660390960736 0 0.01373720086106099 0.001825336294719328 0 0.014612072600558025 0.0018887040377346912 0 0.014359288319369137 0.002862660390960736 0 0.01373720086106099 0.001825336294719328 0 0.013092438456788039 0.0024194712098668226 0 0.009075581674035613 0.0013371734603101302 0 0.010086741189411004 0.00057558438931536139 0 0.0036094416704104985 -0.00012085409489846854 0 0.0041388843330711677 -0.00018351563875956193 0 0.0044191712824747662 -0.00095038547197661826 0 0.0036094416704104985 -0.00012085409489846854 0 0.0034907358807685072 -0.00014607248621639662 0 0.0044191712824747662 -0.00095038547197661826 0 0.014359288319369137 0.002862660390960736 0 0.01575199296948096 0.0021088271421527698 0 0.014612072600558025 0.0018887040377346912 0 0.01575199296948096 0.0021088271421527698 0 0.014612072600558025 0.0018887040377346912 0 0.015529097263515288 0.00080660577308719176 0 0.014612072600558025 0.0018887040377346912 0 0.014261999440299494 0.0010601381469199094 0 0.015529097263515288 0.00080660577308719176 0 0.01373720086106099 0.001825336294719328 0 0.014612072600558025 0.0018887040377346912 0 0.014261999440299494 0.0010601381469199094 0 0.01373720086106099 0.001825336294719328 0 0.014261999440299494 0.0010601381469199094 0 0.013619468367366255 0.0012029043807382728 0 0.013619468367366255 0.0012029043807382728 0 0.013086219499188062 0.0014272540870622239 0 0.01330655634574229 0.00090393927600128713 0 0.013086219499188062 0.0014272540870622239 0 0.012329129972904234 0.0013259089862722045 0 0.013092438456788039 0.0024194712098668226 0 0.013086219499188062 0.0014272540870622239 0 0.01275757729365639 0.00091951673333777516 0 0.01330655634574229 0.00090393927600128713 0 0.01373720086106099 0.001825336294719328 0 0.013619468367366255 0.0012029043807382728 0 0.013086219499188062 0.0014272540870622239 0 0.013086219499188062 0.0014272540870622239 0 0.012329129972904234 0.0013259089862722045 0 0.01275757729365639 0.00091951673333777516 0 0.012329129972904234 0.0013259089862722045 0 0.01196852532244032 0.0013048595615459953 0 0.012136559742672807 0.0010059644006510254 0 0.012329129972904234 0.0013259089862722045 0 0.012136559742672807 0.0010059644006510254 0 0.012366486435569554 0.00099499856819812047 0 0.012329129972904234 0.0013259089862722045 0 0.012366486435569554 0.00099499856819812047 0 0.01275757729365639 0.00091951673333777516 0 0.012329129972904234 0.0013259089862722045 0 0.011936700129263893 0.0020210746249053921 0 0.01196852532244032 0.0013048595615459953 0 0.012329129972904234 0.0013259089862722045 0 0.013092438456788039 0.0024194712098668226 0 0.011936700129263893 0.0020210746249053921 0 0.012367806281988499 0.0022571620983704399 0 0.011054489922003122 0.0018010405158883937 0 0.010272260961301639 0.0016942279799790118 0 0.010449917733822089 0.001580204121805481 0 0.010496656271671073 0.0016985995428419412 0 0.01373720086106099 0.001825336294719328 0 0.013086219499188062 0.0014272540870622239 0 0.013092438456788039 0.0024194712098668226 0 0.0099974638339007174 0.0016274728097400593 0 0.010272260961301639 0.0016942279799790118 0 0.010236381605933709 0.0015060200901876606 0 0.010272260961301639 0.0016942279799790118 0 0.010449917733822089 0.001580204121805481 0 0.010236381605933709 0.0015060200901876606 0 0.0033791407933041299 0.00094051436246447926 0 0.0053135302932571541 0.0006787719599381562 0 0.010449917733822089 0.001580204121805481 0 0.010236381605933709 0.0015060200901876606 0 0.010473654076062639 0.001506649293912548 0 0.0051145444964164023 0.0011474340589339197 0 0.005984514694334875 0.0006088724868712975 0 0.0048859379775427437 0.00097906292727993377 0 0.0053135302932571541 0.0006787719599381562 0 0.0087434303491449993 0.0011965065982089381 0 0.0022612463471896093 0.0010878424478090831 0 0.0013820844871731644 0.0008841968559125011 0 0.002239565652579083 0.00037879081158267389 0 0.0022612463471896093 0.0010878424478090831 0 0.0028910230627353806 0.00073213096260520908 0 0.002239565652579083 0.00037879081158267389 0 0.0087434303491449993 0.0011965065982089381 0 0.0047792549516098275 0.0013625156652570672 0 0.010513152344860022 0.0015437165155454268 0 0.010473654076062639 0.001506649293912548 0 0.01048319553472467 0.0015801857883647062 0 0.010513152344860022 0.0015437165155454268 0 0.01050673283796408 0.001557215339836733 0 0.010542267291173996 0.0015792915638072748 0 0.010513152344860022 0.0015437165155454268 0 0.01050673283796408 0.001557215339836733 0 0.01048319553472467 0.0015801857883647062 0 0.010449917733822089 0.001580204121805481 0 0.010513152344860022 0.0015437165155454268 0 0.010473654076062639 0.001506649293912548 0 0.010449917733822089 0.001580204121805481 0 0.010565339414531543 0.0015939566216477104 0 0.010496656271671073 0.0016985995428419412 0 0.010449917733822089 0.001580204121805481 0 0.010513152344860022 0.0015437165155454268 0 0.010565339414531543 0.0015939566216477104 0 0.010513152344860022 0.0015437165155454268 0 0.010565339414531543 0.0015939566216477104 0 0.010542267291173996 0.0015792915638072748 0 0.010565339414531543 0.0015939566216477104 0 0.010542267291173996 0.0015792915638072748 0 0.010582699623057554 0.0016167402385154264 0 0.010565339414531543 0.0015939566216477104 0 0.010652287774602868 0.001611493859471758 0 0.010582699623057554 0.0016167402385154264 0 0.010652287774602868 0.001611493859471758 0 0.010496656271671073 0.0016985995428419412 0 0.010769707098476007 0.0015825937895457645 0 0.010652287774602868 0.001611493859471758 0 0.010769707098476007 0.0015825937895457645 0 0.010587669307342099 0.0016060255664410972 0 0.010565339414531543 0.0015939566216477104 0 0.010652287774602868 0.001611493859471758 0 0.010496656271671073 0.0016985995428419412 0 0.011054489922003122 0.0018010405158883937 0 0.01085090384347802 0.0016363414926765731 0 0.011936700129263893 0.0020210746249053921 0 0.011579751089958614 0.001210800922768495 0 0.011154086947976644 0.0012930889387497129 0 0.011936700129263893 0.0020210746249053921 0 0.011579751089958614 0.001210800922768495 0 0.01196852532244032 0.0013048595615459953 0 0.011579751089958614 0.001210800922768495 0 0.01196852532244032 0.0013048595615459953 0 0.011860341097990857 0.00099312350824437459 0 0.01196852532244032 0.0013048595615459953 0 0.011860341097990857 0.00099312350824437459 0 0.012136559742672807 0.0010059644006510254 0 0.011936700129263893 0.0020210746249053921 0 0.010769707098476007 0.0015825937895457645 0 0.011154086947976644 0.0012930889387497129 0 0.011154086947976644 0.0012930889387497129 0 0.01093330958619268 0.0011820236495794323 0 0.011286424251748799 0.00098711046497819703 0 0.011579751089958614 0.001210800922768495 0 0.011154086947976644 0.0012930889387497129 0 0.011286424251748799 0.00098711046497819703 0 0.010769707098476007 0.0015825937895457645 0 0.011154086947976644 0.0012930889387497129 0 0.01093330958619268 0.0011820236495794323 0 0.010769707098476007 0.0015825937895457645 0 0.01093330958619268 0.0011820236495794323 0 0.010536709437180073 0.0012659886576285753 0 0.010536709437180073 0.0012659886576285753 0 0.010587669307342099 0.0016060255664410972 0 0.010423406352377646 0.0015067567065544041 0 0.010769707098476007 0.0015825937895457645 0 0.010536709437180073 0.0012659886576285753 0 0.010587669307342099 0.0016060255664410972 0 0.010871578314837867 0.00096568530636592295 0 0.0098970707598806038 0.0014596511471407399 0 0.010587669307342099 0.0016060255664410972 0 0.010423406352377646 0.0015067567065544041 0 0.010550299105656779 0.0016398899431626487 0 0.010652287774602868 0.001611493859471758 0 0.010587669307342099 0.0016060255664410972 0 0.010582699623057554 0.0016167402385154264 0 0.0080640815388607623 0.0016368500237109477 0 0.0079547818437953489 0.0017314888230771075 0 0.0080852033349132543 0.0018320602463936801 0 0.0098970707598806038 0.0014596511471407399 0 0.0095054231762086144 0.0017640683848858727 0 0.010721465904318401 0.0017584765978871362 0 0.0099910866431508951 0.0016083127855508539 0 0.010057160953437564 0.0023753084624370513 0 0.0098970707598806038 0.0014596511471407399 0 0.0090454151636691765 0.0019575570876572404 0 0.0098970707598806038 0.0014596511471407399 0 0.010583173770988896 0.00029740933189875576 0 0.010721465904318401 0.0017584765978871362 0 0.010057871077196542 0.0010034382920748866 0 0.010374799056927401 0.00013105582021510136 0 0.010983299190195738 0.00082309404593183691 0 0.010819610395134837 0.0011746953821416364 0 0.010835668591999104 0.00072681100148065496 0 0.010721465904318401 0.0017584765978871362 0 0.010057871077196542 0.0010034382920748866 0 0.0099910866431508951 0.0016083127855508539 0 0.010057871077196542 0.0010034382920748866 0 0.0095512489960857556 0.0011393345231361094 0 0.0099910866431508951 0.0016083127855508539 0 0.0095512489960857556 0.0011393345231361094 0 0.0088076855672103421 0.0015456948291855616 0 0.0094334627779731704 0.0019936125002981858 0 0.0095512489960857556 0.0011393345231361094 0 0.0099910866431508951 0.0016083127855508539 0 0.0094334627779731704 0.0019936125002981858 0 0.0088076855672103421 0.0015456948291855616 0 0.0082087762314384267 0.0011041035299522036 0 0.0088853587237636179 0.00074011474482522379 0 0.0095512489960857556 0.0011393345231361094 0 0.0088076855672103421 0.0015456948291855616 0 0.0088853587237636179 0.00074011474482522379 0 0.0088076855672103421 0.0015456948291855616 0 0.0082087762314384267 0.0011041035299522036 0 0.0079632140969778907 0.0019577862951189319 0 0.0088076855672103421 0.0015456948291855616 0 0.00868072675477107 0.0024719680667297681 0 0.0079632140969778907 0.0019577862951189319 0 0.00868072675477107 0.0024719680667297681 0 0.0094334627779731704 0.0019936125002981858 0 0.0093913798295328435 0.0029877719027658315 0 0.0088076855672103421 0.0015456948291855616 0 0.00868072675477107 0.0024719680667297681 0 0.0094334627779731704 0.0019936125002981858 0 0.0052263253424934273 0.002349287219917685 0 0.0051510715604582728 0.0024514153703357553 0 0.0051021782831850819 0.0022562671620361594 0 0.0070013007903249264 0.0024237133107804939 0 0.0069246671669420052 0.0019969536094377751 0 0.0094334627779731704 0.0019936125002981858 0 0.010057160953437564 0.0023753084624370513 0 0.0093913798295328435 0.0029877719027658315 0 0.0099910866431508951 0.0016083127855508539 0 0.0094334627779731704 0.0019936125002981858 0 0.010057160953437564 0.0023753084624370513 0 0.0090454151636691765 0.0019575570876572404 0 0.0069499147001337571 0.0023343504722000441 0 0.0069499147001337571 0.0023343504722000441 0 0.0066973186654036339 0.0022544735330232968 0 0.0052808899660134884 0.0024849449331514773 0 0.005264429274555768 0.0026065699118685043 0 0.0054013481294525731 0.00256998916164632 0 0.0079547818437953489 0.0017314888230771075 0 0.0078508920801558402 0.0018230841741283129 0 0.0079867204256630735 0.0019173715619832648 0 0.0052808899660134884 0.0024849449331514773 0 0.0051460538364274024 0.0026088099896422012 0 0.005264429274555768 0.0026065699118685043 0 0.0069499147001337571 0.0023343504722000441 0 0.0046750178112359804 0.002825697656118916 0 0.005365482363487337 0.0024457455054073787 0 0.0051510715604582728 0.0024514153703357553 0 0.0051460538364274024 0.0026088099896422012 0 0.0052263253424934273 0.002349287219917685 0 0.005365482363487337 0.0024457455054073787 0 0.0051510715604582728 0.0024514153703357553 0 0.0070013007903249264 0.0024237133107804939 0 0.0069499147001337571 0.0023343504722000441 0 0.0051460538364274024 0.0026088099896422012 0 0.005264429274555768 0.0026065699118685043 0 0.0051306445975992992 0.0027644126200900392 0 0.005264429274555768 0.0026065699118685043 0 0.0053226530293420332 0.0027081618388342852 0 0.0051306445975992992 0.0027644126200900392 0 0.005264429274555768 0.0026065699118685043 0 0.0054013481294525731 0.00256998916164632 0 0.0053226530293420332 0.0027081618388342852 0 0.0054013481294525731 0.00256998916164632 0 0.0055363686001100127 0.0026598495848309985 0 0.0053226530293420332 0.0027081618388342852 0 0.0066973186654036339 0.0022544735330232968 0 0.006504113206764358 0.0019738270431372707 0 0.006504113206764358 0.0019738270431372707 0 0.0021661970221957816 0.0019870064446337941 0 0.0079867204256630735 0.0019173715619832648 0 0.0080988787473993441 0.0020049315563265527 0 0.0080852033349132543 0.0018320602463936801 0 0.006504113206764358 0.0019738270431372707 0 0.0095054231762086144 0.0017640683848858727 0 0.01054724848792362 0.001559416450801127 0 0.010539879147341625 0.0015834924624918618 0 0.010550299105656779 0.0016398899431626487 0 0.01050673283796408 0.001557215339836733 0 0.01054724848792362 0.001559416450801127 0 0.010539879147341625 0.0015834924624918618 0 0.01050673283796408 0.001557215339836733 0 0.010393546658517968 0.0015569790061689707 0 0.01048319553472467 0.0015801857883647062 0 0.011415365720648604 0.0012943219786944757 0 0.006504113206764358 0.0019738270431372707 0 0.01050673283796408 0.001557215339836733 0 0.010542267291173996 0.0015792915638072748 0 0.010539879147341625 0.0015834924624918618 0 0.010542267291173996 0.0015792915638072748 0 0.010539879147341625 0.0015834924624918618 0 0.010582699623057554 0.0016167402385154264 0 0.010539879147341625 0.0015834924624918618 0 0.010582699623057554 0.0016167402385154264 0 0.010550299105656779 0.0016398899431626487 0 0.010587669307342099 0.0016060255664410972 0 0.010582699623057554 0.0016167402385154264 0 0.010550299105656779 0.0016398899431626487 0 0.0079547818437953489 0.0017314888230771075 0 0.0079867204256630735 0.0019173715619832648 0 0.0080852033349132543 0.0018320602463936801 0 0.003870412229917452 0.0017041451389419389 0 0.0023880047110997082 0.0015649875209581539 0 0.0050843224035151992 0.0021003745160895187 0 0.005472495240107381 0.0019172015383526915 0 0.0054250753870655841 0.0021143119290287218 0 0.003414011936739624 0.001292179035452192 0 0.0043479131276561219 0.0013631111102298278 0 0.0032968050781351545 0.0018733221476339057 0 0.003870412229917452 0.0017041451389419389 0 0.0049823410339909059 0.0017173692018057666 0 0.0049823410339909059 0.0017173692018057666 0 0.0023880047110997082 0.0015649875209581539 0 0.0050843224035151992 0.0021003745160895187 0 0.005472495240107381 0.0019172015383526915 0 0.0055624147148625284 0.0015373930679318381 0 0.0045871336375923871 0.0013226493019183366 0 0.0050838100140143012 0.0020880503388985361 0 0.0053682959311641357 0.00082139911425454365 0 0.003870412229917452 0.0017041451389419389 0 0.0056516203336065907 0.0010043136005005347 0 0.0050843224035151992 0.0021003745160895187 0 0.0053682959311641357 0.00082139911425454365 0 0.0055624147148625284 0.0015373930679318381 0 0.0053682959311641357 0.00082139911425454365 0 0.0060002243455013994 0.0013334000721674207 0 0.0055624147148625284 0.0015373930679318381 0 0.0053682959311641357 0.00082139911425454365 0 0.0060002243455013994 0.0013334000721674207 0 0.0065092893918942763 0.000946322370169324 0 0.0060079944807044398 0.0016672347268927789 0 0.0061869741460557834 0.0018983324903667563 0 0.006501457962595077 0.0016456746845390632 0 0.0060079944807044398 0.0016672347268927789 0 0.0057926147828355218 0.001915553608041333 0 0.0061869741460557834 0.0018983324903667563 0 0.0060002243455013994 0.0013334000721674207 0 0.0060079944807044398 0.0016672347268927789 0 0.006501457962595077 0.0016456746845390632 0 0.0060079944807044398 0.0016672347268927789 0 0.0055624147148625284 0.0015373930679318381 0 0.0057926147828355218 0.001915553608041333 0 0.0060002243455013994 0.0013334000721674207 0 0.0060079944807044398 0.0016672347268927789 0 0.0055624147148625284 0.0015373930679318381 0 0.005472495240107381 0.0019172015383526915 0 0.0055624147148625284 0.0015373930679318381 0 0.0057926147828355218 0.001915553608041333 0 0.0049823410339909059 0.0017173692018057666 0 0.0057512538158030358 0.001978977322217074 0 0.0049823410339909059 0.0017173692018057666 0 0.0056108465261646839 0.0017533574582697627 0 0.005472495240107381 0.0019172015383526915 0 0.0054250753870655841 0.0021143119290287218 0 0.0057926147828355218 0.001915553608041333 0 0.0054908513232985639 0.0020580848337075643 0 0.0057926147828355218 0.001915553608041333 0 0.0058291655963235755 0.0021001391681782877 0 0.0061869741460557834 0.0018983324903667563 0 0.0058291655963235755 0.0021001391681782877 0 0.0061449626494277021 0.0022868376776863631 0 0.0057926147828355218 0.001915553608041333 0 0.0061869741460557834 0.0018983324903667563 0 0.0058291655963235755 0.0021001391681782877 0 0.006501457962595077 0.0016456746845390632 0 0.0073800848887921044 0.0016168911283428312 0 0.006589657073227272 0.0022543167189957151 0 0.0061869741460557834 0.0018983324903667563 0 0.006589657073227272 0.0022543167189957151 0 0.0061449626494277021 0.0022868376776863631 0 0.0061869741460557834 0.0018983324903667563 0 0.006501457962595077 0.0016456746845390632 0 0.006589657073227272 0.0022543167189957151 0 0.0068166668534108592 0.0010036128871177459 0 0.0069246671669420052 0.0019969536094377751 0 0.006501457962595077 0.0016456746845390632 0 0.0065092893918942763 0.000946322370169324 0 0.0073800848887921044 0.0016168911283428312 0 0.0060002243455013994 0.0013334000721674207 0 0.006501457962595077 0.0016456746845390632 0 0.0065092893918942763 0.000946322370169324 0 0.0065092893918942763 0.000946322370169324 0 0.0082087762314384267 0.0011041035299522036 0 0.0079344789669936206 0.0020416551712742564 0 0.0081102830560375577 0.0011259178136845986 0 0.0069246671669420052 0.0019969536094377751 0 0.0073800848887921044 0.0016168911283428312 0 0.0070334897612052034 0.0029824966500090699 0 0.006589657073227272 0.0022543167189957151 0 0.0051510715604582728 0.0024514153703357553 0 0.0051460538364274024 0.0026088099896422012 0 0.0049977253552677282 0.0025564151000615569 0 0.0051510715604582728 0.0024514153703357553 0 0.0051021782831850819 0.0022562671620361594 0 0.0049977253552677282 0.0025564151000615569 0 0.0069246671669420052 0.0019969536094377751 0 0.0061403660318708076 0.002807665446028132 0 0.0051460538364274024 0.0026088099896422012 0 0.0049977253552677282 0.0025564151000615569 0 0.0051306445975992992 0.0027644126200900392 0 0.0070334897612052034 0.0029824966500090699 0 0.0060308256754344654 0.003710996336476272 0 0.0065531800922615782 0.0045801280402625955 0 0.0070334897612052034 0.0029824966500090699 0 0.006198867467650639 0.0028268862960772311 0 0.0060308256754344654 0.003710996336476272 0 0.0061403660318708076 0.002807665446028132 0 0.0041142942225712202 0.0033821183492245502 0 0.0070334897612052034 0.0029824966500090699 0 0.006198867467650639 0.0028268862960772311 0 0.006589657073227272 0.0022543167189957151 0 0.006198867467650639 0.0028268862960772311 0 0.006589657073227272 0.0022543167189957151 0 0.0061449626494277021 0.0022868376776863631 0 0.006198867467650639 0.0028268862960772311 0 0.0057842983676041375 0.0025223832813343959 0 0.0061449626494277021 0.0022868376776863631 0 0.0058291655963235755 0.0021001391681782877 0 0.0057842983676041375 0.0025223832813343959 0 0.0061449626494277021 0.0022868376776863631 0 0.0058291655963235755 0.0021001391681782877 0 0.0057842983676041375 0.0025223832813343959 0 0.0053453055582065243 0.0023941508642863381 0 0.0051037229692874782 0.0019993767319319935 0 0.0058291655963235755 0.0021001391681782877 0 0.0053453055582065243 0.0023941508642863381 0 0.0057842983676041375 0.0025223832813343959 0 0.0053453055582065243 0.0023941508642863381 0 0.0053089568097411024 0.003071212687670325 0 0.006198867467650639 0.0028268862960772311 0 0.0057842983676041375 0.0025223832813343959 0 0.0053089568097411024 0.003071212687670325 0 0.0060308256754344654 0.003710996336476272 0 0.0053089568097411024 0.003071212687670325 0 0.0051102637130326515 0.0041826770046160932 0 0.006198867467650639 0.0028268862960772311 0 0.0060308256754344654 0.003710996336476272 0 0.0053089568097411024 0.003071212687670325 0 0.0053089568097411024 0.003071212687670325 0 0.0042455631915671085 0.0037047350550793059 0 0.0051102637130326515 0.0041826770046160932 0 0.0025454783662679486 0.0033560804309115092 0 0.0023880047110997082 0.0015649875209581539 0 0.0053089568097411024 0.003071212687670325 0 0.0042455631915671085 0.0037047350550793059 0 0.0046123468182312161 0.0022370562598931099 0 0.0051037229692874782 0.0019993767319319935 0 0.0053453055582065243 0.0023941508642863381 0 0.0046123468182312161 0.0022370562598931099 0 0.0053453055582065243 0.0023941508642863381 0 0.0053089568097411024 0.003071212687670325 0 0.0046123468182312161 0.0022370562598931099 0 -0.0046844456583258537 0.0038518321635276167 0 0.002537389409259282 0.0038750976961438701 0 -0.0034710974318087509 0.0025859033996395368 0 -0.0027895432991754685 0.0025330048925087233 0 -0.0029493301162808946 0.0030133857378008208 0 -0.0046844456583258537 0.0038518321635276167 0 -0.0066261562695414484 0.0028428642074765304 0 0.0037728114303292606 0.0051958636320030725 0 0.0051102637130326515 0.0041826770046160932 0 0.0051667933821466913 0.0051152582902381756 0 0.0037728114303292606 0.0051958636320030725 0 0.0042455631915671085 0.0037047350550793059 0 0.0051102637130326515 0.0041826770046160932 0 0.0060308256754344654 0.003710996336476272 0 0.0051102637130326515 0.0041826770046160932 0 0.0058648333483939429 0.004721996707490456 0 0.0051102637130326515 0.0041826770046160932 0 0.0058648333483939429 0.004721996707490456 0 0.0051667933821466913 0.0051152582902381756 0 0.0058648333483939429 0.004721996707490456 0 0.0051667933821466913 0.0051152582902381756 0 0.0063360515547041755 0.0050018495791372087 0 0.002537389409259282 0.0038750976961438701 0 0.00013037262910834814 0.0023332023871583613 0 -0.0027895432991754685 0.0025330048925087233 0 -0.0021576142623159328 0.0024878821556294077 0 -0.0023219832206399301 0.0029611843405392721 0 0.00013037262910834814 0.0023332023871583613 0 -0.0030643517584351375 0.002626222403705517 0 0.00056483417107137978 0.0011962894384850054 0 0.00054684960227575896 0.0012656773623114382 0 0.00036496517440091236 0.0011911465510268452 0 -0.003579363640915476 0.0014583929059347309 0 -0.0029431137565513791 0.0021514547204187005 0 -0.0038477175931397544 0.0024059450399336602 0 0.00013037262910834814 0.0023332023871583613 0 0.0041142942225712202 0.0033821183492245502 0 0.0060308256754344654 0.003710996336476272 0 0.0058648333483939429 0.004721996707490456 0 0.0065531800922615782 0.0045801280402625955 0 0.0058648333483939429 0.004721996707490456 0 0.0063360515547041755 0.0050018495791372087 0 0.0064413869761848642 0.0045942268264992031 0 0.0062791870450894637 0.0041632000125018274 0 0.0041142942225712202 0.0033821183492245502 0 0.0041142942225712202 0.0033821183492245502 0 0.0026138144504649179 0.0018706438355621179 0 0.00054684960227575896 0.0012656773623114382 0 0.00036496517440091236 0.0011911465510268452 0 0.00033090206790173252 0.0012545149182180007 0 0.0049977253552677282 0.0025564151000615569 0 0.004900632619282347 0.0028199729548157113 0 0.0051306445975992992 0.0027644126200900392 0 -0.003579363640915476 0.0014583929059347309 0 -0.0023464258514103824 0.001357029059848942 0 -0.0029431137565513791 0.0021514547204187005 0 0.00013037262910834814 0.0023332023871583613 0 -0.0013096950279752999 0.0012236411105642519 0 -0.0023464258514103824 0.001357029059848942 0 -0.0022990007887526056 0.002064771619029807 0 -0.0029431137565513791 0.0021514547204187005 0 -0.0029431137565513791 0.0021514547204187005 0 -0.0023847285118344152 0.0026250244929399151 0 -0.003196243775798485 0.0030841140384514718 0 -0.0022990007887526056 0.002064771619029807 0 -0.0029431137565513791 0.0021514547204187005 0 -0.0023847285118344152 0.0026250244929399151 0 -0.0026450490730531087 0.003678959968204225 0 -0.0031850740867949054 0.0039329203213493893 0 -0.003196243775798485 0.0030841140384514718 0 -0.0018516500490640658 0.0033727790986246091 0 -0.0032443421386222819 0.0039470982370093041 0 -0.0023847285118344152 0.0026250244929399151 0 -0.003196243775798485 0.0030841140384514718 0 -0.0018516500490640658 0.0033727790986246091 0 -0.003196243775798485 0.0030841140384514718 0 -0.0040713901511353259 0.0033064922938695778 0 -0.0032443421386222819 0.0039470982370093041 0 -0.006116641848460275 0.003392503803820278 0 -0.006067792386473073 0.0038401221564142193 0 -0.003196243775798485 0.0030841140384514718 0 -0.0038477175931397544 0.0024059450399336602 0 -0.0040713901511353259 0.0033064922938695778 0 -0.0029431137565513791 0.0021514547204187005 0 -0.003196243775798485 0.0030841140384514718 0 -0.0038477175931397544 0.0024059450399336602 0 -0.0027895432991754685 0.0025330048925087233 0 -0.0023219832206399301 0.0029611843405392721 0 -0.0029493301162808946 0.0030133857378008208 0 -0.0023219832206399301 0.0029611843405392721 0 -0.0024837897573448562 0.0034198064582864267 0 -0.0029493301162808946 0.0030133857378008208 0 -0.006116641848460275 0.003392503803820278 0 -0.0066261562695414484 0.0028428642074765304 0 -0.0030643517584351375 0.002626222403705517 0 -0.006116641848460275 0.003392503803820278 0 -0.006116641848460275 0.003392503803820278 0 -0.0094883311515413429 0.0040539358515156035 0 -0.0092217026584469289 0.0034743632115324819 0 -0.0097807495639021906 0.0034944029209340866 0 -0.0096201643861115044 0.0037504855580171438 0 -0.010036390271316434 0.0037969432867832145 0 -0.0097807495639021906 0.0034944029209340866 0 -0.0096201643861115044 0.0037504855580171438 0 -0.0092217026584469289 0.0034743632115324819 0 -0.0097807495639021906 0.0034944029209340866 0 -0.0096092311662738395 0.0031746148272050606 0 -0.010046461096576026 0.0032757716247110418 0 -0.0097807495639021906 0.0034944029209340866 0 -0.0096092311662738395 0.0031746148272050606 0 0.00085421229298163041 0.001820318844138451 0 -0.00027715954787818484 0.0018189970673979769 0 -0.00038915532442502322 0.0026222064562966018 0 0.00040059208749957813 0.0013252414393473868 0 0.00085421229298163041 0.001820318844138451 0 -0.00027715954787818484 0.0018189970673979769 0 0.00040059208749957813 0.0013252414393473868 0 0.00085421229298163041 0.001820318844138451 0 0.00074564939605567993 0.0014296220128583376 0 0.00052230468771620789 0.0017186376671704904 0 -0.0016252586202774475 0.0030190811444069654 0 0.0016354186615786523 0.0012951293965196772 0 0.00085421229298163041 0.001820318844138451 0 0.00104991719329955 0.0012913055206228198 0 0.00085421229298163041 0.001820318844138451 0 0.00074564939605567993 0.0014296220128583376 0 0.00104991719329955 0.0012913055206228198 0 0.00074564939605567993 0.0014296220128583376 0 0.00069461065053910058 0.0011561768481869836 0 0.00104991719329955 0.0012913055206228198 0 0.00069461065053910058 0.0011561768481869836 0 0.00104991719329955 0.0012913055206228198 0 0.0012204598385146591 0.00097948497802572798 0 0.006504113206764358 0.0019738270431372707 0 0.0047792549516098275 0.0013625156652570672 0 9.3836756955483484e-05 0.0016445898406902912 0 0.0047792549516098275 0.0013625156652570672 0 0.00077022993531532355 0.000933953123296989 0 0.00069461065053910058 0.0011561768481869836 0 0.0010241493354037569 0.0010828523857198808 0 0.00040059208749957813 0.0013252414393473868 0 0.00069461065053910058 0.0011561768481869836 0 0.00028793353732981848 0.0011457494152683418 0 0.00077022993531532355 0.000933953123296989 0 0.00069461065053910058 0.0011561768481869836 0 0.00028793353732981848 0.0011457494152683418 0 0.00040059208749957813 0.0013252414393473868 0 0.00074564939605567993 0.0014296220128583376 0 0.00069461065053910058 0.0011561768481869836 0 0.00040059208749957813 0.0013252414393473868 0 0.00028793353732981848 0.0011457494152683418 0 0.00027392735465587718 0.0012256232411269618 0 0.00028793353732981848 0.0011457494152683418 0 0.00033090206790173252 0.0012545149182180007 0 0.00027392735465587718 0.0012256232411269618 0 0.00036496517440091236 0.0011911465510268452 0 0.00033090206790173252 0.0012545149182180007 0 0.00027392735465587718 0.0012256232411269618 0 0.0021661970221957816 0.0019870064446337941 0 0.0026138144504649179 0.0018706438355621179 0 -0.0023464258514103824 0.001357029059848942 0 -0.0010029063577497656 0.001279125192569957 0 -0.001520349895826007 0.0021819099362282743 0 -0.0013096950279752999 0.0012236411105642519 0 -0.00027928169946971493 0.001266675616897045 0 -0.0023464258514103824 0.001357029059848942 0 -0.0022990007887526056 0.002064771619029807 0 -0.001520349895826007 0.0021819099362282743 0 -0.00027715954787818484 0.0018189970673979769 0 -0.0010029063577497656 0.001279125192569957 0 -0.001520349895826007 0.0021819099362282743 0 0.00040059208749957813 0.0013252414393473868 0 -0.00027715954787818484 0.0018189970673979769 0 -0.0010029063577497656 0.001279125192569957 0 0.00030756187458070715 0.0012994248990723675 0 -0.00027928169946971493 0.001266675616897045 0 -0.00027715954787818484 0.0018189970673979769 0 -0.00038915532442502322 0.0026222064562966018 0 -0.001520349895826007 0.0021819099362282743 0 -0.0018697239362458948 0.0032225951408030823 0 -0.0026450490730531087 0.003678959968204225 0 -0.00038915532442502322 0.0026222064562966018 0 -0.001520349895826007 0.0021819099362282743 0 -0.0018516500490640658 0.0033727790986246091 0 -0.0023847285118344152 0.0026250244929399151 0 -0.001520349895826007 0.0021819099362282743 0 -0.0018516500490640658 0.0033727790986246091 0 -0.0022990007887526056 0.002064771619029807 0 -0.0023847285118344152 0.0026250244929399151 0 -0.001520349895826007 0.0021819099362282743 0 -0.0034939246638373256 0.0039188579289037365 0 -0.0034121730603933597 0.0039913141450512958 0 -0.0034976960795752208 0.003930616320236619 0 -0.0034121730603933597 0.0039913141450512958 0 -0.0034976960795752208 0.003930616320236619 0 -0.0034866195957190009 0.0039191546594306683 0 -0.0034976960795752208 0.003930616320236619 0 -0.0034994034956324113 0.0039045210255101849 0 -0.0035244433482314384 0.0039116399519554491 0 -0.0034939246638373256 0.0039188579289037365 0 -0.0034976960795752208 0.003930616320236619 0 -0.0034994034956324113 0.0039045210255101849 0 -0.0034994034956324113 0.0039045210255101849 0 -0.0035145809695943222 0.0039038307059422695 0 -0.0035244433482314384 0.0039116399519554491 0 -0.0034748061665317758 0.0038392030797740808 0 -0.0034939246638373256 0.0039188579289037365 0 -0.0034994034956324113 0.0039045210255101849 0 -0.0016252586202774475 0.0030190811444069654 0 -0.0018697239362458948 0.0032225951408030823 0 -0.0034748061665317758 0.0038392030797740808 0 -0.0034994034956324113 0.0039045210255101849 0 -0.0034723187263670922 0.0038713517353166876 0 -0.0034374844194674787 0.0038443297483529539 0 -0.0034748061665317758 0.0038392030797740808 0 -0.0034723187263670922 0.0038713517353166876 0 -0.0034783777036185657 0.0038893011147073473 0 -0.0034994034956324113 0.0039045210255101849 0 -0.0035145809695943222 0.0039038307059422695 0 -0.0034783777036185657 0.0038893011147073473 0 -0.0034994034956324113 0.0039045210255101849 0 -0.0034723187263670922 0.0038713517353166876 0 -0.0035145809695943222 0.0039038307059422695 0 -0.0035354086727255318 0.0039036536335081487 0 -0.0035105451079612006 0.0039182886955122587 0 -0.0035145809695943222 0.0039038307059422695 0 -0.0035354086727255318 0.0039036536335081487 0 -0.0035244433482314384 0.0039116399519554491 0 -0.0035354086727255318 0.0039036536335081487 0 -0.0035790969906601688 0.0038892305038930397 0 -0.0035105451079612006 0.0039182886955122587 0 -0.0035354086727255318 0.0039036536335081487 0 -0.0035544631901980629 0.0038937018650565813 0 -0.0035790969906601688 0.0038892305038930397 0 -0.0035811237356521888 0.0038904951735984094 0 -0.0035790969906601688 0.0038892305038930397 0 -0.0035105451079612006 0.0039182886955122587 0 -0.0035354086727255318 0.0039036536335081487 0 -0.0035544631901980629 0.0038937018650565813 0 -0.0035424302924198527 0.0038989133463826595 0 -0.0035544631901980629 0.0038937018650565813 0 -0.0035679628760471836 0.003885913956600727 0 -0.0035790969906601688 0.0038892305038930397 0 -0.003558159214263158 0.0038855556452517172 0 -0.0035382124708641482 0.0038723231486506157 0 -0.0035687892548156084 0.0038693792459939093 0 -0.003558159214263158 0.0038855556452517172 0 -0.0035750668823468505 0.0038749803878099552 0 -0.0035687892548156084 0.0038693792459939093 0 -0.0035679628760471836 0.003885913956600727 0 -0.003558159214263158 0.0038855556452517172 0 -0.0035750668823468505 0.0038749803878099552 0 -0.0035544631901980629 0.0038937018650565813 0 -0.0035679628760471836 0.003885913956600727 0 -0.003558159214263158 0.0038855556452517172 0 -0.0035544631901980629 0.0038937018650565813 0 -0.003558159214263158 0.0038855556452517172 0 -0.0035424302924198527 0.0038989133463826595 0 -0.003558159214263158 0.0038855556452517172 0 -0.0035334628524110031 0.0038965744907704008 0 -0.0035382124708641482 0.0038723231486506157 0 -0.003558159214263158 0.0038855556452517172 0 -0.0035424302924198527 0.0038989133463826595 0 -0.0035334628524110031 0.0038965744907704008 0 -0.0035424302924198527 0.0038989133463826595 0 -0.0035334628524110031 0.0038965744907704008 0 -0.0035244433482314384 0.0039116399519554491 0 -0.0035354086727255318 0.0039036536335081487 0 -0.0035424302924198527 0.0038989133463826595 0 -0.0035244433482314384 0.0039116399519554491 0 -0.0034976960795752208 0.003930616320236619 0 -0.0035244433482314384 0.0039116399519554491 0 -0.0034866195957190009 0.0039191546594306683 0 -0.0035334628524110031 0.0038965744907704008 0 -0.0035244433482314384 0.0039116399519554491 0 -0.0034866195957190009 0.0039191546594306683 0 -0.0034866195957190009 0.0039191546594306683 0 -0.003414812386891633 0.0038518175152060245 0 -0.003353373673078342 0.0039580049097459385 0 -0.0034121730603933597 0.0039913141450512958 0 -0.0034866195957190009 0.0039191546594306683 0 -0.003353373673078342 0.0039580049097459385 0 -0.0053979711925690056 0.004197321831719703 0 -0.0075886180604514547 0.0041556056217601995 0 -0.003414812386891633 0.0038518175152060245 0 -0.0035382124708641482 0.0038723231486506157 0 -0.0035424536915950539 0.0038311539638255379 0 -0.0035334628524110031 0.0038965744907704008 0 -0.0034866195957190009 0.0039191546594306683 0 -0.0035382124708641482 0.0038723231486506157 0 -0.0034866195957190009 0.0039191546594306683 0 -0.003414812386891633 0.0038518175152060245 0 -0.0035382124708641482 0.0038723231486506157 0 -0.0036056149969126376 0.0041393582302413339 0 -0.0075886180604514547 0.0041556056217601995 0 -0.0035382124708641482 0.0038723231486506157 0 -0.0035913631327184671 0.0038532120118576802 0 -0.0035687892548156084 0.0038693792459939093 0 -0.0035382124708641482 0.0038723231486506157 0 -0.0035913631327184671 0.0038532120118576802 0 -0.0035424536915950539 0.0038311539638255379 0 -0.0075886180604514547 0.0041556056217601995 0 -0.011189358118899347 0.0044429858006944239 0 -0.013288591212812605 0.0042281659491050496 0 -0.013020134339503728 0.0039186679191753129 0 -0.012796642229521293 0.0042164117496270737 0 -0.0081043085631752453 0.0042534919612077608 0 -0.007608422575566539 0.0046730083158247997 0 -0.0083168553931028052 0.0046357596573901021 0 -0.013288591212812605 0.0042281659491050496 0 -0.013356841546213987 0.0038242816815775064 0 -0.013795820365708049 0.0038672719469961601 0 -0.013288591212812605 0.0042281659491050496 0 -0.013020134339503728 0.0039186679191753129 0 -0.013356841546213987 0.0038242816815775064 0 -0.013020134339503728 0.0039186679191753129 0 -0.013356841546213987 0.0038242816815775064 0 -0.013154196465928346 0.0035107312873421644 0 -0.013356841546213987 0.0038242816815775064 0 -0.013795820365708049 0.0038672719469961601 0 -0.013637127161452808 0.0035702259657339874 0 -0.0097631429858490628 0.0037554664890283823 0 -0.013936077844444578 0.0044369371875882316 0 -0.0096553269792036336 0.0040324752417877667 0 -0.010189233548853403 0.0040855812200332759 0 -0.010225867938580368 0.0035580653747089076 0 -0.0097631429858490628 0.0037554664890283823 0 -0.012580856617062078 0.0034034734862149266 0 -0.010189233548853403 0.0040855812200332759 0 -0.010176265655763949 0.0046847440962126657 0 -0.010701267735361404 0.0040642924204110191 0 -0.0096553269792036336 0.0040324752417877667 0 -0.010189233548853403 0.0040855812200332759 0 -0.010176265655763949 0.0046847440962126657 0 -0.010189233548853403 0.0040855812200332759 0 -0.010225867938580368 0.0035580653747089076 0 -0.010701267735361404 0.0040642924204110191 0 -0.0097631429858490628 0.0037554664890283823 0 -0.0067380044132408883 0.0038543082762705302 0 -0.0036163788065950325 0.0038769470879141321 0 -0.0035845578689950265 0.0038854552647946518 0 -0.0035814087618021343 0.0038795800994830144 0 -0.0067380044132408883 0.0038543082762705302 0 -0.0063069277744679918 0.00412619171410756 0 -0.0035845578689950265 0.0038854552647946518 0 -0.0035814087618021343 0.0038795800994830144 0 -0.0035790969906601688 0.0038892305038930397 0 -0.0035679628760471836 0.003885913956600727 0 -0.0035814087618021343 0.0038795800994830144 0 -0.0035790969906601688 0.0038892305038930397 0 -0.0036163788065950325 0.0038769470879141321 0 -0.0035843719699479152 0.0038636681962491738 0 -0.0035874943842970665 0.0038727036008736112 0 -0.0075886180604514547 0.0041556056217601995 0 -0.0097631429858490628 0.0037554664890283823 0 -0.0035679628760471836 0.003885913956600727 0 -0.0035814087618021343 0.0038795800994830144 0 -0.0035750668823468505 0.0038749803878099552 0 -0.0035913631327184671 0.0038532120118576802 0 -0.0036163788065950325 0.0038769470879141321 0 -0.0035843719699479152 0.0038636681962491738 0 -0.0035913631327184671 0.0038532120118576802 0 -0.0036137491733758916 0.0038532988278604813 0 -0.0036163788065950325 0.0038769470879141321 0 -0.0036163788065950325 0.0038769470879141321 0 -0.0035814087618021343 0.0038795800994830144 0 -0.0035874943842970665 0.0038727036008736112 0 -0.0035814087618021343 0.0038795800994830144 0 -0.0035750668823468505 0.0038749803878099552 0 -0.0035874943842970665 0.0038727036008736112 0 -0.0035750668823468505 0.0038749803878099552 0 -0.0035843719699479152 0.0038636681962491738 0 -0.0035874943842970665 0.0038727036008736112 0 -0.0035750668823468505 0.0038749803878099552 0 -0.0035687892548156084 0.0038693792459939093 0 -0.0035843719699479152 0.0038636681962491738 0 -0.0035913631327184671 0.0038532120118576802 0 -0.0035687892548156084 0.0038693792459939093 0 -0.0035843719699479152 0.0038636681962491738 0 -0.010216054236389587 0.0041234687816991515 0 -0.0097462230144276882 0.0041040405654186631 0 -0.0097805573534743024 0.0045455593318873364 0 -0.0097462230144276882 0.0041040405654186631 0 -0.0094593600078850711 0.0044312896332025405 0 -0.0097805573534743024 0.0045455593318873364 0 -0.010036390271316434 0.0037969432867832145 0 -0.0097462230144276882 0.0041040405654186631 0 -0.0096201643861115044 0.0037504855580171438 0 -0.0097462230144276882 0.0041040405654186631 0 -0.0096201643861115044 0.0037504855580171438 0 -0.0093461145583432804 0.003912205407825946 0 -0.0092217026584469289 0.0034743632115324819 0 -0.0096201643861115044 0.0037504855580171438 0 -0.0093461145583432804 0.003912205407825946 0 -0.0094593600078850711 0.0044312896332025405 0 -0.0089977862941039693 0.0042074708800071787 0 -0.0090332124339872182 0.0045950975911619521 0 -0.0092691393811474253 0.0039066851938349603 0 -0.0094593600078850711 0.0044312896332025405 0 -0.0089977862941039693 0.0042074708800071787 0 -0.0097462230144276882 0.0041040405654186631 0 -0.0093461145583432804 0.003912205407825946 0 -0.0094593600078850711 0.0044312896332025405 0 -0.0094883311515413429 0.0040539358515156035 0 -0.009416408820551057 0.0043288819684252867 0 -0.0086416516693212774 0.004295466876590835 0 -0.0089977862941039693 0.0042074708800071787 0 -0.0086005684680357675 0.0038210908813213567 0 -0.0086416516693212774 0.004295466876590835 0 -0.0089977862941039693 0.0042074708800071787 0 -0.0090332124339872182 0.0045950975911619521 0 -0.0090922544192364157 0.0033876910454098334 0 -0.0092691393811474253 0.0039066851938349603 0 -0.0086005684680357675 0.0038210908813213567 0 -0.0092691393811474253 0.0039066851938349603 0 -0.0089977862941039693 0.0042074708800071787 0 -0.0086005684680357675 0.0038210908813213567 0 -0.0040713901511353259 0.0033064922938695778 0 -0.0032443421386222819 0.0039470982370093041 0 -0.0032159120319714277 0.0040281992944086577 0 -0.0053979711925690056 0.004197321831719703 0 -0.006067792386473073 0.0038401221564142193 0 -0.003414812386891633 0.0038518175152060245 0 -0.003353373673078342 0.0039580049097459385 0 -0.0032159120319714277 0.0040281992944086577 0 -0.0034121730603933597 0.0039913141450512958 0 -0.0032443421386222819 0.0039470982370093041 0 -0.003353373673078342 0.0039580049097459385 0 -0.0032443421386222819 0.0039470982370093041 0 -0.003353373673078342 0.0039580049097459385 0 -0.0032159120319714277 0.0040281992944086577 0 -0.0081043085631752453 0.0042534919612077608 0 -0.0086416516693212774 0.004295466876590835 0 -0.0083168553931028052 0.0046357596573901021 0 -0.0081043085631752453 0.0042534919612077608 0 -0.0086416516693212774 0.004295466876590835 0 -0.0086005684680357675 0.0038210908813213567 0 -0.013020134339503728 0.0039186679191753129 0 -0.012796642229521293 0.0042164117496270737 0 -0.012765510049949741 0.0039540685265058014 0 -0.012796642229521293 0.0042164117496270737 0 -0.012765510049949741 0.0039540685265058014 0 -0.012601842770145134 0.0040230948145487562 0 -0.013020134339503728 0.0039186679191753129 0 -0.012765510049949741 0.0039540685265058014 0 -0.012645349094426691 0.0036549681666292193 0 -0.012765510049949741 0.0039540685265058014 0 -0.012601842770145134 0.0040230948145487562 0 -0.012645349094426691 0.0036549681666292193 0 -0.012601842770145134 0.0040230948145487562 0 -0.012397891635091942 0.003925974534250881 0 -0.012645349094426691 0.0036549681666292193 0 -0.012397891635091942 0.003925974534250881 0 -0.012199653051964712 0.0036557244337014757 0 -0.012645349094426691 0.0036549681666292193 0 -0.011189358118899347 0.0044429858006944239 0 -0.010561311071889064 0.0044503844310789069 0 -0.0086416516693212774 0.004295466876590835 0 -0.0083168553931028052 0.0046357596573901021 0 -0.0090332124339872182 0.0045950975911619521 0 -0.012796642229521293 0.0042164117496270737 0 -0.012601842770145134 0.0040230948145487562 0 -0.012381158495599228 0.0042884171518036297 0 -0.012601842770145134 0.0040230948145487562 0 -0.012397891635091942 0.003925974534250881 0 -0.012381158495599228 0.0042884171518036297 0 -0.012397891635091942 0.003925974534250881 0 -0.012381158495599228 0.0042884171518036297 0 -0.012094431770512904 0.0040656579542637785 0 -0.012381158495599228 0.0042884171518036297 0 -0.012094431770512904 0.0040656579542637785 0 -0.011750710938531415 0.0044577308714663167 0 -0.010561311071889064 0.0044503844310789069 0 -0.010790013735102882 0.0044816590900174907 0 -0.0094593600078850711 0.0044312896332025405 0 -0.0090332124339872182 0.0045950975911619521 0 -0.0097805573534743024 0.0045455593318873364 0 -0.012397891635091942 0.003925974534250881 0 -0.012094431770512904 0.0040656579542637785 0 -0.012199653051964712 0.0036557244337014757 0 -0.012094431770512904 0.0040656579542637785 0 -0.011697966987698342 0.0039247387488758369 0 -0.012199653051964712 0.0036557244337014757 0 -0.011697966987698342 0.0039247387488758369 0 -0.01168912395231142 0.0034455157585407282 0 -0.012199653051964712 0.0036557244337014757 0 -0.012094431770512904 0.0040656579542637785 0 -0.011697966987698342 0.0039247387488758369 0 -0.011750710938531415 0.0044577308714663167 0 -0.011267413002334662 0.0042022046353879456 0 -0.011697966987698342 0.0039247387488758369 0 -0.011750710938531415 0.0044577308714663167 0 -0.012056945040153335 0.0031291360832029934 0 -0.01171461029978486 0.0030144782158296195 0 -0.012072610936583471 0.0027035521362843416 0 -0.012056945040153335 0.0031291360832029934 0 -0.01171461029978486 0.0030144782158296195 0 -0.01168912395231142 0.0034455157585407282 0 -0.012056945040153335 0.0031291360832029934 0 -0.01168912395231142 0.0034455157585407282 0 -0.012199653051964712 0.0036557244337014757 0 -0.012056945040153335 0.0031291360832029934 0 -0.012199653051964712 0.0036557244337014757 0 -0.012546569251902491 0.0030228475758675463 0 -0.012056945040153335 0.0031291360832029934 0 -0.012546569251902491 0.0030228475758675463 0 -0.012072610936583471 0.0027035521362843416 0 -0.012546569251902491 0.0030228475758675463 0 -0.013126338546541055 0.0027416858848364934 0 -0.013234427784529093 0.0035559723904409249 0 -0.012546569251902491 0.0030228475758675463 0 -0.013126338546541055 0.0027416858848364934 0 -0.012638699158693471 0.0024559375159371229 0 -0.012199653051964712 0.0036557244337014757 0 -0.012546569251902491 0.0030228475758675463 0 -0.013234427784529093 0.0035559723904409249 0 -0.012227863102056868 0.0036592483351881263 0 -0.012941204048229777 0.0035992608352474358 0 -0.013126338546541055 0.0027416858848364934 0 -0.0136838602574291 0.0030401261587218336 0 -0.013698267332462896 0.0024220013414445298 0 -0.013126338546541055 0.0027416858848364934 0 -0.013234427784529093 0.0035559723904409249 0 -0.0136838602574291 0.0030401261587218336 0 -0.013126338546541055 0.0027416858848364934 0 -0.012956753310600682 0.0019804813282459431 0 -0.013698267332462896 0.0024220013414445298 0 -0.014868393989924341 0.003140454260649943 0 -0.015240766040111976 0.0032026656356014334 0 -0.016889341595211996 0.0041884983422617516 0 -0.016804599434983813 0.0042956643520068189 0 -0.016853784136162474 0.0039951177340113815 0 -0.016889341595211996 0.0041884983422617516 0 -0.016804599434983813 0.0042956643520068189 0 -0.01702876675169341 0.0040298774946406048 0 -0.013126338546541055 0.0027416858848364934 0 -0.012956753310600682 0.0019804813282459431 0 -0.012638699158693471 0.0024559375159371229 0 -0.012638699158693471 0.0024559375159371229 0 -0.012294800010714344 0.0022407933244872743 0 -0.012072610936583471 0.0027035521362843416 0 -0.012546569251902491 0.0030228475758675463 0 -0.012638699158693471 0.0024559375159371229 0 -0.012072610936583471 0.0027035521362843416 0 -0.012638699158693471 0.0024559375159371229 0 -0.012667238814414571 0.0021795916208971356 0 -0.012294800010714344 0.0022407933244872743 0 -0.012956753310600682 0.0019804813282459431 0 -0.012880489400434108 0.0019768608550608403 0 -0.012667238814414571 0.0021795916208971356 0 -0.012956753310600682 0.0019804813282459431 0 -0.012638699158693471 0.0024559375159371229 0 -0.012667238814414571 0.0021795916208971356 0 -0.012880489400434108 0.0019768608550608403 0 -0.012667238814414571 0.0021795916208971356 0 -0.012294800010714344 0.0022407933244872743 0 -0.011696818777961726 0.0021338263276741592 0 -0.012294800010714344 0.0022407933244872743 0 -0.01185797521843544 0.002445559587181493 0 -0.012880489400434108 0.0019768608550608403 0 -0.012294800010714344 0.0022407933244872743 0 -0.012084861548896684 0.0016997359006813771 0 -0.011696818777961726 0.0021338263276741592 0 -0.012294800010714344 0.0022407933244872743 0 -0.012084861548896684 0.0016997359006813771 0 -0.011378262245510157 0.0026825287964586096 0 -0.01185797521843544 0.002445559587181493 0 -0.012072610936583471 0.0027035521362843416 0 -0.012294800010714344 0.0022407933244872743 0 -0.01185797521843544 0.002445559587181493 0 -0.012072610936583471 0.0027035521362843416 0 -0.015569015670445059 0.0035360940808907186 0 -0.015436039928432567 0.0030393913463391833 0 -0.016240446806471444 0.0035045968687349026 0 -0.014776547001951398 0.0032948876005177668 0 -0.015397922503562304 0.0032070338839542889 0 -0.015569015670445059 0.0035360940808907186 0 -0.016240446806471444 0.0035045968687349026 0 -0.016010380826158837 0.0038638178080526429 0 -0.015569015670445059 0.0035360940808907186 0 -0.01501242294922705 0.0035336954741674556 0 -0.015189097940783309 0.0033244055702093232 0 -0.015569015670445059 0.0035360940808907186 0 -0.01501242294922705 0.0035336954741674556 0 -0.015507440881739892 0.003904230286345118 0 -0.01501242294922705 0.0035336954741674556 0 -0.015189097940783309 0.0033244055702093232 0 -0.014811820447761616 0.0032763174274938385 0 -0.015569015670445059 0.0035360940808907186 0 -0.015189097940783309 0.0033244055702093232 0 -0.015436039928432567 0.0030393913463391833 0 -0.015189097940783309 0.0033244055702093232 0 -0.015436039928432567 0.0030393913463391833 0 -0.014811820447761616 0.0032763174274938385 0 -0.014776547001951398 0.0032948876005177668 0 -0.014857285709344293 0.0032316822843116428 0 -0.014467367880294407 0.0034166119912619843 0 -0.014281318517947769 0.0032835773834274736 0 -0.014811820447761616 0.0032763174274938385 0 -0.014478916771010479 0.0032533501254290282 0 -0.014776547001951398 0.0032948876005177668 0 -0.014631893018763394 0.0034829959673380348 0 -0.014467367880294407 0.0034166119912619843 0 -0.014811820447761616 0.0032763174274938385 0 -0.014631893018763394 0.0034829959673380348 0 -0.014467367880294407 0.0034166119912619843 0 -0.014148304566282965 0.0035534807479338641 0 -0.013974183632371366 0.0040418415055238424 0 -0.014631893018763394 0.0034829959673380348 0 -0.014148304566282965 0.0035534807479338641 0 -0.014467367880294407 0.0034166119912619843 0 -0.014148304566282965 0.0035534807479338641 0 -0.014106335394403301 0.0032541322388210275 0 -0.013974183632371366 0.0040418415055238424 0 -0.014148304566282965 0.0035534807479338641 0 -0.013637127161452808 0.0035702259657339874 0 -0.014106335394403301 0.0032541322388210275 0 -0.013637127161452808 0.0035702259657339874 0 -0.013154196465928346 0.0035107312873421644 0 -0.014148304566282965 0.0035534807479338641 0 -0.014106335394403301 0.0032541322388210275 0 -0.013637127161452808 0.0035702259657339874 0 -0.013356841546213987 0.0038242816815775064 0 -0.013637127161452808 0.0035702259657339874 0 -0.013154196465928346 0.0035107312873421644 0 -0.014776547001951398 0.0032948876005177668 0 -0.013623047093667526 0.0034806015221448771 0 -0.015062360115050792 0.0033457601997157432 0 -0.014154119832487291 0.0034510189196468883 0 -0.01438766410571762 0.0028866228840562802 0 -0.012941204048229777 0.0035992608352474358 0 -0.013623047093667526 0.0034806015221448771 0 -0.013020134339503728 0.0039186679191753129 0 -0.012645349094426691 0.0036549681666292193 0 -0.013154196465928346 0.0035107312873421644 0 -0.013234427784529093 0.0035559723904409249 0 -0.014154119832487291 0.0034510189196468883 0 -0.0136838602574291 0.0030401261587218336 0 -0.0136838602574291 0.0030401261587218336 0 -0.01438766410571762 0.0028866228840562802 0 -0.013698267332462896 0.0024220013414445298 0 -0.014154119832487291 0.0034510189196468883 0 -0.0136838602574291 0.0030401261587218336 0 -0.01438766410571762 0.0028866228840562802 0 -0.016240446806471444 0.0035045968687349026 0 -0.016010380826158837 0.0038638178080526429 0 -0.016495401859614539 0.0040621665601357614 0 -0.016010380826158837 0.0038638178080526429 0 -0.016495401859614539 0.0040621665601357614 0 -0.016179291071935779 0.0042729788604555985 0 -0.015397922503562304 0.0032070338839542889 0 -0.015240766040111976 0.0032026656356014334 0 -0.016240446806471444 0.0035045968687349026 0 -0.016495401859614539 0.0040621665601357614 0 -0.016853784136162474 0.0039951177340113815 0 -0.016495401859614539 0.0040621665601357614 0 -0.016853784136162474 0.0039951177340113815 0 -0.016782435574599356 0.004153786911225585 0 -0.016495401859614539 0.0040621665601357614 0 -0.016782435574599356 0.004153786911225585 0 -0.016746833061045463 0.0043121243785131345 0 -0.016889341595211996 0.0041884983422617516 0 -0.016853784136162474 0.0039951177340113815 0 -0.016782435574599356 0.004153786911225585 0 -0.018036340221505385 0.0044545183064342618 0 -0.01892486767223291 0.0048927363751127724 0 -0.017885955418344136 0.0040109019063677698 0 -0.016889341595211996 0.0041884983422617516 0 -0.016782435574599356 0.004153786911225585 0 -0.016746833061045463 0.0043121243785131345 0 -0.018861769432523552 0.0046888729121010659 0 -0.019411153308600833 0.0045320067057161868 0 -0.0187268913854183 0.0040074724315469368 0 -0.017930076275245208 0.0045921354044731535 0 -0.018298035392474911 0.004181752484863758 0 -0.016495401859614539 0.0040621665601357614 0 -0.016746833061045463 0.0043121243785131345 0 -0.016179291071935779 0.0042729788604555985 0 -0.017292307316820795 0.0043368555733351629 0 -0.017930076275245208 0.0045921354044731535 0 -0.017930076275245208 0.0045921354044731535 0 -0.018710735529886335 0.0048459726223244737 0 -0.018861769432523552 0.0046888729121010659 0 -0.019411153308600833 0.0045320067057161868 0 -0.0197391180808268 0.005045922534618697 0 -0.016010380826158837 0.0038638178080526429 0 -0.016179291071935779 0.0042729788604555985 0 -0.015507440881739892 0.003904230286345118 0 -0.017930076275245208 0.0045921354044731535 0 -0.016397523282119762 0.0043167945087175651 0 -0.017721409147541101 0.0046606343795877643 0 -0.017702072734101803 0.0046419380918104403 0 -0.01769760636682555 0.0046458680489789191 0 -0.015569015670445059 0.0035360940808907186 0 -0.016010380826158837 0.0038638178080526429 0 -0.015507440881739892 0.003904230286345118 0 -0.017684861046192234 0.0046289628518073455 0 -0.01769760636682555 0.0046458680489789191 0 -0.01766875104640352 0.0046302901325155658 0 -0.0197391180808268 0.005045922534618697 0 -0.020046993096366258 0.0047866529685579974 0 -0.020475207204996727 0.0053791168880421318 0 -0.016921604622632761 0.0045767437575002347 0 -0.016397523282119762 0.0043167945087175651 0 -0.017684861046192234 0.0046289628518073455 0 -0.017702072734101803 0.0046419380918104403 0 -0.01769760636682555 0.0046458680489789191 0 -0.015492940829703348 0.0039153473121621213 0 -0.016397523282119762 0.0043167945087175651 0 -0.015850114583389439 0.0042141283378364144 0 -0.015775441903271632 0.0042789175109329098 0 -0.016471988312458764 0.0047158785021653984 0 -0.020351797137106026 0.004831145737420996 0 -0.019601593646697609 0.0039712185747095884 0 -0.019411153308600833 0.0045320067057161868 0 -0.0197391180808268 0.005045922534618697 0 -0.020046993096366258 0.0047866529685579974 0 -0.020291637905022281 0.0046506500405214691 0 -0.020363294741643296 0.004122401867439277 0 -0.01971287522124934 0.0039699240612792851 0 -0.019411153308600833 0.0045320067057161868 0 -0.020046993096366258 0.0047866529685579974 0 -0.019585378226305357 0.0040736781249577263 0 -0.020291637905022281 0.0046506500405214691 0 -0.020651944057978905 0.0043924493931758075 0 -0.020363294741643296 0.004122401867439277 0 -0.020651944057978905 0.0043924493931758075 0 -0.020363294741643296 0.004122401867439277 0 -0.020870813394174875 0.0040408395758886424 0 -0.020291637905022281 0.0046506500405214691 0 -0.020651944057978905 0.0043924493931758075 0 -0.020840799918225284 0.0047630404832121193 0 -0.020651944057978905 0.0043924493931758075 0 -0.021012585464117835 0.0044262659050008212 0 -0.020840799918225284 0.0047630404832121193 0 -0.020651944057978905 0.0043924493931758075 0 -0.021012585464117835 0.0044262659050008212 0 -0.020870813394174875 0.0040408395758886424 0 -0.021012585464117835 0.0044262659050008212 0 -0.021455311568750791 0.0042240376277335456 0 -0.020870813394174875 0.0040408395758886424 0 -0.021012585464117835 0.0044262659050008212 0 -0.021455311568750791 0.0042240376277335456 0 -0.021228841126044506 0.004743966371186915 0 -0.021455311568750791 0.0042240376277335456 0 -0.021228841126044506 0.004743966371186915 0 -0.021674710100347539 0.0047398239242733712 0 -0.021012585464117835 0.0044262659050008212 0 -0.021228841126044506 0.004743966371186915 0 -0.020840799918225284 0.0047630404832121193 0 -0.021228841126044506 0.004743966371186915 0 -0.021093153311777184 0.0050573587742331763 0 -0.020840799918225284 0.0047630404832121193 0 -0.021228841126044506 0.004743966371186915 0 -0.021447500348964865 0.0052088289959966632 0 -0.021093153311777184 0.0050573587742331763 0 -0.021228841126044506 0.004743966371186915 0 -0.021447500348964865 0.0052088289959966632 0 -0.021674710100347539 0.0047398239242733712 0 -0.021447500348964865 0.0052088289959966632 0 -0.021093153311777184 0.0050573587742331763 0 -0.021198414660183587 0.0052654309056302416 0 -0.021093153311777184 0.0050573587742331763 0 -0.021198414660183587 0.0052654309056302416 0 -0.020824246261769944 0.0053345043815260854 0 -0.020291637905022281 0.0046506500405214691 0 -0.020840799918225284 0.0047630404832121193 0 -0.020824246261769944 0.0053345043815260854 0 -0.020351797137106026 0.004831145737420996 0 -0.019452100658633835 0.0050814994620729829 0 -0.021093153311777184 0.0050573587742331763 0 -0.020840799918225284 0.0047630404832121193 0 -0.020824246261769944 0.0053345043815260854 0 -0.018710735529886335 0.0048459726223244737 0 -0.019452100658633835 0.0050814994620729829 0 -0.0219774427615596 0.0043538875733038209 0 -0.022090024498753309 0.0047481830618463896 0 -0.022989683376436088 0.0042678955207597225 0 -0.022090024498753309 0.0047481830618463896 0 -0.022373146996885439 0.0050318420174924302 0 -0.022989683376436088 0.0042678955207597225 0 -0.0219774427615596 0.0043538875733038209 0 -0.021674710100347539 0.0047398239242733712 0 -0.022090024498753309 0.0047481830618463896 0 -0.021455311568750791 0.0042240376277335456 0 -0.0219774427615596 0.0043538875733038209 0 -0.021674710100347539 0.0047398239242733712 0 -0.021447500348964865 0.0052088289959966632 0 -0.021674710100347539 0.0047398239242733712 0 -0.021879892243695884 0.005136686293641275 0 -0.021674710100347539 0.0047398239242733712 0 -0.021879892243695884 0.005136686293641275 0 -0.022090024498753309 0.0047481830618463896 0 -0.021879892243695884 0.005136686293641275 0 -0.022090024498753309 0.0047481830618463896 0 -0.022373146996885439 0.0050318420174924302 0 -0.019842869029608138 0.0039352829702384113 0 -0.019884747969260545 0.0039166423681998418 0 -0.019885321564648124 0.0039496710426257598 0 -0.019842869029608138 0.0039352829702384113 0 -0.019934890486500503 0.0038645605670500028 0 -0.020097707474159853 0.0038224853108285712 0 -0.019934890486500503 0.0038645605670500028 0 -0.020097707474159853 0.0038224853108285712 0 -0.019988586600564451 0.0037219990882076878 0 -0.019934890486500503 0.0038645605670500028 0 -0.019988586600564451 0.0037219990882076878 0 -0.019872358324537615 0.0038838794032596178 0 -0.019842869029608138 0.0039352829702384113 0 -0.019934890486500503 0.0038645605670500028 0 -0.019884747969260545 0.0039166423681998418 0 -0.019934890486500503 0.0038645605670500028 0 -0.019884747969260545 0.0039166423681998418 0 -0.019872358324537615 0.0038838794032596178 0 -0.021879892243695884 0.005136686293641275 0 -0.022373146996885439 0.0050318420174924302 0 -0.021771524984464514 0.0057533039774080863 0 -0.02113673371072624 0.0045559025756041309 0 -0.020571018380423921 0.0041783901336624202 0 -0.021879892243695884 0.005136686293641275 0 -0.021771524984464514 0.0057533039774080863 0 -0.021475996001593636 0.0056128888230671291 0 -0.021807097802771604 0.0052302936062771739 0 -0.020492824098002672 0.0046632921898358756 0 -0.021447500348964865 0.0052088289959966632 0 -0.021879892243695884 0.005136686293641275 0 -0.021470985063276726 0.0056370649538312195 0 -0.020155350046388788 0.0037599998657046035 0 -0.020177676520974044 0.003728568466058338 0 -0.020209239138434528 0.0037448868295628913 0 -0.020155350046388788 0.0037599998657046035 0 -0.020210041105351122 0.0037866584907651443 0 -0.020209239138434528 0.0037448868295628913 0 -0.020571018380423921 0.0041783901336624202 0 -0.020492824098002672 0.0046632921898358756 0 -0.017351890132983491 0.0032679610135002831 0 -0.019598327795719645 0.0030094587457857899 0 -0.020133743226963978 0.0036929167666730645 0 -0.020223073831276365 0.0036933891450034078 0 -0.020092196889215097 0.0035520243116897244 0 -0.020571018380423921 0.0041783901336624202 0 -0.019825393791912182 0.003647375131652102 0 -0.020153800246945165 0.0037721273589488517 0 -0.020133743226963978 0.0036929167666730645 0 -0.019988586600564451 0.0037219990882076878 0 -0.020177676520974044 0.003728568466058338 0 -0.020133743226963978 0.0036929167666730645 0 -0.020223073831276365 0.0036933891450034078 0 -0.020153800246945165 0.0037721273589488517 0 -0.020177676520974044 0.003728568466058338 0 -0.020133743226963978 0.0036929167666730645 0 -0.020177676520974044 0.003728568466058338 0 -0.020209239138434528 0.0037448868295628913 0 -0.020223073831276365 0.0036933891450034078 0 -0.020571018380423921 0.0041783901336624202 0 -0.020492319114643415 0.0040325595721137667 0 -0.019988586600564451 0.0037219990882076878 0 -0.019951950227937654 0.0035572248620355006 0 -0.019814003256172906 0.0036209353003460081 0 -0.019988586600564451 0.0037219990882076878 0 -0.019951950227937654 0.0035572248620355006 0 -0.020092196889215097 0.0035520243116897244 0 -0.020133743226963978 0.0036929167666730645 0 -0.019988586600564451 0.0037219990882076878 0 -0.020092196889215097 0.0035520243116897244 0 -0.017684861046192234 0.0046289628518073455 0 -0.017663521451314487 0.004613499380265812 0 -0.01766875104640352 0.0046302901325155658 0 -0.015757697346862672 0.0040017422393914138 0 -0.018068763516879371 0.0044290098557506312 0 -0.015757697346862672 0.0040017422393914138 0 -0.013810046587479164 0.0039008564845254977 0 -0.01501242294922705 0.0035336954741674556 0 -0.01490383775483729 0.00321876443894601 0 -0.014811820447761616 0.0032763174274938385 0 -0.015775441903271632 0.0042789175109329098 0 -0.015040396792364998 0.0038129224630536521 0 -0.015192350162837065 0.0036818705736751146 0 -0.015492940829703348 0.0039153473121621213 0 -0.013810046587479164 0.0039008564845254977 0 -0.016921604622632761 0.0045767437575002347 0 -0.015757697346862672 0.0040017422393914138 0 -0.015850114583389439 0.0042141283378364144 0 -0.015775441903271632 0.0042789175109329098 0 -0.015192350162837065 0.0036818705736751146 0 -0.017663521451314487 0.004613499380265812 0 -0.01766875104640352 0.0046302901325155658 0 -0.017659709977227 0.0046203890194832275 0 -0.019452100658633835 0.0050814994620729829 0 -0.018068763516879371 0.0044290098557506312 0 -0.019452100658633835 0.0050814994620729829 0 -0.019211639694236955 0.0046712747000556484 0 -0.021198414660183587 0.0052654309056302416 0 -0.020824246261769944 0.0053345043815260854 0 -0.021076367990725074 0.0054513910238657634 0 -0.021198414660183587 0.0052654309056302416 0 -0.021076367990725074 0.0054513910238657634 0 -0.021293089669436126 0.0054165161731723581 0 -0.018702214269788128 0.0043707867738473766 0 -0.018697247860571413 0.0043740251841044263 0 -0.018707524606385445 0.0043778168149613715 0 -0.01909622529271128 0.0050368634624772188 0 -0.018451631510994722 0.0047305122268023678 0 -0.018702840643911034 0.0045151778582845845 0 -0.019211639694236955 0.0046712747000556484 0 -0.018068763516879371 0.0044290098557506312 0 -0.021447500348964865 0.0052088289959966632 0 -0.021293089669436126 0.0054165161731723581 0 -0.021470985063276726 0.0056370649538312195 0 -0.021076367990725074 0.0054513910238657634 0 -0.021293089669436126 0.0054165161731723581 0 -0.021470985063276726 0.0056370649538312195 0 -0.019211639694236955 0.0046712747000556484 0 -0.020492824098002672 0.0046632921898358756 0 -0.021447500348964865 0.0052088289959966632 0 -0.021198414660183587 0.0052654309056302416 0 -0.021293089669436126 0.0054165161731723581 0 -0.018702214269788128 0.0043707867738473766 0 -0.01872176733236287 0.0043771954052874845 0 -0.018707524606385445 0.0043778168149613715 0 -0.01872176733236287 0.0043771954052874845 0 -0.018707524606385445 0.0043778168149613715 0 -0.018706574146901727 0.0043864654044683538 0 -0.020492824098002672 0.0046632921898358756 0 -0.017301879123715024 0.0036254695768056246 0 -0.020210041105351122 0.0037866584907651443 0 -0.020209239138434528 0.0037448868295628913 0 -0.020243996147812884 0.0037343301585631076 0 -0.015757697346862672 0.0040017422393914138 0 -0.015455763138329684 0.0035758747249720981 0 -0.018697247860571413 0.0043740251841044263 0 -0.018707524606385445 0.0043778168149613715 0 -0.018706574146901727 0.0043864654044683538 0 -0.018068763516879371 0.0044290098557506312 0 -0.017301879123715024 0.0036254695768056246 0 -0.016692531862704172 0.0043042039194961463 0 -0.016358358584023073 0.0036533621333810122 0 -0.016277858013605512 0.0037559656017764624 0 -0.01698162443854687 0.0040537864515941338 0 -0.016692531862704172 0.0043042039194961463 0 -0.016358358584023073 0.0036533621333810122 0 -0.014254227353519134 0.0044708388989931859 0 -0.013205312452921319 0.0038015441055812412 0 -0.013508512813851226 0.0034154488290915716 0 -0.015455763138329684 0.0035758747249720981 0 -0.01126342475021988 0.0042356744741379728 0 -0.013667232718858684 0.0040317293723403282 0 -0.013780386898515904 0.0038827699730487378 0 -0.013468736534450009 0.0039028900199088155 0 -0.020209239138434528 0.0037448868295628913 0 -0.020243996147812884 0.0037343301585631076 0 -0.020223073831276365 0.0036933891450034078 0 -0.017322189197569261 0.0033479898671532737 0 -0.017240639067580547 0.003451494570290343 0 -0.017016027808523692 0.003148836896492617 0 -0.015455763138329684 0.0035758747249720981 0 -0.017301879123715024 0.0036254695768056246 0 -0.017301879123715024 0.0036254695768056246 0 -0.017351890132983491 0.0032679610135002831 0 -0.015455763138329684 0.0035758747249720981 0 -0.017351890132983491 0.0032679610135002831 0 -0.01126342475021988 0.0042356744741379728 0 -0.0098559548606402571 0.0037613869703984103 0 -0.013780386898515904 0.0038827699730487378 0 -0.013468736534450009 0.0039028900199088155 0 -0.013349333651757757 0.0035245787899267182 0 -0.011225315145425166 0.0034370914510426791 0 -0.010738659063013923 0.0035360704187496241 0 -0.010701267735361404 0.0040642924204110191 0 -0.014254227353519134 0.0044708388989931859 0 -0.014525994948848476 0.0042370095417253494 0 -0.013508512813851226 0.0034154488290915716 0 -0.010802243110790486 0.0030847535926854914 0 -0.011225315145425166 0.0034370914510426791 0 -0.010738659063013923 0.0035360704187496241 0 -0.013810046587479164 0.0039008564845254977 0 -0.01126342475021988 0.0042356744741379728 0 -0.014631893018763394 0.0034829959673380348 0 -0.01490383775483729 0.00321876443894601 0 -0.014811820447761616 0.0032763174274938385 0 -0.010225867938580368 0.0035580653747089076 0 -0.010802243110790486 0.0030847535926854914 0 -0.010738659063013923 0.0035360704187496241 0 -0.012580856617062078 0.0034034734862149266 0 -0.013810046587479164 0.0039008564845254977 0 -0.010225867938580368 0.0035580653747089076 0 -0.010738659063013923 0.0035360704187496241 0 -0.010701267735361404 0.0040642924204110191 0 -0.01126342475021988 0.0042356744741379728 0 -0.0091180755638531428 0.0043292701870605828 0 -0.0075385779422024709 0.0044967166583487934 0 -0.0074423020011551832 0.0041115881188242744 0 -0.007173228082491657 0.0044169391498902512 0 -0.0067380044132408883 0.0038543082762705302 0 -0.0091180755638531428 0.0043292701870605828 0 -0.0078572039699649019 0.0040794758781425005 0 -0.0075385779422024709 0.0044967166583487934 0 -0.0074423020011551832 0.0041115881188242744 0 -0.0074423020011551832 0.0041115881188242744 0 -0.0070576172926166631 0.0040576447725497048 0 -0.007173228082491657 0.0044169391498902512 0 -0.0070576172926166631 0.0040576447725497048 0 -0.007173228082491657 0.0044169391498902512 0 -0.0068438095923640157 0.0042752718109066471 0 -0.0072345604630890048 0.0049078730289305265 0 -0.007173228082491657 0.0044169391498902512 0 -0.0069064905310031784 0.0046634795367453703 0 -0.0072345604630890048 0.0049078730289305265 0 -0.0075385779422024709 0.0044967166583487934 0 -0.007173228082491657 0.0044169391498902512 0 -0.007173228082491657 0.0044169391498902512 0 -0.0069064905310031784 0.0046634795367453703 0 -0.0068438095923640157 0.0042752718109066471 0 -0.017987454759101663 0.0020247070560999807 0 -0.018502983955627002 0.0026132216204566277 0 -0.018581102219152872 0.0023477795976173613 0 -0.0098559548606402571 0.0037613869703984103 0 -0.012971018581115223 0.0033847410923340806 0 -0.017351890132983491 0.0032679610135002831 0 -0.012971018581115223 0.0033847410923340806 0 -0.013468736534450009 0.0039028900199088155 0 -0.013349333651757757 0.0035245787899267182 0 -0.012917159318155836 0.0031668646550028403 0 -0.0069064905310031784 0.0046634795367453703 0 -0.0065787157140583781 0.0044115767135744091 0 -0.0068438095923640157 0.0042752718109066471 0 -0.018502983955627002 0.0026132216204566277 0 -0.018581102219152872 0.0023477795976173613 0 -0.019138515782623416 0.0026837888244751066 0 -0.019951950227937654 0.0035572248620355006 0 -0.020092196889215097 0.0035520243116897244 0 -0.019902824589697811 0.0033105153140221923 0 -0.019598327795719645 0.0030094587457857899 0 -0.019453137022770621 0.0029720177564832718 0 -0.012971018581115223 0.0033847410923340806 0 -0.016023697499434417 0.0030566100536229546 0 -0.013043755495857253 0.0035462871745285578 0 -0.012767966466563122 0.0031634393843925561 0 -0.01255475904944201 0.0031289071360792345 0 -0.018502983955627002 0.0026132216204566277 0 -0.019042422867117638 0.0029245395456938121 0 -0.019138515782623416 0.0026837888244751066 0 -0.012971018581115223 0.0033847410923340806 0 -0.00955478937668304 0.0034776296335980649 0 -0.0065787157140583781 0.0044115767135744091 0 -0.0063497930005697468 0.0040929394678159781 0 -0.0065752121192774278 0.004152590109999253 0 -0.0064250379967115447 0.0039989023696740192 0 -0.0063497930005697468 0.0040929394678159781 0 -0.0065752121192774278 0.004152590109999253 0 -0.00955478937668304 0.0034776296335980649 0 -0.0083144357040027539 0.0034278778315593255 0 -0.0064250379967115447 0.0039989023696740192 0 -0.0063497930005697468 0.0040929394678159781 0 -0.0062465978901810161 0.0038991276454846072 0 -0.012767966466563122 0.0031634393843925561 0 -0.01255475904944201 0.0031289071360792345 0 -0.012481034790635287 0.0027543243320227334 0 -0.0068438095923640157 0.0042752718109066471 0 -0.0065752121192774278 0.004152590109999253 0 -0.0067262406611894926 0.0040255648138324898 0 -0.0065787157140583781 0.0044115767135744091 0 -0.0068438095923640157 0.0042752718109066471 0 -0.0065752121192774278 0.004152590109999253 0 -0.0064250379967115447 0.0039989023696740192 0 -0.0065752121192774278 0.004152590109999253 0 -0.0067262406611894926 0.0040255648138324898 0 -0.0070576172926166631 0.0040576447725497048 0 -0.0067262406611894926 0.0040255648138324898 0 -0.0067666091459679849 0.0037090388245977985 0 -0.0070576172926166631 0.0040576447725497048 0 -0.0068438095923640157 0.0042752718109066471 0 -0.0067262406611894926 0.0040255648138324898 0 -0.0067666091459679849 0.0037090388245977985 0 -0.0063201921397790075 0.0036603499527978916 0 -0.0064035724207058978 0.0033056243156892699 0 -0.0064250379967115447 0.0039989023696740192 0 -0.0067666091459679849 0.0037090388245977985 0 -0.0063201921397790075 0.0036603499527978916 0 -0.0064250379967115447 0.0039989023696740192 0 -0.0067262406611894926 0.0040255648138324898 0 -0.0067666091459679849 0.0037090388245977985 0 -0.0059255788208678944 0.0036638328684578231 0 -0.0083144357040027539 0.0034278778315593255 0 -0.0064250379967115447 0.0039989023696740192 0 -0.0063201921397790075 0.0036603499527978916 0 -0.0059608888275135552 0.0038105644052085406 0 -0.0063201921397790075 0.0036603499527978916 0 -0.0060226334129336225 0.0034816855001127724 0 -0.0059608888275135552 0.0038105644052085406 0 -0.0060226334129336225 0.0034816855001127724 0 -0.0064035724207058978 0.0033056243156892699 0 -0.0060063582401994773 0.0031618255640266909 0 -0.0063201921397790075 0.0036603499527978916 0 -0.0060226334129336225 0.0034816855001127724 0 -0.0064035724207058978 0.0033056243156892699 0 -0.0063757188361471375 0.0028681669728943312 0 -0.0064035724207058978 0.0033056243156892699 0 -0.0060063582401994773 0.0031618255640266909 0 -0.0069278009837043719 0.0029563053709106076 0 -0.0067666091459679849 0.0037090388245977985 0 -0.0064035724207058978 0.0033056243156892699 0 -0.0057104867991281394 0.0036255604898307184 0 -0.0052089563749039957 0.0036415715667771948 0 -0.0069278009837043719 0.0029563053709106076 0 -0.0067666091459679849 0.0037090388245977985 0 -0.0074128755437032024 0.0035371426433386563 0 -0.0034783777036185657 0.0038893011147073473 0 -0.0035145809695943222 0.0039038307059422695 0 -0.0035105451079612006 0.0039182886955122587 0 -0.0034783777036185657 0.0038893011147073473 0 -0.0034243257693987615 0.003899366041354642 0 -0.0035105451079612006 0.0039182886955122587 0 -0.0067380044132408883 0.0038543082762705302 0 -0.0052089563749039957 0.0036415715667771948 0 -0.0074423020011551832 0.0041115881188242744 0 -0.0070576172926166631 0.0040576447725497048 0 -0.0074128755437032024 0.0035371426433386563 0 -0.0078572039699649019 0.0040794758781425005 0 -0.0074423020011551832 0.0041115881188242744 0 -0.0074128755437032024 0.0035371426433386563 0 -0.0070576172926166631 0.0040576447725497048 0 -0.0067666091459679849 0.0037090388245977985 0 -0.0074128755437032024 0.0035371426433386563 0 -0.013779680365202109 0.0016319320644112641 0 -0.010314240620304524 0.00075181648348921209 0 -0.0074564957363281075 0.00056189329917862994 0 -0.007515249551434019 0.00017107416845209926 0 -0.0081361705865240948 0.00014194609113185898 0 -0.018874772501493671 0.0028045784302022461 0 -0.019274392471212078 0.0028634087909948582 0 -0.019262565216122445 0.0029990200801433115 0 -0.018874772501493671 0.0028045784302022461 0 -0.019237092287283125 0.0026939097003940067 0 -0.019274392471212078 0.0028634087909948582 0 -0.0074564957363281075 0.00056189329917862994 0 -0.007515249551434019 0.00017107416845209926 0 -0.0071073794236177663 0.00027516727371087519 0 -0.0073458029233261909 -0.00021841821951701173 0 -0.007515249551434019 0.00017107416845209926 0 -0.0071073794236177663 0.00027516727371087519 0 -0.0073458029233261909 -0.00021841821951701173 0 -0.007515249551434019 0.00017107416845209926 0 -0.0081361705865240948 0.00014194609113185898 0 -0.0054955630568270745 -0.001012070200295849 0 -0.010314240620304524 0.00075181648348921209 0 -0.0059969311144468761 -0.00054332452683832078 0 -0.0063523268691685897 -0.00053383413392600078 0 -0.0069392851230862234 -5.9488819865659619e-05 0 -0.0060551972073340276 -0.00059216949991667352 0 -0.010314240620304524 0.00075181648348921209 0 -0.0059388881358669104 -0.00070160648167351825 0 -0.0060215830312927631 -0.00069827276489498622 0 -0.0060594981753427212 -0.00058336477754828884 0 -0.0031638480152469325 0.0017774867277536674 0 -0.010314240620304524 0.00075181648348921209 0 -0.0060215830312927631 -0.00069827276489498622 0 -0.0061199156179140317 -0.00064299219570421022 0 -0.0060594981753427212 -0.00058336477754828884 0 -0.0076651086506178299 0.001832471541122053 0 -0.0075776157214455441 0.0022065476308076848 0 -0.0080583715549866469 0.0023359506168518832 0 -0.0075776157214455441 0.0022065476308076848 0 -0.0072012339853587803 0.0021992534674724158 0 -0.0078115760860609021 0.0025265680855473321 0 -0.010314240620304524 0.00075181648348921209 0 -0.010090459171290004 0.0025913019769213267 0 -0.0076651086506178299 0.001832471541122053 0 -0.0075776157214455441 0.0022065476308076848 0 -0.0072012339853587803 0.0021992534674724158 0 -0.0060063582401994773 0.0031618255640266909 0 -0.0053764298844226422 0.0030910192247415149 0 -0.00566582053081732 0.0034505290710148155 0 -0.0031638480152469325 0.0017774867277536674 0 -0.0069741846711860109 0.0031441474078146943 0 -0.0075776157214455441 0.0022065476308076848 0 -0.0080583715549866469 0.0023359506168518832 0 -0.0078115760860609021 0.0025265680855473321 0 -0.0060226334129336225 0.0034816855001127724 0 -0.0060063582401994773 0.0031618255640266909 0 -0.00566582053081732 0.0034505290710148155 0 -0.016023697499434417 0.0030566100536229546 0 -0.016446836717990791 0.0033001047793148833 0 -0.01255475904944201 0.0031289071360792345 0 -0.012016192544162849 0.0026739807622361191 0 -0.012481034790635287 0.0027543243320227334 0 -0.0069741846711860109 0.0031441474078146943 0 -0.0083144357040027539 0.0034278778315593255 0 -0.0060226334129336225 0.0034816855001127724 0 -0.00566582053081732 0.0034505290710148155 0 -0.0059608888275135552 0.0038105644052085406 0 -0.0080583715549866469 0.0023359506168518832 0 -0.0084512135061944257 0.002864252263849692 0 -0.0078115760860609021 0.0025265680855473321 0 -0.0083144357040027539 0.0034278778315593255 0 -0.010090459171290004 0.0025913019769213267 0 -0.012016192544162849 0.0026739807622361191 0 -0.012481034790635287 0.0027543243320227334 0 -0.011973312392861596 0.0024581588768826271 0 -0.011378250745557816 0.0021349693930155711 0 -0.012016192544162849 0.0026739807622361191 0 -0.011973312392861596 0.0024581588768826271 0 -0.019237092287283125 0.0026939097003940067 0 -0.019384087067760809 0.0029738162381984573 0 -0.019274392471212078 0.0028634087909948582 0 -0.019384087067760809 0.0029738162381984573 0 -0.019274392471212078 0.0028634087909948582 0 -0.019464224075998442 0.0029753279754963537 0 -0.010314240620304524 0.00075181648348921209 0 -0.016446836717990791 0.0033001047793148833 0 -0.019464224075998442 0.0029753279754963537 0 -0.019600744918142052 0.0033598660520238149 0 -0.019236895736369736 0.0032373385610926361 0 -0.019274392471212078 0.0028634087909948582 0 -0.019464224075998442 0.0029753279754963537 0 -0.019262565216122445 0.0029990200801433115 0 -0.019464224075998442 0.0029753279754963537 0 -0.019236895736369736 0.0032373385610926361 0 -0.019262565216122445 0.0029990200801433115 0 -0.019485821078632431 0.0029832126634849136 0 -0.019453137022770621 0.0029720177564832718 0 -0.019042422867117638 0.0029245395456938121 0 -0.019384087067760809 0.0029738162381984573 0 -0.019464224075998442 0.0029753279754963537 0 -0.019464224075998442 0.0029753279754963537 0 -0.019902824589697811 0.0033105153140221923 0 -0.019600744918142052 0.0033598660520238149 0 -0.019042422867117638 0.0029245395456938121 0 -0.019464224075998442 0.0029753279754963537 0 -0.019138515782623416 0.0026837888244751066 0 -0.019951950227937654 0.0035572248620355006 0 -0.019902824589697811 0.0033105153140221923 0 -0.019814003256172906 0.0036209353003460081 0 -0.019902824589697811 0.0033105153140221923 0 -0.019600744918142052 0.0033598660520238149 0 -0.019814003256172906 0.0036209353003460081 0 -0.019600744918142052 0.0033598660520238149 0 -0.019814003256172906 0.0036209353003460081 0 -0.019539892339028635 0.0036160004808400048 0 -0.019600744918142052 0.0033598660520238149 0 -0.019236895736369736 0.0032373385610926361 0 -0.019539892339028635 0.0036160004808400048 0 -0.019203780517360814 0.0035098174482601687 0 -0.019236895736369736 0.0032373385610926361 0 -0.01884962960058377 0.0033855934767118693 0 -0.019203780517360814 0.0035098174482601687 0 -0.019236895736369736 0.0032373385610926361 0 -0.019539892339028635 0.0036160004808400048 0 -0.018874772501493671 0.0028045784302022461 0 -0.019236895736369736 0.0032373385610926361 0 -0.019262565216122445 0.0029990200801433115 0 -0.018874772501493671 0.0028045784302022461 0 -0.019236895736369736 0.0032373385610926361 0 -0.01884962960058377 0.0033855934767118693 0 -0.01884962960058377 0.0033855934767118693 0 -0.019108845207591221 0.0037362877957000211 0 -0.018624843622144192 0.0036963816854985931 0 -0.019203780517360814 0.0035098174482601687 0 -0.01884962960058377 0.0033855934767118693 0 -0.019108845207591221 0.0037362877957000211 0 -0.019108845207591221 0.0037362877957000211 0 -0.019546347987385724 0.0038705826792963085 0 -0.019539892339028635 0.0036160004808400048 0 -0.019203780517360814 0.0035098174482601687 0 -0.019108845207591221 0.0037362877957000211 0 -0.019539892339028635 0.0036160004808400048 0 -0.019546347987385724 0.0038705826792963085 0 -0.020022003517945003 0.0041285700221813833 0 -0.01921662229252832 0.004204658256728307 0 -0.019108845207591221 0.0037362877957000211 0 -0.019546347987385724 0.0038705826792963085 0 -0.01921662229252832 0.004204658256728307 0 -0.019108845207591221 0.0037362877957000211 0 -0.01921662229252832 0.004204658256728307 0 -0.018748833548874227 0.0041554629145270005 0 -0.019988586600564451 0.0037219990882076878 0 -0.019814003256172906 0.0036209353003460081 0 -0.019872358324537615 0.0038838794032596178 0 -0.019814003256172906 0.0036209353003460081 0 -0.019768599036334975 0.0038318235961500567 0 -0.019872358324537615 0.0038838794032596178 0 -0.019814003256172906 0.0036209353003460081 0 -0.019539892339028635 0.0036160004808400048 0 -0.019768599036334975 0.0038318235961500567 0 -0.019546347987385724 0.0038705826792963085 0 -0.019539892339028635 0.0036160004808400048 0 -0.019768599036334975 0.0038318235961500567 0 -0.019546347987385724 0.0038705826792963085 0 -0.019768599036334975 0.0038318235961500567 0 -0.020022003517945003 0.0041285700221813833 0 -0.019768599036334975 0.0038318235961500567 0 -0.019872358324537615 0.0038838794032596178 0 -0.020022003517945003 0.0041285700221813833 0 -0.019884747969260545 0.0039166423681998418 0 -0.019872358324537615 0.0038838794032596178 0 -0.019885321564648124 0.0039496710426257598 0 -0.019842869029608138 0.0039352829702384113 0 -0.019885321564648124 0.0039496710426257598 0 -0.019821114100488098 0.0034596883950257155 0 -0.019872358324537615 0.0038838794032596178 0 -0.019885321564648124 0.0039496710426257598 0 -0.020022003517945003 0.0041285700221813833 0 -0.019885321564648124 0.0039496710426257598 0 -0.020022003517945003 0.0041285700221813833 0 -0.019821114100488098 0.0034596883950257155 0 -0.020022003517945003 0.0041285700221813833 0 -0.020451778503275307 0.0032470649459920104 0 -0.019821114100488098 0.0034596883950257155 0 -0.02113673371072624 0.0045559025756041309 0 -0.021432885611973571 0.0038224319286731313 0 -0.020262616389919292 0.0042630009787251533 0 -0.020626849395217414 0.0043338761522701491 0 -0.021325757161009318 0.0043709305610202913 0 -0.021197356081859325 0.0034955943931941815 0 -0.022204128001284802 0.0036210989642342008 0 -0.021325757161009318 0.0043709305610202913 0 -0.022420784150949388 0.0044228862437551055 0 -0.022204128001284802 0.0036210989642342008 0 -0.020043860385517621 0.0041653791126433411 0 -0.020262616389919292 0.0042630009787251533 0 -0.020022003517945003 0.0041285700221813833 0 -0.021325757161009318 0.0043709305610202913 0 -0.021197356081859325 0.0034955943931941815 0 -0.020022003517945003 0.0041285700221813833 0 -0.020451778503275307 0.0032470649459920104 0 -0.021197356081859325 0.0034955943931941815 0 -0.021197356081859325 0.0034955943931941815 0 -0.021847658531254241 0.0029820137427919477 0 -0.022204128001284802 0.0036210989642342008 0 -0.021847658531254241 0.0029820137427919477 0 -0.021324571214335026 0.0026385502725466345 0 -0.022181245498632592 0.0023426243592644244 0 -0.021197356081859325 0.0034955943931941815 0 -0.021847658531254241 0.0029820137427919477 0 -0.021324571214335026 0.0026385502725466345 0 -0.020451778503275307 0.0032470649459920104 0 -0.021197356081859325 0.0034955943931941815 0 -0.021324571214335026 0.0026385502725466345 0 -0.020451778503275307 0.0032470649459920104 0 -0.021324571214335026 0.0026385502725466345 0 -0.020404708940850908 0.0024879257323638872 0 -0.021476481077684059 0.0019351312001152053 0 -0.021270115444407697 0.0015096366420915672 0 -0.020404708940850908 0.0024879257323638872 0 -0.021324571214335026 0.0026385502725466345 0 -0.021476481077684059 0.0019351312001152053 0 -0.020404708940850908 0.0024879257323638872 0 -0.022795111608248275 0.0017674406802168652 0 -0.021978779579946543 0.0030622131939612484 0 -0.021324571214335026 0.0026385502725466345 0 -0.022181245498632592 0.0023426243592644244 0 -0.021925716102557644 0.001987905127859224 0 -0.022181245498632592 0.0023426243592644244 0 -0.021925716102557644 0.001987905127859224 0 -0.022340413207465989 0.001690016107724901 0 -0.021324571214335026 0.0026385502725466345 0 -0.021476481077684059 0.0019351312001152053 0 -0.021925716102557644 0.001987905127859224 0 -0.021877851986249208 0.0016396079495975084 0 -0.022076561107651722 0.0011189711481209381 0 -0.022340413207465989 0.001690016107724901 0 -0.021877851986249208 0.0016396079495975084 0 -0.021412436535538683 0.001642572650250461 0 -0.022076561107651722 0.0011189711481209381 0 -0.021925716102557644 0.001987905127859224 0 -0.021877851986249208 0.0016396079495975084 0 -0.022340413207465989 0.001690016107724901 0 -0.021476481077684059 0.0019351312001152053 0 -0.021925716102557644 0.001987905127859224 0 -0.021877851986249208 0.0016396079495975084 0 -0.021913946247291177 0.0015509400431642116 0 -0.022795111608248275 0.0017674406802168652 0 -0.022795111608248275 0.0017674406802168652 0 -0.023034118864480806 0.00062039177902275568 0 -0.021476481077684059 0.0019351312001152053 0 -0.021877851986249208 0.0016396079495975084 0 -0.021412436535538683 0.001642572650250461 0 -0.023879114195797999 0.00041078246141824926 0 -0.023890711295770355 0.00030509357960635904 0 -0.023824904395685437 0.00026022761765074817 0 -0.022795111608248275 0.0017674406802168652 0 -0.023941026882767565 0.0010128295873257709 0 -0.023879114195797999 0.00041078246141824926 0 -0.023890711295770355 0.00030509357960635904 0 -0.023954314343230861 0.00029179787332849985 0 -0.023890711295770355 0.00030509357960635904 0 -0.023899946848148546 0.00025903104537254069 0 -0.023824904395685437 0.00026022761765074817 0 -0.023890711295770355 0.00030509357960635904 0 -0.023954314343230861 0.00029179787332849985 0 -0.023899946848148546 0.00025903104537254069 0 -0.022076561107651722 0.0011189711481209381 0 -0.022340413207465989 0.001690016107724901 0 -0.022766869731466605 0.0011218703461280588 0 -0.023231485299584926 0.0022105855238377498 0 -0.022737733836531094 0.002302482552384434 0 -0.022977737706683144 0.0017724696301924122 0 -0.02418791098027849 0.0027105932568595149 0 -0.023589305706233552 0.0024574258731529337 0 -0.023727425043682769 0.0017672605060165218 0 -0.023231485299584926 0.0022105855238377498 0 -0.023589305706233552 0.0024574258731529337 0 -0.023727425043682769 0.0017672605060165218 0 -0.023231485299584926 0.0022105855238377498 0 -0.023727425043682769 0.0017672605060165218 0 -0.022977737706683144 0.0017724696301924122 0 -0.023231485299584926 0.0022105855238377498 0 -0.023589305706233552 0.0024574258731529337 0 -0.023122531591974648 0.0027588941428612966 0 -0.02418791098027849 0.0027105932568595149 0 -0.023589305706233552 0.0024574258731529337 0 -0.023527700208067676 0.0029539287050734707 0 -0.023589305706233552 0.0024574258731529337 0 -0.023122531591974648 0.0027588941428612966 0 -0.023527700208067676 0.0029539287050734707 0 -0.022737733836531094 0.002302482552384434 0 -0.023122531591974648 0.0027588941428612966 0 -0.022459390972784349 0.0029951504054934988 0 -0.023231485299584926 0.0022105855238377498 0 -0.022737733836531094 0.002302482552384434 0 -0.023122531591974648 0.0027588941428612966 0 -0.023122531591974648 0.0027588941428612966 0 -0.02296356588368571 0.0034254995129506514 0 -0.022459390972784349 0.0029951504054934988 0 -0.023122531591974648 0.0027588941428612966 0 -0.02296356588368571 0.0034254995129506514 0 -0.023527700208067676 0.0029539287050734707 0 -0.02418791098027849 0.0027105932568595149 0 -0.023597772211032261 0.0034882015299502779 0 -0.023527700208067676 0.0029539287050734707 0 -0.02296356588368571 0.0034254995129506514 0 -0.023597772211032261 0.0034882015299502779 0 -0.023527700208067676 0.0029539287050734707 0 -0.020451778503275307 0.0032470649459920104 0 -0.019821114100488098 0.0034596883950257155 0 -0.020404708940850908 0.0024879257323638872 0 -0.021432885611973571 0.0038224319286731313 0 -0.021978779579946543 0.0030622131939612484 0 -0.022989683376436088 0.0042678955207597225 0 -0.02296356588368571 0.0034254995129506514 0 -0.0221781079670611 0.0037172454020506958 0 -0.022989683376436088 0.0042678955207597225 0 -0.02296356588368571 0.0034254995129506514 0 -0.023597772211032261 0.0034882015299502779 0 -0.0219774427615596 0.0043538875733038209 0 -0.022989683376436088 0.0042678955207597225 0 -0.0221781079670611 0.0037172454020506958 0 -0.021455311568750791 0.0042240376277335456 0 -0.0219774427615596 0.0043538875733038209 0 -0.0221781079670611 0.0037172454020506958 0 -0.021455311568750791 0.0042240376277335456 0 -0.0221781079670611 0.0037172454020506958 0 -0.02138415983078288 0.0035990959758658353 0 -0.0221781079670611 0.0037172454020506958 0 -0.0218441419607955 0.0030746709702819956 0 -0.02138415983078288 0.0035990959758658353 0 -0.02296356588368571 0.0034254995129506514 0 -0.0221781079670611 0.0037172454020506958 0 -0.022459390972784349 0.0029951504054934988 0 -0.0221781079670611 0.0037172454020506958 0 -0.0218441419607955 0.0030746709702819956 0 -0.022459390972784349 0.0029951504054934988 0 -0.020607392757604946 0.0036226562566948617 0 -0.020363294741643296 0.004122401867439277 0 -0.020870813394174875 0.0040408395758886424 0 -0.020607392757604946 0.0036226562566948617 0 -0.020870813394174875 0.0040408395758886424 0 -0.02138415983078288 0.0035990959758658353 0 -0.021455311568750791 0.0042240376277335456 0 -0.020870813394174875 0.0040408395758886424 0 -0.02138415983078288 0.0035990959758658353 0 -0.0218441419607955 0.0030746709702819956 0 -0.02138415983078288 0.0035990959758658353 0 -0.021097582305870114 0.0030634297010698696 0 -0.020607392757604946 0.0036226562566948617 0 -0.02138415983078288 0.0035990959758658353 0 -0.021097582305870114 0.0030634297010698696 0 -0.020607392757604946 0.0036226562566948617 0 -0.021097582305870114 0.0030634297010698696 0 -0.020390489202746498 0.0030257018123760523 0 -0.020390489202746498 0.0030257018123760523 0 -0.021031422895062987 0.00248567360859783 0 -0.020339606670939741 0.0023467172414258042 0 -0.021097582305870114 0.0030634297010698696 0 -0.020390489202746498 0.0030257018123760523 0 -0.021031422895062987 0.00248567360859783 0 -0.0218441419607955 0.0030746709702819956 0 -0.021097582305870114 0.0030634297010698696 0 -0.021604433163163565 0.0025638205891253736 0 -0.021097582305870114 0.0030634297010698696 0 -0.021031422895062987 0.00248567360859783 0 -0.021604433163163565 0.0025638205891253736 0 -0.021031422895062987 0.00248567360859783 0 -0.021604433163163565 0.0025638205891253736 0 -0.021584422445968553 0.0017924698879762432 0 -0.021031422895062987 0.00248567360859783 0 -0.020815265742037965 0.0019483909354455096 0 -0.021584422445968553 0.0017924698879762432 0 -0.021031422895062987 0.00248567360859783 0 -0.020815265742037965 0.0019483909354455096 0 -0.020339606670939741 0.0023467172414258042 0 -0.020815265742037965 0.0019483909354455096 0 -0.020339606670939741 0.0023467172414258042 0 -0.020359871030719942 0.0017514324933385528 0 -0.0218441419607955 0.0030746709702819956 0 -0.022459390972784349 0.0029951504054934988 0 -0.022116562693689622 0.0023724469063283213 0 -0.022737733836531094 0.002302482552384434 0 -0.022459390972784349 0.0029951504054934988 0 -0.022116562693689622 0.0023724469063283213 0 -0.0218441419607955 0.0030746709702819956 0 -0.021604433163163565 0.0025638205891253736 0 -0.022116562693689622 0.0023724469063283213 0 -0.022116562693689622 0.0023724469063283213 0 -0.022365235970786736 0.001826258960861996 0 -0.021584422445968553 0.0017924698879762432 0 -0.021604433163163565 0.0025638205891253736 0 -0.022116562693689622 0.0023724469063283213 0 -0.021584422445968553 0.0017924698879762432 0 -0.022737733836531094 0.002302482552384434 0 -0.022116562693689622 0.0023724469063283213 0 -0.022365235970786736 0.001826258960861996 0 -0.022737733836531094 0.002302482552384434 0 -0.022365235970786736 0.001826258960861996 0 -0.022977737706683144 0.0017724696301924122 0 -0.022365235970786736 0.001826258960861996 0 -0.02265082598787577 0.0011977797679255857 0 -0.022977737706683144 0.0017724696301924122 0 -0.022365235970786736 0.001826258960861996 0 -0.022089701542638441 0.0013398900860819758 0 -0.02265082598787577 0.0011977797679255857 0 -0.022365235970786736 0.001826258960861996 0 -0.022089701542638441 0.0013398900860819758 0 -0.021584422445968553 0.0017924698879762432 0 -0.022089701542638441 0.0013398900860819758 0 -0.021584422445968553 0.0017924698879762432 0 -0.021485108689899363 0.0011029042441075094 0 -0.022089701542638441 0.0013398900860819758 0 -0.021901523211690394 0.00092123900080395664 0 -0.021485108689899363 0.0011029042441075094 0 -0.022089701542638441 0.0013398900860819758 0 -0.021901523211690394 0.00092123900080395664 0 -0.022245917104295829 0.0009018644666940926 0 -0.021901523211690394 0.00092123900080395664 0 -0.021485108689899363 0.0011029042441075094 0 -0.021646115159671055 0.00063920054768175361 0 -0.021901523211690394 0.00092123900080395664 0 -0.021646115159671055 0.00063920054768175361 0 -0.022023196325567537 0.00062345816730772499 0 -0.021901523211690394 0.00092123900080395664 0 -0.022245917104295829 0.0009018644666940926 0 -0.022023196325567537 0.00062345816730772499 0 -0.022089701542638441 0.0013398900860819758 0 -0.022245917104295829 0.0009018644666940926 0 -0.02265082598787577 0.0011977797679255857 0 -0.022245917104295829 0.0009018644666940926 0 -0.02265082598787577 0.0011977797679255857 0 -0.022470733259799067 0.00051553448360053137 0 -0.022245917104295829 0.0009018644666940926 0 -0.022470733259799067 0.00051553448360053137 0 -0.022023196325567537 0.00062345816730772499 0 -0.020481272049922589 0.0012266773107854679 0 -0.020923295659329728 0.0014335477020649598 0 -0.020359871030719942 0.0017514324933385528 0 -0.020815265742037965 0.0019483909354455096 0 -0.020923295659329728 0.0014335477020649598 0 -0.020359871030719942 0.0017514324933385528 0 -0.020481272049922589 0.0012266773107854679 0 -0.020923295659329728 0.0014335477020649598 0 -0.020944095014698925 0.00096599871825314265 0 -0.020923295659329728 0.0014335477020649598 0 -0.021584422445968553 0.0017924698879762432 0 -0.021485108689899363 0.0011029042441075094 0 -0.020815265742037965 0.0019483909354455096 0 -0.020923295659329728 0.0014335477020649598 0 -0.021584422445968553 0.0017924698879762432 0 -0.021485108689899363 0.0011029042441075094 0 -0.021258079513933041 0.00071428188117318399 0 -0.021646115159671055 0.00063920054768175361 0 -0.020923295659329728 0.0014335477020649598 0 -0.021485108689899363 0.0011029042441075094 0 -0.020944095014698925 0.00096599871825314265 0 -0.021485108689899363 0.0011029042441075094 0 -0.021258079513933041 0.00071428188117318399 0 -0.020944095014698925 0.00096599871825314265 0 -0.021258079513933041 0.00071428188117318399 0 -0.020944095014698925 0.00096599871825314265 0 -0.020932921482058147 0.00052350754687572384 0 -0.020944095014698925 0.00096599871825314265 0 -0.020615345325766123 0.00074799084278523507 0 -0.020932921482058147 0.00052350754687572384 0 -0.020481272049922589 0.0012266773107854679 0 -0.020615345325766123 0.00074799084278523507 0 -0.020143248656821454 0.00091804511021333546 0 -0.020481272049922589 0.0012266773107854679 0 -0.020944095014698925 0.00096599871825314265 0 -0.020615345325766123 0.00074799084278523507 0 -0.020449439927963223 2.6954122695627956e-05 0 -0.020665163469592331 0.00012201774431560963 0 -0.020625162401074846 -0.00011322669855520777 0 -0.020665163469592331 0.00012201774431560963 0 -0.020882127338737032 4.7144996198107134e-05 0 -0.020625162401074846 -0.00011322669855520777 0 -0.020665163469592331 0.00012201774431560963 0 -0.020469298932733922 0.00024589343188590661 0 -0.020673474542023052 0.00037227114503011278 0 -0.020449439927963223 2.6954122695627956e-05 0 -0.020665163469592331 0.00012201774431560963 0 -0.020469298932733922 0.00024589343188590661 0 -0.020469298932733922 0.00024589343188590661 0 -0.020673474542023052 0.00037227114503011278 0 -0.020317260459247321 0.00054045541898885339 0 -0.020615345325766123 0.00074799084278523507 0 -0.020673474542023052 0.00037227114503011278 0 -0.020317260459247321 0.00054045541898885339 0 -0.020615345325766123 0.00074799084278523507 0 -0.020673474542023052 0.00037227114503011278 0 -0.020932921482058147 0.00052350754687572384 0 -0.020673474542023052 0.00037227114503011278 0 -0.020932921482058147 0.00052350754687572384 0 -0.020945698215192796 0.00021210120442786295 0 -0.020932921482058147 0.00052350754687572384 0 -0.020945698215192796 0.00021210120442786295 0 -0.021270537833343726 0.00032988342967355916 0 -0.020945698215192796 0.00021210120442786295 0 -0.020882127338737032 4.7144996198107134e-05 0 -0.021293895258055702 -3.3477966167880806e-05 0 -0.020665163469592331 0.00012201774431560963 0 -0.020673474542023052 0.00037227114503011278 0 -0.020945698215192796 0.00021210120442786295 0 -0.020665163469592331 0.00012201774431560963 0 -0.020945698215192796 0.00021210120442786295 0 -0.020882127338737032 4.7144996198107134e-05 0 -0.020945698215192796 0.00021210120442786295 0 -0.021270537833343726 0.00032988342967355916 0 -0.021293895258055702 -3.3477966167880806e-05 0 -0.021258079513933041 0.00071428188117318399 0 -0.020932921482058147 0.00052350754687572384 0 -0.021270537833343726 0.00032988342967355916 0 -0.021258079513933041 0.00071428188117318399 0 -0.021270537833343726 0.00032988342967355916 0 -0.021646115159671055 0.00063920054768175361 0 -0.021270537833343726 0.00032988342967355916 0 -0.021646115159671055 0.00063920054768175361 0 -0.021826194131260388 0.00017388133764557643 0 -0.021270537833343726 0.00032988342967355916 0 -0.021293895258055702 -3.3477966167880806e-05 0 -0.021826194131260388 0.00017388133764557643 0 -0.021697954265665592 -0.00041454014148161605 0 -0.021293895258055702 -3.3477966167880806e-05 0 -0.020768830701371699 -0.00015170104443748648 0 -0.024821460236005382 -0.00027508734096602904 0 -0.024845665955070532 -0.00028112939996895642 0 -0.024847179915688838 -0.00026138425614834529 0 -0.023277753351096605 -0.00035335550778909655 0 -0.022716020019271272 -3.6799519184049381e-05 0 -0.021697954265665592 -0.00041454014148161605 0 -0.021293895258055702 -3.3477966167880806e-05 0 -0.021826194131260388 0.00017388133764557643 0 -0.024845665955070532 -0.00028112939996895642 0 -0.024884136408306994 -0.0002565598232635699 0 -0.024861209903074732 -0.00025982415118052792 0 -0.021293895258055702 -3.3477966167880806e-05 0 -0.020768830701371699 -0.00015170104443748648 0 -0.020625162401074846 -0.00011322669855520777 0 -0.020882127338737032 4.7144996198107134e-05 0 -0.021293895258055702 -3.3477966167880806e-05 0 -0.020625162401074846 -0.00011322669855520777 0 -0.024845665955070532 -0.00028112939996895642 0 -0.024861209903074732 -0.00025982415118052792 0 -0.024847179915688838 -0.00026138425614834529 0 -0.020763977241965 -0.00016711439446977385 0 -0.020625162401074846 -0.00011322669855520777 0 -0.020214788055290839 -0.00026403449333944581 0 -0.020449439927963223 2.6954122695627956e-05 0 -0.020625162401074846 -0.00011322669855520777 0 -0.020214788055290839 -0.00026403449333944581 0 -0.022716020019271272 -3.6799519184049381e-05 0 -0.022043665919189555 0.00012220375352164421 0 -0.022960568838584775 0.0005273786833629036 0 -0.022639577769368022 -4.138733211723036e-05 0 -0.023263505228061726 -6.6054010526760102e-05 0 -0.022960568838584775 0.0005273786833629036 0 -0.021826194131260388 0.00017388133764557643 0 -0.022639577769368022 -4.138733211723036e-05 0 -0.022470733259799067 0.00051553448360053137 0 -0.022023196325567537 0.00062345816730772499 0 -0.021826194131260388 0.00017388133764557643 0 -0.022695406275014384 0.00054599735742035015 0 -0.021873961159476808 0.00018266626449875648 0 -0.021646115159671055 0.00063920054768175361 0 -0.022023196325567537 0.00062345816730772499 0 -0.021826194131260388 0.00017388133764557643 0 -0.023277753351096605 -0.00035335550778909655 0 -0.023800991613427133 -0.00041623862989467725 0 -0.021826194131260388 0.00017388133764557643 0 -0.022270157198625202 -0.00023047629341689895 0 -0.022639577769368022 -4.138733211723036e-05 0 -0.021697954265665592 -0.00041454014148161605 0 -0.022270157198625202 -0.00023047629341689895 0 -0.022881344751954753 -0.00056865903727972434 0 -0.022270157198625202 -0.00023047629341689895 0 -0.022639577769368022 -4.138733211723036e-05 0 -0.022881344751954753 -0.00056865903727972434 0 -0.021697954265665592 -0.00041454014148161605 0 -0.021826194131260388 0.00017388133764557643 0 -0.022270157198625202 -0.00023047629341689895 0 -0.022639577769368022 -4.138733211723036e-05 0 -0.023263505228061726 -6.6054010526760102e-05 0 -0.022881344751954753 -0.00056865903727972434 0 -0.023263505228061726 -6.6054010526760102e-05 0 -0.023766431109148133 1.8717928417163055e-05 0 -0.02370636751556747 -0.00048208301233479964 0 -0.023263505228061726 -6.6054010526760102e-05 0 -0.023574589012734938 0.00030652336528903752 0 -0.023766431109148133 1.8717928417163055e-05 0 -0.023574589012734938 0.00030652336528903752 0 -0.023808693118811796 0.00024162355908468136 0 -0.023766431109148133 1.8717928417163055e-05 0 -0.022960568838584775 0.0005273786833629036 0 -0.023574589012734938 0.00030652336528903752 0 -0.023814621560099281 0.0007751673247393513 0 -0.022960568838584775 0.0005273786833629036 0 -0.023263505228061726 -6.6054010526760102e-05 0 -0.023574589012734938 0.00030652336528903752 0 -0.023574589012734938 0.00030652336528903752 0 -0.023808693118811796 0.00024162355908468136 0 -0.023741818434549557 0.00032718512601150637 0 -0.023618404460014869 0.00036242440060478982 0 -0.023610261114640419 0.00048309781787006116 0 -0.023808693118811796 0.00024162355908468136 0 -0.023766431109148133 1.8717928417163055e-05 0 -0.023964859999878425 0.00012745901080177594 0 -0.023808693118811796 0.00024162355908468136 0 -0.023964859999878425 0.00012745901080177594 0 -0.023918434802614574 0.00027965178008231288 0 -0.023766431109148133 1.8717928417163055e-05 0 -0.023964859999878425 0.00012745901080177594 0 -0.02408335346824747 -0.00011740264005666171 0 -0.024091483015620908 3.5463738784714634e-05 0 -0.023964859999878425 0.00012745901080177594 0 -0.02408335346824747 -0.00011740264005666171 0 -0.024091483015620908 3.5463738784714634e-05 0 -0.024240442736578841 -0.00014462686491364872 0 -0.02408335346824747 -0.00011740264005666171 0 -0.024091483015620908 3.5463738784714634e-05 0 -0.024187100936210515 -9.7203009765525964e-05 0 -0.024035928214492717 8.0274110549722924e-05 0 -0.024091483015620908 3.5463738784714634e-05 0 -0.02400132611255746 0.00015151762939286407 0 -0.023991319495527831 0.00018320708991285991 0 -0.024091483015620908 3.5463738784714634e-05 0 -0.02400132611255746 0.00015151762939286407 0 -0.024035928214492717 8.0274110549722924e-05 0 -0.024091483015620908 3.5463738784714634e-05 0 -0.023964859999878425 0.00012745901080177594 0 -0.023991319495527831 0.00018320708991285991 0 -0.023964859999878425 0.00012745901080177594 0 -0.023918434802614574 0.00027965178008231288 0 -0.023991319495527831 0.00018320708991285991 0 -0.023918434802614574 0.00027965178008231288 0 -0.023991319495527831 0.00018320708991285991 0 -0.023953566925203364 0.00019922899586635005 0 -0.023991319495527831 0.00018320708991285991 0 -0.023975684883872056 0.00016559937146995874 0 -0.023953566925203364 0.00019922899586635005 0 -0.02400132611255746 0.00015151762939286407 0 -0.023991319495527831 0.00018320708991285991 0 -0.023975684883872056 0.00016559937146995874 0 -0.023034118864480806 0.00062039177902275568 0 -0.023347986620082809 0.00046990634661888081 0 -0.023954314343230861 0.00029179787332849985 0 -0.023953566925203364 0.00019922899586635005 0 -0.023899946848148546 0.00025903104537254069 0 -0.023975684883872056 0.00016559937146995874 0 -0.023953566925203364 0.00019922899586635005 0 -0.023965551522498338 0.0001666167733538168 0 -0.023954314343230861 0.00029179787332849985 0 -0.023953566925203364 0.00019922899586635005 0 -0.023965551522498338 0.0001666167733538168 0 -0.023884428978990284 0.00021560130508307908 0 -0.023937617112494654 0.00020863518262764533 0 -0.023850712986457221 0.00016684157768601202 0 -0.023953566925203364 0.00019922899586635005 0 -0.023899946848148546 0.00025903104537254069 0 -0.023850712986457221 0.00016684157768601202 0 -0.023899946848148546 0.00025903104537254069 0 -0.023824904395685437 0.00026022761765074817 0 -0.023941026882767565 0.0010128295873257709 0 -0.023610261114640419 0.00048309781787006116 0 -0.023727425043682769 0.0017672605060165218 0 -0.023155447616625444 0.0013945439455980756 0 -0.023268815184651251 0.00084337711493532707 0 -0.023850712986457221 0.00016684157768601202 0 -0.023824904395685437 0.00026022761765074817 0 -0.023764631403607937 0.00013583641845207059 0 -0.023727425043682769 0.0017672605060165218 0 -0.022977737706683144 0.0017724696301924122 0 -0.023155447616625444 0.0013945439455980756 0 -0.02265082598787577 0.0011977797679255857 0 -0.022977737706683144 0.0017724696301924122 0 -0.023155447616625444 0.0013945439455980756 0 -0.02265082598787577 0.0011977797679255857 0 -0.022470733259799067 0.00051553448360053137 0 -0.023268815184651251 0.00084337711493532707 0 -0.022695406275014384 0.00054599735742035015 0 -0.023610261114640419 0.00048309781787006116 0 -0.02265082598787577 0.0011977797679255857 0 -0.023155447616625444 0.0013945439455980756 0 -0.023268815184651251 0.00084337711493532707 0 -0.023884428978990284 0.00021560130508307908 0 -0.023610261114640419 0.00048309781787006116 0 -0.023808693118811796 0.00024162355908468136 0 -0.023918434802614574 0.00027965178008231288 0 -0.023741818434549557 0.00032718512601150637 0 -0.015496164395409091 0.0018423293313909607 0 -0.016143893303215331 0.0020409714374385168 0 -0.0163053370765356 0.001489042411515637 0 -0.016143893303215331 0.0020409714374385168 0 -0.016610602153939499 0.00195959331422865 0 -0.0163053370765356 0.001489042411515637 0 -0.016143893303215331 0.0020409714374385168 0 -0.015888147973494332 0.0024534825871653687 0 -0.016399214791515012 0.0024595799739044653 0 -0.016143893303215331 0.0020409714374385168 0 -0.016399214791515012 0.0024595799739044653 0 -0.016610602153939499 0.00195959331422865 0 -0.015496164395409091 0.0018423293313909607 0 -0.016143893303215331 0.0020409714374385168 0 -0.015888147973494332 0.0024534825871653687 0 -0.015888147973494332 0.0024534825871653687 0 -0.016010975452818394 0.0029166623368209951 0 -0.016399214791515012 0.0024595799739044653 0 -0.016010975452818394 0.0029166623368209951 0 -0.016573271574877316 0.0030477938388659689 0 -0.016399214791515012 0.0024595799739044653 0 -0.015888147973494332 0.0024534825871653687 0 -0.016010975452818394 0.0029166623368209951 0 -0.015522373040693906 0.0028352497469433602 0 -0.018507301677263565 0.0010568678544342351 0 -0.018088546071399158 0.00055701755417147101 0 -0.021253862748683197 -0.00094732832277336196 0 -0.021339701553822889 -0.00085184643628513851 0 -0.021034930165032873 -0.0008561203552445865 0 -0.014901581150826654 0.0031375856226113735 0 -0.015496164395409091 0.0018423293313909607 0 -0.015522373040693906 0.0028352497469433602 0 -0.015496164395409091 0.0018423293313909607 0 -0.015888147973494332 0.0024534825871653687 0 -0.015522373040693906 0.0028352497469433602 0 -0.01486947650933663 0.0029153476766468011 0 -0.014901581150826654 0.0031375856226113735 0 -0.015316984155097847 0.0031434143911902969 0 -0.014901581150826654 0.0031375856226113735 0 -0.015522373040693906 0.0028352497469433602 0 -0.015316984155097847 0.0031434143911902969 0 -0.01486947650933663 0.0029153476766468011 0 -0.015316984155097847 0.0031434143911902969 0 -0.0158322547394621 0.0039478878120586761 0 -0.015316984155097847 0.0031434143911902969 0 -0.0158322547394621 0.0039478878120586761 0 -0.015679658261695723 0.0032368436111917501 0 -0.014800063709053764 0.0029661392493605049 0 -0.014484704308303701 0.0030388375852041989 0 -0.015522373040693906 0.0028352497469433602 0 -0.015316984155097847 0.0031434143911902969 0 -0.015679658261695723 0.0032368436111917501 0 -0.01486947650933663 0.0029153476766468011 0 -0.014373501498210456 0.0023117949694278351 0 -0.013040357992178096 0.0022126633064902383 0 -0.013055966324720324 0.001928252079533525 0 -0.012666821350276167 0.0017639732243341785 0 -0.014020365723081908 0.0018250094134537318 0 -0.014373501498210456 0.0023117949694278351 0 -0.013040357992178096 0.0022126633064902383 0 -0.012880489400434108 0.0019768608550608403 0 -0.014020365723081908 0.0018250094134537318 0 -0.013040357992178096 0.0022126633064902383 0 -0.014868393989924341 0.003140454260649943 0 -0.014484704308303701 0.0030388375852041989 0 -0.012956753310600682 0.0019804813282459431 0 -0.012880489400434108 0.0019768608550608403 0 -0.013040357992178096 0.0022126633064902383 0 -0.0158322547394621 0.0039478878120586761 0 -0.01613036177000314 0.0033675336322141068 0 -0.016544103878601786 0.0036414271734749632 0 -0.0158322547394621 0.0039478878120586761 0 -0.01613036177000314 0.0033675336322141068 0 -0.015679658261695723 0.0032368436111917501 0 -0.016010975452818394 0.0029166623368209951 0 -0.01613036177000314 0.0033675336322141068 0 -0.015679658261695723 0.0032368436111917501 0 -0.016010975452818394 0.0029166623368209951 0 -0.015522373040693906 0.0028352497469433602 0 -0.015679658261695723 0.0032368436111917501 0 -0.016010975452818394 0.0029166623368209951 0 -0.01613036177000314 0.0033675336322141068 0 -0.016573271574877316 0.0030477938388659689 0 -0.016573271574877316 0.0030477938388659689 0 -0.017042423061823072 0.0034001064745429435 0 -0.017184555682396751 0.0028663626244405669 0 -0.016573271574877316 0.0030477938388659689 0 -0.016544103878601786 0.0036414271734749632 0 -0.017042423061823072 0.0034001064745429435 0 -0.01613036177000314 0.0033675336322141068 0 -0.016573271574877316 0.0030477938388659689 0 -0.016544103878601786 0.0036414271734749632 0 -0.016804599434983813 0.0042956643520068189 0 -0.0158322547394621 0.0039478878120586761 0 -0.01658247850628751 0.003973302248793162 0 -0.0158322547394621 0.0039478878120586761 0 -0.016544103878601786 0.0036414271734749632 0 -0.01658247850628751 0.003973302248793162 0 -0.016544103878601786 0.0036414271734749632 0 -0.01702876675169341 0.0040298774946406048 0 -0.017042423061823072 0.0034001064745429435 0 -0.016544103878601786 0.0036414271734749632 0 -0.01658247850628751 0.003973302248793162 0 -0.01702876675169341 0.0040298774946406048 0 -0.016804599434983813 0.0042956643520068189 0 -0.01658247850628751 0.003973302248793162 0 -0.01702876675169341 0.0040298774946406048 0 -0.016889341595211996 0.0041884983422617516 0 -0.016746833061045463 0.0043121243785131345 0 -0.01702876675169341 0.0040298774946406048 0 -0.017292307316820795 0.0043368555733351629 0 -0.017051501742553665 0.0040860755324843108 0 -0.01702876675169341 0.0040298774946406048 0 -0.017506358455672399 0.003629760259158048 0 -0.017885955418344136 0.0040109019063677698 0 -0.017506358455672399 0.003629760259158048 0 -0.017042423061823072 0.0034001064745429435 0 -0.01753561747383334 0.0031649678659693872 0 -0.01702876675169341 0.0040298774946406048 0 -0.017506358455672399 0.003629760259158048 0 -0.017042423061823072 0.0034001064745429435 0 -0.017042423061823072 0.0034001064745429435 0 -0.01753561747383334 0.0031649678659693872 0 -0.017184555682396751 0.0028663626244405669 0 -0.01753561747383334 0.0031649678659693872 0 -0.017184555682396751 0.0028663626244405669 0 -0.017850681400481336 0.0026928384659535821 0 -0.017184555682396751 0.0028663626244405669 0 -0.017480437431119909 0.0022736020535275873 0 -0.017850681400481336 0.0026928384659535821 0 -0.017184555682396751 0.0028663626244405669 0 -0.016938060899608271 0.0024573227127842592 0 -0.017480437431119909 0.0022736020535275873 0 -0.016573271574877316 0.0030477938388659689 0 -0.017184555682396751 0.0028663626244405669 0 -0.016938060899608271 0.0024573227127842592 0 -0.016573271574877316 0.0030477938388659689 0 -0.016399214791515012 0.0024595799739044653 0 -0.016938060899608271 0.0024573227127842592 0 -0.016938060899608271 0.0024573227127842592 0 -0.016610602153939499 0.00195959331422865 0 -0.017065067058542008 0.0019648064876845676 0 -0.016399214791515012 0.0024595799739044653 0 -0.016938060899608271 0.0024573227127842592 0 -0.016610602153939499 0.00195959331422865 0 -0.016610602153939499 0.00195959331422865 0 -0.017065067058542008 0.0019648064876845676 0 -0.016882731288016827 0.001436174101037916 0 -0.017065067058542008 0.0019648064876845676 0 -0.017410738801085728 0.0017011453477999332 0 -0.016882731288016827 0.001436174101037916 0 -0.017065067058542008 0.0019648064876845676 0 -0.017480437431119909 0.0022736020535275873 0 -0.017410738801085728 0.0017011453477999332 0 -0.017480437431119909 0.0022736020535275873 0 -0.018019296979118596 0.0019210526757694468 0 -0.017410738801085728 0.0017011453477999332 0 -0.016938060899608271 0.0024573227127842592 0 -0.017065067058542008 0.0019648064876845676 0 -0.017480437431119909 0.0022736020535275873 0 -0.018019296979118596 0.0019210526757694468 0 -0.018508897230631913 0.0025347203739439963 0 -0.018655652118285324 0.0017380566078942666 0 -0.017480437431119909 0.0022736020535275873 0 -0.018019296979118596 0.0019210526757694468 0 -0.017850681400481336 0.0026928384659535821 0 -0.01916400667229742 0.0022987005233775617 0 -0.019291377083011034 0.0014596648303530104 0 -0.018655652118285324 0.0017380566078942666 0 -0.018508897230631913 0.0025347203739439963 0 -0.01916400667229742 0.0022987005233775617 0 -0.018655652118285324 0.0017380566078942666 0 -0.018508897230631913 0.0025347203739439963 0 -0.019073855697970158 0.0032499431616776491 0 -0.01916400667229742 0.0022987005233775617 0 -0.018019296979118596 0.0019210526757694468 0 -0.018508897230631913 0.0025347203739439963 0 -0.017850681400481336 0.0026928384659535821 0 -0.018508897230631913 0.0025347203739439963 0 -0.017850681400481336 0.0026928384659535821 0 -0.018170795458656068 0.0033284781343355069 0 -0.01753561747383334 0.0031649678659693872 0 -0.017850681400481336 0.0026928384659535821 0 -0.018170795458656068 0.0033284781343355069 0 -0.017506358455672399 0.003629760259158048 0 -0.01753561747383334 0.0031649678659693872 0 -0.018170795458656068 0.0033284781343355069 0 -0.017506358455672399 0.003629760259158048 0 -0.018170795458656068 0.0033284781343355069 0 -0.017885955418344136 0.0040109019063677698 0 -0.018170795458656068 0.0033284781343355069 0 -0.017885955418344136 0.0040109019063677698 0 -0.0187268913854183 0.0040074724315469368 0 -0.018036340221505385 0.0044545183064342618 0 -0.01702876675169341 0.0040298774946406048 0 -0.017885955418344136 0.0040109019063677698 0 -0.018861769432523552 0.0046888729121010659 0 -0.017885955418344136 0.0040109019063677698 0 -0.0187268913854183 0.0040074724315469368 0 -0.018170795458656068 0.0033284781343355069 0 -0.0187268913854183 0.0040074724315469368 0 -0.019073855697970158 0.0032499431616776491 0 -0.018508897230631913 0.0025347203739439963 0 -0.018170795458656068 0.0033284781343355069 0 -0.019073855697970158 0.0032499431616776491 0 -0.019073855697970158 0.0032499431616776491 0 -0.01971287522124934 0.0039699240612792851 0 -0.01969854751445875 0.0027873126989498721 0 -0.019118802517098403 0.0033089548434443584 0 -0.019601593646697609 0.0039712185747095884 0 -0.0187268913854183 0.0040074724315469368 0 -0.019073855697970158 0.0032499431616776491 0 -0.019585378226305357 0.0040736781249577263 0 -0.019411153308600833 0.0045320067057161868 0 -0.0187268913854183 0.0040074724315469368 0 -0.019585378226305357 0.0040736781249577263 0 -0.020607392757604946 0.0036226562566948617 0 -0.020363294741643296 0.004122401867439277 0 -0.01971287522124934 0.0039699240612792851 0 -0.020607392757604946 0.0036226562566948617 0 -0.020390489202746498 0.0030257018123760523 0 -0.01971287522124934 0.0039699240612792851 0 -0.020390489202746498 0.0030257018123760523 0 -0.01971287522124934 0.0039699240612792851 0 -0.01969854751445875 0.0027873126989498721 0 -0.01969854751445875 0.0027873126989498721 0 -0.019742706738870797 0.0020579230436797054 0 -0.020339606670939741 0.0023467172414258042 0 -0.020390489202746498 0.0030257018123760523 0 -0.01969854751445875 0.0027873126989498721 0 -0.020339606670939741 0.0023467172414258042 0 -0.019073855697970158 0.0032499431616776491 0 -0.01969854751445875 0.0027873126989498721 0 -0.01916400667229742 0.0022987005233775617 0 -0.01916400667229742 0.0022987005233775617 0 -0.019742706738870797 0.0020579230436797054 0 -0.019291377083011034 0.0014596648303530104 0 -0.01969854751445875 0.0027873126989498721 0 -0.01916400667229742 0.0022987005233775617 0 -0.019742706738870797 0.0020579230436797054 0 -0.019742706738870797 0.0020579230436797054 0 -0.020339606670939741 0.0023467172414258042 0 -0.020359871030719942 0.0017514324933385528 0 -0.019742706738870797 0.0020579230436797054 0 -0.019920789955744183 0.0014467886249333586 0 -0.020359871030719942 0.0017514324933385528 0 -0.020481272049922589 0.0012266773107854679 0 -0.019920789955744183 0.0014467886249333586 0 -0.020143248656821454 0.00091804511021333546 0 -0.020481272049922589 0.0012266773107854679 0 -0.019920789955744183 0.0014467886249333586 0 -0.020359871030719942 0.0017514324933385528 0 -0.019742706738870797 0.0020579230436797054 0 -0.019920789955744183 0.0014467886249333586 0 -0.019291377083011034 0.0014596648303530104 0 -0.019291377083011034 0.0014596648303530104 0 -0.019700109405591779 0.0010152796777823118 0 -0.019311287906771474 0.00099164146254360273 0 -0.019920789955744183 0.0014467886249333586 0 -0.019291377083011034 0.0014596648303530104 0 -0.019700109405591779 0.0010152796777823118 0 -0.019700109405591779 0.0010152796777823118 0 -0.019311287906771474 0.00099164146254360273 0 -0.01930711977075554 0.00060076176285190068 0 -0.019291377083011034 0.0014596648303530104 0 -0.019311287906771474 0.00099164146254360273 0 -0.018923364389040759 0.0009684120381533174 0 -0.019311287906771474 0.00099164146254360273 0 -0.01930711977075554 0.00060076176285190068 0 -0.018923364389040759 0.0009684120381533174 0 -0.019700109405591779 0.0010152796777823118 0 -0.01930711977075554 0.00060076176285190068 0 -0.019822860523044616 0.00052584967842997246 0 -0.019700109405591779 0.0010152796777823118 0 -0.020143248656821454 0.00091804511021333546 0 -0.019822860523044616 0.00052584967842997246 0 -0.019920789955744183 0.0014467886249333586 0 -0.019700109405591779 0.0010152796777823118 0 -0.020143248656821454 0.00091804511021333546 0 -0.020615345325766123 0.00074799084278523507 0 -0.020143248656821454 0.00091804511021333546 0 -0.020317260459247321 0.00054045541898885339 0 -0.020143248656821454 0.00091804511021333546 0 -0.020317260459247321 0.00054045541898885339 0 -0.019822860523044616 0.00052584967842997246 0 -0.020317260459247321 0.00054045541898885339 0 -0.020068622193199048 0.00033559086078865696 0 -0.020243416540688709 0.00016212859968102718 0 -0.020469298932733922 0.00024589343188590661 0 -0.020317260459247321 0.00054045541898885339 0 -0.020243416540688709 0.00016212859968102718 0 -0.020317260459247321 0.00054045541898885339 0 -0.020068622193199048 0.00033559086078865696 0 -0.019822860523044616 0.00052584967842997246 0 -0.020068622193199048 0.00033559086078865696 0 -0.019822860523044616 0.00052584967842997246 0 -0.019891588641029828 5.3076038419974807e-05 0 -0.020068622193199048 0.00033559086078865696 0 -0.019891588641029828 5.3076038419974807e-05 0 -0.020243416540688709 0.00016212859968102718 0 -0.020449439927963223 2.6954122695627956e-05 0 -0.020243416540688709 0.00016212859968102718 0 -0.020214788055290839 -0.00026403449333944581 0 -0.019891588641029828 5.3076038419974807e-05 0 -0.020243416540688709 0.00016212859968102718 0 -0.020214788055290839 -0.00026403449333944581 0 -0.020449439927963223 2.6954122695627956e-05 0 -0.020469298932733922 0.00024589343188590661 0 -0.020243416540688709 0.00016212859968102718 0 -0.022716020019271272 -3.6799519184049381e-05 0 -0.022421877205362348 -0.00055223290990803471 0 -0.020763977241965 -0.00016711439446977385 0 -0.020214788055290839 -0.00026403449333944581 0 -0.019996161575639253 -0.00077931793687716945 0 -0.019891588641029828 5.3076038419974807e-05 0 -0.020214788055290839 -0.00026403449333944581 0 -0.019776522973644892 -0.00036317904251094701 0 -0.020214788055290839 -0.00026403449333944581 0 -0.019776522973644892 -0.00036317904251094701 0 -0.019996161575639253 -0.00077931793687716945 0 -0.019776522973644892 -0.00036317904251094701 0 -0.019351162474324939 -0.00064973958741426619 0 -0.019996161575639253 -0.00077931793687716945 0 -0.019351162474324939 -0.00064973958741426619 0 -0.019441970502759837 -0.00017284564961849303 0 -0.018963849949466784 -0.00031777690036951622 0 -0.019776522973644892 -0.00036317904251094701 0 -0.019351162474324939 -0.00064973958741426619 0 -0.019441970502759837 -0.00017284564961849303 0 -0.019891588641029828 5.3076038419974807e-05 0 -0.019776522973644892 -0.00036317904251094701 0 -0.019441970502759837 -0.00017284564961849303 0 -0.019441970502759837 -0.00017284564961849303 0 -0.019109335920876939 8.1243474688446124e-05 0 -0.018963849949466784 -0.00031777690036951622 0 -0.019441970502759837 -0.00017284564961849303 0 -0.019531238146746944 0.00020736438560194732 0 -0.019109335920876939 8.1243474688446124e-05 0 -0.019891588641029828 5.3076038419974807e-05 0 -0.019441970502759837 -0.00017284564961849303 0 -0.019531238146746944 0.00020736438560194732 0 -0.01930711977075554 0.00060076176285190068 0 -0.019822860523044616 0.00052584967842997246 0 -0.019531238146746944 0.00020736438560194732 0 -0.019822860523044616 0.00052584967842997246 0 -0.019891588641029828 5.3076038419974807e-05 0 -0.019531238146746944 0.00020736438560194732 0 -0.01930711977075554 0.00060076176285190068 0 -0.019531238146746944 0.00020736438560194732 0 -0.019109335920876939 8.1243474688446124e-05 0 -0.01930711977075554 0.00060076176285190068 0 -0.018774683792524737 0.00044795865644348207 0 -0.019109335920876939 8.1243474688446124e-05 0 -0.018774683792524737 0.00044795865644348207 0 -0.018651904285037966 -5.4820666266576361e-05 0 -0.018445315995063431 0.00024655688605457275 0 -0.018774683792524737 0.00044795865644348207 0 -0.018445315995063431 0.00024655688605457275 0 -0.018243092060182292 0.0005593198511667358 0 -0.018774683792524737 0.00044795865644348207 0 -0.018651904285037966 -5.4820666266576361e-05 0 -0.019109335920876939 8.1243474688446124e-05 0 -0.018651904285037966 -5.4820666266576361e-05 0 -0.019109335920876939 8.1243474688446124e-05 0 -0.018963849949466784 -0.00031777690036951622 0 -0.018651904285037966 -5.4820666266576361e-05 0 -0.018963849949466784 -0.00031777690036951622 0 -0.01849467386184488 -0.00039527045494732089 0 -0.018963849949466784 -0.00031777690036951622 0 -0.01849467386184488 -0.00039527045494732089 0 -0.01874607658001946 -0.00070848164337073988 0 -0.01849467386184488 -0.00039527045494732089 0 -0.018357276127191281 -0.00070280689204357415 0 -0.01874607658001946 -0.00070848164337073988 0 -0.019351162474324939 -0.00064973958741426619 0 -0.018963849949466784 -0.00031777690036951622 0 -0.01874607658001946 -0.00070848164337073988 0 -0.017965765919369582 -0.00065986920003628321 0 -0.018123091010816134 -0.00038245387354779719 0 -0.018357276127191281 -0.00070280689204357415 0 -0.017965765919369582 -0.00065986920003628321 0 -0.018123091010816134 -0.00038245387354779719 0 -0.017852000296576902 -0.00039774969184475556 0 -0.01849467386184488 -0.00039527045494732089 0 -0.018123091010816134 -0.00038245387354779719 0 -0.018357276127191281 -0.00070280689204357415 0 -0.01849467386184488 -0.00039527045494732089 0 -0.018288206158236443 -0.00011284134821010088 0 -0.018123091010816134 -0.00038245387354779719 0 -0.018651904285037966 -5.4820666266576361e-05 0 -0.01849467386184488 -0.00039527045494732089 0 -0.018288206158236443 -0.00011284134821010088 0 -0.018123091010816134 -0.00038245387354779719 0 -0.01787232741337624 -6.4617051189656594e-05 0 -0.017852000296576902 -0.00039774969184475556 0 -0.018288206158236443 -0.00011284134821010088 0 -0.018123091010816134 -0.00038245387354779719 0 -0.01787232741337624 -6.4617051189656594e-05 0 -0.018148329247142971 0.00017564210417233566 0 -0.017858052136823583 0.00032711044733068771 0 -0.01787232741337624 -6.4617051189656594e-05 0 -0.018288206158236443 -0.00011284134821010088 0 -0.018148329247142971 0.00017564210417233566 0 -0.01787232741337624 -6.4617051189656594e-05 0 -0.018651904285037966 -5.4820666266576361e-05 0 -0.018288206158236443 -0.00011284134821010088 0 -0.018445315995063431 0.00024655688605457275 0 -0.018288206158236443 -0.00011284134821010088 0 -0.018148329247142971 0.00017564210417233566 0 -0.018445315995063431 0.00024655688605457275 0 -0.018148329247142971 0.00017564210417233566 0 -0.018445315995063431 0.00024655688605457275 0 -0.018243092060182292 0.0005593198511667358 0 -0.018148329247142971 0.00017564210417233566 0 -0.018243092060182292 0.0005593198511667358 0 -0.017858052136823583 0.00032711044733068771 0 -0.018243092060182292 0.0005593198511667358 0 -0.017822142748965521 0.00063530731053039653 0 -0.017858052136823583 0.00032711044733068771 0 -0.018008662910840811 0.00094988617106595181 0 -0.018243092060182292 0.0005593198511667358 0 -0.017822142748965521 0.00063530731053039653 0 -0.018008662910840811 0.00094988617106595181 0 -0.018481735668839511 0.00091040805397495843 0 -0.018240012236962116 0.001318232209814658 0 -0.018008662910840811 0.00094988617106595181 0 -0.018243092060182292 0.0005593198511667358 0 -0.018481735668839511 0.00091040805397495843 0 -0.018774683792524737 0.00044795865644348207 0 -0.018923364389040759 0.0009684120381533174 0 -0.018481735668839511 0.00091040805397495843 0 -0.018774683792524737 0.00044795865644348207 0 -0.018243092060182292 0.0005593198511667358 0 -0.018481735668839511 0.00091040805397495843 0 -0.01930711977075554 0.00060076176285190068 0 -0.018774683792524737 0.00044795865644348207 0 -0.018923364389040759 0.0009684120381533174 0 -0.018923364389040759 0.0009684120381533174 0 -0.018481735668839511 0.00091040805397495843 0 -0.018693769298774334 0.0012866784196346238 0 -0.018481735668839511 0.00091040805397495843 0 -0.018693769298774334 0.0012866784196346238 0 -0.018240012236962116 0.001318232209814658 0 -0.019291377083011034 0.0014596648303530104 0 -0.018923364389040759 0.0009684120381533174 0 -0.018693769298774334 0.0012866784196346238 0 -0.019291377083011034 0.0014596648303530104 0 -0.018693769298774334 0.0012866784196346238 0 -0.018655652118285324 0.0017380566078942666 0 -0.018693769298774334 0.0012866784196346238 0 -0.018655652118285324 0.0017380566078942666 0 -0.018240012236962116 0.001318232209814658 0 -0.018019296979118596 0.0019210526757694468 0 -0.018655652118285324 0.0017380566078942666 0 -0.018240012236962116 0.001318232209814658 0 -0.018019296979118596 0.0019210526757694468 0 -0.018240012236962116 0.001318232209814658 0 -0.017745790441157819 0.0013425944345554803 0 -0.018008662910840811 0.00094988617106595181 0 -0.018240012236962116 0.001318232209814658 0 -0.017745790441157819 0.0013425944345554803 0 -0.017342727641852785 0.0012589871470767822 0 -0.017745790441157819 0.0013425944345554803 0 -0.017551027964154382 0.00091712568081373045 0 -0.017342727641852785 0.0012589871470767822 0 -0.017745790441157819 0.0013425944345554803 0 -0.017410738801085728 0.0017011453477999332 0 -0.018019296979118596 0.0019210526757694468 0 -0.017745790441157819 0.0013425944345554803 0 -0.017410738801085728 0.0017011453477999332 0 -0.017342727641852785 0.0012589871470767822 0 -0.017410738801085728 0.0017011453477999332 0 -0.016882731288016827 0.001436174101037916 0 -0.016610602153939499 0.00195959331422865 0 -0.016882731288016827 0.001436174101037916 0 -0.0163053370765356 0.001489042411515637 0 -0.016882731288016827 0.001436174101037916 0 -0.016690257876655769 0.00092036837896113523 0 -0.0163053370765356 0.001489042411515637 0 -0.016882731288016827 0.001436174101037916 0 -0.017119827443179615 0.00090798681895227747 0 -0.016690257876655769 0.00092036837896113523 0 -0.017342727641852785 0.0012589871470767822 0 -0.016882731288016827 0.001436174101037916 0 -0.017119827443179615 0.00090798681895227747 0 -0.017119827443179615 0.00090798681895227747 0 -0.016690257876655769 0.00092036837896113523 0 -0.017001611565592274 0.00051775698572198133 0 -0.016690257876655769 0.00092036837896113523 0 -0.017001611565592274 0.00051775698572198133 0 -0.016632396227622664 0.00050022839759263126 0 -0.017119827443179615 0.00090798681895227747 0 -0.017001611565592274 0.00051775698572198133 0 -0.017464025151797742 0.00052721626786666619 0 -0.017119827443179615 0.00090798681895227747 0 -0.017464025151797742 0.00052721626786666619 0 -0.017551027964154382 0.00091712568081373045 0 -0.017342727641852785 0.0012589871470767822 0 -0.017119827443179615 0.00090798681895227747 0 -0.017551027964154382 0.00091712568081373045 0 -0.018008662910840811 0.00094988617106595181 0 -0.017551027964154382 0.00091712568081373045 0 -0.017822142748965521 0.00063530731053039653 0 -0.018008662910840811 0.00094988617106595181 0 -0.017745790441157819 0.0013425944345554803 0 -0.017551027964154382 0.00091712568081373045 0 -0.017464025151797742 0.00052721626786666619 0 -0.017551027964154382 0.00091712568081373045 0 -0.017822142748965521 0.00063530731053039653 0 -0.017464025151797742 0.00052721626786666619 0 -0.017822142748965521 0.00063530731053039653 0 -0.017858052136823583 0.00032711044733068771 0 -0.017464025151797742 0.00052721626786666619 0 -0.017858052136823583 0.00032711044733068771 0 -0.017599276597121512 0.00018581399497856759 0 -0.017464025151797742 0.00052721626786666619 0 -0.017315789815758365 0.0002317254418507895 0 -0.017599276597121512 0.00018581399497856759 0 -0.017001611565592274 0.00051775698572198133 0 -0.017464025151797742 0.00052721626786666619 0 -0.017315789815758365 0.0002317254418507895 0 -0.017315789815758365 0.0002317254418507895 0 -0.017512573760173681 -4.2260819496715752e-05 0 -0.01723413360514725 -2.4405364911261734e-05 0 -0.017315789815758365 0.0002317254418507895 0 -0.017512573760173681 -4.2260819496715752e-05 0 -0.017599276597121512 0.00018581399497856759 0 -0.017512573760173681 -4.2260819496715752e-05 0 -0.01787232741337624 -6.4617051189656594e-05 0 -0.017599276597121512 0.00018581399497856759 0 -0.017858052136823583 0.00032711044733068771 0 -0.01787232741337624 -6.4617051189656594e-05 0 -0.017599276597121512 0.00018581399497856759 0 -0.01787232741337624 -6.4617051189656594e-05 0 -0.017852000296576902 -0.00039774969184475556 0 -0.017635712297450184 -0.00026293108401996893 0 -0.017512573760173681 -4.2260819496715752e-05 0 -0.01787232741337624 -6.4617051189656594e-05 0 -0.017635712297450184 -0.00026293108401996893 0 -0.017512573760173681 -4.2260819496715752e-05 0 -0.017635712297450184 -0.00026293108401996893 0 -0.017420088748355107 -0.00031953874594123957 0 -0.017635712297450184 -0.00026293108401996893 0 -0.017420088748355107 -0.00031953874594123957 0 -0.017636159590310514 -0.00056731566553736934 0 -0.017512573760173681 -4.2260819496715752e-05 0 -0.017420088748355107 -0.00031953874594123957 0 -0.01723413360514725 -2.4405364911261734e-05 0 -0.017420088748355107 -0.00031953874594123957 0 -0.017410427036849769 -0.00067218060253005155 0 -0.017127543342471827 -0.00038311866384676624 0 -0.017420088748355107 -0.00031953874594123957 0 -0.017410427036849769 -0.00067218060253005155 0 -0.017636159590310514 -0.00056731566553736934 0 -0.017852000296576902 -0.00039774969184475556 0 -0.017635712297450184 -0.00026293108401996893 0 -0.017636159590310514 -0.00056731566553736934 0 -0.017965765919369582 -0.00065986920003628321 0 -0.017852000296576902 -0.00039774969184475556 0 -0.017636159590310514 -0.00056731566553736934 0 -0.017420088748355107 -0.00031953874594123957 0 -0.017127543342471827 -0.00038311866384676624 0 -0.01723413360514725 -2.4405364911261734e-05 0 -0.017127543342471827 -0.00038311866384676624 0 -0.01723413360514725 -2.4405364911261734e-05 0 -0.016979411881904823 -5.1284796735835102e-05 0 -0.017127543342471827 -0.00038311866384676624 0 -0.016979411881904823 -5.1284796735835102e-05 0 -0.01667717147421334 -9.5424227769274565e-05 0 -0.019029002084033571 -0.00018628817298733101 0 -0.019582220316790064 -5.9805314713521062e-07 0 -0.016945362024606225 -0.00069360621705642333 0 -0.017127543342471827 -0.00038311866384676624 0 -0.01667717147421334 -9.5424227769274565e-05 0 -0.016805403641749279 0.00031951599907999536 0 -0.016670190405678614 -8.2922120659267425e-05 0 -0.016632396227622664 0.00050022839759263126 0 -0.016826062654403368 7.660885654316476e-05 0 -0.016805403641749279 0.00031951599907999536 0 -0.016670190405678614 -8.2922120659267425e-05 0 -0.018121209861379977 -0.00062480815971246192 0 -0.019582220316790064 -5.9805314713521062e-07 0 -0.016826062654403368 7.660885654316476e-05 0 -0.016979411881904823 -5.1284796735835102e-05 0 -0.01667717147421334 -9.5424227769274565e-05 0 -0.016826062654403368 7.660885654316476e-05 0 -0.016979411881904823 -5.1284796735835102e-05 0 -0.017031922613249113 0.00016700005169932385 0 -0.01723413360514725 -2.4405364911261734e-05 0 -0.016979411881904823 -5.1284796735835102e-05 0 -0.017031922613249113 0.00016700005169932385 0 -0.017315789815758365 0.0002317254418507895 0 -0.01723413360514725 -2.4405364911261734e-05 0 -0.017031922613249113 0.00016700005169932385 0 -0.017001611565592274 0.00051775698572198133 0 -0.017031922613249113 0.00016700005169932385 0 -0.016805403641749279 0.00031951599907999536 0 -0.017001611565592274 0.00051775698572198133 0 -0.017315789815758365 0.0002317254418507895 0 -0.017031922613249113 0.00016700005169932385 0 -0.017001611565592274 0.00051775698572198133 0 -0.016805403641749279 0.00031951599907999536 0 -0.016632396227622664 0.00050022839759263126 0 -0.016826062654403368 7.660885654316476e-05 0 -0.017031922613249113 0.00016700005169932385 0 -0.016805403641749279 0.00031951599907999536 0 -0.021999911003176626 8.6207705543888771e-05 0 -0.022306351231452862 9.9928275472172142e-05 0 -0.022174008044904964 -0.00029357628920677315 0 -0.019582220316790064 -5.9805314713521062e-07 0 -0.019259510652748051 0.00021634051229347598 0 -0.016670190405678614 -8.2922120659267425e-05 0 -0.016632396227622664 0.00050022839759263126 0 -0.016288532390396453 0.00079402472861434122 0 -0.021101583172068571 0.00010360221391634985 0 -0.021357404467908743 -0.00054779590234524552 0 -0.022113431402825415 0.00023918566324141708 0 -0.021999911003176626 8.6207705543888771e-05 0 -0.022306351231452862 9.9928275472172142e-05 0 -0.022261434961900042 0.00041990147615123121 0 -0.019582220316790064 -5.9805314713521062e-07 0 -0.022510796367140009 0.00041298558918569724 0 -0.022628189928501581 0.00021762871317610851 0 -0.022306351231452862 9.9928275472172142e-05 0 -0.022261434961900042 0.00041990147615123121 0 -0.022553644707370622 4.6124271193687997e-05 0 -0.022628189928501581 0.00021762871317610851 0 -0.022306351231452862 9.9928275472172142e-05 0 -0.022553644707370622 4.6124271193687997e-05 0 -0.022306351231452862 9.9928275472172142e-05 0 -0.022174008044904964 -0.00029357628920677315 0 -0.022640806651054963 -0.00011844465502451986 0 -0.022553644707370622 4.6124271193687997e-05 0 -0.022174008044904964 -0.00029357628920677315 0 -0.021212577015134969 -0.00064364354396228933 0 -0.021237198542257262 -0.0002694829702474028 0 -0.020782158189127525 -0.00043717936156819931 0 -0.022424172497696016 -0.000226094614631217 0 -0.019259510652748051 0.00021634051229347598 0 -0.016690257876655769 0.00092036837896113523 0 -0.016632396227622664 0.00050022839759263126 0 -0.016288532390396453 0.00079402472861434122 0 -0.015952954961918862 0.00050472607672832784 0 -0.019259510652748051 0.00021634051229347598 0 -0.015496164395409091 0.0018423293313909607 0 -0.016059516152824537 0.00072914645628634352 0 -0.0163053370765356 0.001489042411515637 0 -0.016690257876655769 0.00092036837896113523 0 -0.016059516152824537 0.00072914645628634352 0 -0.0163053370765356 0.001489042411515637 0 -0.018088546071399158 0.00055701755417147101 0 -0.019259510652748051 0.00021634051229347598 0 -0.021212577015134969 -0.00064364354396228933 0 -0.021034930165032873 -0.0008561203552445865 0 -0.020782158189127525 -0.00043717936156819931 0 -0.024853452559582524 2.1187143122606638e-06 0 -0.024395697930991611 -0.00020781611643950603 0 -0.024401158240967648 0.00033390231778790235 0 -0.024835871427505637 4.5656472950927029e-05 0 -0.024691151206160143 8.3427737241587236e-05 0 -0.024395697930991611 -0.00020781611643950603 0 -0.024716162407495516 -0.00025132126851881324 0 -0.02458310264755998 -0.00053927609212775962 0 -0.024853452559582524 2.1187143122606638e-06 0 -0.024395697930991611 -0.00020781611643950603 0 -0.024716162407495516 -0.00025132126851881324 0 -0.024395697930991611 -0.00020781611643950603 0 -0.02458310264755998 -0.00053927609212775962 0 -0.024270437122046063 -0.00048633392270412836 0 -0.024943068448398241 -0.0002920238496623815 0 -0.024716162407495516 -0.00025132126851881324 0 -0.02458310264755998 -0.00053927609212775962 0 -0.024943068448398241 -0.0002920238496623815 0 -0.02499858122842737 -0.00010344666133738909 0 -0.024853452559582524 2.1187143122606638e-06 0 -0.024943068448398241 -0.0002920238496623815 0 -0.024853452559582524 2.1187143122606638e-06 0 -0.024716162407495516 -0.00025132126851881324 0 -0.022749613372078224 0.0015982165902872852 0 -0.022249592991533652 0.0008761594066026895 0 -0.021806475285885675 0.0011812703229965422 0 -0.022848578744899223 0.0010302618732963076 0 -0.022749613372078224 0.0015982165902872852 0 -0.022249592991533652 0.0008761594066026895 0 -0.023773341164243837 0.00066793303926762854 0 -0.023500551712980638 0.0004157654500196702 0 -0.023035410578257906 0.00057514472805818262 0 -0.022825706180253442 0.0010739795620970309 0 -0.022261434961900042 0.00041990147615123121 0 -0.023035410578257906 0.00057514472805818262 0 -0.022628189928501581 0.00021762871317610851 0 -0.022261434961900042 0.00041990147615123121 0 -0.022848578744899223 0.0010302618732963076 0 -0.022249592991533652 0.0008761594066026895 0 -0.022113431402825415 0.00023918566324141708 0 -0.022790319705128528 0.0010284437323887295 0 -0.022510796367140009 0.00041298558918569724 0 -0.021101583172068571 0.00010360221391634985 0 -0.022113431402825415 0.00023918566324141708 0 -0.021557644120269885 0.0005773968465373735 0 -0.022249592991533652 0.0008761594066026895 0 -0.022113431402825415 0.00023918566324141708 0 -0.021557644120269885 0.0005773968465373735 0 -0.021557644120269885 0.0005773968465373735 0 -0.021806475285885675 0.0011812703229965422 0 -0.020844728246739861 0.00075175991420451272 0 -0.022249592991533652 0.0008761594066026895 0 -0.021557644120269885 0.0005773968465373735 0 -0.021806475285885675 0.0011812703229965422 0 -0.02458310264755998 -0.00053927609212775962 0 -0.024270437122046063 -0.00048633392270412836 0 -0.024106729961403044 -0.00076277113193500782 0 -0.019896519451946586 -0.00024912578280873981 0 -0.020116327799025537 -0.00015027933473056487 0 -0.020370816727028195 -0.0013966192310721627 0 -0.024270437122046063 -0.00048633392270412836 0 -0.024106729961403044 -0.00076277113193500782 0 -0.023993115630968075 -0.00044618158810362936 0 -0.023500551712980638 0.0004157654500196702 0 -0.020932212388719652 -0.00027000618757210259 0 -0.020932212388719652 -0.00027000618757210259 0 -0.020876002938107402 -0.0011238406158882803 0 -0.021101583172068571 0.00010360221391634985 0 -0.021557644120269885 0.0005773968465373735 0 -0.020844728246739861 0.00075175991420451272 0 -0.017410427036849769 -0.00067218060253005155 0 -0.017127543342471827 -0.00038311866384676624 0 -0.017354858651099959 -0.0011897753252196857 0 -0.016971663088019593 -0.00043664138465049557 0 -0.018583051070203853 -0.0010847934171495843 0 -0.016945362024606225 -0.00069360621705642333 0 -0.017127543342471827 -0.00038311866384676624 0 -0.017356004326875226 -0.0012558961317718528 0 -0.016945362024606225 -0.00069360621705642333 0 -0.017234366120544957 -0.0013114172593089272 0 -0.017356004326875226 -0.0012558961317718528 0 -0.020932212388719652 -0.00027000618757210259 0 -0.018583051070203853 -0.0010847934171495843 0 -0.019029002084033571 -0.00018628817298733101 0 -0.020932212388719652 -0.00027000618757210259 0 -0.017636159590310514 -0.00056731566553736934 0 -0.017789625416769195 -0.00091837006146505489 0 -0.017541842094776952 -0.00087875293071697214 0 -0.017965765919369582 -0.00065986920003628321 0 -0.017636159590310514 -0.00056731566553736934 0 -0.017789625416769195 -0.00091837006146505489 0 -0.017789625416769195 -0.00091837006146505489 0 -0.017541842094776952 -0.00087875293071697214 0 -0.017643062341433282 -0.00099555340100800993 0 -0.017410427036849769 -0.00067218060253005155 0 -0.017354858651099959 -0.0011897753252196857 0 -0.017541842094776952 -0.00087875293071697214 0 -0.017410427036849769 -0.00067218060253005155 0 -0.017636159590310514 -0.00056731566553736934 0 -0.017541842094776952 -0.00087875293071697214 0 -0.017354858651099959 -0.0011897753252196857 0 -0.017541842094776952 -0.00087875293071697214 0 -0.017531821634175142 -0.0011120633146372003 0 -0.017531821634175142 -0.0011120633146372003 0 -0.017643062341433282 -0.00099555340100800993 0 -0.017807309643902917 -0.0012081152654649541 0 -0.017541842094776952 -0.00087875293071697214 0 -0.017531821634175142 -0.0011120633146372003 0 -0.017643062341433282 -0.00099555340100800993 0 -0.017381589660897374 -0.0011828237484403363 0 -0.017531821634175142 -0.0011120633146372003 0 -0.017807309643902917 -0.0012081152654649541 0 -0.018583051070203853 -0.0010847934171495843 0 -0.017984950379315665 -0.0012581801256592326 0 -0.017789625416769195 -0.00091837006146505489 0 -0.017807309643902917 -0.0012081152654649541 0 -0.018108151096828052 -0.00098068877615715717 0 -0.017789625416769195 -0.00091837006146505489 0 -0.017643062341433282 -0.00099555340100800993 0 -0.017807309643902917 -0.0012081152654649541 0 -0.017807309643902917 -0.0012081152654649541 0 -0.017854347565631302 -0.0015327807067488546 0 -0.018180667838900419 -0.0013086021577473443 0 -0.018583051070203853 -0.0010847934171495843 0 -0.020876002938107402 -0.0011238406158882803 0 -0.017381589660897374 -0.0011828237484403363 0 -0.017854347565631302 -0.0015327807067488546 0 -0.017546246158321597 -0.0017734718631378977 0 -0.017381589660897374 -0.0011828237484403363 0 -0.017807309643902917 -0.0012081152654649541 0 -0.017854347565631302 -0.0015327807067488546 0 -0.017854347565631302 -0.0015327807067488546 0 -0.017546246158321597 -0.0017734718631378977 0 -0.018002325956538705 -0.001825513375242845 0 -0.020876002938107402 -0.0011238406158882803 0 -0.023146096318913262 -0.00018922002803940495 0 -0.017546246158321597 -0.0017734718631378977 0 -0.017830337278818765 -0.002392298939762132 0 -0.018002325956538705 -0.001825513375242845 0 -0.021603006895353546 -0.00083919980712831882 0 -0.021689807070364123 -0.0010060608544834226 0 -0.021661522699302188 -0.0010299805938904288 0 -0.020876002938107402 -0.0011238406158882803 0 -0.020939389744889972 -0.0011734797398298324 0 -0.024395697930991611 -0.00020781611643950603 0 -0.023993115630968075 -0.00044618158810362936 0 -0.023919068823019068 -2.8928744505026966e-05 0 -0.024395697930991611 -0.00020781611643950603 0 -0.024270437122046063 -0.00048633392270412836 0 -0.023993115630968075 -0.00044618158810362936 0 -0.023146096318913262 -0.00018922002803940495 0 -0.024691151206160143 8.3427737241587236e-05 0 -0.024395697930991611 -0.00020781611643950603 0 -0.023919068823019068 -2.8928744505026966e-05 0 -0.024401158240967648 0.00033390231778790235 0 -0.020939389744889972 -0.0011734797398298324 0 -0.022943599548479021 -0.000336883468615224 0 -0.023146096318913262 -0.00018922002803940495 0 -0.023635637725313349 -0.0001989485898453039 0 -0.023246987370087239 -0.00013563080247121361 0 -0.023231318450355826 -0.00014971406481100496 0 -0.023314222380585111 -0.00023912447740921883 0 -0.020939389744889972 -0.0011734797398298324 0 -0.023146096318913262 -0.00018922002803940495 0 -0.022553907049894455 -0.00081844055945800177 0 -0.022303590527652729 -0.00066324440380060884 0 -0.022458681291434107 -0.00054289299474017847 0 -0.024990814606928351 -0.00012082043796947676 0 -0.024958956576676988 -0.00014696702797886206 0 -0.024978066465475825 -8.3909187484047587e-05 0 -0.024958956576676988 -0.00014696702797886206 0 -0.024956931788335145 -0.00019578454975408468 0 -0.024934273134109099 -0.0001857706680156166 0 -0.024990814606928351 -0.00012082043796947676 0 -0.024958956576676988 -0.00014696702797886206 0 -0.024956931788335145 -0.00019578454975408468 0 -0.017830337278818765 -0.002392298939762132 0 -0.018558663532854784 -0.001815242452350028 0 -0.018002325956538705 -0.001825513375242845 0 -0.022553907049894455 -0.00081844055945800177 0 -0.022303590527652729 -0.00066324440380060884 0 -0.022240031494534313 -0.0010662358373322075 0 -0.023985718132475246 -0.00025196504924731244 0 -0.02104231969035382 -0.0011047195476884375 0 -0.020939389744889972 -0.0011734797398298324 0 -0.02104231969035382 -0.0011047195476884375 0 -0.017854347565631302 -0.0015327807067488546 0 -0.018002325956538705 -0.001825513375242845 0 -0.018224913862022317 -0.0016091370913316066 0 -0.018558663532854784 -0.001815242452350028 0 -0.018002325956538705 -0.001825513375242845 0 -0.018224913862022317 -0.0016091370913316066 0 -0.018558663532854784 -0.001815242452350028 0 -0.018224913862022317 -0.0016091370913316066 0 -0.018615513609002189 -0.001383914700129449 0 -0.018224913862022317 -0.0016091370913316066 0 -0.018180667838900419 -0.0013086021577473443 0 -0.018615513609002189 -0.001383914700129449 0 -0.017854347565631302 -0.0015327807067488546 0 -0.018224913862022317 -0.0016091370913316066 0 -0.018180667838900419 -0.0013086021577473443 0 -0.017807309643902917 -0.0012081152654649541 0 -0.018180667838900419 -0.0013086021577473443 0 -0.018108151096828052 -0.00098068877615715717 0 -0.018180667838900419 -0.0013086021577473443 0 -0.018494263050745419 -0.0010381492112319442 0 -0.018108151096828052 -0.00098068877615715717 0 -0.018180667838900419 -0.0013086021577473443 0 -0.018494263050745419 -0.0010381492112319442 0 -0.018615513609002189 -0.001383914700129449 0 -0.018494263050745419 -0.0010381492112319442 0 -0.018357276127191281 -0.00070280689204357415 0 -0.018108151096828052 -0.00098068877615715717 0 -0.017965765919369582 -0.00065986920003628321 0 -0.017789625416769195 -0.00091837006146505489 0 -0.018108151096828052 -0.00098068877615715717 0 -0.017965765919369582 -0.00065986920003628321 0 -0.018357276127191281 -0.00070280689204357415 0 -0.018108151096828052 -0.00098068877615715717 0 -0.018898836219249725 -0.0010735273695463819 0 -0.018615513609002189 -0.001383914700129449 0 -0.019267814241277482 -0.0013251954967978081 0 -0.019351162474324939 -0.00064973958741426619 0 -0.01874607658001946 -0.00070848164337073988 0 -0.018898836219249725 -0.0010735273695463819 0 -0.018494263050745419 -0.0010381492112319442 0 -0.01874607658001946 -0.00070848164337073988 0 -0.018898836219249725 -0.0010735273695463819 0 -0.018494263050745419 -0.0010381492112319442 0 -0.018357276127191281 -0.00070280689204357415 0 -0.01874607658001946 -0.00070848164337073988 0 -0.018494263050745419 -0.0010381492112319442 0 -0.018898836219249725 -0.0010735273695463819 0 -0.018615513609002189 -0.001383914700129449 0 -0.02104231969035382 -0.0011047195476884375 0 -0.02221941670368283 -0.00071747177608739239 0 -0.018580372419447294 -0.0018541902511133158 0 -0.018615513609002189 -0.001383914700129449 0 -0.019267814241277482 -0.0013251954967978081 0 -0.024956931788335145 -0.00019578454975408468 0 -0.024920866528070879 -0.0002248354943515447 0 -0.024934273134109099 -0.0001857706680156166 0 -0.02104231969035382 -0.0011047195476884375 0 -0.01911111276089408 -0.0017347133328972958 0 -0.024920866528070879 -0.0002248354943515447 0 -0.024903120912169167 -0.00020136141685438827 0 -0.024934273134109099 -0.0001857706680156166 0 -0.024920866528070879 -0.0002248354943515447 0 -0.024884136408306994 -0.0002565598232635699 0 -0.024903120912169167 -0.00020136141685438827 0 -0.019351162474324939 -0.00064973958741426619 0 -0.018898836219249725 -0.0010735273695463819 0 -0.019267814241277482 -0.0013251954967978081 0 -0.02221941670368283 -0.00071747177608739239 0 -0.022421877205362348 -0.00055223290990803471 0 -0.019351162474324939 -0.00064973958741426619 0 -0.019267814241277482 -0.0013251954967978081 0 -0.019996161575639253 -0.00077931793687716945 0 -0.024884136408306994 -0.0002565598232635699 0 -0.024903120912169167 -0.00020136141685438827 0 -0.024867146592202596 -0.00023847864769748327 0 -0.024903120912169167 -0.00020136141685438827 0 -0.024930134322115719 -0.00015404486027947785 0 -0.024902860884250578 -0.00014674528415805355 0 -0.024958956576676988 -0.00014696702797886206 0 -0.024934273134109099 -0.0001857706680156166 0 -0.024930134322115719 -0.00015404486027947785 0 -0.024903120912169167 -0.00020136141685438827 0 -0.024934273134109099 -0.0001857706680156166 0 -0.024930134322115719 -0.00015404486027947785 0 -0.024958956576676988 -0.00014696702797886206 0 -0.024930134322115719 -0.00015404486027947785 0 -0.024950821740915171 -8.1363037721640292e-05 0 -0.024930134322115719 -0.00015404486027947785 0 -0.024950821740915171 -8.1363037721640292e-05 0 -0.024902860884250578 -0.00014674528415805355 0 -0.024950821740915171 -8.1363037721640292e-05 0 -0.024977707186239328 -4.5616820131251307e-05 0 -0.024971341071288528 -3.3027161913832725e-05 0 -0.024958956576676988 -0.00014696702797886206 0 -0.024950821740915171 -8.1363037721640292e-05 0 -0.024978066465475825 -8.3909187484047587e-05 0 -0.024950821740915171 -8.1363037721640292e-05 0 -0.024977707186239328 -4.5616820131251307e-05 0 -0.024978066465475825 -8.3909187484047587e-05 0 -0.024954312773904842 -7.7436880216187883e-05 0 -0.024947954417679372 -4.2585692320340481e-05 0 -0.024977707186239328 -4.5616820131251307e-05 0 -0.024985145364862845 -2.2891170440295939e-05 0 -0.024971341071288528 -3.3027161913832725e-05 0 -0.024985145364862845 -2.2891170440295939e-05 0 -0.024971341071288528 -3.3027161913832725e-05 0 -0.024987997235247982 -1.3469643947939996e-05 0 -0.024985145364862845 -2.2891170440295939e-05 0 -0.024999962944049194 -3.7098057867512702e-08 0 -0.024987997235247982 -1.3469643947939996e-05 0 -0.024999979813769349 5.9611345137784635e-09 0 -0.025012206296059197 -1.2319960781300004e-05 0 -0.024985145364862845 -2.2891170440295939e-05 0 -0.024999962944049194 -3.7098057867512702e-08 0 -0.024991728768766659 -1.9641140767876123e-05 0 -0.025000000231664304 8.4311634830860596e-10 0 -0.024999576845558317 -4.8060784555699032e-07 0 -0.024999998138942874 -2.1934329129492772e-09 0 -0.024977707186239328 -4.5616820131251307e-05 0 -0.024985145364862845 -2.2891170440295939e-05 0 -0.024991728768766659 -1.9641140767876123e-05 0 -0.025012206296059197 -1.2319960781300004e-05 0 -0.024824876925407809 -0.00011762120418357043 0 -0.024977707186239328 -4.5616820131251307e-05 0 -0.024999615619281722 -3.5047813096354093e-05 0 -0.025003671256382819 -5.8790543181025649e-05 0 -0.024977707186239328 -4.5616820131251307e-05 0 -0.024991728768766659 -1.9641140767876123e-05 0 -0.024999615619281722 -3.5047813096354093e-05 0 -0.024999576845558317 -4.8060784555699032e-07 0 -0.024997914042863705 -1.7573694391656391e-06 0 -0.024999998138942874 -2.1934329129492772e-09 0 -0.024995217547317875 -3.1880600291083061e-06 0 -0.02499999476835555 -3.6645852947187859e-10 0 -0.024999998338246014 -2.199150956002023e-09 0 -0.024824876925407809 -0.00011762120418357043 0 -0.025000047370556812 8.1107071272157952e-08 0 -0.025000340199432872 2.3922958272646715e-07 0 -0.02440139509246542 -0.00010553819848217234 0 -0.024996509972991368 1.9514339590168459e-06 0 -0.024999996703984208 2.6254013331263237e-09 0 -0.024988001385310269 5.6052785346562089e-06 0 -0.025126542801970179 1.2401974448801986e-06 0 -0.024371813735493877 -4.1553274716711653e-05 0 -0.024995217547317875 -3.1880600291083061e-06 0 -0.024999998338246014 -2.199150956002023e-09 0 -0.024994111772360935 -4.0833523548405103e-06 0 -0.024338298511308313 -0.00026786177895554009 0 -0.024241066498268314 -0.0002030727706378323 0 -0.024251823009075572 -7.0141150410788077e-05 0 -0.024824876925407809 -0.00011762120418357043 0 -0.0236859567486273 -0.00024125443640766542 0 -0.024996509972991368 1.9514339590168459e-06 0 -0.024988001385310269 5.6052785346562089e-06 0 -0.024980471393040101 7.5838657922885874e-06 0 -0.024824876925407809 -0.00011762120418357043 0 -0.02440139509246542 -0.00010553819848217234 0 -0.02440139509246542 -0.00010553819848217234 0 -0.024371813735493877 -4.1553274716711653e-05 0 -0.023372445547570987 -0.0004016184637087434 0 -0.023373478121695074 -0.00034305820355005131 0 -0.023311721756365322 -0.00036347449229508585 0 -0.023319284441783852 -0.00030481759978004451 0 -0.023373478121695074 -0.00034305820355005131 0 -0.023314222380585111 -0.00023912447740921883 0 -0.023319284441783852 -0.00030481759978004451 0 -0.023373478121695074 -0.00034305820355005131 0 -0.023311721756365322 -0.00036347449229508585 0 -0.02440139509246542 -0.00010553819848217234 0 -0.0236859567486273 -0.00024125443640766542 0 -0.024977707186239328 -4.5616820131251307e-05 0 -0.025003671256382819 -5.8790543181025649e-05 0 -0.024978066465475825 -8.3909187484047587e-05 0 -0.024990814606928351 -0.00012082043796947676 0 -0.025003671256382819 -5.8790543181025649e-05 0 -0.024978066465475825 -8.3909187484047587e-05 0 -0.022303590527652729 -0.00066324440380060884 0 -0.022373656799575009 -0.00027415281504578884 0 -0.022458681291434107 -0.00054289299474017847 0 -0.023985718132475246 -0.00025196504924731244 0 -0.0236859567486273 -0.00024125443640766542 0 -0.0236859567486273 -0.00024125443640766542 0 -0.022943599548479021 -0.000336883468615224 0 -0.023231318450355826 -0.00014971406481100496 0 -0.023314222380585111 -0.00023912447740921883 0 -0.023275426675938789 -0.00025636172153549393 0 -0.024038975181728942 -0.00026066015568446094 0 -0.024014261571017183 -0.00010662622380340743 0 -0.024225570840350433 -0.00011627426456017541 0 -0.023319284441783852 -0.00030481759978004451 0 -0.023314222380585111 -0.00023912447740921883 0 -0.023275426675938789 -0.00025636172153549393 0 -0.024014261571017183 -0.00010662622380340743 0 -0.02410559726219158 -3.5828347990172251e-05 0 -0.024225570840350433 -0.00011627426456017541 0 -0.024982344989727002 2.7093510230485662e-05 0 -0.024966592337204586 2.3769151435919003e-05 0 -0.024954284478246307 4.1989930942936177e-05 0 -0.024549709944421742 -9.6754415864693558e-06 0 -0.024691151206160143 8.3427737241587236e-05 0 -0.024966592337204586 2.3769151435919003e-05 0 -0.024985255207542623 1.5479434124913354e-05 0 -0.024973993829009292 1.4386855213004054e-05 0 -0.024982344989727002 2.7093510230485662e-05 0 -0.024966592337204586 2.3769151435919003e-05 0 -0.024985255207542623 1.5479434124913354e-05 0 -0.023635637725313349 -0.0001989485898453039 0 -0.024371813735493877 -4.1553274716711653e-05 0 -0.024982344989727002 2.7093510230485662e-05 0 -0.024985255207542623 1.5479434124913354e-05 0 -0.024993687666246794 1.5352083381951901e-05 0 -0.023319284441783852 -0.00030481759978004451 0 -0.023275426675938789 -0.00025636172153549393 0 -0.023311721756365322 -0.00036347449229508585 0 -0.024014261571017183 -0.00010662622380340743 0 -0.02410559726219158 -3.5828347990172251e-05 0 -0.023991140385018705 4.2439258837972579e-05 0 -0.024549709944421742 -9.6754415864693558e-06 0 -0.024371813735493877 -4.1553274716711653e-05 0 -0.024996509972991368 1.9514339590168459e-06 0 -0.024993687666246794 1.5352083381951901e-05 0 -0.024991063849536081 6.7481226798783533e-06 0 -0.024985255207542623 1.5479434124913354e-05 0 -0.024993687666246794 1.5352083381951901e-05 0 -0.024991063849536081 6.7481226798783533e-06 0 -0.024996509972991368 1.9514339590168459e-06 0 -0.024991063849536081 6.7481226798783533e-06 0 -0.024999984096838408 3.5194309675205564e-09 0 -0.024996509972991368 1.9514339590168459e-06 0 -0.024999996703984208 2.6254013331263237e-09 0 -0.024999984096838408 3.5194309675205564e-09 0 -0.024991063849536081 6.7481226798783533e-06 0 -0.024999984096838408 3.5194309675205564e-09 0 -0.024988691709408085 8.1389497841428075e-06 0 -0.024991063849536081 6.7481226798783533e-06 0 -0.024973993829009292 1.4386855213004054e-05 0 -0.024988691709408085 8.1389497841428075e-06 0 -0.024985255207542623 1.5479434124913354e-05 0 -0.024991063849536081 6.7481226798783533e-06 0 -0.024973993829009292 1.4386855213004054e-05 0 -0.024973993829009292 1.4386855213004054e-05 0 -0.024988691709408085 8.1389497841428075e-06 0 -0.02498714705459788 1.7739338620788345e-05 0 -0.024973993829009292 1.4386855213004054e-05 0 -0.02498714705459788 1.7739338620788345e-05 0 -0.024955994482155394 2.7602716347976835e-05 0 -0.024999984096838408 3.5194309675205564e-09 0 -0.024988691709408085 8.1389497841428075e-06 0 -0.02499997812697571 9.8978738932357933e-09 0 -0.024988691709408085 8.1389497841428075e-06 0 -0.02499997812697571 9.8978738932357933e-09 0 -0.02498714705459788 1.7739338620788345e-05 0 -0.024999997804300702 1.6641988688676184e-08 0 -0.02499997812697571 9.8978738932357933e-09 0 -0.02498714705459788 1.7739338620788345e-05 0 -0.024971981793147337 7.4960772340066333e-05 0 -0.0249918287511053 1.347939352824464e-05 0 -0.024957023106402219 4.4685065142071292e-05 0 -0.024955994482155394 2.7602716347976835e-05 0 -0.024918635411794829 3.3862052267219113e-05 0 -0.024957023106402219 4.4685065142071292e-05 0 -0.02498714705459788 1.7739338620788345e-05 0 -0.024955994482155394 2.7602716347976835e-05 0 -0.024955994482155394 2.7602716347976835e-05 0 -0.024951619831743606 2.5682757822979586e-05 0 -0.024918635411794829 3.3862052267219113e-05 0 -0.024973993829009292 1.4386855213004054e-05 0 -0.024955994482155394 2.7602716347976835e-05 0 -0.024951619831743606 2.5682757822979586e-05 0 -0.024966592337204586 2.3769151435919003e-05 0 -0.024973993829009292 1.4386855213004054e-05 0 -0.024951619831743606 2.5682757822979586e-05 0 -0.024966592337204586 2.3769151435919003e-05 0 -0.024951619831743606 2.5682757822979586e-05 0 -0.024941333914915383 3.3091906654936734e-05 0 -0.024853452559582524 2.1187143122606638e-06 0 -0.024941333914915383 3.3091906654936734e-05 0 -0.024948352286367353 3.9318322099632534e-05 0 -0.024951619831743606 2.5682757822979586e-05 0 -0.024941333914915383 3.3091906654936734e-05 0 -0.024918635411794829 3.3862052267219113e-05 0 -0.024966592337204586 2.3769151435919003e-05 0 -0.024941333914915383 3.3091906654936734e-05 0 -0.024954284478246307 4.1989930942936177e-05 0 -0.02481859193206342 0.00011583677553742174 0 -0.024691151206160143 8.3427737241587236e-05 0 -0.024853452559582524 2.1187143122606638e-06 0 -0.024941333914915383 3.3091906654936734e-05 0 -0.024918635411794829 3.3862052267219113e-05 0 -0.025016394212453438 1.4465423604845079e-05 0 -0.024853452559582524 2.1187143122606638e-06 0 -0.024918635411794829 3.3862052267219113e-05 0 -0.024679844184407912 -0.00017371612806493209 0 -0.024738388933445439 -9.8803132461162477e-05 0 -0.024624329534768993 -0.0001042836342434185 0 -0.024679844184407912 -0.00017371612806493209 0 -0.024624329534768993 -0.0001042836342434185 0 -0.024336571881291631 -0.00025725559820056175 0 -0.024679844184407912 -0.00017371612806493209 0 -0.024738388933445439 -9.8803132461162477e-05 0 -0.024777238067017277 -0.00012969152511252359 0 -0.024679844184407912 -0.00017371612806493209 0 -0.024793315348043517 -0.00020136600334291793 0 -0.024777238067017277 -0.00012969152511252359 0 -0.024738388933445439 -9.8803132461162477e-05 0 -0.024777238067017277 -0.00012969152511252359 0 -0.024816865620144034 -7.4364511147354757e-05 0 -0.024738388933445439 -9.8803132461162477e-05 0 -0.024624329534768993 -0.0001042836342434185 0 -0.024786915024676323 -5.6175874403007422e-05 0 -0.024624329534768993 -0.0001042836342434185 0 -0.024786915024676323 -5.6175874403007422e-05 0 -0.024697437979224766 -7.868279976029868e-05 0 -0.024624329534768993 -0.0001042836342434185 0 -0.024523550908522717 -0.00011870532963857739 0 -0.024697437979224766 -7.868279976029868e-05 0 -0.024647832195060268 -0.00010407861176571713 0 -0.024523550908522717 -0.00011870532963857739 0 -0.024697437979224766 -7.868279976029868e-05 0 -0.024647832195060268 -0.00010407861176571713 0 -0.024523550908522717 -0.00011870532963857739 0 -0.0245904525842113 -0.0001222634850866078 0 -0.024523550908522717 -0.00011870532963857739 0 -0.024388767488976133 -0.00011602111996128774 0 -0.0245904525842113 -0.0001222634850866078 0 -0.024523550908522717 -0.00011870532963857739 0 -0.024336571881291631 -0.00025725559820056175 0 -0.024388767488976133 -0.00011602111996128774 0 -0.024624329534768993 -0.0001042836342434185 0 -0.024523550908522717 -0.00011870532963857739 0 -0.024336571881291631 -0.00025725559820056175 0 -0.024336571881291631 -0.00025725559820056175 0 -0.024388767488976133 -0.00011602111996128774 0 -0.024240442736578841 -0.00014462686491364872 0 -0.024388767488976133 -0.00011602111996128774 0 -0.024240442736578841 -0.00014462686491364872 0 -0.024187100936210515 -9.7203009765525964e-05 0 -0.024091483015620908 3.5463738784714634e-05 0 -0.024240442736578841 -0.00014462686491364872 0 -0.024187100936210515 -9.7203009765525964e-05 0 -0.024336571881291631 -0.00025725559820056175 0 -0.024240442736578841 -0.00014462686491364872 0 -0.02408335346824747 -0.00011740264005666171 0 -0.024336571881291631 -0.00025725559820056175 0 -0.02408335346824747 -0.00011740264005666171 0 -0.02370636751556747 -0.00048208301233479964 0 -0.023766431109148133 1.8717928417163055e-05 0 -0.02408335346824747 -0.00011740264005666171 0 -0.02370636751556747 -0.00048208301233479964 0 -0.024296501544550361 -0.00028179710175496516 0 -0.024163891415521777 -0.0003837939519134837 0 -0.024679844184407912 -0.00017371612806493209 0 -0.024336571881291631 -0.00025725559820056175 0 -0.024666954507286558 -0.0003170649467615989 0 -0.024679844184407912 -0.00017371612806493209 0 -0.024666954507286558 -0.0003170649467615989 0 -0.024793315348043517 -0.00020136600334291793 0 -0.024163891415521777 -0.0003837939519134837 0 -0.023800991613427133 -0.00041623862989467725 0 -0.023263505228061726 -6.6054010526760102e-05 0 -0.02370636751556747 -0.00048208301233479964 0 -0.022881344751954753 -0.00056865903727972434 0 -0.024666954507286558 -0.0003170649467615989 0 -0.024777692084488823 -0.00029094978276424213 0 -0.024793315348043517 -0.00020136600334291793 0 -0.024777692084488823 -0.00029094978276424213 0 -0.024831306111036133 -0.00021989999287815398 0 -0.024839016531050365 -0.00024626867084301082 0 -0.024821460236005382 -0.00027508734096602904 0 -0.024777692084488823 -0.00029094978276424213 0 -0.024839016531050365 -0.00024626867084301082 0 -0.024777692084488823 -0.00029094978276424213 0 -0.024831306111036133 -0.00021989999287815398 0 -0.024793315348043517 -0.00020136600334291793 0 -0.024831306111036133 -0.00021989999287815398 0 -0.024793315348043517 -0.00020136600334291793 0 -0.024860780170534977 -0.00016009647216834325 0 -0.024884136408306994 -0.0002565598232635699 0 -0.024867146592202596 -0.00023847864769748327 0 -0.024861209903074732 -0.00025982415118052792 0 -0.024867146592202596 -0.00023847864769748327 0 -0.024839016531050365 -0.00024626867084301082 0 -0.024870468646399583 -0.000200156032753274 0 -0.024867146592202596 -0.00023847864769748327 0 -0.024847179915688838 -0.00026138425614834529 0 -0.024839016531050365 -0.00024626867084301082 0 -0.024867146592202596 -0.00023847864769748327 0 -0.024861209903074732 -0.00025982415118052792 0 -0.024847179915688838 -0.00026138425614834529 0 -0.024821460236005382 -0.00027508734096602904 0 -0.024847179915688838 -0.00026138425614834529 0 -0.024839016531050365 -0.00024626867084301082 0 -0.024831306111036133 -0.00021989999287815398 0 -0.024839016531050365 -0.00024626867084301082 0 -0.024870468646399583 -0.000200156032753274 0 -0.024831306111036133 -0.00021989999287815398 0 -0.024870468646399583 -0.000200156032753274 0 -0.024860780170534977 -0.00016009647216834325 0 -0.024903120912169167 -0.00020136141685438827 0 -0.024867146592202596 -0.00023847864769748327 0 -0.024870468646399583 -0.000200156032753274 0 -0.024950821740915171 -8.1363037721640292e-05 0 -0.024902860884250578 -0.00014674528415805355 0 -0.024894433335878822 -8.8902800467327849e-05 0 -0.024870468646399583 -0.000200156032753274 0 -0.024902860884250578 -0.00014674528415805355 0 -0.024860780170534977 -0.00016009647216834325 0 -0.024903120912169167 -0.00020136141685438827 0 -0.024870468646399583 -0.000200156032753274 0 -0.024902860884250578 -0.00014674528415805355 0 -0.024860780170534977 -0.00016009647216834325 0 -0.024841650948516099 -0.00011413436788841328 0 -0.024894433335878822 -8.8902800467327849e-05 0 -0.024902860884250578 -0.00014674528415805355 0 -0.024860780170534977 -0.00016009647216834325 0 -0.024894433335878822 -8.8902800467327849e-05 0 -0.024793315348043517 -0.00020136600334291793 0 -0.024777238067017277 -0.00012969152511252359 0 -0.024841650948516099 -0.00011413436788841328 0 -0.024793315348043517 -0.00020136600334291793 0 -0.024860780170534977 -0.00016009647216834325 0 -0.024841650948516099 -0.00011413436788841328 0 -0.024777238067017277 -0.00012969152511252359 0 -0.024841650948516099 -0.00011413436788841328 0 -0.024816865620144034 -7.4364511147354757e-05 0 -0.024816865620144034 -7.4364511147354757e-05 0 -0.024875675866230157 -5.8023217483516239e-05 0 -0.024905550339379145 -2.2655503541268682e-05 0 -0.024841650948516099 -0.00011413436788841328 0 -0.024816865620144034 -7.4364511147354757e-05 0 -0.024875675866230157 -5.8023217483516239e-05 0 -0.024841650948516099 -0.00011413436788841328 0 -0.024875675866230157 -5.8023217483516239e-05 0 -0.024894433335878822 -8.8902800467327849e-05 0 -0.024875675866230157 -5.8023217483516239e-05 0 -0.024906486361126804 -4.5525153901776504e-05 0 -0.024918391554361149 -2.7951926193647619e-05 0 -0.024875675866230157 -5.8023217483516239e-05 0 -0.024918391554361149 -2.7951926193647619e-05 0 -0.024905550339379145 -2.2655503541268682e-05 0 -0.024950821740915171 -8.1363037721640292e-05 0 -0.024894433335878822 -8.8902800467327849e-05 0 -0.024922042508933064 -4.6583100842208571e-05 0 -0.024875675866230157 -5.8023217483516239e-05 0 -0.024894433335878822 -8.8902800467327849e-05 0 -0.024906486361126804 -4.5525153901776504e-05 0 -0.024894433335878822 -8.8902800467327849e-05 0 -0.024906486361126804 -4.5525153901776504e-05 0 -0.024922042508933064 -4.6583100842208571e-05 0 -0.024971341071288528 -3.3027161913832725e-05 0 -0.024992101090969939 -8.4378972385628971e-06 0 -0.024987997235247982 -1.3469643947939996e-05 0 -0.024947954417679372 -4.2585692320340481e-05 0 -0.024956887273689832 -1.5380235991115669e-05 0 -0.024906486361126804 -4.5525153901776504e-05 0 -0.024922042508933064 -4.6583100842208571e-05 0 -0.024921542481845985 -2.6480125568256206e-05 0 -0.024906486361126804 -4.5525153901776504e-05 0 -0.024921542481845985 -2.6480125568256206e-05 0 -0.024918391554361149 -2.7951926193647619e-05 0 -0.024992101090969939 -8.4378972385628971e-06 0 -0.024999978849599296 -9.5360557276314254e-09 0 -0.024999997780346207 1.3801051493400995e-09 0 -0.024992101090969939 -8.4378972385628971e-06 0 -0.024999978849599296 -9.5360557276314254e-09 0 -0.024987997235247982 -1.3469643947939996e-05 0 -0.024999962944049194 -3.7098057867512702e-08 0 -0.024999978849599296 -9.5360557276314254e-09 0 -0.024987997235247982 -1.3469643947939996e-05 0 -0.024918391554361149 -2.7951926193647619e-05 0 -0.024999821047217617 -5.2614818620153915e-08 0 -0.024905550339379145 -2.2655503541268682e-05 0 -0.024921542481845985 -2.6480125568256206e-05 0 -0.024918391554361149 -2.7951926193647619e-05 0 -0.024999821047217617 -5.2614818620153915e-08 0 -0.024956887273689832 -1.5380235991115669e-05 0 -0.024999976672570836 -1.4695240562747156e-09 0 -0.024999821047217617 -5.2614818620153915e-08 0 -0.024999922191903418 5.3671452294236665e-09 0 -0.024905550339379145 -2.2655503541268682e-05 0 -0.024999922191903418 5.3671452294236665e-09 0 -0.024909314984647383 -2.0194792512269684e-05 0 -0.024999871407950278 -1.4279218401532495e-08 0 -0.024999922191903418 5.3671452294236665e-09 0 -0.024909314984647383 -2.0194792512269684e-05 0 -0.024905550339379145 -2.2655503541268682e-05 0 -0.024816865620144034 -7.4364511147354757e-05 0 -0.024905550339379145 -2.2655503541268682e-05 0 -0.024786915024676323 -5.6175874403007422e-05 0 -0.024909314984647383 -2.0194792512269684e-05 0 -0.024905550339379145 -2.2655503541268682e-05 0 -0.024786915024676323 -5.6175874403007422e-05 0 -0.024909314984647383 -2.0194792512269684e-05 0 -0.024786915024676323 -5.6175874403007422e-05 0 -0.024806246307561779 -5.0752686944362177e-05 0 -0.024738388933445439 -9.8803132461162477e-05 0 -0.024816865620144034 -7.4364511147354757e-05 0 -0.024786915024676323 -5.6175874403007422e-05 0 -0.024647832195060268 -0.00010407861176571713 0 -0.024754570791195883 -7.6677990961600712e-05 0 -0.024697437979224766 -7.868279976029868e-05 0 -0.024647832195060268 -0.00010407861176571713 0 -0.024754570791195883 -7.6677990961600712e-05 0 -0.024741145750622352 -9.2832530111973261e-05 0 -0.024786915024676323 -5.6175874403007422e-05 0 -0.024697437979224766 -7.868279976029868e-05 0 -0.024806246307561779 -5.0752686944362177e-05 0 -0.024754570791195883 -7.6677990961600712e-05 0 -0.024697437979224766 -7.868279976029868e-05 0 -0.024806246307561779 -5.0752686944362177e-05 0 -0.024754570791195883 -7.6677990961600712e-05 0 -0.024806246307561779 -5.0752686944362177e-05 0 -0.024851543711019292 -4.852750577797965e-05 0 -0.024754570791195883 -7.6677990961600712e-05 0 -0.024851543711019292 -4.852750577797965e-05 0 -0.02480830973846097 -7.8435898545422736e-05 0 -0.024806246307561779 -5.0752686944362177e-05 0 -0.024851543711019292 -4.852750577797965e-05 0 -0.024890012739451194 -2.950077075686657e-05 0 -0.024851543711019292 -4.852750577797965e-05 0 -0.024928096383773753 -2.2090283057581623e-05 0 -0.024890012739451194 -2.950077075686657e-05 0 -0.024909314984647383 -2.0194792512269684e-05 0 -0.024806246307561779 -5.0752686944362177e-05 0 -0.024890012739451194 -2.950077075686657e-05 0 -0.024909314984647383 -2.0194792512269684e-05 0 -0.024890012739451194 -2.950077075686657e-05 0 -0.024999871407950278 -1.4279218401532495e-08 0 -0.024928096383773753 -2.2090283057581623e-05 0 -0.024999871407950278 -1.4279218401532495e-08 0 -0.024999873463345985 -3.396217210305274e-08 0 -0.024928096383773753 -2.2090283057581623e-05 0 -0.024890012739451194 -2.950077075686657e-05 0 -0.024999871407950278 -1.4279218401532495e-08 0 -0.024928096383773753 -2.2090283057581623e-05 0 -0.024999873463345985 -3.396217210305274e-08 0 -0.024931917206941642 -2.4818957153261406e-05 0 -0.024890198699725138 -6.655015127291339e-05 0 -0.024999801767918366 -6.3619936862708618e-08 0 -0.024917579141844531 -4.6670487430072499e-05 0 -0.024907791931459596 -4.5538128784240708e-05 0 -0.024999960272839645 -8.1738489151556139e-09 0 -0.024999873463345985 -3.396217210305274e-08 0 -0.024931917206941642 -2.4818957153261406e-05 0 -0.024999973141072798 3.8040009077994363e-09 0 -0.024890198699725138 -6.655015127291339e-05 0 -0.024917579141844531 -4.6670487430072499e-05 0 -0.024854326274636272 -8.3479062165188543e-05 0 -0.024851543711019292 -4.852750577797965e-05 0 -0.024928096383773753 -2.2090283057581623e-05 0 -0.024931917206941642 -2.4818957153261406e-05 0 -0.024984480308318343 -9.8595638067369168e-06 0 -0.024993409981227514 -2.5977881538551984e-06 0 -0.024989416413599721 -3.5575884012143134e-05 0 -0.024984480308318343 -9.8595638067369168e-06 0 -0.024999988635169328 7.9451835971127674e-09 0 -0.024993409981227514 -2.5977881538551984e-06 0 -0.024984480308318343 -9.8595638067369168e-06 0 -0.024999988635169328 7.9451835971127674e-09 0 -0.024971630774702266 -7.1318842863438787e-06 0 -0.024999988635169328 7.9451835971127674e-09 0 -0.024999801767918366 -6.3619936862708618e-08 0 -0.024993409981227514 -2.5977881538551984e-06 0 -0.024999801767918366 -6.3619936862708618e-08 0 -0.024993409981227514 -2.5977881538551984e-06 0 -0.024917579141844531 -4.6670487430072499e-05 0 -0.024982285798277187 -8.7795378507534115e-06 0 -0.02492277949129728 -5.6974175743460366e-05 0 -0.024993409981227514 -2.5977881538551984e-06 0 -0.024917579141844531 -4.6670487430072499e-05 0 -0.024851289841026251 -7.2507436540392527e-05 0 -0.024917579141844531 -4.6670487430072499e-05 0 -0.024851289841026251 -7.2507436540392527e-05 0 -0.024854326274636272 -8.3479062165188543e-05 0 -0.024984480308318343 -9.8595638067369168e-06 0 -0.024989416413599721 -3.5575884012143134e-05 0 -0.024948426098856613 -2.6831934138272873e-05 0 -0.024989416413599721 -3.5575884012143134e-05 0 -0.024916622414285459 -7.1485760614526181e-05 0 -0.024948426098856613 -2.6831934138272873e-05 0 -0.024989416413599721 -3.5575884012143134e-05 0 -0.024920332848516798 -0.00013616339081919218 0 -0.024916622414285459 -7.1485760614526181e-05 0 -0.02492277949129728 -5.6974175743460366e-05 0 -0.024862183283026321 -0.00012104253365845224 0 -0.024851289841026251 -7.2507436540392527e-05 0 -0.024836720382927176 -0.00010356815323444363 0 -0.024854326274636272 -8.3479062165188543e-05 0 -0.024851289841026251 -7.2507436540392527e-05 0 -0.024836720382927176 -0.00010356815323444363 0 -0.024808292405047516 -0.00011101180319368325 0 -0.024851543711019292 -4.852750577797965e-05 0 -0.024931917206941642 -2.4818957153261406e-05 0 -0.02480830973846097 -7.8435898545422736e-05 0 -0.024907791931459596 -4.5538128784240708e-05 0 -0.024829291569472035 -7.3327256831831475e-05 0 -0.024890198699725138 -6.655015127291339e-05 0 -0.02480830973846097 -7.8435898545422736e-05 0 -0.024854326274636272 -8.3479062165188543e-05 0 -0.02480830973846097 -7.8435898545422736e-05 0 -0.024854326274636272 -8.3479062165188543e-05 0 -0.024787529811041684 -9.723996757357883e-05 0 -0.024836720382927176 -0.00010356815323444363 0 -0.024787529811041684 -9.723996757357883e-05 0 -0.024840569957529875 -0.00012828941293574416 0 -0.024836720382927176 -0.00010356815323444363 0 -0.024854326274636272 -8.3479062165188543e-05 0 -0.024787529811041684 -9.723996757357883e-05 0 -0.024787529811041684 -9.723996757357883e-05 0 -0.024741145750622352 -9.2832530111973261e-05 0 -0.024691088961646346 -0.00010733850991835367 0 -0.02480830973846097 -7.8435898545422736e-05 0 -0.024787529811041684 -9.723996757357883e-05 0 -0.024741145750622352 -9.2832530111973261e-05 0 -0.024754570791195883 -7.6677990961600712e-05 0 -0.02480830973846097 -7.8435898545422736e-05 0 -0.024741145750622352 -9.2832530111973261e-05 0 -0.024691088961646346 -0.00010733850991835367 0 -0.0245904525842113 -0.0001222634850866078 0 -0.024688520189616293 -0.00011674237161435686 0 -0.024647832195060268 -0.00010407861176571713 0 -0.024741145750622352 -9.2832530111973261e-05 0 -0.024691088961646346 -0.00010733850991835367 0 -0.024647832195060268 -0.00010407861176571713 0 -0.024691088961646346 -0.00010733850991835367 0 -0.0245904525842113 -0.0001222634850866078 0 -0.024388767488976133 -0.00011602111996128774 0 -0.0245904525842113 -0.0001222634850866078 0 -0.024625713748872353 -5.312633568622983e-05 0 -0.0245904525842113 -0.0001222634850866078 0 -0.024688520189616293 -0.00011674237161435686 0 -0.024625713748872353 -5.312633568622983e-05 0 -0.024688520189616293 -0.00011674237161435686 0 -0.024701244107711084 -5.1366445963661361e-05 0 -0.024625713748872353 -5.312633568622983e-05 0 -0.024791081540000169 -0.00010764572242538419 0 -0.024517603076365007 -0.00014921663421265142 0 -0.024773879675856095 -0.00011651962821389433 0 -0.024791081540000169 -0.00010764572242538419 0 -0.024787529811041684 -9.723996757357883e-05 0 -0.024691088961646346 -0.00010733850991835367 0 -0.024688520189616293 -0.00011674237161435686 0 -0.024836720382927176 -0.00010356815323444363 0 -0.024808292405047516 -0.00011101180319368325 0 -0.024828135240874415 -0.0001485414611548785 0 -0.024836720382927176 -0.00010356815323444363 0 -0.024840569957529875 -0.00012828941293574416 0 -0.024828135240874415 -0.0001485414611548785 0 -0.024808292405047516 -0.00011101180319368325 0 -0.024812424810481785 -0.00017157357018974354 0 -0.024789805011463353 -0.00019526026162920677 0 -0.024862183283026321 -0.00012104253365845224 0 -0.02480033515395675 -0.00018830360769389156 0 -0.024808292405047516 -0.00011101180319368325 0 -0.024828135240874415 -0.0001485414611548785 0 -0.024812424810481785 -0.00017157357018974354 0 -0.024828135240874415 -0.0001485414611548785 0 -0.024812424810481785 -0.00017157357018974354 0 -0.024817294991654752 -0.00019716407084755043 0 -0.024812424810481785 -0.00017157357018974354 0 -0.024817294991654752 -0.00019716407084755043 0 -0.024789805011463353 -0.00019526026162920677 0 -0.024828135240874415 -0.0001485414611548785 0 -0.024842011320035766 -0.00017805114246721856 0 -0.024817294991654752 -0.00019716407084755043 0 -0.024840569957529875 -0.00012828941293574416 0 -0.024828135240874415 -0.0001485414611548785 0 -0.024842011320035766 -0.00017805114246721856 0 -0.024296375290778896 -0.00027460471381928527 0 -0.02443808008388448 -0.00018059587336518909 0 -0.02435493894087994 -0.0001166208046551305 0 -0.024517603076365007 -0.00014921663421265142 0 -0.024661555669948796 -0.00024165637589671987 0 -0.024296375290778896 -0.00027460471381928527 0 -0.02443808008388448 -0.00018059587336518909 0 -0.024486619459936798 -0.00028070563216901008 0 -0.024517603076365007 -0.00014921663421265142 0 -0.024270342615573759 -0.00012024858637482771 0 -0.02443808008388448 -0.00018059587336518909 0 -0.024486619459936798 -0.00028070563216901008 0 -0.024596103823870008 -0.00016310844543514959 0 -0.02443808008388448 -0.00018059587336518909 0 -0.024473071204266256 -8.0745605118627962e-05 0 -0.02435493894087994 -0.0001166208046551305 0 -0.02443808008388448 -0.00018059587336518909 0 -0.024473071204266256 -8.0745605118627962e-05 0 -0.024596103823870008 -0.00016310844543514959 0 -0.024473071204266256 -8.0745605118627962e-05 0 -0.02435493894087994 -0.0001166208046551305 0 -0.024350355609724986 1.8408992751882691e-05 0 -0.024270342615573759 -0.00012024858637482771 0 -0.024351745480741809 2.4873357072341005e-05 0 -0.02422556656042045 -9.9763679359364364e-05 0 -0.02417657568973736 -8.9620683854643322e-05 0 -0.024176201730850052 -2.2092546754209098e-05 0 -0.02417657568973736 -8.9620683854643322e-05 0 -0.024187100936210515 -9.7203009765525964e-05 0 -0.024119571354839549 -1.938443378611588e-05 0 -0.02417657568973736 -8.9620683854643322e-05 0 -0.024187100936210515 -9.7203009765525964e-05 0 -0.024214485692820725 -8.2925337706038057e-05 0 -0.024388767488976133 -0.00011602111996128774 0 -0.024187100936210515 -9.7203009765525964e-05 0 -0.024214485692820725 -8.2925337706038057e-05 0 -0.024399510273512975 -0.00010212730258076611 0 -0.024408050706254139 -7.3415843325819348e-05 0 -0.024517603076365007 -0.00014921663421265142 0 -0.024408050706254139 -7.3415843325819348e-05 0 -0.024198986430762397 -0.00010102057142049377 0 -0.02422556656042045 -9.9763679359364364e-05 0 -0.02417657568973736 -8.9620683854643322e-05 0 -0.024198986430762397 -0.00010102057142049377 0 -0.02417657568973736 -8.9620683854643322e-05 0 -0.024214485692820725 -8.2925337706038057e-05 0 -0.024849136542523704 0.00017668154211757548 0 -0.024794339699203739 0.00021169589093307276 0 -0.024826149831526742 0.00015283241296632587 0 -0.024804819145086591 3.8990307069077798e-05 0 -0.024801598269928667 -5.6857581187123866e-05 0 -0.024849136542523704 0.00017668154211757548 0 -0.024859232894803848 0.000211187722811597 0 -0.024794339699203739 0.00021169589093307276 0 -0.024794339699203739 0.00021169589093307276 0 -0.024825442434123934 0.00011513600070234064 0 -0.024826149831526742 0.00015283241296632587 0 -0.024894300444957079 0.00017681592205406619 0 -0.024859232894803848 0.000211187722811597 0 -0.024911157730363703 0.00022455676413755938 0 -0.024849136542523704 0.00017668154211757548 0 -0.024894300444957079 0.00017681592205406619 0 -0.024859232894803848 0.000211187722811597 0 -0.024849136542523704 0.00017668154211757548 0 -0.024894300444957079 0.00017681592205406619 0 -0.024877860628058489 0.00015152596955455254 0 -0.024859232894803848 0.000211187722811597 0 -0.024794339699203739 0.00021169589093307276 0 -0.024845356727482525 0.00027095476578552338 0 -0.024859232894803848 0.000211187722811597 0 -0.024911157730363703 0.00022455676413755938 0 -0.024845356727482525 0.00027095476578552338 0 -0.024819591127625707 -0.00015733337126297664 0 -0.024751079981839553 -5.8321460075974232e-05 0 -0.024875864707527784 6.8019418600239433e-05 0 -0.024794339699203739 0.00021169589093307276 0 -0.024754498889961559 0.00033193919964445218 0 -0.024845356727482525 0.00027095476578552338 0 -0.024804819145086591 3.8990307069077798e-05 0 -0.024832683548693633 0.00018484810744945102 0 -0.024819591127625707 -0.00015733337126297664 0 -0.024751079981839553 -5.8321460075974232e-05 0 -0.024728005481341755 -0.00015595525065664032 0 -0.024751079981839553 -5.8321460075974232e-05 0 -0.02463765929011447 -6.7303510258361432e-05 0 -0.024728005481341755 -0.00015595525065664032 0 -0.024473071204266256 -8.0745605118627962e-05 0 -0.02463765929011447 -6.7303510258361432e-05 0 -0.024596103823870008 -0.00016310844543514959 0 -0.02463765929011447 -6.7303510258361432e-05 0 -0.024596103823870008 -0.00016310844543514959 0 -0.024728005481341755 -0.00015595525065664032 0 -0.024661555669948796 -0.00024165637589671987 0 -0.024722434533483783 -0.00023127917921945387 0 -0.024486619459936798 -0.00028070563216901008 0 -0.024596103823870008 -0.00016310844543514959 0 -0.02473985804064777 -0.00022923690366881362 0 -0.024596103823870008 -0.00016310844543514959 0 -0.02473985804064777 -0.00022923690366881362 0 -0.024728005481341755 -0.00015595525065664032 0 -0.024819591127625707 -0.00015733337126297664 0 -0.024728005481341755 -0.00015595525065664032 0 -0.024766664285776792 -0.00020725770916108443 0 -0.024819591127625707 -0.00015733337126297664 0 -0.024766664285776792 -0.00020725770916108443 0 -0.024774730240544211 -0.00021741518637615829 0 -0.02473985804064777 -0.00022923690366881362 0 -0.024728005481341755 -0.00015595525065664032 0 -0.024766664285776792 -0.00020725770916108443 0 -0.024766664285776792 -0.00020725770916108443 0 -0.024780684804809942 -0.00020603905049293119 0 -0.024774730240544211 -0.00021741518637615829 0 -0.02473985804064777 -0.00022923690366881362 0 -0.024766664285776792 -0.00020725770916108443 0 -0.024780684804809942 -0.00020603905049293119 0 -0.024780684804809942 -0.00020603905049293119 0 -0.024774730240544211 -0.00021741518637615829 0 -0.024795901096489131 -0.0001877425535182078 0 -0.024817294991654752 -0.00019716407084755043 0 -0.02473985804064777 -0.00022923690366881362 0 -0.024789805011463353 -0.00019526026162920677 0 -0.02473985804064777 -0.00022923690366881362 0 -0.024780684804809942 -0.00020603905049293119 0 -0.024789805011463353 -0.00019526026162920677 0 -0.024780684804809942 -0.00020603905049293119 0 -0.024789805011463353 -0.00019526026162920677 0 -0.024827470834122671 -0.00017616152320329247 0 -0.024920332848516798 -0.00013616339081919218 0 -0.024789805011463353 -0.00019526026162920677 0 -0.024827470834122671 -0.00017616152320329247 0 -0.024920332848516798 -0.00013616339081919218 0 -0.024827470834122671 -0.00017616152320329247 0 -0.024826879304049823 -0.0001665705595107144 0 -0.024780684804809942 -0.00020603905049293119 0 -0.024827470834122671 -0.00017616152320329247 0 -0.024826879304049823 -0.0001665705595107144 0 -0.024774730240544211 -0.00021741518637615829 0 -0.024795901096489131 -0.0001877425535182078 0 -0.024807127091577636 -0.00016098805895132913 0 -0.024774730240544211 -0.00021741518637615829 0 -0.024807127091577636 -0.00016098805895132913 0 -0.024787570326772989 -0.00015459137266802598 0 -0.024801598269928667 -5.6857581187123866e-05 0 -0.024837269679088881 8.7291003673503381e-06 0 -0.024780684804809942 -0.00020603905049293119 0 -0.024826879304049823 -0.0001665705595107144 0 -0.024795901096489131 -0.0001877425535182078 0 -0.024826879304049823 -0.0001665705595107144 0 -0.024795901096489131 -0.0001877425535182078 0 -0.024807127091577636 -0.00016098805895132913 0 -0.024826879304049823 -0.0001665705595107144 0 -0.024807127091577636 -0.00016098805895132913 0 -0.024858199536510334 -0.00011665507769809781 0 -0.024878795201600384 8.6477949962425691e-05 0 -0.024869302995819711 0.00011147452690358528 0 -0.024826149831526742 0.00015283241296632587 0 -0.024878795201600384 8.6477949962425691e-05 0 -0.024893078640663226 9.1320207838622221e-05 0 -0.024901802204727649 7.6523708960308821e-05 0 -0.024878795201600384 8.6477949962425691e-05 0 -0.024893078640663226 9.1320207838622221e-05 0 -0.024869302995819711 0.00011147452690358528 0 -0.024893078640663226 9.1320207838622221e-05 0 -0.024875240364290258 0.00011770467721413347 0 -0.024903862964705502 0.00010081763195193372 0 -0.024893078640663226 9.1320207838622221e-05 0 -0.024875240364290258 0.00011770467721413347 0 -0.024869302995819711 0.00011147452690358528 0 -0.024825442434123934 0.00011513600070234064 0 -0.024838825432387735 5.0988606896810056e-05 0 -0.024826149831526742 0.00015283241296632587 0 -0.024837269679088881 8.7291003673503381e-06 0 -0.024840872237699808 0.00017675127130558407 0 -0.024875240364290258 0.00011770467721413347 0 -0.024869302995819711 0.00011147452690358528 0 -0.024826149831526742 0.00015283241296632587 0 -0.024875240364290258 0.00011770467721413347 0 -0.024863522841533314 0.00014351024489549474 0 -0.024888475205634485 0.00012720148845399502 0 -0.024849136542523704 0.00017668154211757548 0 -0.024863522841533314 0.00014351024489549474 0 -0.024826149831526742 0.00015283241296632587 0 -0.024875240364290258 0.00011770467721413347 0 -0.024863522841533314 0.00014351024489549474 0 -0.024826149831526742 0.00015283241296632587 0 -0.024894300444957079 0.00017681592205406619 0 -0.024877860628058489 0.00015152596955455254 0 -0.024904795312283394 0.00013823901623394075 0 -0.024863522841533314 0.00014351024489549474 0 -0.024877860628058489 0.00015152596955455254 0 -0.024888475205634485 0.00012720148845399502 0 -0.024849136542523704 0.00017668154211757548 0 -0.024863522841533314 0.00014351024489549474 0 -0.024877860628058489 0.00015152596955455254 0 -0.024888475205634485 0.00012720148845399502 0 -0.024904795312283394 0.00013823901623394075 0 -0.024912309233777543 0.00011299489140627321 0 -0.024877860628058489 0.00015152596955455254 0 -0.024888475205634485 0.00012720148845399502 0 -0.024904795312283394 0.00013823901623394075 0 -0.024875240364290258 0.00011770467721413347 0 -0.024888475205634485 0.00012720148845399502 0 -0.024903862964705502 0.00010081763195193372 0 -0.024888475205634485 0.00012720148845399502 0 -0.024912309233777543 0.00011299489140627321 0 -0.024903862964705502 0.00010081763195193372 0 -0.024903862964705502 0.00010081763195193372 0 -0.02492994745305457 9.0502832715478557e-05 0 -0.024922177991909922 7.1235896295446599e-05 0 -0.024893078640663226 9.1320207838622221e-05 0 -0.024903862964705502 0.00010081763195193372 0 -0.024922177991909922 7.1235896295446599e-05 0 -0.024912309233777543 0.00011299489140627321 0 -0.024903862964705502 0.00010081763195193372 0 -0.02492994745305457 9.0502832715478557e-05 0 -0.02492994745305457 9.0502832715478557e-05 0 -0.024922177991909922 7.1235896295446599e-05 0 -0.024956637368606052 5.5677819588956065e-05 0 -0.024893078640663226 9.1320207838622221e-05 0 -0.024922177991909922 7.1235896295446599e-05 0 -0.024901802204727649 7.6523708960308821e-05 0 -0.024878795201600384 8.6477949962425691e-05 0 -0.024901802204727649 7.6523708960308821e-05 0 -0.024913951844708859 5.9328490917885727e-05 0 -0.024922177991909922 7.1235896295446599e-05 0 -0.024901802204727649 7.6523708960308821e-05 0 -0.024913951844708859 5.9328490917885727e-05 0 -0.024922177991909922 7.1235896295446599e-05 0 -0.024913951844708859 5.9328490917885727e-05 0 -0.024945586520360864 4.0575836156765914e-05 0 -0.024913951844708859 5.9328490917885727e-05 0 -0.024945586520360864 4.0575836156765914e-05 0 -0.024928723237776174 3.7265175557937609e-05 0 -0.024922177991909922 7.1235896295446599e-05 0 -0.024945586520360864 4.0575836156765914e-05 0 -0.024956637368606052 5.5677819588956065e-05 0 -0.024945586520360864 4.0575836156765914e-05 0 -0.0249791406662149 1.8862389955471339e-05 0 -0.024956637368606052 5.5677819588956065e-05 0 -0.024920332848516798 -0.00013616339081919218 0 -0.024826879304049823 -0.0001665705595107144 0 -0.024858199536510334 -0.00011665507769809781 0 -0.024920332848516798 -0.00013616339081919218 0 -0.024858199536510334 -0.00011665507769809781 0 -0.024916622414285459 -7.1485760614526181e-05 0 -0.024858199536510334 -0.00011665507769809781 0 -0.024806249640792501 -0.00012106402334373918 0 -0.024864047200636501 -5.3474989115651855e-05 0 -0.024807127091577636 -0.00016098805895132913 0 -0.024858199536510334 -0.00011665507769809781 0 -0.024806249640792501 -0.00012106402334373918 0 -0.024878795201600384 8.6477949962425691e-05 0 -0.024913951844708859 5.9328490917885727e-05 0 -0.024894996549290928 6.9094020007677792e-05 0 -0.024837269679088881 8.7291003673503381e-06 0 -0.024852293404309094 -2.9048520011216786e-05 0 -0.024807127091577636 -0.00016098805895132913 0 -0.024787570326772989 -0.00015459137266802598 0 -0.024806249640792501 -0.00012106402334373918 0 -0.024913951844708859 5.9328490917885727e-05 0 -0.024894996549290928 6.9094020007677792e-05 0 -0.024928723237776174 3.7265175557937609e-05 0 -0.024852293404309094 -2.9048520011216786e-05 0 -0.02489947618575147 -9.6478300593846022e-06 0 -0.024864047200636501 -5.3474989115651855e-05 0 -0.024916622414285459 -7.1485760614526181e-05 0 -0.024948426098856613 -2.6831934138272873e-05 0 -0.024858199536510334 -0.00011665507769809781 0 -0.024864047200636501 -5.3474989115651855e-05 0 -0.024916622414285459 -7.1485760614526181e-05 0 -0.024864047200636501 -5.3474989115651855e-05 0 -0.024948426098856613 -2.6831934138272873e-05 0 -0.024942283388686037 -1.9171020409842175e-05 0 -0.024984480308318343 -9.8595638067369168e-06 0 -0.024948426098856613 -2.6831934138272873e-05 0 -0.024971630774702266 -7.1318842863438787e-06 0 -0.024948426098856613 -2.6831934138272873e-05 0 -0.024942283388686037 -1.9171020409842175e-05 0 -0.024971630774702266 -7.1318842863438787e-06 0 -0.024928723237776174 3.7265175557937609e-05 0 -0.024978931098478169 2.9568686196312994e-06 0 -0.024972719698941173 1.3901165482466576e-05 0 -0.024864047200636501 -5.3474989115651855e-05 0 -0.024942283388686037 -1.9171020409842175e-05 0 -0.024978931098478169 2.9568686196312994e-06 0 -0.02489947618575147 -9.6478300593846022e-06 0 -0.024965626335590602 1.5280799414183744e-06 0 -0.024999899948237803 -1.2909972565217627e-10 0 -0.024978931098478169 2.9568686196312994e-06 0 -0.024972719698941173 1.3901165482466576e-05 0 -0.024999988635169328 7.9451835971127674e-09 0 -0.024999899948237803 -1.2909972565217627e-10 0 -0.024978931098478169 2.9568686196312994e-06 0 -0.024999988635169328 7.9451835971127674e-09 0 -0.024978931098478169 2.9568686196312994e-06 0 -0.024971630774702266 -7.1318842863438787e-06 0 -0.024942283388686037 -1.9171020409842175e-05 0 -0.024978931098478169 2.9568686196312994e-06 0 -0.024971630774702266 -7.1318842863438787e-06 0 -0.024945586520360864 4.0575836156765914e-05 0 -0.024972719698941173 1.3901165482466576e-05 0 -0.0249791406662149 1.8862389955471339e-05 0 -0.024945586520360864 4.0575836156765914e-05 0 -0.024928723237776174 3.7265175557937609e-05 0 -0.024972719698941173 1.3901165482466576e-05 0 -0.024999899948237803 -1.2909972565217627e-10 0 -0.024972719698941173 1.3901165482466576e-05 0 -0.024999973106359506 1.2727080808945965e-08 0 -0.024972719698941173 1.3901165482466576e-05 0 -0.024999973106359506 1.2727080808945965e-08 0 -0.0249791406662149 1.8862389955471339e-05 0 -0.024999973106359506 1.2727080808945965e-08 0 -0.0249791406662149 1.8862389955471339e-05 0 -0.024999980312038182 7.7114455860076445e-09 0 -0.0249839869748145 3.826560934518723e-05 0 -0.024992084538862931 1.5204941978701845e-05 0 -0.025000091330623985 4.1297990665940823e-05 0 -0.0249791406662149 1.8862389955471339e-05 0 -0.0249839869748145 3.826560934518723e-05 0 -0.024992084538862931 1.5204941978701845e-05 0 -0.024992084538862931 1.5204941978701845e-05 0 -0.024999980312038182 7.7114455860076445e-09 0 -0.025001243106825041 7.9704029480848601e-06 0 -0.0249791406662149 1.8862389955471339e-05 0 -0.024992084538862931 1.5204941978701845e-05 0 -0.024999980312038182 7.7114455860076445e-09 0 -0.024999980312038182 7.7114455860076445e-09 0 -0.025001243106825041 7.9704029480848601e-06 0 -0.025000012453272172 6.9149714810006079e-09 0 -0.025001243106825041 7.9704029480848601e-06 0 -0.025000012453272172 6.9149714810006079e-09 0 -0.025001636745892505 2.4657624187261392e-07 0 -0.025000012453272172 6.9149714810006079e-09 0 -0.025001636745892505 2.4657624187261392e-07 0 -0.025000001510724831 -3.246961677916702e-09 0 -0.024999945896147971 7.5239563884175924e-06 0 -0.025015565902674834 1.932947313508468e-05 0 -0.025001243106825041 7.9704029480848601e-06 0 -0.025001636745892505 2.4657624187261392e-07 0 -0.025002811289034543 -2.3040744164330516e-06 0 -0.024992084538862931 1.5204941978701845e-05 0 -0.025001243106825041 7.9704029480848601e-06 0 -0.025000091330623985 4.1297990665940823e-05 0 -0.025001243106825041 7.9704029480848601e-06 0 -0.025025341815405725 3.9304004703194325e-05 0 -0.025000091330623985 4.1297990665940823e-05 0 -0.025000091330623985 4.1297990665940823e-05 0 -0.025018878075213243 8.011190022267137e-05 0 -0.024991301936465656 7.4710104750125574e-05 0 -0.0249839869748145 3.826560934518723e-05 0 -0.025000091330623985 4.1297990665940823e-05 0 -0.024991301936465656 7.4710104750125574e-05 0 -0.025025341815405725 3.9304004703194325e-05 0 -0.025000091330623985 4.1297990665940823e-05 0 -0.025018878075213243 8.011190022267137e-05 0 -0.025018878075213243 8.011190022267137e-05 0 -0.024991301936465656 7.4710104750125574e-05 0 -0.024998095065398407 0.00011560625286762238 0 -0.024991301936465656 7.4710104750125574e-05 0 -0.024975745045862249 0.00010214895488954395 0 -0.024998095065398407 0.00011560625286762238 0 -0.024991301936465656 7.4710104750125574e-05 0 -0.024972491294736998 6.5843455510581036e-05 0 -0.024975745045862249 0.00010214895488954395 0 -0.024972491294736998 6.5843455510581036e-05 0 -0.024954156357193103 9.0839849992301725e-05 0 -0.024975745045862249 0.00010214895488954395 0 -0.024972491294736998 6.5843455510581036e-05 0 -0.024954156357193103 9.0839849992301725e-05 0 -0.024956637368606052 5.5677819588956065e-05 0 -0.02492994745305457 9.0502832715478557e-05 0 -0.024954156357193103 9.0839849992301725e-05 0 -0.024956637368606052 5.5677819588956065e-05 0 -0.0249791406662149 1.8862389955471339e-05 0 -0.0249839869748145 3.826560934518723e-05 0 -0.024956637368606052 5.5677819588956065e-05 0 -0.0249839869748145 3.826560934518723e-05 0 -0.024991301936465656 7.4710104750125574e-05 0 -0.024972491294736998 6.5843455510581036e-05 0 -0.0249839869748145 3.826560934518723e-05 0 -0.024972491294736998 6.5843455510581036e-05 0 -0.024956637368606052 5.5677819588956065e-05 0 -0.024996554129390353 -1.040659879226829e-05 0 -0.024999258815112245 -7.9291366587395307e-06 0 -0.024996732397799603 -1.3233650060972139e-05 0 -0.024996554129390353 -1.040659879226829e-05 0 -0.025000002326708407 -4.3402463890916741e-10 0 -0.024999987329586745 -1.7540989703913934e-08 0 -0.025000002326708407 -4.3402463890916741e-10 0 -0.024999258815112245 -7.9291366587395307e-06 0 -0.025001434930631616 -3.8957953323020694e-06 0 -0.024996554129390353 -1.040659879226829e-05 0 -0.025000002326708407 -4.3402463890916741e-10 0 -0.024999258815112245 -7.9291366587395307e-06 0 -0.024999258815112245 -7.9291366587395307e-06 0 -0.025001434930631616 -3.8957953323020694e-06 0 -0.025002835703671046 -9.7573699753615467e-06 0 -0.025000002326708407 -4.3402463890916741e-10 0 -0.025001434930631616 -3.8957953323020694e-06 0 -0.025000001510724831 -3.246961677916702e-09 0 -0.025001636745892505 2.4657624187261392e-07 0 -0.025001434930631616 -3.8957953323020694e-06 0 -0.025000001510724831 -3.246961677916702e-09 0 -0.025002811289034543 -2.3040744164330516e-06 0 -0.025001434930631616 -3.8957953323020694e-06 0 -0.025002835703671046 -9.7573699753615467e-06 0 -0.025001636745892505 2.4657624187261392e-07 0 -0.025002811289034543 -2.3040744164330516e-06 0 -0.025001434930631616 -3.8957953323020694e-06 0 -0.025025341815405725 3.9304004703194325e-05 0 -0.025018878075213243 8.011190022267137e-05 0 -0.025049520432781087 6.9911929830363247e-05 0 -0.025015565902674834 1.932947313508468e-05 0 -0.02501341877776345 2.4223420280081921e-05 0 -0.025018878075213243 8.011190022267137e-05 0 -0.025038319928617374 9.8225683359181201e-05 0 -0.025049520432781087 6.9911929830363247e-05 0 -0.025018878075213243 8.011190022267137e-05 0 -0.025038319928617374 9.8225683359181201e-05 0 -0.025024743527808899 0.00012849858342789446 0 -0.025054518897407198 9.9972295929473659e-05 0 -0.025049520432781087 6.9911929830363247e-05 0 -0.02507114918493452 9.9620089934935704e-05 0 -0.025038319928617374 9.8225683359181201e-05 0 -0.025054518897407198 9.9972295929473659e-05 0 -0.025049520432781087 6.9911929830363247e-05 0 -0.025038319928617374 9.8225683359181201e-05 0 -0.025054518897407198 9.9972295929473659e-05 0 -0.025048358252355532 0.00011911976243436865 0 -0.024999258815112245 -7.9291366587395307e-06 0 -0.025002835703671046 -9.7573699753615467e-06 0 -0.024999329668533674 -1.2727516691952853e-05 0 -0.025002835703671046 -9.7573699753615467e-06 0 -0.024999329668533674 -1.2727516691952853e-05 0 -0.024998703309385327 -1.9127086028388408e-05 0 -0.02501341877776345 2.4223420280081921e-05 0 -0.025095201631590014 5.5439108379047113e-05 0 -0.024999258815112245 -7.9291366587395307e-06 0 -0.024999329668533674 -1.2727516691952853e-05 0 -0.024996732397799603 -1.3233650060972139e-05 0 -0.024999329668533674 -1.2727516691952853e-05 0 -0.024996732397799603 -1.3233650060972139e-05 0 -0.024994974233869885 -1.7758956399912627e-05 0 -0.024999329668533674 -1.2727516691952853e-05 0 -0.024998703309385327 -1.9127086028388408e-05 0 -0.024994974233869885 -1.7758956399912627e-05 0 -0.02507114918493452 9.9620089934935704e-05 0 -0.025073080800080264 0.00012346183036979612 0 -0.02506235965750004 0.00011440422192488637 0 -0.025054518897407198 9.9972295929473659e-05 0 -0.02507114918493452 9.9620089934935704e-05 0 -0.02506235965750004 0.00011440422192488637 0 -0.024998703309385327 -1.9127086028388408e-05 0 -0.024986200092726171 -2.2281088091623445e-05 0 -0.024994974233869885 -1.7758956399912627e-05 0 -0.024998703309385327 -1.9127086028388408e-05 0 -0.024986200092726171 -2.2281088091623445e-05 0 -0.024986085966762554 -2.5452777172849763e-05 0 -0.024775539262160067 4.0447201761988431e-05 0 -0.025021877465058292 -1.2477704361864333e-07 0 -0.025095201631590014 5.5439108379047113e-05 0 -0.024695377972722723 6.4058241373731795e-05 0 -0.024775539262160067 4.0447201761988431e-05 0 -0.02490489092460977 -4.2336751499112772e-05 0 -0.024987976398915871 -2.8175627330891417e-05 0 -0.024988028794797387 -2.3012749196908477e-05 0 -0.024994974233869885 -1.7758956399912627e-05 0 -0.024996554129390353 -1.040659879226829e-05 0 -0.024996732397799603 -1.3233650060972139e-05 0 -0.024992743388440219 -1.761558222657029e-05 0 -0.024988028794797387 -2.3012749196908477e-05 0 -0.024994974233869885 -1.7758956399912627e-05 0 -0.024992743388440219 -1.761558222657029e-05 0 -0.024996732397799603 -1.3233650060972139e-05 0 -0.024994974233869885 -1.7758956399912627e-05 0 -0.024992743388440219 -1.761558222657029e-05 0 -0.023836481668239685 5.1891959542843167e-05 0 -0.024055134348834651 7.3902051139165993e-05 0 -0.023043262564626747 -5.9016247486333305e-05 0 -0.022960480630307648 1.3175106027530953e-05 0 -0.023010167476835014 4.7210287921553526e-05 0 -0.023006824107963446 7.1549998528435164e-05 0 -0.02298702076035529 0.00010399100864987665 0 -0.023010459161088008 8.6057409796127716e-05 0 -0.023836481668239685 5.1891959542843167e-05 0 -0.022880360348155361 7.5400001456914914e-05 0 -0.025085469365874389 0.00013027422632599556 0 -0.025087198074022064 0.00012130575255616275 0 -0.025073080800080264 0.00012346183036979612 0 -0.02507114918493452 9.9620089934935704e-05 0 -0.025087198074022064 0.00012130575255616275 0 -0.025073080800080264 0.00012346183036979612 0 -0.023836481668239685 5.1891959542843167e-05 0 -0.02418823135667823 -2.3210766705706173e-05 0 -0.023836481668239685 5.1891959542843167e-05 0 -0.024695377972722723 6.4058241373731795e-05 0 -0.0243757536456124 7.3217935116583492e-05 0 -0.024391018452230635 4.5784441403771079e-05 0 -0.024381963657307069 3.9627565915302865e-05 0 -0.0243757536456124 7.3217935116583492e-05 0 -0.024391018452230635 4.5784441403771079e-05 0 -0.024411058950445156 3.9341967534402892e-05 0 -0.024391018452230635 4.5784441403771079e-05 0 -0.024382661079262929 3.978081261395051e-05 0 -0.024411058950445156 3.9341967534402892e-05 0 -0.024640058834105347 3.8840859179254578e-05 0 -0.024695377972722723 6.4058241373731795e-05 0 -0.024775539262160067 4.0447201761988431e-05 0 -0.024695377972722723 6.4058241373731795e-05 0 -0.02438773856406579 1.2076033957722523e-05 0 -0.024382661079262929 3.978081261395051e-05 0 -0.024411058950445156 3.9341967534402892e-05 0 -0.025073080800080264 0.00012346183036979612 0 -0.02506235965750004 0.00011440422192488637 0 -0.025059840999718259 0.00013383111097329384 0 -0.025085469365874389 0.00013027422632599556 0 -0.025073080800080264 0.00012346183036979612 0 -0.025066900992956106 0.00016167261714342915 0 -0.025073080800080264 0.00012346183036979612 0 -0.025059840999718259 0.00013383111097329384 0 -0.025066900992956106 0.00016167261714342915 0 -0.025044815658955846 0.00015261776668003469 0 -0.025059840999718259 0.00013383111097329384 0 -0.025066900992956106 0.00016167261714342915 0 -0.025044815658955846 0.00015261776668003469 0 -0.025059840999718259 0.00013383111097329384 0 -0.025048358252355532 0.00011911976243436865 0 -0.025054518897407198 9.9972295929473659e-05 0 -0.02506235965750004 0.00011440422192488637 0 -0.025048358252355532 0.00011911976243436865 0 -0.02506235965750004 0.00011440422192488637 0 -0.025059840999718259 0.00013383111097329384 0 -0.025048358252355532 0.00011911976243436865 0 -0.025038319928617374 9.8225683359181201e-05 0 -0.025048358252355532 0.00011911976243436865 0 -0.025024743527808899 0.00012849858342789446 0 -0.025044815658955846 0.00015261776668003469 0 -0.025048358252355532 0.00011911976243436865 0 -0.025024743527808899 0.00012849858342789446 0 -0.025044815658955846 0.00015261776668003469 0 -0.025024743527808899 0.00012849858342789446 0 -0.025021312059927477 0.00017122211795970123 0 -0.025044815658955846 0.00015261776668003469 0 -0.025021312059927477 0.00017122211795970123 0 -0.02504212068018552 0.00020562884351961133 0 -0.025021312059927477 0.00017122211795970123 0 -0.02504212068018552 0.00020562884351961133 0 -0.024998952475727441 0.00021293701628441187 0 -0.023961729610535849 0.00014905282085522984 0 -0.023932457278914441 0.00017754531234692939 0 -0.02504212068018552 0.00020562884351961133 0 -0.024998952475727441 0.00021293701628441187 0 -0.02500678527975516 0.00025820460513107789 0 -0.022900025891866703 7.8087347696846791e-05 0 -0.022949271073980277 8.4566597689711922e-05 0 -0.022911107709592409 0.00013037473894362625 0 -0.025044815658955846 0.00015261776668003469 0 -0.02504212068018552 0.00020562884351961133 0 -0.025066900992956106 0.00016167261714342915 0 -0.023961729610535849 0.00014905282085522984 0 -0.024055134348834651 7.3902051139165993e-05 0 -0.022960480630307648 1.3175106027530953e-05 0 -0.022949271073980277 8.4566597689711922e-05 0 -0.023010167476835014 4.7210287921553526e-05 0 -0.022900025891866703 7.8087347696846791e-05 0 -0.022960480630307648 1.3175106027530953e-05 0 -0.022949271073980277 8.4566597689711922e-05 0 -0.02298702076035529 0.00010399100864987665 0 -0.022968284801372647 0.00013522223088208962 0 -0.023004978549459369 0.00012379186942297125 0 -0.022949271073980277 8.4566597689711922e-05 0 -0.023010167476835014 4.7210287921553526e-05 0 -0.022968284801372647 0.00013522223088208962 0 -0.022880360348155361 7.5400001456914914e-05 0 -0.02300500851172995 0.00012961880143920948 0 -0.0249568453536269 0.00013192029904104507 0 -0.024978661936901805 0.00013560896595369838 0 -0.024968224421919906 0.00016521342283485038 0 -0.0249568453536269 0.00013192029904104507 0 -0.024945633212964894 0.00015717875510183762 0 -0.024968224421919906 0.00016521342283485038 0 -0.0249568453536269 0.00013192029904104507 0 -0.024945633212964894 0.00015717875510183762 0 -0.024926595477918652 0.00014718327109243252 0 -0.024945633212964894 0.00015717875510183762 0 -0.024926595477918652 0.00014718327109243252 0 -0.024926535996966131 0.0001811112196542465 0 -0.024894300444957079 0.00017681592205406619 0 -0.024904795312283394 0.00013823901623394075 0 -0.024926595477918652 0.00014718327109243252 0 -0.024904795312283394 0.00013823901623394075 0 -0.024926595477918652 0.00014718327109243252 0 -0.024933452187480599 0.00011677471188438334 0 -0.0249568453536269 0.00013192029904104507 0 -0.024926595477918652 0.00014718327109243252 0 -0.024933452187480599 0.00011677471188438334 0 -0.024954156357193103 9.0839849992301725e-05 0 -0.0249568453536269 0.00013192029904104507 0 -0.024933452187480599 0.00011677471188438334 0 -0.024904795312283394 0.00013823901623394075 0 -0.024912309233777543 0.00011299489140627321 0 -0.024933452187480599 0.00011677471188438334 0 -0.024912309233777543 0.00011299489140627321 0 -0.02492994745305457 9.0502832715478557e-05 0 -0.024933452187480599 0.00011677471188438334 0 -0.02492994745305457 9.0502832715478557e-05 0 -0.024954156357193103 9.0839849992301725e-05 0 -0.024933452187480599 0.00011677471188438334 0 -0.024954156357193103 9.0839849992301725e-05 0 -0.0249568453536269 0.00013192029904104507 0 -0.024975745045862249 0.00010214895488954395 0 -0.0249568453536269 0.00013192029904104507 0 -0.024975745045862249 0.00010214895488954395 0 -0.024978661936901805 0.00013560896595369838 0 -0.024975745045862249 0.00010214895488954395 0 -0.024998095065398407 0.00011560625286762238 0 -0.024978661936901805 0.00013560896595369838 0 -0.025018878075213243 8.011190022267137e-05 0 -0.025024743527808899 0.00012849858342789446 0 -0.024998095065398407 0.00011560625286762238 0 -0.025024743527808899 0.00012849858342789446 0 -0.025021312059927477 0.00017122211795970123 0 -0.024993051723130398 0.00016531015301054174 0 -0.025024743527808899 0.00012849858342789446 0 -0.024998095065398407 0.00011560625286762238 0 -0.024993051723130398 0.00016531015301054174 0 -0.024998095065398407 0.00011560625286762238 0 -0.024993051723130398 0.00016531015301054174 0 -0.024978661936901805 0.00013560896595369838 0 -0.024993051723130398 0.00016531015301054174 0 -0.024978661936901805 0.00013560896595369838 0 -0.024968224421919906 0.00016521342283485038 0 -0.024993051723130398 0.00016531015301054174 0 -0.024968224421919906 0.00016521342283485038 0 -0.024975690233314984 0.00019704861226720909 0 -0.024968224421919906 0.00016521342283485038 0 -0.024975690233314984 0.00019704861226720909 0 -0.024951341064350565 0.00020277878642983871 0 -0.024993051723130398 0.00016531015301054174 0 -0.024975690233314984 0.00019704861226720909 0 -0.024998952475727441 0.00021293701628441187 0 -0.025021312059927477 0.00017122211795970123 0 -0.024993051723130398 0.00016531015301054174 0 -0.024998952475727441 0.00021293701628441187 0 -0.024998952475727441 0.00021293701628441187 0 -0.024966958190364635 0.00023476351011736984 0 -0.024978299420409866 0.00025684202711127239 0 -0.024975690233314984 0.00019704861226720909 0 -0.024998952475727441 0.00021293701628441187 0 -0.024966958190364635 0.00023476351011736984 0 -0.024975690233314984 0.00019704861226720909 0 -0.024966958190364635 0.00023476351011736984 0 -0.024951341064350565 0.00020277878642983871 0 -0.024966958190364635 0.00023476351011736984 0 -0.024944944940181946 0.00025071557619282835 0 -0.024951341064350565 0.00020277878642983871 0 -0.024944944940181946 0.00025071557619282835 0 -0.024951341064350565 0.00020277878642983871 0 -0.024911157730363703 0.00022455676413755938 0 -0.024945633212964894 0.00015717875510183762 0 -0.024951341064350565 0.00020277878642983871 0 -0.024926535996966131 0.0001811112196542465 0 -0.024945633212964894 0.00015717875510183762 0 -0.024968224421919906 0.00016521342283485038 0 -0.024951341064350565 0.00020277878642983871 0 -0.024951341064350565 0.00020277878642983871 0 -0.024926535996966131 0.0001811112196542465 0 -0.024911157730363703 0.00022455676413755938 0 -0.024894300444957079 0.00017681592205406619 0 -0.024926595477918652 0.00014718327109243252 0 -0.024926535996966131 0.0001811112196542465 0 -0.024894300444957079 0.00017681592205406619 0 -0.024926535996966131 0.0001811112196542465 0 -0.024911157730363703 0.00022455676413755938 0 -0.024944944940181946 0.00025071557619282835 0 -0.024911157730363703 0.00022455676413755938 0 -0.024922871421386744 0.00029163767621480721 0 -0.024911157730363703 0.00022455676413755938 0 -0.024922871421386744 0.00029163767621480721 0 -0.024845356727482525 0.00027095476578552338 0 -0.024922871421386744 0.00029163767621480721 0 -0.024845356727482525 0.00027095476578552338 0 -0.024834719167699058 0.00036319647431194127 0 -0.024916033582740953 0.00039219101208249517 0 -0.024840773436099424 0.0004811209149964906 0 -0.024834719167699058 0.00036319647431194127 0 -0.024922871421386744 0.00029163767621480721 0 -0.024916033582740953 0.00039219101208249517 0 -0.024834719167699058 0.00036319647431194127 0 -0.024916033582740953 0.00039219101208249517 0 -0.024984700542775407 0.00046405242895489169 0 -0.024840773436099424 0.0004811209149964906 0 -0.024984700542775407 0.00046405242895489169 0 -0.025024334599583739 0.00037360875097154595 0 -0.025124145755798067 0.00046207815544122612 0 -0.024916033582740953 0.00039219101208249517 0 -0.024984700542775407 0.00046405242895489169 0 -0.025024334599583739 0.00037360875097154595 0 -0.024922871421386744 0.00029163767621480721 0 -0.024916033582740953 0.00039219101208249517 0 -0.025024334599583739 0.00037360875097154595 0 -0.024941964456158924 0.00028285506285779063 0 -0.0249407838137558 0.00027599740560031282 0 -0.024953164067697143 0.00027021526943639163 0 -0.024922871421386744 0.00029163767621480721 0 -0.024941964456158924 0.00028285506285779063 0 -0.0249407838137558 0.00027599740560031282 0 -0.024878903582218604 0.00025001853951587644 0 -0.025134545386930371 0.00045833650370289634 0 -0.024944944940181946 0.00025071557619282835 0 -0.024922871421386744 0.00029163767621480721 0 -0.0249407838137558 0.00027599740560031282 0 -0.024944944940181946 0.00025071557619282835 0 -0.0249407838137558 0.00027599740560031282 0 -0.024953164067697143 0.00027021526943639163 0 -0.024978299420409866 0.00025684202711127239 0 -0.024953164067697143 0.00027021526943639163 0 -0.024960629182926509 0.0003048820814236813 0 -0.024966958190364635 0.00023476351011736984 0 -0.024944944940181946 0.00025071557619282835 0 -0.024953164067697143 0.00027021526943639163 0 -0.024966958190364635 0.00023476351011736984 0 -0.024978299420409866 0.00025684202711127239 0 -0.024953164067697143 0.00027021526943639163 0 -0.024998952475727441 0.00021293701628441187 0 -0.024978299420409866 0.00025684202711127239 0 -0.02500678527975516 0.00025820460513107789 0 -0.024978299420409866 0.00025684202711127239 0 -0.02500678527975516 0.00025820460513107789 0 -0.024960629182926509 0.0003048820814236813 0 -0.023932457278914441 0.00017754531234692939 0 -0.023899167127754153 0.00032087410207110083 0 -0.022852613501896379 0.00012763703455980906 0 -0.022844060522214736 0.00016656360835879831 0 -0.022810933710970489 0.00017007464743544994 0 -0.022844060522214736 0.00016656360835879831 0 -0.022810933710970489 0.00017007464743544994 0 -0.022815624728377202 0.00019127516693098995 0 -0.024941964456158924 0.00028285506285779063 0 -0.024941236386033822 0.00028589806533149264 0 -0.024938641254816745 0.00028701972685592843 0 -0.025080963965241693 0.0003781758457234126 0 -0.023899167127754153 0.00032087410207110083 0 -0.024941964456158924 0.00028285506285779063 0 -0.024953164067697143 0.00027021526943639163 0 -0.024941236386033822 0.00028589806533149264 0 -0.023899167127754153 0.00032087410207110083 0 -0.023411115980227108 0.00052839274933564999 0 -0.025134545386930371 0.00045833650370289634 0 -0.023411115980227108 0.00052839274933564999 0 -0.021021855134131687 0.0005316341074162853 0 -0.020993941207576458 0.00047926728862265856 0 -0.021054330759443091 0.00048862370617433449 0 -0.021021855134131687 0.0005316341074162853 0 -0.020989461633656073 0.00051289575195219731 0 -0.020993941207576458 0.00047926728862265856 0 -0.023899167127754153 0.00032087410207110083 0 -0.022074188628668303 0.00034940949622128424 0 -0.023117062437993736 0.00077017642656230384 0 -0.02334945819956338 0.00054016561299878704 0 -0.022801902613234934 8.4850358137872564e-05 0 -0.023411115980227108 0.00052839274933564999 0 -0.022074188628668303 0.00034940949622128424 0 -0.022074188628668303 0.00034940949622128424 0 -0.021886841622425549 0.00033139730639723385 0 -0.022844060522214736 0.00016656360835879831 0 -0.022815624728377202 0.00019127516693098995 0 -0.022851511589898472 0.00019086797053054544 0 -0.022815624728377202 0.00019127516693098995 0 -0.022851511589898472 0.00019086797053054544 0 -0.022841408387920693 0.00022103345311293751 0 -0.022074188628668303 0.00034940949622128424 0 -0.020192003481334566 0.00027536122877531391 0 -0.021376957300524753 0.00080742208460481916 0 -0.020890499235360117 0.00038044946560060331 0 -0.020805301636860746 0.00033960063757588089 0 -0.021376957300524753 0.00080742208460481916 0 -0.020890499235360117 0.00038044946560060331 0 -0.021039627099379066 8.9399140340516703e-05 0 -0.020989461633656073 0.00051289575195219731 0 -0.020944272517204401 0.00045196687749171226 0 -0.020993941207576458 0.00047926728862265856 0 -0.020723364377982081 0.00013578683724298316 0 -0.020192003481334566 0.00027536122877531391 0 -0.020890499235360117 0.00038044946560060331 0 -0.021028705640859395 9.9575982075598193e-05 0 -0.020824699036738892 0.00018233875799172943 0 -0.020944272517204401 0.00045196687749171226 0 -0.020993941207576458 0.00047926728862265856 0 -0.020999890970183639 0.00043867727391743588 0 -0.020993941207576458 0.00047926728862265856 0 -0.021054330759443091 0.00048862370617433449 0 -0.020999890970183639 0.00043867727391743588 0 -0.021054330759443091 0.00048862370617433449 0 -0.021045423374923156 0.0004202376932761766 0 -0.020999890970183639 0.00043867727391743588 0 -0.024840773436099424 0.0004811209149964906 0 -0.024841951873405092 0.00082368095043192308 0 -0.024690757296275824 0.0006669857055262965 0 -0.021054330759443091 0.00048862370617433449 0 -0.021091027844111088 0.00045199034645936704 0 -0.021045423374923156 0.0004202376932761766 0 -0.024840773436099424 0.0004811209149964906 0 -0.025010396311637362 0.00061182907005349018 0 -0.024841951873405092 0.00082368095043192308 0 -0.022979844693114079 0.00057627997273461764 0 -0.022970565858384858 0.00058545140969186796 0 -0.024984700542775407 0.00046405242895489169 0 -0.024840773436099424 0.0004811209149964906 0 -0.025010396311637362 0.00061182907005349018 0 -0.024984700542775407 0.00046405242895489169 0 -0.025124145755798067 0.00046207815544122612 0 -0.025010396311637362 0.00061182907005349018 0 -0.023411115980227108 0.00052839274933564999 0 -0.022979844693114079 0.00057627997273461764 0 -0.022968284801372647 0.00013522223088208962 0 -0.022930725830252303 0.00017484623747930625 0 -0.02298404776097571 0.00018310972489502683 0 -0.022968284801372647 0.00013522223088208962 0 -0.022930725830252303 0.00017484623747930625 0 -0.022911107709592409 0.00013037473894362625 0 -0.022949271073980277 8.4566597689711922e-05 0 -0.022968284801372647 0.00013522223088208962 0 -0.022911107709592409 0.00013037473894362625 0 -0.022930725830252303 0.00017484623747930625 0 -0.022911107709592409 0.00013037473894362625 0 -0.022877590259946411 0.00016879473318501278 0 -0.022852613501896379 0.00012763703455980906 0 -0.022911107709592409 0.00013037473894362625 0 -0.022877590259946411 0.00016879473318501278 0 -0.022900025891866703 7.8087347696846791e-05 0 -0.022852613501896379 0.00012763703455980906 0 -0.022911107709592409 0.00013037473894362625 0 -0.022844060522214736 0.00016656360835879831 0 -0.022877590259946411 0.00016879473318501278 0 -0.022851511589898472 0.00019086797053054544 0 -0.022852613501896379 0.00012763703455980906 0 -0.022844060522214736 0.00016656360835879831 0 -0.022877590259946411 0.00016879473318501278 0 -0.022851511589898472 0.00019086797053054544 0 -0.022841408387920693 0.00022103345311293751 0 -0.02288174339377682 0.00020586111807716675 0 -0.022877590259946411 0.00016879473318501278 0 -0.022851511589898472 0.00019086797053054544 0 -0.02288174339377682 0.00020586111807716675 0 -0.021886841622425549 0.00033139730639723385 0 -0.021265718556142996 -3.0739178651110159e-05 0 -0.020805301636860746 0.00033960063757588089 0 -0.020655248985853681 5.1875944953151921e-05 0 -0.020262404591107026 -0.00011612403250469609 0 -0.022841408387920693 0.00022103345311293751 0 -0.02288174339377682 0.00020586111807716675 0 -0.022867260704805024 0.00025269631588160089 0 -0.020890499235360117 0.00038044946560060331 0 -0.020805301636860746 0.00033960063757588089 0 -0.020824699036738892 0.00018233875799172943 0 -0.021028705640859395 9.9575982075598193e-05 0 -0.020824699036738892 0.00018233875799172943 0 -0.020655248985853681 5.1875944953151921e-05 0 -0.020805301636860746 0.00033960063757588089 0 -0.020824699036738892 0.00018233875799172943 0 -0.020655248985853681 5.1875944953151921e-05 0 -0.02288174339377682 0.00020586111807716675 0 -0.022929782528417274 0.00022050319144427318 0 -0.022867260704805024 0.00025269631588160089 0 -0.022930725830252303 0.00017484623747930625 0 -0.022877590259946411 0.00016879473318501278 0 -0.02288174339377682 0.00020586111807716675 0 -0.022930725830252303 0.00017484623747930625 0 -0.02288174339377682 0.00020586111807716675 0 -0.022929782528417274 0.00022050319144427318 0 -0.020905838106439888 0.00045526482018744529 0 -0.020922169215760251 0.00031119955074524619 0 -0.021129102181197523 0.00031132863543409443 0 -0.02204737502312441 0.00036091628693765286 0 -0.021265718556142996 -3.0739178651110159e-05 0 -0.020905838106439888 0.00045526482018744529 0 -0.020778560932744113 0.00048030066326094689 0 -0.020775258006379128 0.00033197016519817118 0 -0.020905838106439888 0.00045526482018744529 0 -0.020922169215760251 0.00031119955074524619 0 -0.020775258006379128 0.00033197016519817118 0 -0.020905838106439888 0.00045526482018744529 0 -0.02076862930143045 0.00044713467400449546 0 -0.020778560932744113 0.00048030066326094689 0 -0.022930725830252303 0.00017484623747930625 0 -0.022929782528417274 0.00022050319144427318 0 -0.02298404776097571 0.00018310972489502683 0 -0.02204737502312441 0.00036091628693765286 0 -0.021885811086572778 0.00030029400310418829 0 -0.020094450834728987 -0.00026045230081750989 0 -0.019203886660112097 -0.00071684634207316291 0 -0.020790689914090998 1.3301142029654546e-05 0 -0.020841660173589498 0.0002106934204526093 0 -0.020983846749866142 0.00017998539494211351 0 -0.019192385316015456 -0.00067320777698348937 0 -0.018316785538801641 -0.0010980415116256833 0 -0.018921093496859231 -0.00061316796119029377 0 -0.020790689914090998 1.3301142029654546e-05 0 -0.020841660173589498 0.0002106934204526093 0 -0.020705164576341112 0.00015951364815388461 0 -0.020841660173589498 0.0002106934204526093 0 -0.020922169215760251 0.00031119955074524619 0 -0.020775258006379128 0.00033197016519817118 0 -0.020841660173589498 0.0002106934204526093 0 -0.020775258006379128 0.00033197016519817118 0 -0.020705164576341112 0.00015951364815388461 0 -0.020841660173589498 0.0002106934204526093 0 -0.020922169215760251 0.00031119955074524619 0 -0.020983846749866142 0.00017998539494211351 0 -0.020922169215760251 0.00031119955074524619 0 -0.020983846749866142 0.00017998539494211351 0 -0.021129102181197523 0.00031132863543409443 0 -0.019203886660112097 -0.00071684634207316291 0 -0.018569836285192709 -0.00087220472950081448 0 -0.018240022308658298 -0.0011774317796049692 0 -0.018448929184548806 -0.00049424654364358485 0 -0.018921093496859231 -0.00061316796119029377 0 -0.018240022308658298 -0.0011774317796049692 0 -0.018001915018620397 -0.00066354254545865376 0 -0.018448929184548806 -0.00049424654364358485 0 -0.017582385497772107 -0.00094162357559584285 0 -0.017298671271705753 -0.001669507313205078 0 -0.017165406626117256 -0.00098818883161475675 0 -0.018240022308658298 -0.0011774317796049692 0 -0.017582385497772107 -0.00094162357559584285 0 -0.017298671271705753 -0.001669507313205078 0 -0.018240022308658298 -0.0011774317796049692 0 -0.018001915018620397 -0.00066354254545865376 0 -0.017582385497772107 -0.00094162357559584285 0 -0.018001915018620397 -0.00066354254545865376 0 -0.017582385497772107 -0.00094162357559584285 0 -0.017605376685589477 -0.00041916640874468041 0 -0.019343382069560794 -0.00080105325578953531 0 -0.020137730397017491 -0.0001300806190064945 0 -0.020333165802658731 -0.00027238633750112118 0 -0.019203886660112097 -0.00071684634207316291 0 -0.019148742589922108 -0.00039434098816642208 0 -0.019203886660112097 -0.00071684634207316291 0 -0.021265718556142996 -3.0739178651110159e-05 0 -0.021265718556142996 -3.0739178651110159e-05 0 -0.019148742589922108 -0.00039434098816642208 0 -0.019567437243272919 0.00016149196955190628 0 -0.019248735711315541 -0.00014373119707952216 0 -0.019201767779071507 -0.00063719730299316001 0 -0.020192003481334566 0.00027536122877531391 0 -0.019148742589922108 -0.00039434098816642208 0 -0.019148742589922108 -0.00039434098816642208 0 -0.018028227674491408 -0.00067541021744566964 0 -0.021028705640859395 9.9575982075598193e-05 0 -0.020655248985853681 5.1875944953151921e-05 0 -0.020396262571807381 -0.00021444534970725603 0 -0.019567437243272919 0.00016149196955190628 0 -0.018696758833593237 -0.00027012199113457758 0 -0.019248735711315541 -0.00014373119707952216 0 -0.017298671271705753 -0.001669507313205078 0 -0.016783804717152989 -0.0013059028719907583 0 -0.016858519864639255 -0.0011332178029568474 0 -0.020655248985853681 5.1875944953151921e-05 0 -0.020262404591107026 -0.00011612403250469609 0 -0.020396262571807381 -0.00021444534970725603 0 -0.018696758833593237 -0.00027012199113457758 0 -0.019248735711315541 -0.00014373119707952216 0 -0.019201767779071507 -0.00063719730299316001 0 -0.017298671271705753 -0.001669507313205078 0 -0.016858519864639255 -0.0011332178029568474 0 -0.017165406626117256 -0.00098818883161475675 0 -0.018028227674491408 -0.00067541021744566964 0 -0.017678571591496269 -0.0010711844921598038 0 -0.017582385497772107 -0.00094162357559584285 0 -0.017165406626117256 -0.00098818883161475675 0 -0.017126529502204606 -0.00062434960574237256 0 -0.017165406626117256 -0.00098818883161475675 0 -0.016940683774369025 -0.00086154482547509594 0 -0.017126529502204606 -0.00062434960574237256 0 -0.016858519864639255 -0.0011332178029568474 0 -0.017165406626117256 -0.00098818883161475675 0 -0.016940683774369025 -0.00086154482547509594 0 -0.016858519864639255 -0.0011332178029568474 0 -0.016940683774369025 -0.00086154482547509594 0 -0.016612238368400003 -0.00069950592836167975 0 -0.016940683774369025 -0.00086154482547509594 0 -0.017126529502204606 -0.00062434960574237256 0 -0.016612238368400003 -0.00069950592836167975 0 -0.017126529502204606 -0.00062434960574237256 0 -0.016810501978108666 -0.00020211399878663705 0 -0.016612238368400003 -0.00069950592836167975 0 -0.017126529502204606 -0.00062434960574237256 0 -0.017208242803248203 -0.00024293339719156883 0 -0.016810501978108666 -0.00020211399878663705 0 -0.017208242803248203 -0.00024293339719156883 0 -0.016810501978108666 -0.00020211399878663705 0 -0.017112216091827791 0.00018753837803811129 0 -0.017208242803248203 -0.00024293339719156883 0 -0.017112216091827791 0.00018753837803811129 0 -0.017454678063393698 3.6077246578841648e-05 0 -0.016810501978108666 -0.00020211399878663705 0 -0.016639699395777717 0.00025195954179008009 0 -0.017112216091827791 0.00018753837803811129 0 -0.016639699395777717 0.00025195954179008009 0 -0.016915498604941952 0.00060731648012517952 0 -0.017112216091827791 0.00018753837803811129 0 -0.016639699395777717 0.00025195954179008009 0 -0.016915498604941952 0.00060731648012517952 0 -0.016436385233442485 0.00075058980209531407 0 -0.016915498604941952 0.00060731648012517952 0 -0.017220431363612766 0.00050418589756100912 0 -0.017112216091827791 0.00018753837803811129 0 -0.016915498604941952 0.00060731648012517952 0 -0.017220431363612766 0.00050418589756100912 0 -0.01731264521516249 0.00081943758434733322 0 -0.017112216091827791 0.00018753837803811129 0 -0.017454678063393698 3.6077246578841648e-05 0 -0.017540954691953041 0.00040224577878726934 0 -0.017220431363612766 0.00050418589756100912 0 -0.017540954691953041 0.00040224577878726934 0 -0.01731264521516249 0.00081943758434733322 0 -0.017220431363612766 0.00050418589756100912 0 -0.017112216091827791 0.00018753837803811129 0 -0.017540954691953041 0.00040224577878726934 0 -0.017540954691953041 0.00040224577878726934 0 -0.017758934146020464 0.00079922196613360457 0 -0.01731264521516249 0.00081943758434733322 0 -0.017540954691953041 0.00040224577878726934 0 -0.018032356229953587 0.00048003867837562094 0 -0.017758934146020464 0.00079922196613360457 0 -0.017540954691953041 0.00040224577878726934 0 -0.017898145326315149 8.3611203268229949e-05 0 -0.018032356229953587 0.00048003867837562094 0 -0.017454678063393698 3.6077246578841648e-05 0 -0.017540954691953041 0.00040224577878726934 0 -0.017898145326315149 8.3611203268229949e-05 0 -0.017454678063393698 3.6077246578841648e-05 0 -0.017898145326315149 8.3611203268229949e-05 0 -0.017605376685589477 -0.00041916640874468041 0 -0.017898145326315149 8.3611203268229949e-05 0 -0.017605376685589477 -0.00041916640874468041 0 -0.018138660666355194 -0.00028439512624599841 0 -0.017208242803248203 -0.00024293339719156883 0 -0.017454678063393698 3.6077246578841648e-05 0 -0.017605376685589477 -0.00041916640874468041 0 -0.017582385497772107 -0.00094162357559584285 0 -0.017126529502204606 -0.00062434960574237256 0 -0.017605376685589477 -0.00041916640874468041 0 -0.017126529502204606 -0.00062434960574237256 0 -0.017208242803248203 -0.00024293339719156883 0 -0.017605376685589477 -0.00041916640874468041 0 -0.018001915018620397 -0.00066354254545865376 0 -0.017605376685589477 -0.00041916640874468041 0 -0.018138660666355194 -0.00028439512624599841 0 -0.018001915018620397 -0.00066354254545865376 0 -0.018448929184548806 -0.00049424654364358485 0 -0.018138660666355194 -0.00028439512624599841 0 -0.018448929184548806 -0.00049424654364358485 0 -0.0185325014404733 -0.00015922925219045441 0 -0.018755394222106803 -0.00033303377866576673 0 -0.0185325014404733 -0.00015922925219045441 0 -0.018274413545722817 1.616113722297308e-05 0 -0.018636774831914466 0.00019096593918610641 0 -0.0185325014404733 -0.00015922925219045441 0 -0.018138660666355194 -0.00028439512624599841 0 -0.018274413545722817 1.616113722297308e-05 0 -0.018448929184548806 -0.00049424654364358485 0 -0.0185325014404733 -0.00015922925219045441 0 -0.018138660666355194 -0.00028439512624599841 0 -0.017898145326315149 8.3611203268229949e-05 0 -0.018138660666355194 -0.00028439512624599841 0 -0.018274413545722817 1.616113722297308e-05 0 -0.017898145326315149 8.3611203268229949e-05 0 -0.018274413545722817 1.616113722297308e-05 0 -0.018288910786577753 0.00030518345637526516 0 -0.017898145326315149 8.3611203268229949e-05 0 -0.018288910786577753 0.00030518345637526516 0 -0.018032356229953587 0.00048003867837562094 0 -0.018288910786577753 0.00030518345637526516 0 -0.018032356229953587 0.00048003867837562094 0 -0.018512517918092365 0.00053658617477357856 0 -0.018032356229953587 0.00048003867837562094 0 -0.018512517918092365 0.00053658617477357856 0 -0.018246754911205504 0.00087354226436792777 0 -0.018288910786577753 0.00030518345637526516 0 -0.018512517918092365 0.00053658617477357856 0 -0.018636774831914466 0.00019096593918610641 0 -0.018274413545722817 1.616113722297308e-05 0 -0.018288910786577753 0.00030518345637526516 0 -0.018636774831914466 0.00019096593918610641 0 -0.018636774831914466 0.00019096593918610641 0 -0.019024526413474553 0.00019842492875166962 0 -0.018832754878205824 -9.8526850092303623e-05 0 -0.018636774831914466 0.00019096593918610641 0 -0.018972505591526086 0.00054298363240043717 0 -0.019024526413474553 0.00019842492875166962 0 -0.018512517918092365 0.00053658617477357856 0 -0.018636774831914466 0.00019096593918610641 0 -0.018972505591526086 0.00054298363240043717 0 -0.018972505591526086 0.00054298363240043717 0 -0.019322322718389767 0.00037762912661332723 0 -0.019404668680709204 0.00078126441174220169 0 -0.019024526413474553 0.00019842492875166962 0 -0.019374247896046005 -1.5697077733538375e-05 0 -0.019322322718389767 0.00037762912661332723 0 -0.018972505591526086 0.00054298363240043717 0 -0.019024526413474553 0.00019842492875166962 0 -0.019322322718389767 0.00037762912661332723 0 -0.019066467774797605 -5.3940083264938417e-05 0 -0.019039825967225869 -0.00030407680196011466 0 -0.019374247896046005 -1.5697077733538375e-05 0 -0.019024526413474553 0.00019842492875166962 0 -0.019066467774797605 -5.3940083264938417e-05 0 -0.019374247896046005 -1.5697077733538375e-05 0 -0.0185325014404733 -0.00015922925219045441 0 -0.018636774831914466 0.00019096593918610641 0 -0.018832754878205824 -9.8526850092303623e-05 0 -0.019024526413474553 0.00019842492875166962 0 -0.019066467774797605 -5.3940083264938417e-05 0 -0.018832754878205824 -9.8526850092303623e-05 0 -0.0185325014404733 -0.00015922925219045441 0 -0.018832754878205824 -9.8526850092303623e-05 0 -0.018755394222106803 -0.00033303377866576673 0 -0.019066467774797605 -5.3940083264938417e-05 0 -0.018832754878205824 -9.8526850092303623e-05 0 -0.019039825967225869 -0.00030407680196011466 0 -0.018832754878205824 -9.8526850092303623e-05 0 -0.018755394222106803 -0.00033303377866576673 0 -0.019039825967225869 -0.00030407680196011466 0 -0.018448929184548806 -0.00049424654364358485 0 -0.018755394222106803 -0.00033303377866576673 0 -0.018921093496859231 -0.00061316796119029377 0 -0.018755394222106803 -0.00033303377866576673 0 -0.018921093496859231 -0.00061316796119029377 0 -0.019039825967225869 -0.00030407680196011466 0 -0.019192385316015456 -0.00067320777698348937 0 -0.019039825967225869 -0.00030407680196011466 0 -0.019374247896046005 -1.5697077733538375e-05 0 -0.019192385316015456 -0.00067320777698348937 0 -0.018921093496859231 -0.00061316796119029377 0 -0.019039825967225869 -0.00030407680196011466 0 -0.021040213141208203 0.0003886438440157189 0 -0.021010024705544281 0.00039744650877610228 0 -0.021016434276762416 0.00036852197505649682 0 -0.021040213141208203 0.0003886438440157189 0 -0.021010024705544281 0.00039744650877610228 0 -0.021045423374923156 0.0004202376932761766 0 -0.021010024705544281 0.00039744650877610228 0 -0.020991890276319206 0.00036820174675739563 0 -0.021016434276762416 0.00036852197505649682 0 -0.021040213141208203 0.0003886438440157189 0 -0.021016434276762416 0.00036852197505649682 0 -0.021044945563179637 0.00036759648330618981 0 -0.021044945563179637 0.00036759648330618981 0 -0.021054450941942672 0.00038167769160679448 0 -0.021073191472126267 0.00037578513174954076 0 -0.021054450941942672 0.00038167769160679448 0 -0.021073191472126267 0.00037578513174954076 0 -0.02106006430745002 0.00039466251913548037 0 -0.021040213141208203 0.0003886438440157189 0 -0.021044945563179637 0.00036759648330618981 0 -0.021054450941942672 0.00038167769160679448 0 -0.021044945563179637 0.00036759648330618981 0 -0.021081119261045778 0.00036990469592893828 0 -0.021073191472126267 0.00037578513174954076 0 -0.021087407481838301 0.00036889157568491704 0 -0.021073191472126267 0.00037578513174954076 0 -0.021084529655451625 0.00040548663498537118 0 -0.019859807651119738 0.00094611169970137108 0 -0.020328792601365487 0.00068293109429762354 0 -0.021084529655451625 0.00040548663498537118 0 -0.02106006430745002 0.00039466251913548037 0 -0.021045423374923156 0.0004202376932761766 0 -0.021073191472126267 0.00037578513174954076 0 -0.021084529655451625 0.00040548663498537118 0 -0.02106006430745002 0.00039466251913548037 0 -0.021040213141208203 0.0003886438440157189 0 -0.02106006430745002 0.00039466251913548037 0 -0.021045423374923156 0.0004202376932761766 0 -0.021040213141208203 0.0003886438440157189 0 -0.021054450941942672 0.00038167769160679448 0 -0.02106006430745002 0.00039466251913548037 0 -0.021084529655451625 0.00040548663498537118 0 -0.021091027844111088 0.00045199034645936704 0 -0.021045423374923156 0.0004202376932761766 0 -0.021084529655451625 0.00040548663498537118 0 -0.021091027844111088 0.00045199034645936704 0 -0.021150409890126579 0.00041066938665430076 0 -0.021010024705544281 0.00039744650877610228 0 -0.021045423374923156 0.0004202376932761766 0 -0.020999890970183639 0.00043867727391743588 0 -0.021010024705544281 0.00039744650877610228 0 -0.020999890970183639 0.00043867727391743588 0 -0.020959258181951775 0.00039997125683148598 0 -0.020192003481334566 0.00027536122877531391 0 -0.019997565837130797 0.00010990853855862229 0 -0.020944272517204401 0.00045196687749171226 0 -0.020999890970183639 0.00043867727391743588 0 -0.020959258181951775 0.00039997125683148598 0 -0.020192003481334566 0.00027536122877531391 0 -0.018028227674491408 -0.00067541021744566964 0 -0.018847450470651953 -0.00017158595522716397 0 -0.018870150220292342 -0.00010028616228341858 0 -0.018793984910358573 -9.3973793519905224e-05 0 -0.016858519864639255 -0.0011332178029568474 0 -0.016139183035150301 -0.00086489647543149027 0 -0.016612238368400003 -0.00069950592836167975 0 -0.018870150220292342 -0.00010028616228341858 0 -0.018793984910358573 -9.3973793519905224e-05 0 -0.018807461699633907 -5.2360173760417838e-05 0 -0.016780732508575827 -0.0013098125440728018 0 -0.016858519864639255 -0.0011332178029568474 0 -0.016139183035150301 -0.00086489647543149027 0 -0.018028227674491408 -0.00067541021744566964 0 -0.017320112448393529 -0.00036250168778822155 0 -0.021010024705544281 0.00039744650877610228 0 -0.020991890276319206 0.00036820174675739563 0 -0.020959258181951775 0.00039997125683148598 0 -0.019997565837130797 0.00010990853855862229 0 -0.01832798468758097 -6.6266641443933199e-05 0 -0.018793984910358573 -9.3973793519905224e-05 0 -0.018807461699633907 -5.2360173760417838e-05 0 -0.018734353509579988 -2.2725090794956183e-06 0 -0.020991890276319206 0.00036820174675739563 0 -0.020959258181951775 0.00039997125683148598 0 -0.020965105785662824 0.00034669809806532349 0 -0.016139183035150301 -0.00086489647543149027 0 -0.015505171295716408 -0.00041920914282318132 0 -0.016035623508087578 -0.00042929760761689986 0 -0.017320112448393529 -0.00036250168778822155 0 -0.01832798468758097 -6.6266641443933199e-05 0 -0.015505171295716408 -0.00041920914282318132 0 -0.015889498110128131 -4.3141994657466342e-05 0 -0.016035623508087578 -0.00042929760761689986 0 -0.015505171295716408 -0.00041920914282318132 0 -0.015889498110128131 -4.3141994657466342e-05 0 -0.015561360347031355 6.1763493057121252e-05 0 -0.015505171295716408 -0.00041920914282318132 0 -0.015561360347031355 6.1763493057121252e-05 0 -0.015209711139554025 0.00012276678835870108 0 -0.01832798468758097 -6.6266641443933199e-05 0 -0.016064359110203635 0.00017778560649143798 0 -0.016810501978108666 -0.00020211399878663705 0 -0.016612238368400003 -0.00069950592836167975 0 -0.016362022858768123 -0.00013007598995267973 0 -0.016612238368400003 -0.00069950592836167975 0 -0.016035623508087578 -0.00042929760761689986 0 -0.016362022858768123 -0.00013007598995267973 0 -0.016139183035150301 -0.00086489647543149027 0 -0.016612238368400003 -0.00069950592836167975 0 -0.016035623508087578 -0.00042929760761689986 0 -0.015889498110128131 -4.3141994657466342e-05 0 -0.016035623508087578 -0.00042929760761689986 0 -0.016362022858768123 -0.00013007598995267973 0 -0.016810501978108666 -0.00020211399878663705 0 -0.016639699395777717 0.00025195954179008009 0 -0.016362022858768123 -0.00013007598995267973 0 -0.016639699395777717 0.00025195954179008009 0 -0.016362022858768123 -0.00013007598995267973 0 -0.016186143486606245 0.00034368048290093161 0 -0.015889498110128131 -4.3141994657466342e-05 0 -0.016186143486606245 0.00034368048290093161 0 -0.015795358566651069 0.00034631346161114531 0 -0.015889498110128131 -4.3141994657466342e-05 0 -0.016362022858768123 -0.00013007598995267973 0 -0.016186143486606245 0.00034368048290093161 0 -0.016186143486606245 0.00034368048290093161 0 -0.015790839261769076 0.00072431545454391066 0 -0.016436385233442485 0.00075058980209531407 0 -0.016186143486606245 0.00034368048290093161 0 -0.015795358566651069 0.00034631346161114531 0 -0.015790839261769076 0.00072431545454391066 0 -0.016639699395777717 0.00025195954179008009 0 -0.016186143486606245 0.00034368048290093161 0 -0.016436385233442485 0.00075058980209531407 0 -0.015561360347031355 6.1763493057121252e-05 0 -0.015418495926226098 0.00030308620719711942 0 -0.015209711139554025 0.00012276678835870108 0 -0.015615141565964523 4.2748968791488903e-05 0 -0.016064359110203635 0.00017778560649143798 0 -0.015561360347031355 6.1763493057121252e-05 0 -0.015418495926226098 0.00030308620719711942 0 -0.015795358566651069 0.00034631346161114531 0 -0.015889498110128131 -4.3141994657466342e-05 0 -0.015561360347031355 6.1763493057121252e-05 0 -0.015795358566651069 0.00034631346161114531 0 -0.015418495926226098 0.00030308620719711942 0 -0.015795358566651069 0.00034631346161114531 0 -0.015790839261769076 0.00072431545454391066 0 -0.015418495926226098 0.00030308620719711942 0 -0.015334623583206645 0.00074982351080335409 0 -0.015790839261769076 0.00072431545454391066 0 -0.015418495926226098 0.00030308620719711942 0 -0.014974174425142711 0.00045978403288729345 0 -0.015334623583206645 0.00074982351080335409 0 -0.014974174425142711 0.00045978403288729345 0 -0.014950859524295229 -0.00011772682730738002 0 -0.013867673184043808 0.00062588869872245111 0 -0.017611837251448732 0.0012852255301411693 0 -0.017811650401868807 0.0014573454635948139 0 -0.017571021514915804 0.0016250455139775611 0 -0.014974174425142711 0.00045978403288729345 0 -0.015186405262918843 7.856366391625807e-05 0 -0.014950859524295229 -0.00011772682730738002 0 -0.015418495926226098 0.00030308620719711942 0 -0.014974174425142711 0.00045978403288729345 0 -0.015178372458779545 9.8376313364318077e-05 0 -0.015358943078393406 0.00053572321174353286 0 -0.016064359110203635 0.00017778560649143798 0 -0.016064359110203635 0.00017778560649143798 0 -0.017885307367631352 0.00083135560873123077 0 -0.020991890276319206 0.00036820174675739563 0 -0.021016434276762416 0.00036852197505649682 0 -0.020989183941734366 0.00032006244643713837 0 -0.021016434276762416 0.00036852197505649682 0 -0.021044945563179637 0.00036759648330618981 0 -0.020989183941734366 0.00032006244643713837 0 -0.01832798468758097 -6.6266641443933199e-05 0 -0.017885307367631352 0.00083135560873123077 0 -0.020991890276319206 0.00036820174675739563 0 -0.020965105785662824 0.00034669809806532349 0 -0.020989183941734366 0.00032006244643713837 0 -0.017818070677947977 -0.00013569335443123663 0 -0.017326054300407481 0.00079613146511148204 0 -0.016955489588678402 0.00048762447610254707 0 -0.021044945563179637 0.00036759648330618981 0 -0.021081119261045778 0.00036990469592893828 0 -0.020989183941734366 0.00032006244643713837 0 -0.019859807651119738 0.00094611169970137108 0 -0.017885307367631352 0.00083135560873123077 0 -0.017885307367631352 0.00083135560873123077 0 -0.015335740953801399 0.0012034359592683437 0 -0.017611837251448732 0.0012852255301411693 0 -0.017397384858838984 0.0014189422200204243 0 -0.017571021514915804 0.0016250455139775611 0 -0.017350227346824107 0.0016066234956180145 0 -0.017397384858838984 0.0014189422200204243 0 -0.017571021514915804 0.0016250455139775611 0 -0.019174142866875025 0.0015398841603765261 0 -0.018674009860955732 0.0016497024952979889 0 -0.017350227346824107 0.0016066234956180145 0 -0.017397384858838984 0.0014189422200204243 0 -0.017212030352630192 0.0015582322531712887 0 -0.020946762403028011 0.0014819761832825437 0 -0.02102121120159121 0.0015492932147829661 0 -0.020828306488869845 0.0016830199514883402 0 -0.019859807651119738 0.00094611169970137108 0 -0.019174142866875025 0.0015398841603765261 0 -0.021207917713427473 0.0014262273332093936 0 -0.02102121120159121 0.0015492932147829661 0 -0.021101727919252689 0.0013282790250945002 0 -0.021087407481838301 0.00036889157568491704 0 -0.021084529655451625 0.00040548663498537118 0 -0.021150409890126579 0.00041066938665430076 0 -0.019859807651119738 0.00094611169970137108 0 -0.02307962197577109 0.0011046156671952266 0 -0.020946762403028011 0.0014819761832825437 0 -0.02102121120159121 0.0015492932147829661 0 -0.021101727919252689 0.0013282790250945002 0 -0.02278683717629628 0.0017249022070784409 0 -0.02307962197577109 0.0011046156671952266 0 -0.024726984239060612 0.0018338265662139379 0 -0.025081466740398333 0.0014592300831029993 0 -0.02456802968797071 0.0014856131689952685 0 -0.024640444331763076 0.0010149022944344489 0 -0.024480781910556141 0.00086335127813504955 0 -0.024540674930560825 0.00081942485591460917 0 -0.025081466740398333 0.0014592300831029993 0 -0.024724804749383586 0.0011430866834100848 0 -0.02456802968797071 0.0014856131689952685 0 -0.02307962197577109 0.0011046156671952266 0 -0.024887404694881453 0.0011398196031378342 0 -0.024841951873405092 0.00082368095043192308 0 -0.024640444331763076 0.0010149022944344489 0 -0.024684746138294973 0.00082627714065601444 0 -0.024640444331763076 0.0010149022944344489 0 -0.024684746138294973 0.00082627714065601444 0 -0.024540674930560825 0.00081942485591460917 0 -0.022970565858384858 0.00058545140969186796 0 -0.02307962197577109 0.0011046156671952266 0 -0.024082449581271672 0.0011005206390188977 0 -0.024371938064317099 0.0011874846360041148 0 -0.024126113076637382 0.0014910705835937089 0 -0.024724804749383586 0.0011430866834100848 0 -0.024371938064317099 0.0011874846360041148 0 -0.02456802968797071 0.0014856131689952685 0 -0.024371938064317099 0.0011874846360041148 0 -0.02456802968797071 0.0014856131689952685 0 -0.024126113076637382 0.0014910705835937089 0 -0.024726984239060612 0.0018338265662139379 0 -0.02456802968797071 0.0014856131689952685 0 -0.024354643945062343 0.0018186796973549222 0 -0.02456802968797071 0.0014856131689952685 0 -0.024126113076637382 0.0014910705835937089 0 -0.024354643945062343 0.0018186796973549222 0 -0.024126113076637382 0.0014910705835937089 0 -0.023978997249454997 0.0020597433802409327 0 -0.023782951449368997 0.0017044307707725376 0 -0.024126113076637382 0.0014910705835937089 0 -0.023978997249454997 0.0020597433802409327 0 -0.024354643945062343 0.0018186796973549222 0 -0.023978997249454997 0.0020597433802409327 0 -0.024354643945062343 0.0018186796973549222 0 -0.024360008441883914 0.0022322543808488676 0 -0.02278683717629628 0.0017249022070784409 0 -0.022781853274867286 0.0018593660579650174 0 -0.024726984239060612 0.0018338265662139379 0 -0.024354643945062343 0.0018186796973549222 0 -0.024360008441883914 0.0022322543808488676 0 -0.020946762403028011 0.0014819761832825437 0 -0.020790783566258169 0.0016492267913463486 0 -0.020828306488869845 0.0016830199514883402 0 -0.023978997249454997 0.0020597433802409327 0 -0.024360008441883914 0.0022322543808488676 0 -0.023959497950724423 0.0026409306570424453 0 -0.022781853274867286 0.0018593660579650174 0 -0.020965436215818926 0.0021927002905044852 0 -0.018674009860955732 0.0016497024952979889 0 -0.020965436215818926 0.0021927002905044852 0 -0.020790783566258169 0.0016492267913463486 0 -0.020828306488869845 0.0016830199514883402 0 -0.020649509696100857 0.0018215543295735971 0 -0.023978997249454997 0.0020597433802409327 0 -0.023752537244396296 0.0023944131469185509 0 -0.023498491593555465 0.0021814558238994345 0 -0.023752537244396296 0.0023944131469185509 0 -0.023732351943013385 0.0025958876482808802 0 -0.023959497950724423 0.0026409306570424453 0 -0.023978997249454997 0.0020597433802409327 0 -0.023752537244396296 0.0023944131469185509 0 -0.023959497950724423 0.0026409306570424453 0 -0.023752537244396296 0.0023944131469185509 0 -0.023481431758581896 0.0025847531275798824 0 -0.023732351943013385 0.0025958876482808802 0 -0.023498491593555465 0.0021814558238994345 0 -0.023077280590153973 0.0026394401951948944 0 -0.023481431758581896 0.0025847531275798824 0 -0.023752537244396296 0.0023944131469185509 0 -0.023498491593555465 0.0021814558238994345 0 -0.023481431758581896 0.0025847531275798824 0 -0.023498491593555465 0.0021814558238994345 0 -0.023782951449368997 0.0017044307707725376 0 -0.023411521000533377 0.0017802965816663561 0 -0.023498491593555465 0.0021814558238994345 0 -0.022972228689724938 0.0020840045530835837 0 -0.023411521000533377 0.0017802965816663561 0 -0.023978997249454997 0.0020597433802409327 0 -0.023498491593555465 0.0021814558238994345 0 -0.023782951449368997 0.0017044307707725376 0 -0.021847658531254241 0.0029820137427919477 0 -0.022181245498632592 0.0023426243592644244 0 -0.022495993759350724 0.0028688225977159085 0 -0.022495993759350724 0.0028688225977159085 0 -0.022972228689724938 0.0020840045530835837 0 -0.023207173995067269 0.003284581104574952 0 -0.02288357709814362 0.0020878980648824101 0 -0.02349191641937589 0.0030190011016597096 0 -0.023498491593555465 0.0021814558238994345 0 -0.022972228689724938 0.0020840045530835837 0 -0.023077280590153973 0.0026394401951948944 0 -0.022181245498632592 0.0023426243592644244 0 -0.022972228689724938 0.0020840045530835837 0 -0.022340413207465989 0.001690016107724901 0 -0.022181245498632592 0.0023426243592644244 0 -0.022495993759350724 0.0028688225977159085 0 -0.022972228689724938 0.0020840045530835837 0 -0.022972228689724938 0.0020840045530835837 0 -0.022340413207465989 0.001690016107724901 0 -0.022929125567748159 0.0014866823650351395 0 -0.022340413207465989 0.001690016107724901 0 -0.022929125567748159 0.0014866823650351395 0 -0.022766869731466605 0.0011218703461280588 0 -0.022929125567748159 0.0014866823650351395 0 -0.023411521000533377 0.0017802965816663561 0 -0.023330737140748042 0.0013751914059634805 0 -0.022972228689724938 0.0020840045530835837 0 -0.022929125567748159 0.0014866823650351395 0 -0.023411521000533377 0.0017802965816663561 0 -0.022929125567748159 0.0014866823650351395 0 -0.0232686656964563 0.0010212494576356283 0 -0.022766869731466605 0.0011218703461280588 0 -0.022929125567748159 0.0014866823650351395 0 -0.0232686656964563 0.0010212494576356283 0 -0.023330737140748042 0.0013751914059634805 0 -0.0232686656964563 0.0010212494576356283 0 -0.022766869731466605 0.0011218703461280588 0 -0.023170149954278168 0.0008002405574423808 0 -0.022076561107651722 0.0011189711481209381 0 -0.022766869731466605 0.0011218703461280588 0 -0.022756148876138124 0.0006926156276364626 0 -0.024126113076637382 0.0014910705835937089 0 -0.023782951449368997 0.0017044307707725376 0 -0.023658938195430447 0.0012364338603868795 0 -0.023411521000533377 0.0017802965816663561 0 -0.023330737140748042 0.0013751914059634805 0 -0.023658938195430447 0.0012364338603868795 0 -0.023782951449368997 0.0017044307707725376 0 -0.023411521000533377 0.0017802965816663561 0 -0.023658938195430447 0.0012364338603868795 0 -0.0232686656964563 0.0010212494576356283 0 -0.023330737140748042 0.0013751914059634805 0 -0.023658938195430447 0.0012364338603868795 0 -0.024082449581271672 0.0011005206390188977 0 -0.024126113076637382 0.0014910705835937089 0 -0.023658938195430447 0.0012364338603868795 0 -0.024082449581271672 0.0011005206390188977 0 -0.023658938195430447 0.0012364338603868795 0 -0.023882941992125827 0.00075832374415570601 0 -0.023658938195430447 0.0012364338603868795 0 -0.023882941992125827 0.00075832374415570601 0 -0.023428290313791188 0.00083498070340100772 0 -0.024180930277782897 0.00061048555707562263 0 -0.02377018194519943 0.0007027053668101379 0 -0.0232686656964563 0.0010212494576356283 0 -0.023658938195430447 0.0012364338603868795 0 -0.023428290313791188 0.00083498070340100772 0 -0.02448015590073634 0.00045864888568111854 0 -0.024159956701173334 0.00057182398459855498 0 -0.024208310062322283 0.00018317938964163474 0 -0.02448015590073634 0.00045864888568111854 0 -0.024450088124162033 0.00018271810683228074 0 -0.024208310062322283 0.00018317938964163474 0 -0.02448015590073634 0.00045864888568111854 0 -0.024450088124162033 0.00018271810683228074 0 -0.024583770800386776 0.00030051285219152445 0 -0.022756148876138124 0.0006926156276364626 0 -0.023170149954278168 0.0008002405574423808 0 -0.023785199284153145 0.00017306877062960962 0 -0.022766869731466605 0.0011218703461280588 0 -0.022756148876138124 0.0006926156276364626 0 -0.023170149954278168 0.0008002405574423808 0 -0.0232686656964563 0.0010212494576356283 0 -0.023428290313791188 0.00083498070340100772 0 -0.023170149954278168 0.0008002405574423808 0 -0.02377018194519943 0.0007027053668101379 0 -0.023212009571326381 0.00079646799655672996 0 -0.024159956701173334 0.00057182398459855498 0 -0.023170149954278168 0.0008002405574423808 0 -0.023785199284153145 0.00017306877062960962 0 -0.024159956701173334 0.00057182398459855498 0 -0.023785199284153145 0.00017306877062960962 0 -0.024208310062322283 0.00018317938964163474 0 -0.023975684883872056 0.00016559937146995874 0 -0.023965551522498338 0.0001666167733538168 0 -0.023785199284153145 0.00017306877062960962 0 -0.023347986620082809 0.00046990634661888081 0 -0.02370581650533923 0.00020088864236332489 0 -0.02400132611255746 0.00015151762939286407 0 -0.023975684883872056 0.00016559937146995874 0 -0.023785199284153145 0.00017306877062960962 0 -0.02400132611255746 0.00015151762939286407 0 -0.023785199284153145 0.00017306877062960962 0 -0.024035928214492717 8.0274110549722924e-05 0 -0.023785199284153145 0.00017306877062960962 0 -0.024035928214492717 8.0274110549722924e-05 0 -0.024036368325771416 6.8735813896396647e-05 0 -0.023785199284153145 0.00017306877062960962 0 -0.024036368325771416 6.8735813896396647e-05 0 -0.024208310062322283 0.00018317938964163474 0 -0.024036368325771416 6.8735813896396647e-05 0 -0.024208310062322283 0.00018317938964163474 0 -0.024176201730850052 -2.2092546754209098e-05 0 -0.02417657568973736 -8.9620683854643322e-05 0 -0.024119571354839549 -1.938443378611588e-05 0 -0.024176201730850052 -2.2092546754209098e-05 0 -0.024036368325771416 6.8735813896396647e-05 0 -0.024119571354839549 -1.938443378611588e-05 0 -0.024176201730850052 -2.2092546754209098e-05 0 -0.024187100936210515 -9.7203009765525964e-05 0 -0.024035928214492717 8.0274110549722924e-05 0 -0.024119571354839549 -1.938443378611588e-05 0 -0.024035928214492717 8.0274110549722924e-05 0 -0.024036368325771416 6.8735813896396647e-05 0 -0.024119571354839549 -1.938443378611588e-05 0 -0.024450088124162033 0.00018271810683228074 0 -0.024208310062322283 0.00018317938964163474 0 -0.024350355609724986 1.8408992751882691e-05 0 -0.024208310062322283 0.00018317938964163474 0 -0.024176201730850052 -2.2092546754209098e-05 0 -0.024350355609724986 1.8408992751882691e-05 0 -0.02422556656042045 -9.9763679359364364e-05 0 -0.024176201730850052 -2.2092546754209098e-05 0 -0.024350355609724986 1.8408992751882691e-05 0 -0.024450088124162033 0.00018271810683228074 0 -0.024350355609724986 1.8408992751882691e-05 0 -0.02454072500653048 4.0947607179354686e-05 0 -0.024473071204266256 -8.0745605118627962e-05 0 -0.024350355609724986 1.8408992751882691e-05 0 -0.02454072500653048 4.0947607179354686e-05 0 -0.02463765929011447 -6.7303510258361432e-05 0 -0.02454072500653048 4.0947607179354686e-05 0 -0.024700145774570591 5.2125025891108938e-05 0 -0.024473071204266256 -8.0745605118627962e-05 0 -0.02463765929011447 -6.7303510258361432e-05 0 -0.02454072500653048 4.0947607179354686e-05 0 -0.02454072500653048 4.0947607179354686e-05 0 -0.02461736595606941 0.00017184264505083904 0 -0.024700145774570591 5.2125025891108938e-05 0 -0.024450088124162033 0.00018271810683228074 0 -0.02454072500653048 4.0947607179354686e-05 0 -0.02461736595606941 0.00017184264505083904 0 -0.02461736595606941 0.00017184264505083904 0 -0.024583770800386776 0.00030051285219152445 0 -0.024683672930384096 0.0002698230714997622 0 -0.024450088124162033 0.00018271810683228074 0 -0.02461736595606941 0.00017184264505083904 0 -0.024583770800386776 0.00030051285219152445 0 -0.02476285641317795 0.00019928108310037361 0 -0.024700145774570591 5.2125025891108938e-05 0 -0.024875864707527784 6.8019418600239433e-05 0 -0.02461736595606941 0.00017184264505083904 0 -0.02476285641317795 0.00019928108310037361 0 -0.024683672930384096 0.0002698230714997622 0 -0.02461736595606941 0.00017184264505083904 0 -0.02476285641317795 0.00019928108310037361 0 -0.024700145774570591 5.2125025891108938e-05 0 -0.024751079981839553 -5.8321460075974232e-05 0 -0.024700145774570591 5.2125025891108938e-05 0 -0.024875864707527784 6.8019418600239433e-05 0 -0.024751079981839553 -5.8321460075974232e-05 0 -0.02463765929011447 -6.7303510258361432e-05 0 -0.024700145774570591 5.2125025891108938e-05 0 -0.024754498889961559 0.00033193919964445218 0 -0.024845356727482525 0.00027095476578552338 0 -0.024834719167699058 0.00036319647431194127 0 -0.024840773436099424 0.0004811209149964906 0 -0.024834719167699058 0.00036319647431194127 0 -0.024743236375513979 0.00047766397778329538 0 -0.02476285641317795 0.00019928108310037361 0 -0.024875864707527784 6.8019418600239433e-05 0 -0.024913928694925445 0.00033451616135353262 0 -0.024754498889961559 0.00033193919964445218 0 -0.024834719167699058 0.00036319647431194127 0 -0.024743236375513979 0.00047766397778329538 0 -0.024832683548693633 0.00018484810744945102 0 -0.024691360381438238 0.00049292049692430486 0 -0.02480093383042167 0.00048655532059135317 0 -0.024691360381438238 0.00049292049692430486 0 -0.024840773436099424 0.0004811209149964906 0 -0.024502001450933487 0.00053803250329424333 0 -0.024690757296275824 0.0006669857055262965 0 -0.024690757296275824 0.0006669857055262965 0 -0.024684746138294973 0.00082627714065601444 0 -0.024540674930560825 0.00081942485591460917 0 -0.024841951873405092 0.00082368095043192308 0 -0.024690757296275824 0.0006669857055262965 0 -0.024684746138294973 0.00082627714065601444 0 -0.024529784529783823 0.00068456163300974595 0 -0.024540674930560825 0.00081942485591460917 0 -0.024488601400365996 0.00081210063267922353 0 -0.024529784529783823 0.00068456163300974595 0 -0.024488601400365996 0.00081210063267922353 0 -0.024442403298299355 0.00077859109698284041 0 -0.024691360381438238 0.00049292049692430486 0 -0.02452126662057335 0.00084140302492190211 0 -0.024502001450933487 0.00053803250329424333 0 -0.024690757296275824 0.0006669857055262965 0 -0.024540674930560825 0.00081942485591460917 0 -0.024480781910556141 0.00086335127813504955 0 -0.024540674930560825 0.00081942485591460917 0 -0.024488601400365996 0.00081210063267922353 0 -0.024480781910556141 0.00086335127813504955 0 -0.024488601400365996 0.00081210063267922353 0 -0.024442403298299355 0.00077859109698284041 0 -0.024724804749383586 0.0011430866834100848 0 -0.024371938064317099 0.0011874846360041148 0 -0.024342775627133394 0.00080564726556498335 0 -0.024887404694881453 0.0011398196031378342 0 -0.024258220674605712 0.00074649789945134472 0 -0.024480781910556141 0.00086335127813504955 0 -0.024442403298299355 0.00077859109698284041 0 -0.024342775627133394 0.00080564726556498335 0 -0.024442403298299355 0.00077859109698284041 0 -0.024342775627133394 0.00080564726556498335 0 -0.024340790812404655 0.00069599271056229638 0 -0.023882941992125827 0.00075832374415570601 0 -0.024342775627133394 0.00080564726556498335 0 -0.024340790812404655 0.00069599271056229638 0 -0.024082449581271672 0.0011005206390188977 0 -0.024371938064317099 0.0011874846360041148 0 -0.024342775627133394 0.00080564726556498335 0 -0.024082449581271672 0.0011005206390188977 0 -0.023882941992125827 0.00075832374415570601 0 -0.024342775627133394 0.00080564726556498335 0 -0.024180930277782897 0.00061048555707562263 0 -0.024520485948056912 0.00054161466620222213 0 -0.02448015590073634 0.00045864888568111854 0 -0.024583770800386776 0.00030051285219152445 0 -0.024704252387163506 0.00037920267547853121 0 -0.024583770800386776 0.00030051285219152445 0 -0.024683672930384096 0.0002698230714997622 0 -0.024704252387163506 0.00037920267547853121 0 -0.024529784529783823 0.00068456163300974595 0 -0.024442403298299355 0.00077859109698284041 0 -0.024340790812404655 0.00069599271056229638 0 -0.024683672930384096 0.0002698230714997622 0 -0.024766335386950802 0.00029572098779118698 0 -0.024704252387163506 0.00037920267547853121 0 -0.024913928694925445 0.00033451616135353262 0 -0.024766335386950802 0.00029572098779118698 0 -0.024704252387163506 0.00037920267547853121 0 -0.02476285641317795 0.00019928108310037361 0 -0.024683672930384096 0.0002698230714997622 0 -0.024766335386950802 0.00029572098779118698 0 -0.02476285641317795 0.00019928108310037361 0 -0.024913928694925445 0.00033451616135353262 0 -0.024766335386950802 0.00029572098779118698 0 -0.024691360381438238 0.00049292049692430486 0 -0.024520485948056912 0.00054161466620222213 0 -0.01839728277296156 -0.00042481223976442988 0 -0.018600592021681728 -0.00059337635756312695 0 -0.01879012207410621 -6.0783826212477886e-05 0 -0.01839728277296156 -0.00042481223976442988 0 -0.018228503213418432 -0.00037628363363243855 0 -0.018312460136089483 -0.0002121806941359717 0 -0.01839728277296156 -0.00042481223976442988 0 -0.018228503213418432 -0.00037628363363243855 0 -0.018240673361735096 -0.00050197160512300588 0 -0.01839728277296156 -0.00042481223976442988 0 -0.018386657355887005 -0.00061312970413807089 0 -0.018240673361735096 -0.00050197160512300588 0 -0.018386657355887005 -0.00061312970413807089 0 -0.018240673361735096 -0.00050197160512300588 0 -0.018069510519786461 -0.00059383540393800763 0 -0.01839728277296156 -0.00042481223976442988 0 -0.018386657355887005 -0.00061312970413807089 0 -0.018600592021681728 -0.00059337635756312695 0 -0.019990472549774044 -3.2618598243016443e-07 0 -0.020111670592706379 -7.120669640576436e-07 0 -0.01879012207410621 -6.0783826212477886e-05 0 -0.019344377475688519 -0.00020942370445488093 0 -0.018951131091726345 2.4996568434712034e-06 0 -0.019990472549774044 -3.2618598243016443e-07 0 -0.01879012207410621 -6.0783826212477886e-05 0 -0.018522166763534614 3.4685318386978723e-07 0 -0.01879012207410621 -6.0783826212477886e-05 0 -0.018312460136089483 -0.0002121806941359717 0 -0.018107457750907101 5.8019646396311952e-05 0 -0.01879012207410621 -6.0783826212477886e-05 0 -0.018107457750907101 5.8019646396311952e-05 0 -0.018326792425819517 5.8547228952678763e-05 0 -0.01839728277296156 -0.00042481223976442988 0 -0.01879012207410621 -6.0783826212477886e-05 0 -0.018312460136089483 -0.0002121806941359717 0 -0.018228503213418432 -0.00037628363363243855 0 -0.018312460136089483 -0.0002121806941359717 0 -0.018052184924991544 -0.00020448549082080559 0 -0.018312460136089483 -0.0002121806941359717 0 -0.018052184924991544 -0.00020448549082080559 0 -0.018107457750907101 5.8019646396311952e-05 0 -0.017917483370431923 -3.2423880265049903e-05 0 -0.018052184924991544 -0.00020448549082080559 0 -0.018107457750907101 5.8019646396311952e-05 0 -0.017917483370431923 -3.2423880265049903e-05 0 -0.017839528956324062 -0.00016631672752943051 0 -0.017741811619573389 -1.8892342268350775e-05 0 -0.017917483370431923 -3.2423880265049903e-05 0 -0.018052184924991544 -0.00020448549082080559 0 -0.017839528956324062 -0.00016631672752943051 0 -0.018052184924991544 -0.00020448549082080559 0 -0.017839528956324062 -0.00016631672752943051 0 -0.017887684978063156 -0.00035301636928178505 0 -0.018052184924991544 -0.00020448549082080559 0 -0.018072679344226818 -0.00040061625770519655 0 -0.017887684978063156 -0.00035301636928178505 0 -0.017580404228040799 -3.1709753294606669e-05 0 -0.017723107775753116 -0.00015665050057196768 0 -0.017671994776577948 -0.0002857182905796662 0 -0.017580404228040799 -3.1709753294606669e-05 0 -0.017723107775753116 -0.00015665050057196768 0 -0.017741811619573389 -1.8892342268350775e-05 0 -0.017723107775753116 -0.00015665050057196768 0 -0.017839528956324062 -0.00016631672752943051 0 -0.017741811619573389 -1.8892342268350775e-05 0 -0.01778038303756212 -0.00023904901624898915 0 -0.017671994776577948 -0.0002857182905796662 0 -0.017887684978063156 -0.00035301636928178505 0 -0.017839528956324062 -0.00016631672752943051 0 -0.01778038303756212 -0.00023904901624898915 0 -0.017887684978063156 -0.00035301636928178505 0 -0.017723107775753116 -0.00015665050057196768 0 -0.017839528956324062 -0.00016631672752943051 0 -0.01778038303756212 -0.00023904901624898915 0 -0.017723107775753116 -0.00015665050057196768 0 -0.01778038303756212 -0.00023904901624898915 0 -0.017671994776577948 -0.0002857182905796662 0 -0.019632108813692366 -0.0014151499124865296 0 -0.019535553059336307 -0.0013660577442753113 0 -0.019617468447781217 -0.0012507828263040944 0 -0.018644585481650957 -0.00095773604626276667 0 -0.01854092528069615 -0.00078880578291867017 0 -0.019535553059336307 -0.0013660577442753113 0 -0.019345317901802325 -0.0010805193165639485 0 -0.019045657231884928 -0.0010582938426261976 0 -0.019617468447781217 -0.0012507828263040944 0 -0.019514047162257412 -0.0011455241313092696 0 -0.019764467820540876 -0.001129920710022735 0 -0.019535553059336307 -0.0013660577442753113 0 -0.019617468447781217 -0.0012507828263040944 0 -0.019514047162257412 -0.0011455241313092696 0 -0.019632108813692366 -0.0014151499124865296 0 -0.019617468447781217 -0.0012507828263040944 0 -0.019764467820540876 -0.001129920710022735 0 -0.019535553059336307 -0.0013660577442753113 0 -0.019514047162257412 -0.0011455241313092696 0 -0.019345317901802325 -0.0010805193165639485 0 -0.019514047162257412 -0.0011455241313092696 0 -0.019345317901802325 -0.0010805193165639485 0 -0.019450569325552627 -0.00090756555253483499 0 -0.019514047162257412 -0.0011455241313092696 0 -0.019450569325552627 -0.00090756555253483499 0 -0.019764467820540876 -0.001129920710022735 0 -0.019458571273300789 -0.00082473987259454741 0 -0.019752759523134888 -0.0011219919796409553 0 -0.017671994776577948 -0.0002857182905796662 0 -0.017887684978063156 -0.00035301636928178505 0 -0.018069510519786461 -0.00059383540393800763 0 -0.018228503213418432 -0.00037628363363243855 0 -0.018052184924991544 -0.00020448549082080559 0 -0.018072679344226818 -0.00040061625770519655 0 -0.018228503213418432 -0.00037628363363243855 0 -0.018240673361735096 -0.00050197160512300588 0 -0.018072679344226818 -0.00040061625770519655 0 -0.018072679344226818 -0.00040061625770519655 0 -0.017887684978063156 -0.00035301636928178505 0 -0.018069510519786461 -0.00059383540393800763 0 -0.019345317901802325 -0.0010805193165639485 0 -0.019045657231884928 -0.0010582938426261976 0 -0.019181925619282159 -0.00091810318920846246 0 -0.018240673361735096 -0.00050197160512300588 0 -0.018072679344226818 -0.00040061625770519655 0 -0.018069510519786461 -0.00059383540393800763 0 -0.019045657231884928 -0.0010582938426261976 0 -0.018982488674124918 -0.00085106954181818979 0 -0.019181925619282159 -0.00091810318920846246 0 -0.018982488674124918 -0.00085106954181818979 0 -0.019181925619282159 -0.00091810318920846246 0 -0.019161078508931128 -0.00067781902933294945 0 -0.019181925619282159 -0.00091810318920846246 0 -0.019161078508931128 -0.00067781902933294945 0 -0.019450569325552627 -0.00090756555253483499 0 -0.019207378974409307 -0.0010318958498198333 0 -0.020185295284303052 -0.00056313159893623625 0 -0.018982488674124918 -0.00085106954181818979 0 -0.019091602064801601 -0.00074392311685947171 0 -0.018833343142145551 -0.00071144984391523735 0 -0.019345317901802325 -0.0010805193165639485 0 -0.019181925619282159 -0.00091810318920846246 0 -0.019450569325552627 -0.00090756555253483499 0 -0.020185295284303052 -0.00056313159893623625 0 -0.019458571273300789 -0.00082473987259454741 0 -0.019318333856486944 -0.00066959304427598187 0 -0.019552201721995659 -0.00089744345842825157 0 -0.019561910643708658 -0.0006624580792953229 0 -0.019552201721995659 -0.00089744345842825157 0 -0.019561910643708658 -0.0006624580792953229 0 -0.019785243860726314 -0.00066837736822832701 0 -0.019593837582245567 -0.00041289624670503379 0 -0.019886233724545732 -0.00015155977450562178 0 -0.019785243860726314 -0.00066837736822832701 0 -0.019561910643708658 -0.0006624580792953229 0 -0.019593837582245567 -0.00041289624670503379 0 -0.019785243860726314 -0.00066837736822832701 0 -0.019318333856486944 -0.00066959304427598187 0 -0.019561910643708658 -0.0006624580792953229 0 -0.019593837582245567 -0.00041289624670503379 0 -0.020185295284303052 -0.00056313159893623625 0 -0.020787027407242972 -0.00026522506254684938 0 -0.020787027407242972 -0.00026522506254684938 0 -0.021863348529326556 -8.9510557435258192e-05 0 -0.022075968780496003 -2.088336083480574e-05 0 -0.022085694876522666 -9.3200460537471266e-05 0 -0.022145242052757197 -7.0442469860990313e-05 0 -0.022075968780496003 -2.088336083480574e-05 0 -0.022027016079360015 -7.3252937321839891e-05 0 -0.022085694876522666 -9.3200460537471266e-05 0 -0.019091602064801601 -0.00074392311685947171 0 -0.018830293573433687 -0.00055405808782822458 0 -0.018833343142145551 -0.00071144984391523735 0 -0.020185295284303052 -0.00056313159893623625 0 -0.020411252830605343 -0.00023826548798698324 0 -0.018830293573433687 -0.00055405808782822458 0 -0.018689099171107795 -0.00064878154959199124 0 -0.018602813059599741 -0.00033675506675927665 0 -0.019729577603982331 -0.00029447326114090627 0 -0.021483117877146091 -0.00027679453985336819 0 -0.018689099171107795 -0.00064878154959199124 0 -0.018571081190558718 -0.00075405910694876306 0 -0.018602813059599741 -0.00033675506675927665 0 -0.020411252830605343 -0.00023826548798698324 0 -0.021483117877146091 -0.00027679453985336819 0 -0.018689099171107795 -0.00064878154959199124 0 -0.018573021028866044 -0.00076321549054177628 0 -0.018571081190558718 -0.00075405910694876306 0 -0.018830293573433687 -0.00055405808782822458 0 -0.018689099171107795 -0.00064878154959199124 0 -0.018833343142145551 -0.00071144984391523735 0 -0.018689099171107795 -0.00064878154959199124 0 -0.018833343142145551 -0.00071144984391523735 0 -0.018573021028866044 -0.00076321549054177628 0 -0.01854092528069615 -0.00078880578291867017 0 -0.018560728117851887 -0.00077273921215271146 0 -0.018600592021681728 -0.00059337635756312695 0 -0.018573021028866044 -0.00076321549054177628 0 -0.018571081190558718 -0.00075405910694876306 0 -0.018386657355887005 -0.00061312970413807089 0 -0.018069510519786461 -0.00059383540393800763 0 -0.018573021028866044 -0.00076321549054177628 0 -0.018982488674124918 -0.00085106954181818979 0 -0.018833343142145551 -0.00071144984391523735 0 -0.018573021028866044 -0.00076321549054177628 0 -0.019045657231884928 -0.0010582938426261976 0 -0.018982488674124918 -0.00085106954181818979 0 -0.018573021028866044 -0.00076321549054177628 0 -0.018386657355887005 -0.00061312970413807089 0 -0.018600592021681728 -0.00059337635756312695 0 -0.018573021028866044 -0.00076321549054177628 0 -0.019990472549774044 -3.2618598243016443e-07 0 -0.021459074012538791 3.9397104548876539e-07 0 -0.021072432240141822 5.2266975617519881e-05 0 -0.019990472549774044 -3.2618598243016443e-07 0 -0.020111670592706379 -7.120669640576436e-07 0 -0.021072432240141822 5.2266975617519881e-05 0 -0.019344377475688519 -0.00020942370445488093 0 -0.019729577603982331 -0.00029447326114090627 0 -0.021072432240141822 5.2266975617519881e-05 0 -0.021462554187764927 8.5609540428658902e-06 0 -0.021604987776240547 -7.4635668208921646e-05 0 -0.021459074012538791 3.9397104548876539e-07 0 -0.021072432240141822 5.2266975617519881e-05 0 -0.021462554187764927 8.5609540428658902e-06 0 -0.021459074012538791 3.9397104548876539e-07 0 -0.021462554187764927 8.5609540428658902e-06 0 -0.022925667688835218 -6.2933918728546356e-07 0 -0.021483117877146091 -0.00027679453985336819 0 -0.02292781327360573 -5.1481841135155997e-07 0 -0.021462554187764927 8.5609540428658902e-06 0 -0.021604987776240547 -7.4635668208921646e-05 0 -0.022925667688835218 -6.2933918728546356e-07 0 -0.022145242052757197 -7.0442469860990313e-05 0 -0.022216089738320552 -0.00012526574998620126 0 -0.022129420121974573 -0.00016629332960532814 0 -0.022228346252493824 -0.00024407731099994879 0 -0.022139287236519811 -0.00025946825480560316 0 -0.022129420121974573 -0.00016629332960532814 0 -0.021483117877146091 -0.00027679453985336819 0 -0.02294759251437193 -5.0850675401034087e-05 0 -0.022216089738320552 -0.00012526574998620126 0 -0.022228346252493824 -0.00024407731099994879 0 -0.022129420121974573 -0.00016629332960532814 0 -0.02346539883734183 -0.00052200491914960046 0 -0.023586652253354351 0.00020274454406650884 0 -0.022930466372453006 5.6382512342084367e-08 0 -0.023586652253354351 0.00020274454406650884 0 -0.023731099884050935 -0.00026753844646983956 0 -0.024372580951077069 -5.3900352401380835e-08 0 -0.023586652253354351 0.00020274454406650884 0 -0.022930466372453006 5.6382512342084367e-08 0 -0.024372580951077069 -5.3900352401380835e-08 0 -0.022228346252493824 -0.00024407731099994879 0 -0.022181776846752682 -0.00031959153034579016 0 -0.0222412806864868 -0.00036751371054623625 0 -0.02294759251437193 -5.0850675401034087e-05 0 -0.024009299018827257 -0.00025423615425982309 0 -0.022228346252493824 -0.00024407731099994879 0 -0.022181776846752682 -0.00031959153034579016 0 -0.022139287236519811 -0.00025946825480560316 0 -0.022181776846752682 -0.00031959153034579016 0 -0.0222412806864868 -0.00036751371054623625 0 -0.022180861523437057 -0.00038664597607552972 0 -0.024999990266987723 2.1872651108851171e-09 0 -0.02499717648836711 -1.4834643051714281e-06 0 -0.024997643854517668 5.0673930694638453e-07 0 -0.024009299018827257 -0.00025423615425982309 0 -0.023852815550634458 6.14316692092693e-05 0 -0.024998665362640608 -5.7265972445721923e-07 0 -0.023852815550634458 6.14316692092693e-05 0 -0.024999990266987723 2.1872651108851171e-09 0 -0.02499717648836711 -1.4834643051714281e-06 0 -0.024999998093080494 -2.9382544653984225e-09 0 -0.024009299018827257 -0.00025423615425982309 0 -0.024998678024482551 -1.6167053395976003e-08 0 -0.024971907160734139 -1.6103723221045423e-06 0 -0.02500059097801555 -1.1085928069086389e-07 0 -0.024998540290051809 2.1708260408946749e-07 0 -0.024971907160734139 -1.6103723221045423e-06 0 -0.024998540290051809 2.1708260408946749e-07 0 -0.024378159211589843 -3.2710214859042031e-07 0 -0.024009299018827257 -0.00025423615425982309 0 -0.024376276930618224 7.5367570501015878e-08 0 -0.024996777017585056 -4.1639758719444719e-06 0 -0.0249998961409219 2.5537430132544556e-08 0 -0.024991065411328988 -1.3713903414592818e-05 0 -0.024996777017585056 -4.1639758719444719e-06 0 -0.0249998961409219 2.5537430132544556e-08 0 -0.025000017586014722 -1.2616927321252812e-08 0 -0.024996777017585056 -4.1639758719444719e-06 0 -0.024991065411328988 -1.3713903414592818e-05 0 -0.024992406015992796 -1.5333913270520271e-06 0 -0.0249998961409219 2.5537430132544556e-08 0 -0.024936949748198538 -2.1783629778513672e-08 0 -0.024991065411328988 -1.3713903414592818e-05 0 -0.024023220205537939 6.8881474310533131e-05 0 -0.023557211538302755 -9.0228867965667171e-05 0 -0.024999995642543078 -7.9696092766272515e-09 0 -0.024971777714921053 1.4982431006231952e-05 0 -0.024936801739250187 6.8422190637552523e-09 0 -0.023855849196212812 -4.8696666788318451e-05 0 -0.02379460815113903 -6.7105233033244775e-05 0 -0.023736139610080861 3.7966873001854274e-05 0 -0.023852815550634458 6.14316692092693e-05 0 -0.023557211538302755 -9.0228867965667171e-05 0 -0.023852815550634458 6.14316692092693e-05 0 -0.024023220205537939 6.8881474310533131e-05 0 -0.022181776846752682 -0.00031959153034579016 0 -0.022180861523437057 -0.00038664597607552972 0 -0.022126873936533332 -0.00035237033425989463 0 -0.022126873936533332 -0.00035237033425989463 0 -0.022139287236519811 -0.00025946825480560316 0 -0.022045888724027865 -0.00023700305666679315 0 -0.022181776846752682 -0.00031959153034579016 0 -0.022126873936533332 -0.00035237033425989463 0 -0.022139287236519811 -0.00025946825480560316 0 -0.023557211538302755 -9.0228867965667171e-05 0 -0.022690353142173773 -0.00020686300979347915 0 -0.023557211538302755 -9.0228867965667171e-05 0 -0.024285419462688362 -0.00011880471193458893 0 -0.023370497011390524 -0.00017060543977815218 0 -0.023332312781746661 -0.00011211190019211792 0 -0.02331492994490349 -0.00013076639856992456 0 -0.022690353142173773 -0.00020686300979347915 0 -0.021863348529326556 -8.9510557435258192e-05 0 -0.022045888724027865 -0.00023700305666679315 0 -0.022129420121974573 -0.00016629332960532814 0 -0.022052579402114473 -0.00013934806585655691 0 -0.022139287236519811 -0.00025946825480560316 0 -0.022045888724027865 -0.00023700305666679315 0 -0.022129420121974573 -0.00016629332960532814 0 -0.022085694876522666 -9.3200460537471266e-05 0 -0.022129420121974573 -0.00016629332960532814 0 -0.022052579402114473 -0.00013934806585655691 0 -0.022085694876522666 -9.3200460537471266e-05 0 -0.022145242052757197 -7.0442469860990313e-05 0 -0.022129420121974573 -0.00016629332960532814 0 -0.022027016079360015 -7.3252937321839891e-05 0 -0.022052579402114473 -0.00013934806585655691 0 -0.02197249421543597 -0.00012564916763007752 0 -0.022045888724027865 -0.00023700305666679315 0 -0.022052579402114473 -0.00013934806585655691 0 -0.02197249421543597 -0.00012564916763007752 0 -0.022027016079360015 -7.3252937321839891e-05 0 -0.022085694876522666 -9.3200460537471266e-05 0 -0.022052579402114473 -0.00013934806585655691 0 -0.021863348529326556 -8.9510557435258192e-05 0 -0.024054103766383811 8.9943122562125463e-05 0 -0.022502913954474794 6.1406783749775066e-06 0 -0.023073044161498267 0.00017852842250205568 0 -0.023114684636493119 0.00055743413744958436 0 -0.022502913954474794 6.1406783749775066e-06 0 -0.023073044161498267 0.00017852842250205568 0 -0.023159393410214515 -0.00019098333944830013 0 -0.02412802142448766 0.00010078393953429168 0 -0.023814507505244633 -1.3014860415089548e-06 0 -0.024409098238066949 -7.2221647070960749e-05 0 -0.02439578824633834 -8.617201685696194e-05 0 -0.024375263754539241 -8.7747996671154108e-05 0 -0.023073044161498267 0.00017852842250205568 0 -0.023429055058393617 0.00032751269142942616 0 -0.023159393410214515 -0.00019098333944830013 0 -0.023073044161498267 0.00017852842250205568 0 -0.023114684636493119 0.00055743413744958436 0 -0.023429055058393617 0.00032751269142942616 0 -0.024054103766383811 8.9943122562125463e-05 0 -0.02412802142448766 0.00010078393953429168 0 -0.024391450166622797 -6.1369915364048761e-05 0 -0.024450031296109901 -5.7516095651572149e-05 0 -0.024430944497367529 -9.0954650889754214e-05 0 -0.024054103766383811 8.9943122562125463e-05 0 -0.024812622359035797 1.8892430522263108e-05 0 -0.023294702170343403 -6.3945503924648671e-05 0 -0.023271646895722337 -9.4744051653059745e-05 0 -0.023299950922933989 -9.7908301686884958e-05 0 -0.024054103766383811 8.9943122562125463e-05 0 -0.024285419462688362 -0.00011880471193458893 0 -0.023332312781746661 -0.00011211190019211792 0 -0.023294702170343403 -6.3945503924648671e-05 0 -0.023299950922933989 -9.7908301686884958e-05 0 -0.023271646895722337 -9.4744051653059745e-05 0 -0.023299950922933989 -9.7908301686884958e-05 0 -0.02331492994490349 -0.00013076639856992456 0 -0.023332312781746661 -0.00011211190019211792 0 -0.023299950922933989 -9.7908301686884958e-05 0 -0.02331492994490349 -0.00013076639856992456 0 -0.024987741312861963 -1.6974302233333499e-06 0 -0.024992406015992796 -1.5333913270520271e-06 0 -0.024995335739635884 -1.2292226321356673e-06 0 -0.024996777017585056 -4.1639758719444719e-06 0 -0.024992406015992796 -1.5333913270520271e-06 0 -0.024995335739635884 -1.2292226321356673e-06 0 -0.024987741312861963 -1.6974302233333499e-06 0 -0.024995335739635884 -1.2292226321356673e-06 0 -0.024994459823809018 -1.8835970199753406e-06 0 -0.024995335739635884 -1.2292226321356673e-06 0 -0.025000017586014722 -1.2616927321252812e-08 0 -0.024999986599669271 3.44142319932388e-09 0 -0.024996777017585056 -4.1639758719444719e-06 0 -0.024995335739635884 -1.2292226321356673e-06 0 -0.025000017586014722 -1.2616927321252812e-08 0 -0.024998847817573777 -8.0548353691071929e-07 0 -0.024999986599669271 3.44142319932388e-09 0 -0.025000004772587969 -2.4127773615706483e-09 0 -0.024821428562147627 -1.5853220338277916e-05 0 -0.02499991928560728 4.4506785418744433e-09 0 -0.024998847817573777 -8.0548353691071929e-07 0 -0.024999986599669271 3.44142319932388e-09 0 -0.024994459823809018 -1.8835970199753406e-06 0 -0.024995335739635884 -1.2292226321356673e-06 0 -0.024999986599669271 3.44142319932388e-09 0 -0.024994459823809018 -1.8835970199753406e-06 0 -0.024821428562147627 -1.5853220338277916e-05 0 -0.024812622359035797 1.8892430522263108e-05 0 -0.024675588962782873 1.4112385788703878e-05 0 -0.024582569352049811 -3.7333436774173256e-05 0 -0.024746810281466882 -1.8376473175275846e-05 0 -0.024675588962782873 1.4112385788703878e-05 0 -0.024479258849377218 -1.2409717570079759e-05 0 -0.024582569352049811 -3.7333436774173256e-05 0 -0.024582569352049811 -3.7333436774173256e-05 0 -0.024499086901202987 -5.1099420566720995e-05 0 -0.024468732219917039 -7.2324593407756195e-05 0 -0.024582569352049811 -3.7333436774173256e-05 0 -0.024468732219917039 -7.2324593407756195e-05 0 -0.024494511890548933 -6.8616885008579261e-05 0 -0.024479258849377218 -1.2409717570079759e-05 0 -0.024582569352049811 -3.7333436774173256e-05 0 -0.024499086901202987 -5.1099420566720995e-05 0 -0.024391450166622797 -6.1369915364048761e-05 0 -0.024479258849377218 -1.2409717570079759e-05 0 -0.024450031296109901 -5.7516095651572149e-05 0 -0.024479258849377218 -1.2409717570079759e-05 0 -0.024499086901202987 -5.1099420566720995e-05 0 -0.024450031296109901 -5.7516095651572149e-05 0 -0.024499086901202987 -5.1099420566720995e-05 0 -0.024450726925596723 -6.8957526703235033e-05 0 -0.024450031296109901 -5.7516095651572149e-05 0 -0.024499086901202987 -5.1099420566720995e-05 0 -0.024450726925596723 -6.8957526703235033e-05 0 -0.024468732219917039 -7.2324593407756195e-05 0 -0.024450726925596723 -6.8957526703235033e-05 0 -0.024450031296109901 -5.7516095651572149e-05 0 -0.024415696856921954 -7.4792046030481399e-05 0 -0.024450031296109901 -5.7516095651572149e-05 0 -0.024413610613753651 -7.1539605155341589e-05 0 -0.024415696856921954 -7.4792046030481399e-05 0 -0.024285386519723579 8.5572260723714804e-06 0 -0.02412802142448766 0.00010078393953429168 0 -0.024409098238066949 -7.2221647070960749e-05 0 -0.024415696856921954 -7.4792046030481399e-05 0 -0.02439578824633834 -8.617201685696194e-05 0 -0.024415696856921954 -7.4792046030481399e-05 0 -0.024423396539486809 -8.1591125404041167e-05 0 -0.02439578824633834 -8.617201685696194e-05 0 -0.02412802142448766 0.00010078393953429168 0 -0.024190748254583304 5.7031088978309025e-05 0 -0.024450726925596723 -6.8957526703235033e-05 0 -0.024415696856921954 -7.4792046030481399e-05 0 -0.024423396539486809 -8.1591125404041167e-05 0 -0.024450726925596723 -6.8957526703235033e-05 0 -0.024423396539486809 -8.1591125404041167e-05 0 -0.024468732219917039 -7.2324593407756195e-05 0 -0.024423396539486809 -8.1591125404041167e-05 0 -0.024468732219917039 -7.2324593407756195e-05 0 -0.02439718696497567 -9.0138522730751246e-05 0 -0.024423396539486809 -8.1591125404041167e-05 0 -0.02439578824633834 -8.617201685696194e-05 0 -0.02439718696497567 -9.0138522730751246e-05 0 -0.024468732219917039 -7.2324593407756195e-05 0 -0.02439718696497567 -9.0138522730751246e-05 0 -0.024494511890548933 -6.8616885008579261e-05 0 -0.02439718696497567 -9.0138522730751246e-05 0 -0.024349598421991119 -7.535366378336254e-05 0 -0.024494511890548933 -6.8616885008579261e-05 0 -0.024339236471277493 -8.1354639674923471e-05 0 -0.02439718696497567 -9.0138522730751246e-05 0 -0.024349598421991119 -7.535366378336254e-05 0 -0.024294722333644464 -7.9602791620439408e-05 0 -0.024420520818465293 -5.6809472350283783e-05 0 -0.024339236471277493 -8.1354639674923471e-05 0 -0.024176695370393211 -5.3844909999090196e-05 0 -0.024349598421991119 -7.535366378336254e-05 0 -0.024339236471277493 -8.1354639674923471e-05 0 -0.024220870953455858 -4.1907081354203698e-05 0 -0.024176695370393211 -5.3844909999090196e-05 0 -0.024339236471277493 -8.1354639674923471e-05 0 -0.024336968075290372 -6.1161641742114818e-05 0 -0.024301331416600097 -4.3106307926995483e-05 0 -0.024339236471277493 -8.1354639674923471e-05 0 -0.024336968075290372 -6.1161641742114818e-05 0 -0.024360199954735449 -8.262829249350081e-05 0 -0.024336968075290372 -6.1161641742114818e-05 0 -0.024360199954735449 -8.262829249350081e-05 0 -0.024355794426745098 -7.478417724045626e-05 0 -0.024339236471277493 -8.1354639674923471e-05 0 -0.024360199954735449 -8.262829249350081e-05 0 -0.02439718696497567 -9.0138522730751246e-05 0 -0.02439578824633834 -8.617201685696194e-05 0 -0.024360199954735449 -8.262829249350081e-05 0 -0.02439718696497567 -9.0138522730751246e-05 0 -0.02439578824633834 -8.617201685696194e-05 0 -0.024360199954735449 -8.262829249350081e-05 0 -0.024375263754539241 -8.7747996671154108e-05 0 -0.024360199954735449 -8.262829249350081e-05 0 -0.024375263754539241 -8.7747996671154108e-05 0 -0.024359245525401325 -8.3439981184342771e-05 0 -0.023814507505244633 -1.3014860415089548e-06 0 -0.021658041235743362 -0.00049737594027596157 0 -0.019886233724545732 -0.00015155977450562178 0 -0.020120622624124763 -0.00060781469895067547 0 -0.019785243860726314 -0.00066837736822832701 0 -0.021863348529326556 -8.9510557435258192e-05 0 -0.021658041235743362 -0.00049737594027596157 0 -0.022502913954474794 6.1406783749775066e-06 0 -0.023159393410214515 -0.00019098333944830013 0 -0.022889359494673057 -0.00070960578569209329 0 -0.021658041235743362 -0.00049737594027596157 0 -0.019734548377179972 -0.0011171747431895068 0 -0.019552201721995659 -0.00089744345842825157 0 -0.019785243860726314 -0.00066837736822832701 0 -0.019881507922148014 -0.0010143871381582375 0 -0.020120622624124763 -0.00060781469895067547 0 -0.019785243860726314 -0.00066837736822832701 0 -0.019881507922148014 -0.0010143871381582375 0 -0.020088227411678816 -0.00070816089106306318 0 -0.020099523344432792 -0.00088989768706253236 0 -0.019883062718537375 -0.00095198741912055733 0 -0.024360199954735449 -8.262829249350081e-05 0 -0.024359245525401325 -8.3439981184342771e-05 0 -0.024355794426745098 -7.478417724045626e-05 0 -0.021658041235743362 -0.00049737594027596157 0 -0.021453126596201296 -0.0007468887709031984 0 -0.024359245525401325 -8.3439981184342771e-05 0 -0.024355794426745098 -7.478417724045626e-05 0 -0.024355326098109562 -6.4720902223625241e-05 0 -0.020088227411678816 -0.00070816089106306318 0 -0.020099523344432792 -0.00088989768706253236 0 -0.020083820102252004 -0.00089218640240106039 0 -0.024336968075290372 -6.1161641742114818e-05 0 -0.024355794426745098 -7.478417724045626e-05 0 -0.024355326098109562 -6.4720902223625241e-05 0 -0.021453126596201296 -0.0007468887709031984 0 -0.022056856881164877 -0.00034305402541132476 0 -0.02012262901776956 -0.00085092193156582939 0 -0.020135050305925495 -0.00099739530217431171 0 -0.020083820102252004 -0.00089218640240106039 0 -0.020000643865955559 -0.00065609524319799081 0 -0.019765834451515401 -0.00048517963564592503 0 -0.020099523344432792 -0.00088989768706253236 0 -0.020064031400027136 -0.00077566464005059111 0 -0.020251713092255361 -0.00049692126661487546 0 -0.020083820102252004 -0.00089218640240106039 0 -0.020064031400027136 -0.00077566464005059111 0 -0.020000643865955559 -0.00065609524319799081 0 -0.021453126596201296 -0.0007468887709031984 0 -0.019538324848481153 -0.00047843933685710551 0 -0.020099523344432792 -0.00088989768706253236 0 -0.020083820102252004 -0.00089218640240106039 0 -0.020064031400027136 -0.00077566464005059111 0 -0.020000643865955559 -0.00065609524319799081 0 -0.020251713092255361 -0.00049692126661487546 0 -0.019948569040966736 -0.0004898208816494226 0 -0.020064031400027136 -0.00077566464005059111 0 -0.020000643865955559 -0.00065609524319799081 0 -0.020251713092255361 -0.00049692126661487546 0 -0.020000643865955559 -0.00065609524319799081 0 -0.019948569040966736 -0.0004898208816494226 0 -0.019765834451515401 -0.00048517963564592503 0 -0.019632108813692366 -0.0014151499124865296 0 -0.019883062718537375 -0.00095198741912055733 0 -0.020047339852303395 -0.0012902283514029482 0 -0.019632108813692366 -0.0014151499124865296 0 -0.019881507922148014 -0.0010143871381582375 0 -0.019764467820540876 -0.001129920710022735 0 -0.020099523344432792 -0.00088989768706253236 0 -0.019883062718537375 -0.00095198741912055733 0 -0.020047339852303395 -0.0012902283514029482 0 -0.019696819072965763 -0.0013214293182085321 0 -0.019734548377179972 -0.0011171747431895068 0 -0.019552201721995659 -0.00089744345842825157 0 -0.019881507922148014 -0.0010143871381582375 0 -0.019764467820540876 -0.001129920710022735 0 -0.017580404228040799 -3.1709753294606669e-05 0 -0.017671994776577948 -0.0002857182905796662 0 -0.01715386859691671 1.0001969647016195e-05 0 -0.020135050305925495 -0.00099739530217431171 0 -0.018544489674406552 5.3618736539348006e-05 0 -0.019632108813692366 -0.0014151499124865296 0 -0.019535553059336307 -0.0013660577442753113 0 -0.019958845894697791 -0.0016803264513279691 0 -0.019632108813692366 -0.0014151499124865296 0 -0.020047339852303395 -0.0012902283514029482 0 -0.019958845894697791 -0.0016803264513279691 0 -0.018644585481650957 -0.00095773604626276667 0 -0.018544489674406552 5.3618736539348006e-05 0 -0.020251713092255361 -0.00049692126661487546 0 -0.020134714102292763 -0.00020065257459352511 0 -0.020348822858719771 -1.8616607209455361e-05 0 -0.020014722639922908 -0.00032517440980074571 0 -0.019948569040966736 -0.0004898208816494226 0 -0.01984510498568046 -0.00030599698052271213 0 -0.020251713092255361 -0.00049692126661487546 0 -0.020014722639922908 -0.00032517440980074571 0 -0.020134714102292763 -0.00020065257459352511 0 -0.020251713092255361 -0.00049692126661487546 0 -0.020014722639922908 -0.00032517440980074571 0 -0.019948569040966736 -0.0004898208816494226 0 -0.020014722639922908 -0.00032517440980074571 0 -0.01984510498568046 -0.00030599698052271213 0 -0.019911432846730689 -5.4365356243473345e-05 0 -0.020014722639922908 -0.00032517440980074571 0 -0.020134714102292763 -0.00020065257459352511 0 -0.019911432846730689 -5.4365356243473345e-05 0 -0.019765834451515401 -0.00048517963564592503 0 -0.019373379314311909 -0.00015863797517369694 0 -0.019740298853473202 -0.00062648199898244095 0 -0.019688249425212283 -0.0001834338637460408 0 -0.01984510498568046 -0.00030599698052271213 0 -0.019911432846730689 -5.4365356243473345e-05 0 -0.022469577773496625 0.00015538277141297736 0 -0.022056856881164877 -0.00034305402541132476 0 -0.024270164812778234 3.1771995901792922e-05 0 -0.024301331416600097 -4.3106307926995483e-05 0 -0.024326140285867871 -2.1620942574288189e-05 0 -0.019688249425212283 -0.0001834338637460408 0 -0.01984510498568046 -0.00030599698052271213 0 -0.019765834451515401 -0.00048517963564592503 0 -0.019948569040966736 -0.0004898208816494226 0 -0.01984510498568046 -0.00030599698052271213 0 -0.019765834451515401 -0.00048517963564592503 0 -0.019688249425212283 -0.0001834338637460408 0 -0.019765834451515401 -0.00048517963564592503 0 -0.019373379314311909 -0.00015863797517369694 0 -0.024195967315661829 0.00010819973891721366 0 -0.024095286050258652 9.7795840834266635e-06 0 -0.023875647817463933 0.00012272016863143181 0 -0.024195967315661829 0.00010819973891721366 0 -0.024095286050258652 9.7795840834266635e-06 0 -0.024220870953455858 -4.1907081354203698e-05 0 -0.022469577773496625 0.00015538277141297736 0 -0.024420520818465293 -5.6809472350283783e-05 0 -0.024095286050258652 9.7795840834266635e-06 0 -0.024220870953455858 -4.1907081354203698e-05 0 -0.024176695370393211 -5.3844909999090196e-05 0 -0.024336968075290372 -6.1161641742114818e-05 0 -0.024355326098109562 -6.4720902223625241e-05 0 -0.024326140285867871 -2.1620942574288189e-05 0 -0.024336968075290372 -6.1161641742114818e-05 0 -0.024301331416600097 -4.3106307926995483e-05 0 -0.024326140285867871 -2.1620942574288189e-05 0 -0.020208059568881262 -0.0011322802528312174 0 -0.019765834451515401 -0.00048517963564592503 0 -0.019740298853473202 -0.00062648199898244095 0 -0.024019108475448567 -3.8202461763439522e-05 0 -0.023984218502995886 9.4538964874569987e-06 0 -0.024176695370393211 -5.3844909999090196e-05 0 -0.024095286050258652 9.7795840834266635e-06 0 -0.023984218502995886 9.4538964874569987e-06 0 -0.024176695370393211 -5.3844909999090196e-05 0 -0.024095286050258652 9.7795840834266635e-06 0 -0.023984218502995886 9.4538964874569987e-06 0 -0.023875647817463933 0.00012272016863143181 0 -0.024019108475448567 -3.8202461763439522e-05 0 -0.023984218502995886 9.4538964874569987e-06 0 -0.023745674898319941 8.1928581771015347e-05 0 -0.023984218502995886 9.4538964874569987e-06 0 -0.023745674898319941 8.1928581771015347e-05 0 -0.023875647817463933 0.00012272016863143181 0 -0.023745674898319941 8.1928581771015347e-05 0 -0.023913087969006618 -6.2992760614573383e-05 0 -0.023640179474488595 0.0001282255813647519 0 -0.024217023281352942 -0.00015932889041308439 0 -0.022985674385878254 -4.3422108304281117e-05 0 -0.023913087969006618 -6.2992760614573383e-05 0 -0.023456733970380002 0.00010046772413118409 0 -0.023640179474488595 0.0001282255813647519 0 -0.024019108475448567 -3.8202461763439522e-05 0 -0.023913087969006618 -6.2992760614573383e-05 0 -0.024249764875214776 -4.2901380745011763e-06 0 -0.024019108475448567 -3.8202461763439522e-05 0 -0.023745674898319941 8.1928581771015347e-05 0 -0.023913087969006618 -6.2992760614573383e-05 0 -0.024019108475448567 -3.8202461763439522e-05 0 -0.024249764875214776 -4.2901380745011763e-06 0 -0.024250182752107833 -5.1692985061829407e-05 0 -0.023913087969006618 -6.2992760614573383e-05 0 -0.024249764875214776 -4.2901380745011763e-06 0 -0.024280515768814011 -6.5398426564166885e-07 0 -0.024249764875214776 -4.2901380745011763e-06 0 -0.024364387445800904 -2.6604799355118004e-05 0 -0.024512081442772449 -3.0384262235531379e-06 0 -0.024249764875214776 -4.2901380745011763e-06 0 -0.024364387445800904 -2.6604799355118004e-05 0 -0.024250182752107833 -5.1692985061829407e-05 0 -0.024364387445800904 -2.6604799355118004e-05 0 -0.024250182752107833 -5.1692985061829407e-05 0 -0.024445748122558137 -4.4402658974993245e-05 0 -0.024250182752107833 -5.1692985061829407e-05 0 -0.024349598421991119 -7.535366378336254e-05 0 -0.024445748122558137 -4.4402658974993245e-05 0 -0.024019108475448567 -3.8202461763439522e-05 0 -0.024250182752107833 -5.1692985061829407e-05 0 -0.024176695370393211 -5.3844909999090196e-05 0 -0.024250182752107833 -5.1692985061829407e-05 0 -0.024176695370393211 -5.3844909999090196e-05 0 -0.024349598421991119 -7.535366378336254e-05 0 -0.024349598421991119 -7.535366378336254e-05 0 -0.024494511890548933 -6.8616885008579261e-05 0 -0.024445748122558137 -4.4402658974993245e-05 0 -0.024494511890548933 -6.8616885008579261e-05 0 -0.024445748122558137 -4.4402658974993245e-05 0 -0.024616330117119386 -2.4328850690477328e-05 0 -0.024494511890548933 -6.8616885008579261e-05 0 -0.024616330117119386 -2.4328850690477328e-05 0 -0.024746810281466882 -1.8376473175275846e-05 0 -0.024582569352049811 -3.7333436774173256e-05 0 -0.024494511890548933 -6.8616885008579261e-05 0 -0.024746810281466882 -1.8376473175275846e-05 0 -0.024616330117119386 -2.4328850690477328e-05 0 -0.024746810281466882 -1.8376473175275846e-05 0 -0.024750358622546566 -8.9792093897858564e-06 0 -0.024746810281466882 -1.8376473175275846e-05 0 -0.024999895507178339 -4.8686442886136149e-08 0 -0.024750358622546566 -8.9792093897858564e-06 0 -0.024746810281466882 -1.8376473175275846e-05 0 -0.024999183648468429 1.9672143119507522e-07 0 -0.024999895507178339 -4.8686442886136149e-08 0 -0.024675588962782873 1.4112385788703878e-05 0 -0.024746810281466882 -1.8376473175275846e-05 0 -0.024999183648468429 1.9672143119507522e-07 0 -0.024867920209940036 -8.0029484375036563e-06 0 -0.024999655866036273 -1.1136625107061659e-08 0 -0.024999895507178339 -4.8686442886136149e-08 0 -0.024867920209940036 -8.0029484375036563e-06 0 -0.024999655866036273 -1.1136625107061659e-08 0 -0.024877534372749369 -1.7579081681947046e-05 0 -0.024867920209940036 -8.0029484375036563e-06 0 -0.024999895507178339 -4.8686442886136149e-08 0 -0.024750358622546566 -8.9792093897858564e-06 0 -0.024867920209940036 -8.0029484375036563e-06 0 -0.024683120067532593 1.0718683642659272e-05 0 -0.024877534372749369 -1.7579081681947046e-05 0 -0.024867920209940036 -8.0029484375036563e-06 0 -0.024750358622546566 -8.9792093897858564e-06 0 -0.024683120067532593 1.0718683642659272e-05 0 -0.024750358622546566 -8.9792093897858564e-06 0 -0.024512081442772449 -3.0384262235531379e-06 0 -0.024683120067532593 1.0718683642659272e-05 0 -0.024616330117119386 -2.4328850690477328e-05 0 -0.024750358622546566 -8.9792093897858564e-06 0 -0.024512081442772449 -3.0384262235531379e-06 0 -0.024445748122558137 -4.4402658974993245e-05 0 -0.024616330117119386 -2.4328850690477328e-05 0 -0.024512081442772449 -3.0384262235531379e-06 0 -0.024364387445800904 -2.6604799355118004e-05 0 -0.024445748122558137 -4.4402658974993245e-05 0 -0.024512081442772449 -3.0384262235531379e-06 0 -0.024249764875214776 -4.2901380745011763e-06 0 -0.024512081442772449 -3.0384262235531379e-06 0 -0.024519679730931158 3.0424901800423404e-05 0 -0.024512081442772449 -3.0384262235531379e-06 0 -0.024519679730931158 3.0424901800423404e-05 0 -0.024683120067532593 1.0718683642659272e-05 0 -0.024519679730931158 3.0424901800423404e-05 0 -0.024522367585401165 4.5025111706704681e-05 0 -0.024439602584988156 3.6669550476275732e-05 0 -0.024519679730931158 3.0424901800423404e-05 0 -0.024522367585401165 4.5025111706704681e-05 0 -0.024683120067532593 1.0718683642659272e-05 0 -0.024522367585401165 4.5025111706704681e-05 0 -0.024576863977383644 1.5826834883599957e-07 0 -0.024498025200103305 4.1359670707616387e-05 0 -0.024522367585401165 4.5025111706704681e-05 0 -0.024576863977383644 1.5826834883599957e-07 0 -0.024683120067532593 1.0718683642659272e-05 0 -0.024576863977383644 1.5826834883599957e-07 0 -0.024683120067532593 1.0718683642659272e-05 0 -0.024877534372749369 -1.7579081681947046e-05 0 -0.024759037529260553 -7.3819720298937979e-07 0 -0.024858352820137996 -2.0580559057544425e-05 0 -0.024970043649057493 -4.186803502435346e-05 0 -0.024968977948784485 -1.9502495701011855e-05 0 -0.024877534372749369 -1.7579081681947046e-05 0 -0.024970043649057493 -4.186803502435346e-05 0 -0.024968977948784485 -1.9502495701011855e-05 0 -0.024989995721762723 -1.4640654669892311e-05 0 -0.024968977948784485 -1.9502495701011855e-05 0 -0.025000001776602703 2.7786993167014079e-08 0 -0.024989995721762723 -1.4640654669892311e-05 0 -0.024968977948784485 -1.9502495701011855e-05 0 -0.025000001776602703 2.7786993167014079e-08 0 -0.024877534372749369 -1.7579081681947046e-05 0 -0.024999655866036273 -1.1136625107061659e-08 0 -0.025000001776602703 2.7786993167014079e-08 0 -0.024877534372749369 -1.7579081681947046e-05 0 -0.024996554129390353 -1.040659879226829e-05 0 -0.024999987329586745 -1.7540989703913934e-08 0 -0.024989995721762723 -1.4640654669892311e-05 0 -0.025000001776602703 2.7786993167014079e-08 0 -0.024999987329586745 -1.7540989703913934e-08 0 -0.024989995721762723 -1.4640654669892311e-05 0 -0.024970043649057493 -4.186803502435346e-05 0 -0.024989995721762723 -1.4640654669892311e-05 0 -0.024988760859933054 -2.2356946234734963e-05 0 -0.024996554129390353 -1.040659879226829e-05 0 -0.024989995721762723 -1.4640654669892311e-05 0 -0.024988760859933054 -2.2356946234734963e-05 0 -0.024988028794797387 -2.3012749196908477e-05 0 -0.024992743388440219 -1.761558222657029e-05 0 -0.024988760859933054 -2.2356946234734963e-05 0 -0.024996554129390353 -1.040659879226829e-05 0 -0.024992743388440219 -1.761558222657029e-05 0 -0.024988760859933054 -2.2356946234734963e-05 0 -0.024988028794797387 -2.3012749196908477e-05 0 -0.024988760859933054 -2.2356946234734963e-05 0 -0.024982490830271951 -2.7698442166570602e-05 0 -0.024970043649057493 -4.186803502435346e-05 0 -0.024988760859933054 -2.2356946234734963e-05 0 -0.024982490830271951 -2.7698442166570602e-05 0 -0.024759037529260553 -7.3819720298937979e-07 0 -0.024829778369527211 -2.1024844412543927e-05 0 -0.024522367585401165 4.5025111706704681e-05 0 -0.024498025200103305 4.1359670707616387e-05 0 -0.024490395747447744 4.1118642227421466e-05 0 -0.024498025200103305 4.1359670707616387e-05 0 -0.024512552326858002 3.7440280418215233e-05 0 -0.024490395747447744 4.1118642227421466e-05 0 -0.024988028794797387 -2.3012749196908477e-05 0 -0.024982490830271951 -2.7698442166570602e-05 0 -0.024982343988644736 -2.6182082537285113e-05 0 -0.02498533546552659 -2.4817589403928699e-05 0 -0.024988028794797387 -2.3012749196908477e-05 0 -0.024982343988644736 -2.6182082537285113e-05 0 -0.024829778369527211 -2.1024844412543927e-05 0 -0.02418823135667823 -2.3210766705706173e-05 0 -0.02418823135667823 -2.3210766705706173e-05 0 -0.023686024681535859 2.0172526331558574e-05 0 -0.024775539262160067 4.0447201761988431e-05 0 -0.02418823135667823 -2.3210766705706173e-05 0 -0.023006824107963446 7.1549998528435164e-05 0 -0.023018642489038722 6.3731959143637306e-05 0 -0.023010459161088008 8.6057409796127716e-05 0 -0.023018642489038722 6.3731959143637306e-05 0 -0.023010459161088008 8.6057409796127716e-05 0 -0.023027621650029875 8.4431910420800616e-05 0 -0.023010459161088008 8.6057409796127716e-05 0 -0.023027621650029875 8.4431910420800616e-05 0 -0.023015865505283877 0.00010109536997486485 0 -0.02450288486179842 3.9930364864076093e-06 0 -0.024490395747447744 4.1118642227421466e-05 0 -0.024433778536713423 1.1142725065676791e-05 0 -0.024512552326858002 3.7440280418215233e-05 0 -0.02450288486179842 3.9930364864076093e-06 0 -0.024490395747447744 4.1118642227421466e-05 0 -0.024522367585401165 4.5025111706704681e-05 0 -0.024490395747447744 4.1118642227421466e-05 0 -0.024439602584988156 3.6669550476275732e-05 0 -0.024490395747447744 4.1118642227421466e-05 0 -0.024439602584988156 3.6669550476275732e-05 0 -0.024433778536713423 1.1142725065676791e-05 0 -0.024249764875214776 -4.2901380745011763e-06 0 -0.024519679730931158 3.0424901800423404e-05 0 -0.024439602584988156 3.6669550476275732e-05 0 -0.024249764875214776 -4.2901380745011763e-06 0 -0.024439602584988156 3.6669550476275732e-05 0 -0.024280515768814011 -6.5398426564166885e-07 0 -0.024439602584988156 3.6669550476275732e-05 0 -0.024280515768814011 -6.5398426564166885e-07 0 -0.024433778536713423 1.1142725065676791e-05 0 -0.024280515768814011 -6.5398426564166885e-07 0 -0.024433778536713423 1.1142725065676791e-05 0 -0.02443560296761731 -0.00011213329918985212 0 -0.02450288486179842 3.9930364864076093e-06 0 -0.024433778536713423 1.1142725065676791e-05 0 -0.02443560296761731 -0.00011213329918985212 0 -0.023041386704612962 0.00010485359379774246 0 -0.023057251568213217 0.0001280285224877518 0 -0.023021909127799396 0.00015173157571980671 0 -0.024280515768814011 -6.5398426564166885e-07 0 -0.02443560296761731 -0.00011213329918985212 0 -0.024251476798241793 -0.00030039202622621393 0 -0.023913087969006618 -6.2992760614573383e-05 0 -0.024280515768814011 -6.5398426564166885e-07 0 -0.024251476798241793 -0.00030039202622621393 0 -0.023846534529726536 3.112627459279511e-05 0 -0.022985674385878254 -4.3422108304281117e-05 0 -0.023041386704612962 0.00010485359379774246 0 -0.023004978549459369 0.00012379186942297125 0 -0.023021909127799396 0.00015173157571980671 0 -0.02298702076035529 0.00010399100864987665 0 -0.023004978549459369 0.00012379186942297125 0 -0.023015865505283877 0.00010109536997486485 0 -0.02298702076035529 0.00010399100864987665 0 -0.023010459161088008 8.6057409796127716e-05 0 -0.023015865505283877 0.00010109536997486485 0 -0.023041386704612962 0.00010485359379774246 0 -0.023004978549459369 0.00012379186942297125 0 -0.023015865505283877 0.00010109536997486485 0 -0.023027621650029875 8.4431910420800616e-05 0 -0.023041386704612962 0.00010485359379774246 0 -0.023015865505283877 0.00010109536997486485 0 -0.023686024681535859 2.0172526331558574e-05 0 -0.023846534529726536 3.112627459279511e-05 0 -0.021032552026368386 0.00010326290685058779 0 -0.020981838600469652 0.00055463848061220659 0 -0.02076862930143045 0.00044713467400449546 0 -0.02189999736168885 0.00014598185990312611 0 -0.021885811086572778 0.00030029400310418829 0 -0.022968284801372647 0.00013522223088208962 0 -0.022995218337702027 0.00014781089995242178 0 -0.02298404776097571 0.00018310972489502683 0 -0.022995218337702027 0.00014781089995242178 0 -0.023021909127799396 0.00015173157571980671 0 -0.02298404776097571 0.00018310972489502683 0 -0.022968284801372647 0.00013522223088208962 0 -0.023004978549459369 0.00012379186942297125 0 -0.022995218337702027 0.00014781089995242178 0 -0.023004978549459369 0.00012379186942297125 0 -0.022995218337702027 0.00014781089995242178 0 -0.023021909127799396 0.00015173157571980671 0 -0.021520776963882819 -0.00031160002617628839 0 -0.021032552026368386 0.00010326290685058779 0 -0.021439187865011488 0.00041213628706283201 0 -0.021520776963882819 -0.00031160002617628839 0 -0.021439187865011488 0.00041213628706283201 0 -0.021896782586484989 4.8246514845860231e-05 0 -0.022985674385878254 -4.3422108304281117e-05 0 -0.02189999736168885 0.00014598185990312611 0 -0.021032552026368386 0.00010326290685058779 0 -0.021439187865011488 0.00041213628706283201 0 -0.020981838600469652 0.00055463848061220659 0 -0.021439187865011488 0.00041213628706283201 0 -0.021380418543886642 0.00089933331936260688 0 -0.020981838600469652 0.00055463848061220659 0 -0.021439187865011488 0.00041213628706283201 0 -0.021520914568652606 0.00093962442587272534 0 -0.021845213860799073 0.00059391414726860342 0 -0.021439187865011488 0.00041213628706283201 0 -0.021520914568652606 0.00093962442587272534 0 -0.021380418543886642 0.00089933331936260688 0 -0.021380418543886642 0.00089933331936260688 0 -0.020981838600469652 0.00055463848061220659 0 -0.021482676349409299 0.0010393576222699386 0 -0.020998268569901044 0.00051375027703629038 0 -0.021011736640587367 0.00067730165052598665 0 -0.020981838600469652 0.00055463848061220659 0 -0.020778560932744113 0.00048030066326094689 0 -0.020576767472149187 0.00037870539685232559 0 -0.020981838600469652 0.00055463848061220659 0 -0.02076862930143045 0.00044713467400449546 0 -0.020778560932744113 0.00048030066326094689 0 -0.020778560932744113 0.00048030066326094689 0 -0.020775258006379128 0.00033197016519817118 0 -0.020576767472149187 0.00037870539685232559 0 -0.020775258006379128 0.00033197016519817118 0 -0.020576767472149187 0.00037870539685232559 0 -0.020586240662033375 0.00018366123175734815 0 -0.020775258006379128 0.00033197016519817118 0 -0.020705164576341112 0.00015951364815388461 0 -0.020586240662033375 0.00018366123175734815 0 -0.021011736640587367 0.00067730165052598665 0 -0.02140018702358179 0.00016634351167079046 0 -0.020576767472149187 0.00037870539685232559 0 -0.020586240662033375 0.00018366123175734815 0 -0.020335514669324997 -7.8073248980655587e-05 0 -0.021482676349409299 0.0010393576222699386 0 -0.022039180613962737 0.00069002225990034993 0 -0.021706560620997805 0.00078181949341406861 0 -0.020586240662033375 0.00018366123175734815 0 -0.020524234243054124 3.3165504008295167e-05 0 -0.020335514669324997 -7.8073248980655587e-05 0 -0.020705164576341112 0.00015951364815388461 0 -0.020586240662033375 0.00018366123175734815 0 -0.020524234243054124 3.3165504008295167e-05 0 -0.020790689914090998 1.3301142029654546e-05 0 -0.020705164576341112 0.00015951364815388461 0 -0.020524234243054124 3.3165504008295167e-05 0 -0.019192385316015456 -0.00067320777698348937 0 -0.019374247896046005 -1.5697077733538375e-05 0 -0.020070886598733961 -0.00014058272238126612 0 -0.020094450834728987 -0.00026045230081750989 0 -0.020239404919096555 -0.0001515835313788839 0 -0.020790689914090998 1.3301142029654546e-05 0 -0.020524234243054124 3.3165504008295167e-05 0 -0.020287890969140153 -0.00011047225694284867 0 -0.019192385316015456 -0.00067320777698348937 0 -0.020070886598733961 -0.00014058272238126612 0 -0.020287890969140153 -0.00011047225694284867 0 -0.02140018702358179 0.00016634351167079046 0 -0.019745330079552304 0.00039815174979801249 0 -0.020335514669324997 -7.8073248980655587e-05 0 -0.020287890969140153 -0.00011047225694284867 0 -0.020398249279956253 3.2818182300342197e-05 0 -0.020524234243054124 3.3165504008295167e-05 0 -0.020335514669324997 -7.8073248980655587e-05 0 -0.020287890969140153 -0.00011047225694284867 0 -0.022039180613962737 0.00069002225990034993 0 -0.022416659644583458 -0.00021074430413395106 0 -0.021815057629313895 0.00025052022083173339 0 -0.020070886598733961 -0.00014058272238126612 0 -0.020287890969140153 -0.00011047225694284867 0 -0.020398249279956253 3.2818182300342197e-05 0 -0.020156555467610339 -0.00010013327947775489 0 -0.019745330079552304 0.00039815174979801249 0 -0.020070886598733961 -0.00014058272238126612 0 -0.020263778544302561 0.00051577530125116366 0 -0.019754620017852737 0.00040725624973900112 0 -0.020263778544302561 0.00051577530125116366 0 -0.019754620017852737 0.00040725624973900112 0 -0.019829930251687493 0.0008989592511639378 0 -0.019754620017852737 0.00040725624973900112 0 -0.019322322718389767 0.00037762912661332723 0 -0.019404668680709204 0.00078126441174220169 0 -0.019374247896046005 -1.5697077733538375e-05 0 -0.019754620017852737 0.00040725624973900112 0 -0.019322322718389767 0.00037762912661332723 0 -0.019374247896046005 -1.5697077733538375e-05 0 -0.020070886598733961 -0.00014058272238126612 0 -0.019754620017852737 0.00040725624973900112 0 -0.021349513452534816 0.0003723304519953148 0 -0.020743596027984579 -0.00037500229243393426 0 -0.021574477687530489 -0.00041467375976687832 0 -0.021815057629313895 0.00025052022083173339 0 -0.021349513452534816 0.0003723304519953148 0 -0.021574477687530489 -0.00041467375976687832 0 -0.022416659644583458 -0.00021074430413395106 0 -0.021815057629313895 0.00025052022083173339 0 -0.021574477687530489 -0.00041467375976687832 0 -0.022039180613962737 0.00069002225990034993 0 -0.021815057629313895 0.00025052022083173339 0 -0.021706560620997805 0.00078181949341406861 0 -0.021815057629313895 0.00025052022083173339 0 -0.021349513452534816 0.0003723304519953148 0 -0.021706560620997805 0.00078181949341406861 0 -0.021349513452534816 0.0003723304519953148 0 -0.021501815078001692 0.001077513915402105 0 -0.021706560620997805 0.00078181949341406861 0 -0.021349513452534816 0.0003723304519953148 0 -0.021501815078001692 0.001077513915402105 0 -0.021257260420812493 0.00097223502612750696 0 -0.021482676349409299 0.0010393576222699386 0 -0.021501815078001692 0.001077513915402105 0 -0.021706560620997805 0.00078181949341406861 0 -0.021380418543886642 0.00089933331936260688 0 -0.021482676349409299 0.0010393576222699386 0 -0.021501815078001692 0.001077513915402105 0 -0.021520914568652606 0.00093962442587272534 0 -0.021501815078001692 0.001077513915402105 0 -0.021430555100705365 0.0012454322131068756 0 -0.021520914568652606 0.00093962442587272534 0 -0.021380418543886642 0.00089933331936260688 0 -0.021501815078001692 0.001077513915402105 0 -0.021242397472119208 0.0016538128117972353 0 -0.021133510269349173 0.0021054006952234677 0 -0.021159055912563864 0.0015718817481776006 0 -0.02263968772367906 0.0012655881418435141 0 -0.021918525634775296 0.001019374969084354 0 -0.021430555100705365 0.0012454322131068756 0 -0.021159055912563864 0.0015718817481776006 0 -0.021918525634775296 0.001019374969084354 0 -0.021159055912563864 0.0015718817481776006 0 -0.021257260420812493 0.00097223502612750696 0 -0.020296971387314934 0.00022975891657574303 0 -0.021501815078001692 0.001077513915402105 0 -0.021430555100705365 0.0012454322131068756 0 -0.021257260420812493 0.00097223502612750696 0 -0.021430555100705365 0.0012454322131068756 0 -0.021159055912563864 0.0015718817481776006 0 -0.021257260420812493 0.00097223502612750696 0 -0.021349513452534816 0.0003723304519953148 0 -0.021257260420812493 0.00097223502612750696 0 -0.020296971387314934 0.00022975891657574303 0 -0.020296971387314934 0.00022975891657574303 0 -0.020743596027984579 -0.00037500229243393426 0 -0.019982528257831936 -0.00076409497943146876 0 -0.021349513452534816 0.0003723304519953148 0 -0.020296971387314934 0.00022975891657574303 0 -0.020743596027984579 -0.00037500229243393426 0 -0.017699355640628928 0.00073066414727450044 0 -0.018568691227623058 -0.00053647757148625051 0 -0.019122987045173512 0.00029467113515666969 0 -0.018043095056810746 0.00035983617648809599 0 -0.018877956302154338 -0.00071928448987795563 0 -0.020296971387314934 0.00022975891657574303 0 -0.019122987045173512 0.00029467113515666969 0 -0.018877956302154338 -0.00071928448987795563 0 -0.020296971387314934 0.00022975891657574303 0 -0.018877956302154338 -0.00071928448987795563 0 -0.019982528257831936 -0.00076409497943146876 0 -0.020296971387314934 0.00022975891657574303 0 -0.019122987045173512 0.00029467113515666969 0 -0.019047673878105298 0.0014140067498663869 0 -0.019122987045173512 0.00029467113515666969 0 -0.019047673878105298 0.0014140067498663869 0 -0.018043095056810746 0.00035983617648809599 0 -0.021159055912563864 0.0015718817481776006 0 -0.020296971387314934 0.00022975891657574303 0 -0.019047673878105298 0.0014140067498663869 0 -0.021159055912563864 0.0015718817481776006 0 -0.019047673878105298 0.0014140067498663869 0 -0.019702633411958197 0.0030661633436309577 0 -0.019047673878105298 0.0014140067498663869 0 -0.019702633411958197 0.0030661633436309577 0 -0.017765247532531267 0.002998756804507978 0 -0.019702633411958197 0.0030661633436309577 0 -0.018282514154692321 0.0041232878139685668 0 -0.017765247532531267 0.002998756804507978 0 -0.021133510269349173 0.0021054006952234677 0 -0.020901700201501398 0.0024709768829105842 0 -0.023327290958926813 0.00077358704807505051 0 -0.023197977594714467 0.00045900544357628824 0 -0.022831027362493313 0.00076073265265339115 0 -0.023327290958926813 0.00077358704807505051 0 -0.023197977594714467 0.00045900544357628824 0 -0.023358262222463882 0.00050381806108675019 0 -0.023197977594714467 0.00045900544357628824 0 -0.023358262222463882 0.00050381806108675019 0 -0.023323830672510436 0.00032472034377639626 0 -0.023197977594714467 0.00045900544357628824 0 -0.022831027362493313 0.00076073265265339115 0 -0.022709437713072638 0.00046761198025316113 0 -0.023197977594714467 0.00045900544357628824 0 -0.022709437713072638 0.00046761198025316113 0 -0.023203610600377487 0.00031181940994324002 0 -0.02263968772367906 0.0012655881418435141 0 -0.023327290958926813 0.00077358704807505051 0 -0.022831027362493313 0.00076073265265339115 0 -0.02263968772367906 0.0012655881418435141 0 -0.022831027362493313 0.00076073265265339115 0 -0.021918525634775296 0.001019374969084354 0 -0.022831027362493313 0.00076073265265339115 0 -0.021918525634775296 0.001019374969084354 0 -0.022709437713072638 0.00046761198025316113 0 -0.021520914568652606 0.00093962442587272534 0 -0.021918525634775296 0.001019374969084354 0 -0.021845213860799073 0.00059391414726860342 0 -0.021520914568652606 0.00093962442587272534 0 -0.021430555100705365 0.0012454322131068756 0 -0.021918525634775296 0.001019374969084354 0 -0.021918525634775296 0.001019374969084354 0 -0.021845213860799073 0.00059391414726860342 0 -0.022709437713072638 0.00046761198025316113 0 -0.021845213860799073 0.00059391414726860342 0 -0.022709437713072638 0.00046761198025316113 0 -0.021896782586484989 4.8246514845860231e-05 0 -0.022799478001938524 0.00049656617678423606 0 -0.022592060810125082 0.00013910454745072592 0 -0.023465739977636482 0.00024108996267658726 0 -0.023492274127418809 0.00022562319809532621 0 -0.023203610600377487 0.00031181940994324002 0 -0.022709437713072638 0.00046761198025316113 0 -0.023465739977636482 0.00024108996267658726 0 -0.023203610600377487 0.00031181940994324002 0 -0.021439187865011488 0.00041213628706283201 0 -0.021845213860799073 0.00059391414726860342 0 -0.021896782586484989 4.8246514845860231e-05 0 -0.023456733970380002 0.00010046772413118409 0 -0.023465739977636482 0.00024108996267658726 0 -0.023640179474488595 0.0001282255813647519 0 -0.022985674385878254 -4.3422108304281117e-05 0 -0.022592060810125082 0.00013910454745072592 0 -0.023745674898319941 8.1928581771015347e-05 0 -0.023640179474488595 0.0001282255813647519 0 -0.023492274127418809 0.00022562319809532621 0 -0.023465739977636482 0.00024108996267658726 0 -0.023640179474488595 0.0001282255813647519 0 -0.023492274127418809 0.00022562319809532621 0 -0.023745674898319941 8.1928581771015347e-05 0 -0.023492274127418809 0.00022562319809532621 0 -0.023522762412571674 0.00026985111078129938 0 -0.023745674898319941 8.1928581771015347e-05 0 -0.023522762412571674 0.00026985111078129938 0 -0.023875647817463933 0.00012272016863143181 0 -0.023522762412571674 0.00026985111078129938 0 -0.023875647817463933 0.00012272016863143181 0 -0.023864386822138331 0.00049546946564301092 0 -0.023875647817463933 0.00012272016863143181 0 -0.023864386822138331 0.00049546946564301092 0 -0.024055903717637533 0.00027127550835391617 0 -0.023581908326289945 0.00033859316454328204 0 -0.023298345798277244 0.00049915717426933254 0 -0.023298345798277244 0.00049915717426933254 0 -0.022689806138877298 0.00047832615874440971 0 -0.023280343301485564 0.00039956334705252655 0 -0.023298345798277244 0.00049915717426933254 0 -0.023197977594714467 0.00045900544357628824 0 -0.023450831516289308 0.00032953966632059278 0 -0.023203610600377487 0.00031181940994324002 0 -0.023522762412571674 0.00026985111078129938 0 -0.023450831516289308 0.00032953966632059278 0 -0.023203610600377487 0.00031181940994324002 0 -0.023492274127418809 0.00022562319809532621 0 -0.023522762412571674 0.00026985111078129938 0 -0.023203610600377487 0.00031181940994324002 0 -0.019365293182686139 0.00034538070195626265 0 -0.019872238968364011 0.00041896651960731188 0 -0.019363705445517531 0.00086600594357604422 0 -0.01636049561307254 0.0022288881354701165 0 -0.016217684034123447 0.0027451981899984318 0 -0.015861733520718773 0.0026959935555282443 0 -0.017918151230701597 0.0015036445577280423 0 -0.018664284553986277 0.0016338023533982731 0 -0.020438156440434851 0.00036099800290234494 0 -0.018664284553986277 0.0016338023533982731 0 -0.023298345798277244 0.00049915717426933254 0 -0.019453386317202708 0.0019662100313569456 0 -0.021276430356976635 0.00074817523443166626 0 -0.02141774131729211 0.0007571758377392081 0 -0.021461667173304024 0.00090492724585235901 0 -0.02141774131729211 0.0007571758377392081 0 -0.021517344684136804 0.000645963342984639 0 -0.021504614499036786 0.00086881067854590092 0 -0.02141774131729211 0.0007571758377392081 0 -0.021504614499036786 0.00086881067854590092 0 -0.021461667173304024 0.00090492724585235901 0 -0.021276430356976635 0.00074817523443166626 0 -0.02141774131729211 0.0007571758377392081 0 -0.021391986252829717 0.00058558748368647297 0 -0.02141774131729211 0.0007571758377392081 0 -0.021517344684136804 0.000645963342984639 0 -0.021391986252829717 0.00058558748368647297 0 -0.024195967315661829 0.00010819973891721366 0 -0.023875647817463933 0.00012272016863143181 0 -0.024055903717637533 0.00027127550835391617 0 -0.021526409828251315 0.00041174753587207703 0 -0.021517344684136804 0.000645963342984639 0 -0.021391986252829717 0.00058558748368647297 0 -0.022469577773496625 0.00015538277141297736 0 -0.020438156440434851 0.00036099800290234494 0 -0.022469577773496625 0.00015538277141297736 0 -0.022689806138877298 0.00047832615874440971 0 -0.019365293182686139 0.00034538070195626265 0 -0.019641287818262982 0.00011651312454559222 0 -0.019872238968364011 0.00041896651960731188 0 -0.019688249425212283 -0.0001834338637460408 0 -0.019373379314311909 -0.00015863797517369694 0 -0.019641287818262982 0.00011651312454559222 0 -0.019641287818262982 0.00011651312454559222 0 -0.019911432846730689 -5.4365356243473345e-05 0 -0.019872238968364011 0.00041896651960731188 0 -0.019373379314311909 -0.00015863797517369694 0 -0.019365293182686139 0.00034538070195626265 0 -0.019641287818262982 0.00011651312454559222 0 -0.019688249425212283 -0.0001834338637460408 0 -0.019641287818262982 0.00011651312454559222 0 -0.019911432846730689 -5.4365356243473345e-05 0 -0.016933034112952078 0.0017225054740093433 0 -0.01636049561307254 0.0022288881354701165 0 -0.016739459870621316 0.0022773108959768052 0 -0.018544489674406552 5.3618736539348006e-05 0 -0.017918151230701597 0.0015036445577280423 0 -0.020134714102292763 -0.00020065257459352511 0 -0.019911432846730689 -5.4365356243473345e-05 0 -0.020348822858719771 -1.8616607209455361e-05 0 -0.019911432846730689 -5.4365356243473345e-05 0 -0.020348822858719771 -1.8616607209455361e-05 0 -0.019872238968364011 0.00041896651960731188 0 -0.01745703695622388 0.00015077112962871053 0 -0.01715386859691671 1.0001969647016195e-05 0 -0.017102064546440188 0.0011689001762238359 0 -0.018544489674406552 5.3618736539348006e-05 0 -0.016914047241550358 0.0020230135116743051 0 -0.017580404228040799 -3.1709753294606669e-05 0 -0.01745703695622388 0.00015077112962871053 0 -0.01715386859691671 1.0001969647016195e-05 0 -0.01745703695622388 0.00015077112962871053 0 -0.017102064546440188 0.0011689001762238359 0 -0.01780524741275518 0.0011935358300156896 0 -0.016933034112952078 0.0017225054740093433 0 -0.01703998119166749 0.0025620687282530111 0 -0.016739459870621316 0.0022773108959768052 0 -0.01636049561307254 0.0022288881354701165 0 -0.016590334723007884 0.0026240674008026215 0 -0.016217684034123447 0.0027451981899984318 0 -0.01636049561307254 0.0022288881354701165 0 -0.016739459870621316 0.0022773108959768052 0 -0.016590334723007884 0.0026240674008026215 0 -0.01703998119166749 0.0025620687282530111 0 -0.016739459870621316 0.0022773108959768052 0 -0.016590334723007884 0.0026240674008026215 0 -0.016590334723007884 0.0026240674008026215 0 -0.016449388802802209 0.0029329328979383787 0 -0.016217684034123447 0.0027451981899984318 0 -0.016590334723007884 0.0026240674008026215 0 -0.01669548284848724 0.0029479361021323052 0 -0.016449388802802209 0.0029329328979383787 0 -0.01703998119166749 0.0025620687282530111 0 -0.016590334723007884 0.0026240674008026215 0 -0.01669548284848724 0.0029479361021323052 0 -0.01669548284848724 0.0029479361021323052 0 -0.016820623384608213 0.0032169914631150118 0 -0.016559398723094264 0.0032052935077145853 0 -0.01669548284848724 0.0029479361021323052 0 -0.016449388802802209 0.0029329328979383787 0 -0.016559398723094264 0.0032052935077145853 0 -0.016449388802802209 0.0029329328979383787 0 -0.016559398723094264 0.0032052935077145853 0 -0.016193054215216912 0.0031410943802040988 0 -0.016914047241550358 0.0020230135116743051 0 -0.017151402465957553 0.0028886590514515236 0 -0.01703998119166749 0.0025620687282530111 0 -0.01669548284848724 0.0029479361021323052 0 -0.016820623384608213 0.0032169914631150118 0 -0.01703998119166749 0.0025620687282530111 0 -0.017097610612343828 0.0033466305100255103 0 -0.016820623384608213 0.0032169914631150118 0 -0.017102064546440188 0.0011689001762238359 0 -0.017148080661627665 0.0024635872364582091 0 -0.017676025826838596 0.0019497105508320966 0 -0.017097610612343828 0.0033466305100255103 0 -0.01664523087149871 0.003554113539536787 0 -0.016723669727193219 0.0036319941545300792 0 -0.017097610612343828 0.0033466305100255103 0 -0.016820623384608213 0.0032169914631150118 0 -0.01664523087149871 0.003554113539536787 0 -0.016703613450013297 0.0036552564870148191 0 -0.016136088101572636 0.0035680868060979773 0 -0.016559398723094264 0.0032052935077145853 0 -0.01664523087149871 0.003554113539536787 0 -0.016193054215216912 0.0031410943802040988 0 -0.01664523087149871 0.003554113539536787 0 -0.016608996668953234 0.0038003524542317615 0 -0.016554484525964717 0.0040637107632614227 0 -0.016820623384608213 0.0032169914631150118 0 -0.016559398723094264 0.0032052935077145853 0 -0.01664523087149871 0.003554113539536787 0 -0.01664523087149871 0.003554113539536787 0 -0.016608996668953234 0.0038003524542317615 0 -0.016566997279418665 0.0036457901247262548 0 -0.016726075372957588 0.0038996186933089412 0 -0.015849121539896913 0.003410121439946174 0 -0.016608996668953234 0.0038003524542317615 0 -0.016797234903247332 0.0039206965918954922 0 -0.016566997279418665 0.0036457901247262548 0 -0.016608996668953234 0.0038003524542317615 0 -0.016797234903247332 0.0039206965918954922 0 -0.016554484525964717 0.0040637107632614227 0 -0.016193054215216912 0.0031410943802040988 0 -0.015864039111502987 0.00275396263704024 0 -0.01576754674369155 0.002779552012755618 0 -0.016797234903247332 0.0039206965918954922 0 -0.016554484525964717 0.0040637107632614227 0 -0.017161043603725036 0.004800227347179227 0 -0.016136088101572636 0.0035680868060979773 0 -0.019453386317202708 0.0019662100313569456 0 -0.016449388802802209 0.0029329328979383787 0 -0.016193054215216912 0.0031410943802040988 0 -0.016217684034123447 0.0027451981899984318 0 -0.016193054215216912 0.0031410943802040988 0 -0.016217684034123447 0.0027451981899984318 0 -0.015864039111502987 0.00275396263704024 0 -0.016217684034123447 0.0027451981899984318 0 -0.015861733520718773 0.0026959935555282443 0 -0.015864039111502987 0.00275396263704024 0 -0.023327290958926813 0.00077358704807505051 0 -0.023358262222463882 0.00050381806108675019 0 -0.023553302336454945 0.00050116021944560812 0 -0.018282514154692321 0.0041232878139685668 0 -0.016797234903247332 0.0039206965918954922 0 -0.017161043603725036 0.004800227347179227 0 -0.023358262222463882 0.00050381806108675019 0 -0.023323830672510436 0.00032472034377639626 0 -0.023553302336454945 0.00050116021944560812 0 -0.020901700201501398 0.0024709768829105842 0 -0.019453386317202708 0.0019662100313569456 0 -0.018664284553986277 0.0016338023533982731 0 -0.019453386317202708 0.0019662100313569456 0 -0.018664284553986277 0.0016338023533982731 0 -0.018556171925879546 0.0017886379802622982 0 -0.015865812506003999 0.0026973034696321464 0 -0.015864039111502987 0.00275396263704024 0 -0.01576754674369155 0.002779552012755618 0 -0.018282514154692321 0.0041232878139685668 0 -0.016797234903247332 0.0039206965918954922 0 -0.017765247532531267 0.002998756804507978 0 -0.017765247532531267 0.002998756804507978 0 -0.016467653838781168 0.0029450805476116748 0 -0.016822743248643326 0.0021281215054519869 0 -0.016797234903247332 0.0039206965918954922 0 -0.017765247532531267 0.002998756804507978 0 -0.016467653838781168 0.0029450805476116748 0 -0.016467653838781168 0.0029450805476116748 0 -0.015687042563474991 0.0024254681803728977 0 -0.016822743248643326 0.0021281215054519869 0 -0.016467653838781168 0.0029450805476116748 0 -0.015687042563474991 0.0024254681803728977 0 -0.015195161349843823 0.0032421200302969445 0 -0.016797234903247332 0.0039206965918954922 0 -0.016467653838781168 0.0029450805476116748 0 -0.015195161349843823 0.0032421200302969445 0 -0.015687042563474991 0.0024254681803728977 0 -0.015723735844888134 0.001694556166236792 0 -0.016822743248643326 0.0021281215054519869 0 -0.015723735844888134 0.001694556166236792 0 -0.016822743248643326 0.0021281215054519869 0 -0.016265583109991405 0.0010246996480624011 0 -0.019047673878105298 0.0014140067498663869 0 -0.016822743248643326 0.0021281215054519869 0 -0.018043095056810746 0.00035983617648809599 0 -0.019047673878105298 0.0014140067498663869 0 -0.017765247532531267 0.002998756804507978 0 -0.016822743248643326 0.0021281215054519869 0 -0.016873834212422827 0.002057539480274229 0 -0.017699355640628928 0.00073066414727450044 0 -0.016822743248643326 0.0021281215054519869 0 -0.017380655504776337 0.001022281032721007 0 -0.016265583109991405 0.0010246996480624011 0 -0.015723735844888134 0.001694556166236792 0 -0.016265583109991405 0.0010246996480624011 0 -0.015269792264196655 0.001057340452372502 0 -0.016265583109991405 0.0010246996480624011 0 -0.015263631059286503 0.000380988219516285 0 -0.015269792264196655 0.001057340452372502 0 -0.01635134998533553 -7.3908228057708485e-05 0 -0.015263631059286503 0.000380988219516285 0 -0.014844955842504727 -0.00033315493768523973 0 -0.016265583109991405 0.0010246996480624011 0 -0.01635134998533553 -7.3908228057708485e-05 0 -0.015263631059286503 0.000380988219516285 0 -0.017380655504776337 0.001022281032721007 0 -0.01635134998533553 -7.3908228057708485e-05 0 -0.018259963220255731 -0.00029351445934583961 0 -0.017380655504776337 0.001022281032721007 0 -0.016265583109991405 0.0010246996480624011 0 -0.01635134998533553 -7.3908228057708485e-05 0 -0.013762321721436191 0.00032504662942371682 0 -0.014238543078751456 -2.9285661216276602e-05 0 -0.01445618395739579 0.00062307401160413014 0 -0.013762321721436191 0.00032504662942371682 0 -0.01445618395739579 0.00062307401160413014 0 -0.013787245126002922 0.00084493313070783049 0 -0.013762321721436191 0.00032504662942371682 0 -0.013214060283594004 0.00035996525540661221 0 -0.013787245126002922 0.00084493313070783049 0 -0.013762321721436191 0.00032504662942371682 0 -0.013214060283594004 0.00035996525540661221 0 -0.013353351587650148 0.00012149276416801207 0 -0.013353351587650148 0.00012149276416801207 0 -0.013498115125318696 -0.00013903251886453075 0 -0.013029378974011669 -4.0142235140822037e-06 0 -0.013762321721436191 0.00032504662942371682 0 -0.013353351587650148 0.00012149276416801207 0 -0.013498115125318696 -0.00013903251886453075 0 -0.013214060283594004 0.00035996525540661221 0 -0.013353351587650148 0.00012149276416801207 0 -0.013029378974011669 -4.0142235140822037e-06 0 -0.013762321721436191 0.00032504662942371682 0 -0.013498115125318696 -0.00013903251886453075 0 -0.014238543078751456 -2.9285661216276602e-05 0 -0.014238543078751456 -2.9285661216276602e-05 0 -0.015263631059286503 0.000380988219516285 0 -0.014844955842504727 -0.00033315493768523973 0 -0.015263631059286503 0.000380988219516285 0 -0.01445618395739579 0.00062307401160413014 0 -0.015269792264196655 0.001057340452372502 0 -0.014238543078751456 -2.9285661216276602e-05 0 -0.015263631059286503 0.000380988219516285 0 -0.01445618395739579 0.00062307401160413014 0 -0.01445618395739579 0.00062307401160413014 0 -0.015269792264196655 0.001057340452372502 0 -0.014482281516502828 0.0012087675253640974 0 -0.015723735844888134 0.001694556166236792 0 -0.015269792264196655 0.001057340452372502 0 -0.015005568516901184 0.0015605069718402662 0 -0.015269792264196655 0.001057340452372502 0 -0.015005568516901184 0.0015605069718402662 0 -0.014482281516502828 0.0012087675253640974 0 -0.015005568516901184 0.0015605069718402662 0 -0.014482281516502828 0.0012087675253640974 0 -0.014394278714160928 0.0017960480440498308 0 -0.014482281516502828 0.0012087675253640974 0 -0.01392396974534032 0.0013737288032437467 0 -0.014394278714160928 0.0017960480440498308 0 -0.01445618395739579 0.00062307401160413014 0 -0.014482281516502828 0.0012087675253640974 0 -0.013787245126002922 0.00084493313070783049 0 -0.014482281516502828 0.0012087675253640974 0 -0.01392396974534032 0.0013737288032437467 0 -0.013787245126002922 0.00084493313070783049 0 -0.01392396974534032 0.0013737288032437467 0 -0.013787245126002922 0.00084493313070783049 0 -0.013358840901517215 0.0012119843581722398 0 -0.013214060283594004 0.00035996525540661221 0 -0.013787245126002922 0.00084493313070783049 0 -0.013358840901517215 0.0012119843581722398 0 -0.01392396974534032 0.0013737288032437467 0 -0.013438206227966517 0.0017416452456234402 0 -0.013358840901517215 0.0012119843581722398 0 -0.01392396974534032 0.0013737288032437467 0 -0.013861635403632454 0.0019247525910667735 0 -0.013438206227966517 0.0017416452456234402 0 -0.013861635403632454 0.0019247525910667735 0 -0.013438206227966517 0.0017416452456234402 0 -0.013726520621776685 0.0024990693015607278 0 -0.014347989909275383 0.0023008483012532562 0 -0.013726520621776685 0.0024990693015607278 0 -0.014825277229920192 0.0025621063597081948 0 -0.014394278714160928 0.0017960480440498308 0 -0.014347989909275383 0.0023008483012532562 0 -0.014085101781154338 0.0021276064945399084 0 -0.013861635403632454 0.0019247525910667735 0 -0.014394278714160928 0.0017960480440498308 0 -0.014085101781154338 0.0021276064945399084 0 -0.01392396974534032 0.0013737288032437467 0 -0.013861635403632454 0.0019247525910667735 0 -0.014394278714160928 0.0017960480440498308 0 -0.014347989909275383 0.0023008483012532562 0 -0.014085101781154338 0.0021276064945399084 0 -0.013726520621776685 0.0024990693015607278 0 -0.013861635403632454 0.0019247525910667735 0 -0.014085101781154338 0.0021276064945399084 0 -0.013726520621776685 0.0024990693015607278 0 -0.015723735844888134 0.001694556166236792 0 -0.015005568516901184 0.0015605069718402662 0 -0.015039597743548303 0.002068880364915112 0 -0.014394278714160928 0.0017960480440498308 0 -0.014347989909275383 0.0023008483012532562 0 -0.015039597743548303 0.002068880364915112 0 -0.015005568516901184 0.0015605069718402662 0 -0.014394278714160928 0.0017960480440498308 0 -0.015039597743548303 0.002068880364915112 0 -0.014347989909275383 0.0023008483012532562 0 -0.015039597743548303 0.002068880364915112 0 -0.014825277229920192 0.0025621063597081948 0 -0.015687042563474991 0.0024254681803728977 0 -0.015039597743548303 0.002068880364915112 0 -0.014825277229920192 0.0025621063597081948 0 -0.015687042563474991 0.0024254681803728977 0 -0.015723735844888134 0.001694556166236792 0 -0.015039597743548303 0.002068880364915112 0 -0.013726520621776685 0.0024990693015607278 0 -0.014825277229920192 0.0025621063597081948 0 -0.015195161349843823 0.0032421200302969445 0 -0.015687042563474991 0.0024254681803728977 0 -0.014825277229920192 0.0025621063597081948 0 -0.015195161349843823 0.0032421200302969445 0 -0.016723669727193219 0.0036319941545300792 0 -0.016566997279418665 0.0036457901247262548 0 -0.01687657759374616 0.003700765264922105 0 -0.01664523087149871 0.003554113539536787 0 -0.016723669727193219 0.0036319941545300792 0 -0.016566997279418665 0.0036457901247262548 0 -0.017151402465957553 0.0028886590514515236 0 -0.017263613588511143 0.0038294439847147937 0 -0.017097610612343828 0.0033466305100255103 0 -0.016723669727193219 0.0036319941545300792 0 -0.01687657759374616 0.003700765264922105 0 -0.015577594769426256 0.0033853184159575401 0 -0.015849121539896913 0.003410121439946174 0 -0.01706366983513747 0.0039000324847024768 0 -0.016566997279418665 0.0036457901247262548 0 -0.01687657759374616 0.003700765264922105 0 -0.017097610612343828 0.0033466305100255103 0 -0.01687657759374616 0.003700765264922105 0 -0.017273390364519373 0.003861730024602258 0 -0.01706366983513747 0.0039000324847024768 0 -0.01687657759374616 0.003700765264922105 0 -0.017273390364519373 0.003861730024602258 0 -0.017148080661627665 0.0024635872364582091 0 -0.017768086134696399 0.0030459810185063589 0 -0.017273390364519373 0.003861730024602258 0 -0.017768086134696399 0.0030459810185063589 0 -0.017996587548726295 0.0037302028556473843 0 -0.017273390364519373 0.003861730024602258 0 -0.017768086134696399 0.0030459810185063589 0 -0.017996587548726295 0.0037302028556473843 0 -0.018801639146849718 0.003474499898928428 0 -0.017768086134696399 0.0030459810185063589 0 -0.018801639146849718 0.003474499898928428 0 -0.018284242828163225 0.0023169663608947184 0 -0.014490116208724224 0.0017367982514995483 0 -0.01513288366578105 0.00080738358057436338 0 -0.013961969405237241 0.0007343255558405475 0 -0.01648425824315421 0.001283176096996379 0 -0.014624050348585745 0.0019155428193536844 0 -0.017996587548726295 0.0037302028556473843 0 -0.018801639146849718 0.003474499898928428 0 -0.018039892938718115 0.0044802852025408908 0 -0.015577594769426256 0.0033853184159575401 0 -0.014624050348585745 0.0019155428193536844 0 -0.013438206227966517 0.0017416452456234402 0 -0.013726520621776685 0.0024990693015607278 0 -0.012496015397329554 0.0017217919151812919 0 -0.01706366983513747 0.0039000324847024768 0 -0.018039892938718115 0.0044802852025408908 0 -0.017273390364519373 0.003861730024602258 0 -0.017996587548726295 0.0037302028556473843 0 -0.018039892938718115 0.0044802852025408908 0 -0.017273390364519373 0.003861730024602258 0 -0.013214060283594004 0.00035996525540661221 0 -0.012496015397329554 0.0017217919151812919 0 -0.013358840901517215 0.0012119843581722398 0 -0.013214060283594004 0.00035996525540661221 0 -0.012551199108441947 0.00097918441974581289 0 -0.012481074685740423 0.00039090039710753117 0 -0.013438206227966517 0.0017416452456234402 0 -0.012496015397329554 0.0017217919151812919 0 -0.013358840901517215 0.0012119843581722398 0 -0.012566692174711557 0.00033550489302090243 0 -0.014624050348585745 0.0019155428193536844 0 -0.012551199108441947 0.00097918441974581289 0 -0.012481074685740423 0.00039090039710753117 0 -0.012099704605686764 0.00051376649247845615 0 -0.01513288366578105 0.00080738358057436338 0 -0.013961969405237241 0.0007343255558405475 0 -0.01428658033490017 0.00026468113608159186 0 -0.014624050348585745 0.0019155428193536844 0 -0.012971421201554877 0.00020713196589010576 0 -0.012481074685740423 0.00039090039710753117 0 -0.012017610908077523 0.00014006021020690647 0 -0.012099704605686764 0.00051376649247845615 0 -0.012481074685740423 0.00039090039710753117 0 -0.012017610908077523 0.00014006021020690647 0 -0.012330071337470031 9.7789898026895151e-05 0 -0.012481074685740423 0.00039090039710753117 0 -0.012704172517360274 0.00014893681846392932 0 -0.012330071337470031 9.7789898026895151e-05 0 -0.013214060283594004 0.00035996525540661221 0 -0.012481074685740423 0.00039090039710753117 0 -0.012704172517360274 0.00014893681846392932 0 -0.013214060283594004 0.00035996525540661221 0 -0.012704172517360274 0.00014893681846392932 0 -0.013029378974011669 -4.0142235140822037e-06 0 -0.013560202213470087 -8.8009227490046946e-05 0 -0.01265088202908211 -9.7554612503978699e-07 0 -0.014117590568864767 5.2108598104453111e-07 0 -0.012028688649994368 3.3886403659202317e-05 0 -0.012647310020561074 4.694699476115253e-08 0 -0.012012513043735757 6.6973523748661395e-05 0 -0.0131348599297733 1.7254368928028377e-05 0 -0.01264940387556464 -3.9973870892523768e-08 0 -0.012028688649994368 3.3886403659202317e-05 0 -0.012012513043735757 6.6973523748661395e-05 0 -0.012017610908077523 0.00014006021020690647 0 -0.0131348599297733 1.7254368928028377e-05 0 -0.012971421201554877 0.00020713196589010576 0 -0.012028688649994368 3.3886403659202317e-05 0 -0.012017610908077523 0.00014006021020690647 0 -0.012099704605686764 0.00051376649247845615 0 -0.0131348599297733 1.7254368928028377e-05 0 -0.014120320859295954 0.00026288712916031336 0 -0.013434217335577292 -0.00027491101840289479 0 -0.013961969405237241 0.0007343255558405475 0 -0.01428658033490017 0.00026468113608159186 0 -0.013560202213470087 -8.8009227490046946e-05 0 -0.014653179886956596 1.2767000806967232e-05 0 -0.014117590568864767 5.2108598104453111e-07 0 -0.014653179886956596 1.2767000806967232e-05 0 -0.014117590568864767 5.2108598104453111e-07 0 -0.015087967348263058 0.00011652932368067599 0 -0.01510408778291626 9.8848328420193587e-05 0 -0.014653179886956596 1.2767000806967232e-05 0 -0.015087967348263058 0.00011652932368067599 0 -0.01648425824315421 0.001283176096996379 0 -0.014120320859295954 0.00026288712916031336 0 -0.01510408778291626 9.8848328420193587e-05 0 -0.015087967348263058 0.00011652932368067599 0 -0.015462644857525505 -1.7340913136729126e-05 0 -0.01648425824315421 0.001283176096996379 0 -0.016555926810446205 -0.00040140493222374379 0 -0.014117590568864767 5.2108598104453111e-07 0 -0.015087967348263058 0.00011652932368067599 0 -0.015585758017051971 2.8677323780848036e-08 0 -0.015087967348263058 0.00011652932368067599 0 -0.015585758017051971 2.8677323780848036e-08 0 -0.016026009170913375 -2.965111422148701e-05 0 -0.01663106078807209 2.8243395379962965e-05 0 -0.016555926810446205 -0.00040140493222374379 0 -0.015087967348263058 0.00011652932368067599 0 -0.016026009170913375 -2.965111422148701e-05 0 -0.015462644857525505 -1.7340913136729126e-05 0 -0.015585758017051971 2.8677323780848036e-08 0 -0.016026009170913375 -2.965111422148701e-05 0 -0.017054212301190447 -6.0128571921500432e-08 0 -0.016026009170913375 -2.965111422148701e-05 0 -0.016846932759096302 -6.4777210008367636e-05 0 -0.015462644857525505 -1.7340913136729126e-05 0 -0.016846932759096302 -6.4777210008367636e-05 0 -0.017054212301190447 -6.0128571921500432e-08 0 -0.017573934041585693 0.00013971989499418381 0 -0.016026009170913375 -2.965111422148701e-05 0 -0.016846932759096302 -6.4777210008367636e-05 0 -0.017054212301190447 -6.0128571921500432e-08 0 -0.016846932759096302 -6.4777210008367636e-05 0 -0.01756054685574647 -6.4700570090380014e-05 0 -0.017395972208632329 -0.00045790815509577198 0 -0.016846932759096302 -6.4777210008367636e-05 0 -0.01756054685574647 -6.4700570090380014e-05 0 -0.017573934041585693 0.00013971989499418381 0 -0.01756054685574647 -6.4700570090380014e-05 0 -0.017573934041585693 0.00013971989499418381 0 -0.017751437647961991 0.00010271156906980223 0 -0.01756054685574647 -6.4700570090380014e-05 0 -0.017395972208632329 -0.00045790815509577198 0 -0.01789778352869642 -0.00023940197950675691 0 -0.017638679687534776 -0.00076715261422000667 0 -0.017395972208632329 -0.00045790815509577198 0 -0.01789778352869642 -0.00023940197950675691 0 -0.01648425824315421 0.001283176096996379 0 -0.018303908663978286 0.001128682852402331 0 -0.017148080661627665 0.0024635872364582091 0 -0.017768086134696399 0.0030459810185063589 0 -0.017676025826838596 0.0019497105508320966 0 -0.017768086134696399 0.0030459810185063589 0 -0.018284242828163225 0.0023169663608947184 0 -0.017676025826838596 0.0019497105508320966 0 -0.018284242828163225 0.0023169663608947184 0 -0.017676025826838596 0.0019497105508320966 0 -0.01780524741275518 0.0011935358300156896 0 -0.018303908663978286 0.001128682852402331 0 -0.017786071874082574 0.00062570543823355486 0 -0.017102064546440188 0.0011689001762238359 0 -0.017676025826838596 0.0019497105508320966 0 -0.01780524741275518 0.0011935358300156896 0 -0.01756054685574647 -6.4700570090380014e-05 0 -0.01789778352869642 -0.00023940197950675691 0 -0.017809489310726529 6.2844657088705208e-05 0 -0.01789778352869642 -0.00023940197950675691 0 -0.017809489310726529 6.2844657088705208e-05 0 -0.017876502699237101 0.00017926000037455389 0 -0.01756054685574647 -6.4700570090380014e-05 0 -0.017809489310726529 6.2844657088705208e-05 0 -0.017751437647961991 0.00010271156906980223 0 -0.017809489310726529 6.2844657088705208e-05 0 -0.017845110821472134 0.00017453810692250935 0 -0.017751437647961991 0.00010271156906980223 0 -0.017809489310726529 6.2844657088705208e-05 0 -0.017845110821472134 0.00017453810692250935 0 -0.017876502699237101 0.00017926000037455389 0 -0.017845110821472134 0.00017453810692250935 0 -0.017751437647961991 0.00010271156906980223 0 -0.017881485182264165 0.00016864308170020571 0 -0.017493029084863752 0.00016919292653353883 0 -0.017786071874082574 0.00062570543823355486 0 -0.01745703695622388 0.00015077112962871053 0 -0.017876502699237101 0.00017926000037455389 0 -0.017745198395580836 0.00015346304088264813 0 -0.017845110821472134 0.00017453810692250935 0 -0.017876502699237101 0.00017926000037455389 0 -0.017745198395580836 0.00015346304088264813 0 -0.01745703695622388 0.00015077112962871053 0 -0.017745198395580836 0.00015346304088264813 0 -0.017674704972314274 7.998798028793857e-05 0 -0.017803918743413201 0.00010026755355282893 0 -0.017745198395580836 0.00015346304088264813 0 -0.017674704972314274 7.998798028793857e-05 0 -0.017845110821472134 0.00017453810692250935 0 -0.017803918743413201 0.00010026755355282893 0 -0.017745198395580836 0.00015346304088264813 0 -0.017803918743413201 0.00010026755355282893 0 -0.017741811619573389 -1.8892342268350775e-05 0 -0.017674704972314274 7.998798028793857e-05 0 -0.017917483370431923 -3.2423880265049903e-05 0 -0.017803918743413201 0.00010026755355282893 0 -0.017741811619573389 -1.8892342268350775e-05 0 -0.017580404228040799 -3.1709753294606669e-05 0 -0.017741811619573389 -1.8892342268350775e-05 0 -0.017674704972314274 7.998798028793857e-05 0 -0.017580404228040799 -3.1709753294606669e-05 0 -0.01745703695622388 0.00015077112962871053 0 -0.017674704972314274 7.998798028793857e-05 0 -0.017900939960711071 0.00010792622091069739 0 -0.018107457750907101 5.8019646396311952e-05 0 -0.017881485182264165 0.00016864308170020571 0 -0.017845110821472134 0.00017453810692250935 0 -0.017900939960711071 0.00010792622091069739 0 -0.017881485182264165 0.00016864308170020571 0 -0.017845110821472134 0.00017453810692250935 0 -0.017803918743413201 0.00010026755355282893 0 -0.017900939960711071 0.00010792622091069739 0 -0.017917483370431923 -3.2423880265049903e-05 0 -0.017803918743413201 0.00010026755355282893 0 -0.017900939960711071 0.00010792622091069739 0 -0.017917483370431923 -3.2423880265049903e-05 0 -0.017900939960711071 0.00010792622091069739 0 -0.018107457750907101 5.8019646396311952e-05 0 -0.018107457750907101 5.8019646396311952e-05 0 -0.018000932401679857 0.00013766683197724132 0 -0.017881485182264165 0.00016864308170020571 0 -0.018107457750907101 5.8019646396311952e-05 0 -0.018000932401679857 0.00013766683197724132 0 -0.018326792425819517 5.8547228952678763e-05 0 -0.01879012207410621 -6.0783826212477886e-05 0 -0.018326792425819517 5.8547228952678763e-05 0 -0.018522166763534614 3.4685318386978723e-07 0 -0.018326792425819517 5.8547228952678763e-05 0 -0.018522166763534614 3.4685318386978723e-07 0 -0.017925912630176902 0.00010035137598557782 0 -0.018000932401679857 0.00013766683197724132 0 -0.018326792425819517 5.8547228952678763e-05 0 -0.017925912630176902 0.00010035137598557782 0 -0.017054212301190447 -6.0128571921500432e-08 0 -0.018522166763534614 3.4685318386978723e-07 0 -0.017925912630176902 0.00010035137598557782 0 -0.018000932401679857 0.00013766683197724132 0 -0.017925912630176902 0.00010035137598557782 0 -0.017573934041585693 0.00013971989499418381 0 -0.017054212301190447 -6.0128571921500432e-08 0 -0.017925912630176902 0.00010035137598557782 0 -0.017573934041585693 0.00013971989499418381 0 -0.017573934041585693 0.00013971989499418381 0 -0.017751437647961991 0.00010271156906980223 0 -0.017881485182264165 0.00016864308170020571 0 -0.018000932401679857 0.00013766683197724132 0 -0.017573934041585693 0.00013971989499418381 0 -0.017881485182264165 0.00016864308170020571 0 -0.0075017398695717274 0.00022188054149060679 0 -0.0074991027039894593 0.00018638063225974753 0 -0.0078893406980396989 0.00012366062401862659 0 -0.007441747506534588 6.4586644256887957e-07 0 -0.0075017398695717274 0.00022188054149060679 0 -0.0078893406980396989 0.00012366062401862659 0 -0.0063535486180240743 2.3562125929659224e-08 0 -0.0063292228163672436 7.7113346607888026e-05 0 -0.006350803282088458 -7.448810329198589e-07 0 -0.0051535818118748989 -0.00013706924420170606 0 -0.0051819626192782103 0.00012160270699236987 0 -0.007441747506534588 6.4586644256887957e-07 0 -0.006355934034472095 -7.0733064812723789e-07 0 -0.0075017398695717274 0.00022188054149060679 0 -0.0051535818118748989 -0.00013706924420170606 0 -0.0052213269490058289 0.00019702163110020364 0 -0.0050271728784720198 3.3666891562923619e-05 0 -0.0063292228163672436 7.7113346607888026e-05 0 -0.0061582755490633802 0.00031891779928670008 0 -0.0052213269490058289 0.00019702163110020364 0 -0.0052838066213701986 5.7293171408230778e-05 0 -0.0050271728784720198 3.3666891562923619e-05 0 -0.0052213269490058289 0.00019702163110020364 0 -0.0056439107588488555 0.00016346769252769652 0 -0.0052838066213701986 5.7293171408230778e-05 0 -0.0061582755490633802 0.00031891779928670008 0 -0.0059314135987597926 0.00032869618772185722 0 -0.0052213269490058289 0.00019702163110020364 0 -0.0059262304398948222 0.00032933026118047657 0 -0.0056439107588488555 0.00016346769252769652 0 -0.0071158003628073061 0.00051603302915590485 0 -0.0070994997318320034 -5.0924951895958672e-05 0 -0.0064214778142984482 4.975619281535768e-06 0 -0.0071158003628073061 0.00051603302915590485 0 -0.0064214778142984482 4.975619281535768e-06 0 -0.0059262304398948222 0.00032933026118047657 0 -0.0071158003628073061 0.00051603302915590485 0 -0.0074991027039894593 0.00018638063225974753 0 -0.0070994997318320034 -5.0924951895958672e-05 0 -0.0075017398695717274 0.00022188054149060679 0 -0.0071158003628073061 0.00051603302915590485 0 -0.0074991027039894593 0.00018638063225974753 0 -0.0074991027039894593 0.00018638063225974753 0 -0.0070994997318320034 -5.0924951895958672e-05 0 -0.0078369510764929491 -9.0826005707766495e-05 0 -0.0070994997318320034 -5.0924951895958672e-05 0 -0.0066760060552614325 -0.00034074668877635144 0 -0.0064214778142984482 4.975619281535768e-06 0 -0.0066760060552614325 -0.00034074668877635144 0 -0.0071124806168797487 -0.00049134524451608904 0 -0.0068050066962047039 -0.00082119352426710413 0 -0.0070994997318320034 -5.0924951895958672e-05 0 -0.0066760060552614325 -0.00034074668877635144 0 -0.0071124806168797487 -0.00049134524451608904 0 -0.0072201628863104812 -0.00027441119796988101 0 -0.0098985992972738766 -0.00093377643059951556 0 -0.0070994997318320034 -5.0924951895958672e-05 0 -0.0071124806168797487 -0.00049134524451608904 0 -0.0078369510764929491 -9.0826005707766495e-05 0 -0.0071124806168797487 -0.00049134524451608904 0 -0.0078369510764929491 -9.0826005707766495e-05 0 -0.007330935900630488 -0.00099258455906261946 0 -0.0078369510764929491 -9.0826005707766495e-05 0 -0.0082016983811280687 -0.00055437256042558086 0 -0.0077149668158611922 -0.00059089071718077836 0 -0.0078369510764929491 -9.0826005707766495e-05 0 -0.0085545976720970574 -5.3204789363731993e-05 0 -0.0082016983811280687 -0.00055437256042558086 0 -0.0078369510764929491 -9.0826005707766495e-05 0 -0.0078893406980396989 0.00012366062401862659 0 -0.0085545976720970574 -5.3204789363731993e-05 0 -0.0074991027039894593 0.00018638063225974753 0 -0.0078369510764929491 -9.0826005707766495e-05 0 -0.0078893406980396989 0.00012366062401862659 0 -0.0078893406980396989 0.00012366062401862659 0 -0.0085315449834754663 4.3951696403201436e-07 0 -0.0085545976720970574 -5.3204789363731993e-05 0 -0.007441747506534588 6.4586644256887957e-07 0 -0.0078893406980396989 0.00012366062401862659 0 -0.0085315449834754663 4.3951696403201436e-07 0 -0.0085315449834754663 4.3951696403201436e-07 0 -0.0085545976720970574 -5.3204789363731993e-05 0 -0.0096181551775833853 -1.5279562056444992e-06 0 -0.0096221158564072495 -1.6920916354163056e-06 0 -0.011205526786029684 -0.00064428285399999836 0 -0.01086977487272224 -0.00012807869234404196 0 -0.0096202912587254469 -3.2177133329960066e-07 0 -0.0097093198458567745 -0.00051170524917758264 0 -0.0085545976720970574 -5.3204789363731993e-05 0 -0.0096181551775833853 -1.5279562056444992e-06 0 -0.0082016983811280687 -0.00055437256042558086 0 -0.011205526786029684 -0.00064428285399999836 0 -0.011865270581255397 -0.00033871364042751233 0 -0.011947522574064532 -0.00071975897541014168 0 -0.0097093198458567745 -0.00051170524917758264 0 -0.0098985992972738766 -0.00093377643059951556 0 -0.011205526786029684 -0.00064428285399999836 0 -0.011494750993382758 -7.1152739423519876e-05 0 -0.01086977487272224 -0.00012807869234404196 0 -0.011205526786029684 -0.00064428285399999836 0 -0.011494750993382758 -7.1152739423519876e-05 0 -0.011865270581255397 -0.00033871364042751233 0 -0.011494750993382758 -7.1152739423519876e-05 0 -0.011908371672143606 -8.7513834548577597e-05 0 -0.011865270581255397 -0.00033871364042751233 0 -0.011494750993382758 -7.1152739423519876e-05 0 -0.010629865354553731 3.8385582589487521e-07 0 -0.01086977487272224 -0.00012807869234404196 0 -0.0096221158564072495 -1.6920916354163056e-06 0 -0.010629865354553731 3.8385582589487521e-07 0 -0.01086977487272224 -0.00012807869234404196 0 -0.011494750993382758 -7.1152739423519876e-05 0 -0.010629865354553731 3.8385582589487521e-07 0 -0.011636397578005716 6.7904575977275605e-05 0 -0.010629865354553731 3.8385582589487521e-07 0 -0.011639912567279316 2.3920277660515685e-07 0 -0.011636397578005716 6.7904575977275605e-05 0 -0.011636397578005716 6.7904575977275605e-05 0 -0.011967212539349664 4.8865386398367086e-05 0 -0.011908371672143606 -8.7513834548577597e-05 0 -0.011494750993382758 -7.1152739423519876e-05 0 -0.011636397578005716 6.7904575977275605e-05 0 -0.011908371672143606 -8.7513834548577597e-05 0 -0.011636397578005716 6.7904575977275605e-05 0 -0.011967212539349664 4.8865386398367086e-05 0 -0.011884905415485527 0.00012525184475404194 0 -0.012017610908077523 0.00014006021020690647 0 -0.011967212539349664 4.8865386398367086e-05 0 -0.011884905415485527 0.00012525184475404194 0 -0.012012513043735757 6.6973523748661395e-05 0 -0.012017610908077523 0.00014006021020690647 0 -0.011884905415485527 0.00012525184475404194 0 -0.012647310020561074 4.694699476115253e-08 0 -0.011639912567279316 2.3920277660515685e-07 0 -0.011884905415485527 0.00012525184475404194 0 -0.012647310020561074 4.694699476115253e-08 0 -0.012012513043735757 6.6973523748661395e-05 0 -0.011884905415485527 0.00012525184475404194 0 -0.011639912567279316 2.3920277660515685e-07 0 -0.011636397578005716 6.7904575977275605e-05 0 -0.011884905415485527 0.00012525184475404194 0 -0.013498115125318696 -0.00013903251886453075 0 -0.013029378974011669 -4.0142235140822037e-06 0 -0.012683332840049856 -0.00022075962650948002 0 -0.013029378974011669 -4.0142235140822037e-06 0 -0.012614181051038644 -1.3606294092817644e-05 0 -0.012683332840049856 -0.00022075962650948002 0 -0.012614181051038644 -1.3606294092817644e-05 0 -0.012303427634371613 -8.9825574728090099e-05 0 -0.012683332840049856 -0.00022075962650948002 0 -0.012704172517360274 0.00014893681846392932 0 -0.013029378974011669 -4.0142235140822037e-06 0 -0.012614181051038644 -1.3606294092817644e-05 0 -0.012704172517360274 0.00014893681846392932 0 -0.012614181051038644 -1.3606294092817644e-05 0 -0.012330071337470031 9.7789898026895151e-05 0 -0.012017610908077523 0.00014006021020690647 0 -0.011967212539349664 4.8865386398367086e-05 0 -0.012330071337470031 9.7789898026895151e-05 0 -0.011967212539349664 4.8865386398367086e-05 0 -0.012330071337470031 9.7789898026895151e-05 0 -0.012303427634371613 -8.9825574728090099e-05 0 -0.012614181051038644 -1.3606294092817644e-05 0 -0.012330071337470031 9.7789898026895151e-05 0 -0.012303427634371613 -8.9825574728090099e-05 0 -0.012303427634371613 -8.9825574728090099e-05 0 -0.011908371672143606 -8.7513834548577597e-05 0 -0.012282486541485454 -0.00030857424128072602 0 -0.011967212539349664 4.8865386398367086e-05 0 -0.012303427634371613 -8.9825574728090099e-05 0 -0.011908371672143606 -8.7513834548577597e-05 0 -0.012303427634371613 -8.9825574728090099e-05 0 -0.012683332840049856 -0.00022075962650948002 0 -0.012282486541485454 -0.00030857424128072602 0 -0.013145930975248368 -0.00069680254362411334 0 -0.012920372039210908 -0.0010167372333935785 0 -0.013426554920352994 -0.00097424260217700092 0 -0.012933989935694508 -0.00046434778319790767 0 -0.012829289930812306 -0.0005486928017816383 0 -0.012920372039210908 -0.0010167372333935785 0 -0.013169077423292867 -0.0013445690489527885 0 -0.013426554920352994 -0.00097424260217700092 0 -0.012282486541485454 -0.00030857424128072602 0 -0.011865270581255397 -0.00033871364042751233 0 -0.011947522574064532 -0.00071975897541014168 0 -0.012829289930812306 -0.0005486928017816383 0 -0.0098985992972738766 -0.00093377643059951556 0 -0.011908371672143606 -8.7513834548577597e-05 0 -0.012282486541485454 -0.00030857424128072602 0 -0.011865270581255397 -0.00033871364042751233 0 -0.012920372039210908 -0.0010167372333935785 0 -0.012675797855624178 -0.0013840502813370619 0 -0.013169077423292867 -0.0013445690489527885 0 -0.007330935900630488 -0.00099258455906261946 0 -0.0068050066962047039 -0.00082119352426710413 0 -0.0068067885137459306 -0.00083788299183685947 0 -0.0098985992972738766 -0.00093377643059951556 0 -0.010020868897452564 -0.0011147480745776809 0 -0.0071124806168797487 -0.00049134524451608904 0 -0.007330935900630488 -0.00099258455906261946 0 -0.0068050066962047039 -0.00082119352426710413 0 -0.010020868897452564 -0.0011147480745776809 0 -0.010485485696775489 -0.001009136670877766 0 -0.013169077423292867 -0.0013445690489527885 0 -0.0135931046151132 -0.00127604027997977 0 -0.013426554920352994 -0.00097424260217700092 0 -0.0068067885137459306 -0.00083788299183685947 0 -0.0072808380856828276 -0.0007240547073548416 0 -0.0070531504698957484 -0.00089850086871688184 0 -0.0068050066962047039 -0.00082119352426710413 0 -0.0068067885137459306 -0.00083788299183685947 0 -0.0070531504698957484 -0.00089850086871688184 0 -0.0072808380856828276 -0.0007240547073548416 0 -0.0074712205113380142 -0.00098208591891201132 0 -0.0070531504698957484 -0.00089850086871688184 0 -0.0135931046151132 -0.00127604027997977 0 -0.013736029559812389 -0.0010466382152881091 0 -0.013426554920352994 -0.00097424260217700092 0 -0.013145930975248368 -0.00069680254362411334 0 -0.013426554920352994 -0.00097424260217700092 0 -0.013461950037308473 -0.00068187770745367681 0 -0.013736029559812389 -0.0010466382152881091 0 -0.013426554920352994 -0.00097424260217700092 0 -0.013724914000861144 -0.00072590004751688357 0 -0.013426554920352994 -0.00097424260217700092 0 -0.013461950037308473 -0.00068187770745367681 0 -0.013724914000861144 -0.00072590004751688357 0 -0.01428410325550496 -0.0009825896278862292 0 -0.013591226032528962 -0.00036891035260646656 0 -0.015173373153462878 -0.001449877272663916 0 -0.014844955842504727 -0.00033315493768523973 0 -0.013494669248716104 -0.00028408161648044123 0 -0.014238543078751456 -2.9285661216276602e-05 0 -0.014844955842504727 -0.00033315493768523973 0 -0.013494669248716104 -0.00028408161648044123 0 -0.013498115125318696 -0.00013903251886453075 0 -0.013145930975248368 -0.00069680254362411334 0 -0.013494669248716104 -0.00028408161648044123 0 -0.013420347662320217 -8.8607449473091695e-05 0 -0.012933989935694508 -0.00046434778319790767 0 -0.013461950037308473 -0.00068187770745367681 0 -0.013724914000861144 -0.00072590004751688357 0 -0.013494669248716104 -0.00028408161648044123 0 -0.013498115125318696 -0.00013903251886453075 0 -0.014238543078751456 -2.9285661216276602e-05 0 -0.013494669248716104 -0.00028408161648044123 0 -0.013145930975248368 -0.00069680254362411334 0 -0.013461950037308473 -0.00068187770745367681 0 -0.013494669248716104 -0.00028408161648044123 0 -0.01635134998533553 -7.3908228057708485e-05 0 -0.016864069341443355 -0.0012244990358290491 0 -0.018259963220255731 -0.00029351445934583961 0 -0.01635134998533553 -7.3908228057708485e-05 0 -0.015173373153462878 -0.001449877272663916 0 -0.014844955842504727 -0.00033315493768523973 0 -0.01635134998533553 -7.3908228057708485e-05 0 -0.015173373153462878 -0.001449877272663916 0 -0.016864069341443355 -0.0012244990358290491 0 -0.013736029559812389 -0.0010466382152881091 0 -0.013724914000861144 -0.00072590004751688357 0 -0.013954703620176161 -0.0010132994430589889 0 -0.01428410325550496 -0.0009825896278862292 0 -0.015948068066155847 -0.0019126869068408427 0 -0.015173373153462878 -0.001449877272663916 0 -0.016864069341443355 -0.0012244990358290491 0 -0.016590855353824131 -0.0023305769822858256 0 -0.016864069341443355 -0.0012244990358290491 0 -0.016590855353824131 -0.0023305769822858256 0 -0.017866149977009856 -0.0019975263105296648 0 -0.013954703620176161 -0.0010132994430589889 0 -0.013908028471564591 -0.0012105077441196899 0 -0.014130421756492114 -0.0011932449195669454 0 -0.016590855353824131 -0.0023305769822858256 0 -0.017917921953768873 -0.0031848566880052962 0 -0.017866149977009856 -0.0019975263105296648 0 -0.015948068066155847 -0.0019126869068408427 0 -0.012434485394347682 -0.0017724458908948268 0 -0.013736029559812389 -0.0010466382152881091 0 -0.013954703620176161 -0.0010132994430589889 0 -0.013908028471564591 -0.0012105077441196899 0 -0.0072808380856828276 -0.0007240547073548416 0 -0.0076804715739630155 -0.00076481609974373137 0 -0.0074712205113380142 -0.00098208591891201132 0 -0.010485485696775489 -0.001009136670877766 0 -0.010493431114530851 -0.0009345917908710463 0 -0.0135931046151132 -0.00127604027997977 0 -0.013736029559812389 -0.0010466382152881091 0 -0.013908028471564591 -0.0012105077441196899 0 -0.0076804715739630155 -0.00076481609974373137 0 -0.0078638072086079022 -0.00097082093901867527 0 -0.0079148346213595167 -0.00084596747808144204 0 -0.010493431114530851 -0.0009345917908710463 0 -0.012434485394347682 -0.0017724458908948268 0 -0.0078427282060571785 -0.0011081945915342279 0 -0.0077029515772890581 -0.0011293503368414084 0 -0.0078638072086079022 -0.00097082093901867527 0 -0.0076724122602877037 -0.0009960973356553987 0 -0.0077029515772890581 -0.0011293503368414084 0 -0.0078638072086079022 -0.00097082093901867527 0 -0.0076804715739630155 -0.00076481609974373137 0 -0.0076724122602877037 -0.0009960973356553987 0 -0.0078638072086079022 -0.00097082093901867527 0 -0.0078540699539555916 -0.000897352362474786 0 -0.0064745422017009006 -0.00092312856091617186 0 -0.0074778229544532051 -0.00074434877037210328 0 -0.0074733412790045526 -0.00073438111542053239 0 -0.0074732666177551111 -0.00073255045164716357 0 -0.0078427282060571785 -0.0011081945915342279 0 -0.0077029515772890581 -0.0011293503368414084 0 -0.0075637996651424077 -0.001293897046274241 0 -0.0075219295830344871 -0.0012346398347280608 0 -0.0074999391243863013 -0.0013221723634708111 0 -0.0074377396318693473 -0.0011645090720135167 0 -0.006007019766421943 -0.0011003918409887205 0 -0.0059696097174852976 -0.00087032304345945261 0 -0.0075219295830344871 -0.0012346398347280608 0 -0.0074999391243863013 -0.0013221723634708111 0 -0.0075581556934965844 -0.0012975867397753246 0 -0.0056645602636082992 0.00013457424436182688 0 -0.0056531986880772852 0.00015008638589158717 0 -0.0056816659153765348 0.00013399150346690781 0 -0.006007019766421943 -0.0011003918409887205 0 -0.0049937122368160511 -0.0017104717471053323 0 -0.006007019766421943 -0.0011003918409887205 0 -0.0064745422017009006 -0.00092312856091617186 0 -0.0056543757990019415 -0.0013337220075151318 0 -0.0054818422214865997 -0.0013914988463328672 0 -0.0055299664372817862 -0.0012395492438172734 0 -0.0077029515772890581 -0.0011293503368414084 0 -0.0075637996651424077 -0.001293897046274241 0 -0.0075723733514570339 -0.0012566857672133506 0 -0.0064745422017009006 -0.00092312856091617186 0 -0.0049937122368160511 -0.0017104717471053323 0 -0.0064745422017009006 -0.00092312856091617186 0 -0.0065404437340148948 -0.00094253097888050402 0 -0.0075219295830344871 -0.0012346398347280608 0 -0.0075581556934965844 -0.0012975867397753246 0 -0.0075723733514570339 -0.0012566857672133506 0 -0.0075219295830344871 -0.0012346398347280608 0 -0.0075723733514570339 -0.0012566857672133506 0 -0.0075693436653541269 -0.001125074437431442 0 -0.0077029515772890581 -0.0011293503368414084 0 -0.0075723733514570339 -0.0012566857672133506 0 -0.0075693436653541269 -0.001125074437431442 0 -0.0075219295830344871 -0.0012346398347280608 0 -0.0075693436653541269 -0.001125074437431442 0 -0.0074377396318693473 -0.0011645090720135167 0 -0.0075693436653541269 -0.001125074437431442 0 -0.0074377396318693473 -0.0011645090720135167 0 -0.0074712205113380142 -0.00098208591891201132 0 -0.0076804715739630155 -0.00076481609974373137 0 -0.0076724122602877037 -0.0009960973356553987 0 -0.0074712205113380142 -0.00098208591891201132 0 -0.0076724122602877037 -0.0009960973356553987 0 -0.0077029515772890581 -0.0011293503368414084 0 -0.0075693436653541269 -0.001125074437431442 0 -0.0076724122602877037 -0.0009960973356553987 0 -0.0075693436653541269 -0.001125074437431442 0 -0.0074712205113380142 -0.00098208591891201132 0 -0.0074712205113380142 -0.00098208591891201132 0 -0.0071415621131140569 -0.0011210896953017715 0 -0.0070531504698957484 -0.00089850086871688184 0 -0.0074377396318693473 -0.0011645090720135167 0 -0.0074712205113380142 -0.00098208591891201132 0 -0.0071415621131140569 -0.0011210896953017715 0 -0.0067531936506809564 -0.00082807251481247814 0 -0.0066378774098698216 -0.00066388121079824372 0 -0.0068050066962047039 -0.00082119352426710413 0 -0.0071415621131140569 -0.0011210896953017715 0 -0.0070531504698957484 -0.00089850086871688184 0 -0.0066760060552614325 -0.00034074668877635144 0 -0.0068050066962047039 -0.00082119352426710413 0 -0.0059478741741616587 -0.00031836371651198039 0 -0.0059478741741616587 -0.00031836371651198039 0 -0.0064214778142984482 4.975619281535768e-06 0 -0.0058755066771343295 0.0001125014532875316 0 -0.0066760060552614325 -0.00034074668877635144 0 -0.0059478741741616587 -0.00031836371651198039 0 -0.0064214778142984482 4.975619281535768e-06 0 -0.006007019766421943 -0.0011003918409887205 0 -0.0066378774098698216 -0.00066388121079824372 0 -0.0059478741741616587 -0.00031836371651198039 0 -0.0058755066771343295 0.0001125014532875316 0 -0.0056816659153765348 0.00013399150346690781 0 -0.005597045273380891 0.00010743361375937686 0 -0.0059478741741616587 -0.00031836371651198039 0 -0.0056816659153765348 0.00013399150346690781 0 -0.0074999391243863013 -0.0013221723634708111 0 -0.0074377396318693473 -0.0011645090720135167 0 -0.0071415621131140569 -0.0011210896953017715 0 -0.0057811304231598906 0.00022636763294722189 0 -0.0057939069906143316 0.00016870796217038916 0 -0.0056531986880772852 0.00015008638589158717 0 -0.0058755066771343295 0.0001125014532875316 0 -0.0057811304231598906 0.00022636763294722189 0 -0.0056816659153765348 0.00013399150346690781 0 -0.0058755066771343295 0.0001125014532875316 0 -0.0057811304231598906 0.00022636763294722189 0 -0.0059262304398948222 0.00032933026118047657 0 -0.0064214778142984482 4.975619281535768e-06 0 -0.0058755066771343295 0.0001125014532875316 0 -0.0059262304398948222 0.00032933026118047657 0 -0.0057811304231598906 0.00022636763294722189 0 -0.0059262304398948222 0.00032933026118047657 0 -0.0056439107588488555 0.00016346769252769652 0 -0.0056439107588488555 0.00016346769252769652 0 -0.0057939069906143316 0.00016870796217038916 0 -0.0055803521306542758 1.3783438159876147e-05 0 -0.0057811304231598906 0.00022636763294722189 0 -0.0056439107588488555 0.00016346769252769652 0 -0.0057939069906143316 0.00016870796217038916 0 -0.0023471191526831699 -0.0035681631958382194 0 -0.0013561464217754281 -0.0038862246185755495 0 -0.0014672885364212511 -0.0032826928123565443 0 -0.0023471191526831699 -0.0035681631958382194 0 -0.0013561464217754281 -0.0038862246185755495 0 -0.0020952886485647863 -0.0043835986645082044 0 -0.0044122437962851487 -0.0024293861961800973 0 -0.0049937122368160511 -0.0017104717471053323 0 -0.0074778229544532051 -0.00074434877037210328 0 -0.0074698989479380414 -0.00069401792146323417 0 -0.0074732666177551111 -0.00073255045164716357 0 -0.0039666147943534539 -0.0018239326767103977 0 -0.0049937122368160511 -0.0017104717471053323 0 -0.0057811304231598906 0.00022636763294722189 0 -0.0056531986880772852 0.00015008638589158717 0 -0.0056816659153765348 0.00013399150346690781 0 -0.0074372743958398642 -0.00068593793509184246 0 -0.0074284816747779781 -0.00074853739078391225 0 -0.007462540029195483 -0.00073472877251957731 0 -0.0074372743958398642 -0.00068593793509184246 0 -0.007389316440057807 -0.00063902904533365019 0 -0.0074284816747779781 -0.00074853739078391225 0 -0.0074778229544532051 -0.00074434877037210328 0 -0.0074698989479380414 -0.00069401792146323417 0 -0.007462540029195483 -0.00073472877251957731 0 -0.0074698989479380414 -0.00069401792146323417 0 -0.0074372743958398642 -0.00068593793509184246 0 -0.007462540029195483 -0.00073472877251957731 0 -0.0074698989479380414 -0.00069401792146323417 0 -0.0074372743958398642 -0.00068593793509184246 0 -0.0073625844931075836 -0.00058178994730233497 0 -0.0044122437962851487 -0.0024293861961800973 0 -0.0039404493844157236 -0.0019374139964982203 0 -0.0074372743958398642 -0.00068593793509184246 0 -0.0072462774973671646 -0.00060537342828321584 0 -0.0073625844931075836 -0.00058178994730233497 0 -0.0074372743958398642 -0.00068593793509184246 0 -0.007389316440057807 -0.00063902904533365019 0 -0.0074372904091005139 -0.00044592009516225599 0 -0.0073411301734146702 -0.0006554115640832358 0 -0.0077052659525849755 -0.00043810973652248076 0 -0.007323556446911148 -0.00053683623162243386 0 -0.007389316440057807 -0.00063902904533365019 0 -0.0074372904091005139 -0.00044592009516225599 0 -0.007323556446911148 -0.00053683623162243386 0 -0.0072896832268286547 -0.00066817992912592038 0 -0.007389316440057807 -0.00063902904533365019 0 -0.007323556446911148 -0.00053683623162243386 0 -0.007180761851396939 -0.00047221891667574697 0 -0.0072896832268286547 -0.00066817992912592038 0 -0.007180761851396939 -0.00047221891667574697 0 -0.0072896832268286547 -0.00066817992912592038 0 -0.0071263757420213349 -0.00066587761542000342 0 -0.007323556446911148 -0.00053683623162243386 0 -0.007180761851396939 -0.00047221891667574697 0 -0.0072803169179131945 -0.00037245049765722242 0 -0.0072896832268286547 -0.00066817992912592038 0 -0.0072479992185394667 -0.00079638520248031597 0 -0.0071263757420213349 -0.00066587761542000342 0 -0.0072896832268286547 -0.00066817992912592038 0 -0.007389316440057807 -0.00063902904533365019 0 -0.0074284816747779781 -0.00074853739078391225 0 -0.0074284816747779781 -0.00074853739078391225 0 -0.0072479992185394667 -0.00079638520248031597 0 -0.0074692819205496907 -0.00090281000549521874 0 -0.0074284816747779781 -0.00074853739078391225 0 -0.0074692819205496907 -0.00090281000549521874 0 -0.007468024018246147 -0.00079562574227440177 0 -0.0072896832268286547 -0.00066817992912592038 0 -0.0074284816747779781 -0.00074853739078391225 0 -0.0072479992185394667 -0.00079638520248031597 0 -0.0074692819205496907 -0.00090281000549521874 0 -0.0072203312380415587 -0.0010700667337209242 0 -0.0072108253446798816 -0.00093654735269971148 0 -0.0072479992185394667 -0.00079638520248031597 0 -0.0074692819205496907 -0.00090281000549521874 0 -0.0072108253446798816 -0.00093654735269971148 0 -0.0074939018499083467 -0.00090166324782071949 0 -0.0076338577056655685 -0.00087784749878068956 0 -0.0074692819205496907 -0.00090281000549521874 0 -0.0079341493680191635 -0.00091679737253929511 0 -0.0076997131385668225 -0.0010337289441968108 0 -0.0079341493680191635 -0.00091679737253929511 0 -0.0079498955719008724 -0.00098935812958982701 0 -0.0076997131385668225 -0.0010337289441968108 0 -0.0074284816747779781 -0.00074853739078391225 0 -0.007468024018246147 -0.00079562574227440177 0 -0.007462540029195483 -0.00073472877251957731 0 -0.0074778229544532051 -0.00074434877037210328 0 -0.007468024018246147 -0.00079562574227440177 0 -0.007462540029195483 -0.00073472877251957731 0 -0.0078540699539555916 -0.000897352362474786 0 -0.0076338577056655685 -0.00087784749878068956 0 -0.0079341493680191635 -0.00091679737253929511 0 -0.0078638072086079022 -0.00097082093901867527 0 -0.0079498955719008724 -0.00098935812958982701 0 -0.0078427282060571785 -0.0011081945915342279 0 -0.0079341493680191635 -0.00091679737253929511 0 -0.0078638072086079022 -0.00097082093901867527 0 -0.0078638072086079022 -0.00097082093901867527 0 -0.0079148346213595167 -0.00084596747808144204 0 -0.0079498955719008724 -0.00098935812958982701 0 -0.012434485394347682 -0.0017724458908948268 0 -0.006889436132869073 -0.00022155853930163493 0 -0.012434485394347682 -0.0017724458908948268 0 -0.013697789420928558 -0.0021393998232945946 0 -0.0083638794090776011 -0.0012604408358080845 0 -0.0079498955719008724 -0.00098935812958982701 0 -0.0078001427536962698 -0.0012528035116144206 0 -0.0079498955719008724 -0.00098935812958982701 0 -0.0078001427536962698 -0.0012528035116144206 0 -0.0076997131385668225 -0.0010337289441968108 0 -0.019351254305889933 -0.0029876022270934363 0 -0.017866149977009856 -0.0019975263105296648 0 -0.019231112552299843 -0.0016725960677614797 0 -0.017917921953768873 -0.0031848566880052962 0 -0.019351254305889933 -0.0029876022270934363 0 -0.017866149977009856 -0.0019975263105296648 0 -0.016864069341443355 -0.0012244990358290491 0 -0.017866149977009856 -0.0019975263105296648 0 -0.018259963220255731 -0.00029351445934583961 0 -0.017866149977009856 -0.0019975263105296648 0 -0.019231112552299843 -0.0016725960677614797 0 -0.018259963220255731 -0.00029351445934583961 0 -0.019231112552299843 -0.0016725960677614797 0 -0.018877956302154338 -0.00071928448987795563 0 -0.019982528257831936 -0.00076409497943146876 0 -0.019205597936013518 -0.0016210689341749124 0 -0.018568691227623058 -0.00053647757148625051 0 -0.020743596027984579 -0.00037500229243393426 0 -0.020938071392448986 -0.001123822925066868 0 -0.019982528257831936 -0.00076409497943146876 0 -0.020743596027984579 -0.00037500229243393426 0 -0.020938071392448986 -0.001123822925066868 0 -0.021574477687530489 -0.00041467375976687832 0 -0.020938071392448986 -0.001123822925066868 0 -0.019982528257831936 -0.00076409497943146876 0 -0.02017816363875417 -0.0018602879734251935 0 -0.019231112552299843 -0.0016725960677614797 0 -0.019982528257831936 -0.00076409497943146876 0 -0.02017816363875417 -0.0018602879734251935 0 -0.020938071392448986 -0.001123822925066868 0 -0.02017816363875417 -0.0018602879734251935 0 -0.020993138741598676 -0.0019471704234317079 0 -0.02017816363875417 -0.0018602879734251935 0 -0.020993138741598676 -0.0019471704234317079 0 -0.020490693300551147 -0.0027199651124693151 0 -0.019351254305889933 -0.0029876022270934363 0 -0.02017816363875417 -0.0018602879734251935 0 -0.020490693300551147 -0.0027199651124693151 0 -0.019351254305889933 -0.0029876022270934363 0 -0.019231112552299843 -0.0016725960677614797 0 -0.02017816363875417 -0.0018602879734251935 0 -0.0074692819205496907 -0.00090281000549521874 0 -0.0076997131385668225 -0.0010337289441968108 0 -0.0074189940203129977 -0.0012156062408718927 0 -0.0078001427536962698 -0.0012528035116144206 0 -0.0076997131385668225 -0.0010337289441968108 0 -0.0074189940203129977 -0.0012156062408718927 0 -0.013697789420928558 -0.0021393998232945946 0 -0.013979422658341255 -0.0020500971854420513 0 -0.0074692819205496907 -0.00090281000549521874 0 -0.0074189940203129977 -0.0012156062408718927 0 -0.0072203312380415587 -0.0010700667337209242 0 -0.0074189940203129977 -0.0012156062408718927 0 -0.0072203312380415587 -0.0010700667337209242 0 -0.007131266829825453 -0.0011463822783460832 0 -0.0072203312380415587 -0.0010700667337209242 0 -0.0070616330052747575 -0.0010080628889150389 0 -0.0072108253446798816 -0.00093654735269971148 0 -0.0072203312380415587 -0.0010700667337209242 0 -0.0071258299590973087 -0.0010704135017010885 0 -0.0070616330052747575 -0.0010080628889150389 0 -0.0070904791268578456 -0.0010733738540822341 0 -0.0071258299590973087 -0.0010704135017010885 0 -0.0070616330052747575 -0.0010080628889150389 0 -0.0070904791268578456 -0.0010733738540822341 0 -0.0071258299590973087 -0.0010704135017010885 0 -0.007131266829825453 -0.0011463822783460832 0 -0.0072203312380415587 -0.0010700667337209242 0 -0.0071258299590973087 -0.0010704135017010885 0 -0.007131266829825453 -0.0011463822783460832 0 -0.0070015076472925101 -0.0010180042003539425 0 -0.007131266829825453 -0.0011463822783460832 0 -0.0069119961199420729 -0.00092067123591903666 0 -0.0069442926091356659 -0.00098485722209859972 0 -0.0070616330052747575 -0.0010080628889150389 0 -0.0070015076472925101 -0.0010180042003539425 0 -0.0069442926091356659 -0.00098485722209859972 0 -0.0070015076472925101 -0.0010180042003539425 0 -0.0069311706505787805 -0.00095918537327777478 0 -0.0070904791268578456 -0.0010733738540822341 0 -0.0070616330052747575 -0.0010080628889150389 0 -0.0070015076472925101 -0.0010180042003539425 0 -0.0070904791268578456 -0.0010733738540822341 0 -0.0070015076472925101 -0.0010180042003539425 0 -0.007131266829825453 -0.0011463822783460832 0 -0.015788542084100771 -0.00058817150040698892 0 -0.016394938488365179 0.00043507754769172121 0 -0.017017884102914719 -0.00050767235419779872 0 -0.013994337481707449 -0.00082573582678417646 0 -0.013014681323569947 0.00029144802559237195 0 -0.013994337481707449 -0.00082573582678417646 0 -0.01990295288201788 -0.00039233171379014656 0 -0.020993138741598676 -0.0019471704234317079 0 -0.021492493736837034 -0.0025463002771586901 0 -0.022069563010433713 -0.0013178985033589063 0 -0.020993138741598676 -0.0019471704234317079 0 -0.020490693300551147 -0.0027199651124693151 0 -0.021492493736837034 -0.0025463002771586901 0 -0.013979422658341255 -0.0020500971854420513 0 -0.013994337481707449 -0.00082573582678417646 0 -0.020938071392448986 -0.001123822925066868 0 -0.020993138741598676 -0.0019471704234317079 0 -0.022069563010433713 -0.0013178985033589063 0 -0.022416659644583458 -0.00021074430413395106 0 -0.022069563010433713 -0.0013178985033589063 0 -0.021574477687530489 -0.00041467375976687832 0 -0.020938071392448986 -0.001123822925066868 0 -0.022069563010433713 -0.0013178985033589063 0 -0.021574477687530489 -0.00041467375976687832 0 -0.019404668680709204 0.00078126441174220169 0 -0.019627064253314001 0.0013373517539970767 0 -0.01886355210731043 0.0010377919016740433 0 -0.019404668680709204 0.00078126441174220169 0 -0.019829930251687493 0.0008989592511639378 0 -0.019627064253314001 0.0013373517539970767 0 -0.019754620017852737 0.00040725624973900112 0 -0.019404668680709204 0.00078126441174220169 0 -0.019829930251687493 0.0008989592511639378 0 -0.019745330079552304 0.00039815174979801249 0 -0.019044598420916117 0.0013740245327263467 0 -0.020263778544302561 0.00051577530125116366 0 -0.019829930251687493 0.0008989592511639378 0 -0.020245946242338966 0.0015887225604753366 0 -0.019745330079552304 0.00039815174979801249 0 -0.01990295288201788 -0.00039233171379014656 0 -0.017011267818410426 0.0014313945734773107 0 -0.016394938488365179 0.00043507754769172121 0 -0.017008933287654373 0.00047166437077871757 0 -0.019829930251687493 0.0008989592511639378 0 -0.020245946242338966 0.0015887225604753366 0 -0.019627064253314001 0.0013373517539970767 0 -0.016394938488365179 0.00043507754769172121 0 -0.017008933287654373 0.00047166437077871757 0 -0.017017884102914719 -0.00050767235419779872 0 -0.019436499835459722 0.0024111279782588748 0 -0.019627064253314001 0.0013373517539970767 0 -0.017631729979768713 0.0017841670800459362 0 -0.019544747323053401 0.001346615223770889 0 -0.018153822587212872 0.0017475719515826266 0 -0.020245946242338966 0.0015887225604753366 0 -0.019436499835459722 0.0024111279782588748 0 -0.019627064253314001 0.0013373517539970767 0 -0.013014681323569947 0.00029144802559237195 0 -0.012897682815137972 0.0015051157935845828 0 -0.019436499835459722 0.0024111279782588748 0 -0.020184203888515623 0.0033922640267673317 0 -0.018145253381325558 0.0033682838408804028 0 -0.020245946242338966 0.0015887225604753366 0 -0.019436499835459722 0.0024111279782588748 0 -0.020184203888515623 0.0033922640267673317 0 -0.019044598420916117 0.0013740245327263467 0 -0.013014681323569947 0.00029144802559237195 0 -0.013014681323569947 0.00029144802559237195 0 -0.012891534369773498 0.0002150369879334437 0 -0.0070015076472925101 -0.0010180042003539425 0 -0.0069119961199420729 -0.00092067123591903666 0 -0.0069311706505787805 -0.00095918537327777478 0 -0.0069069903493976332 -0.00089401506510277144 0 -0.0069076405470473402 -0.00091091447303749858 0 -0.0069846580055064359 -0.00086855859520433348 0 -0.0069119961199420729 -0.00092067123591903666 0 -0.0069076405470473402 -0.00091091447303749858 0 -0.0069311706505787805 -0.00095918537327777478 0 -0.0069076405470473402 -0.00091091447303749858 0 -0.0069311706505787805 -0.00095918537327777478 0 -0.0069106304402086795 -0.00093807125147530191 0 -0.0069076405470473402 -0.00091091447303749858 0 -0.0069106304402086795 -0.00093807125147530191 0 -0.0069846580055064359 -0.00086855859520433348 0 -0.0069106304402086795 -0.00093807125147530191 0 -0.0068714275590123471 -0.0010083635839059429 0 -0.0068979532418608205 -0.00098133042603611338 0 -0.0069311706505787805 -0.00095918537327777478 0 -0.0069106304402086795 -0.00093807125147530191 0 -0.0068979532418608205 -0.00098133042603611338 0 -0.0069442926091356659 -0.00098485722209859972 0 -0.0069311706505787805 -0.00095918537327777478 0 -0.0068979532418608205 -0.00098133042603611338 0 -0.0069069903493976332 -0.00089401506510277144 0 -0.0069846580055064359 -0.00086855859520433348 0 -0.0072019389642854134 -0.0005780589401119373 0 -0.0069106304402086795 -0.00093807125147530191 0 -0.0069846580055064359 -0.00086855859520433348 0 -0.0068714275590123471 -0.0010083635839059429 0 -0.0069846580055064359 -0.00086855859520433348 0 -0.0071848790720050355 -0.00084627039064186053 0 -0.0070423520164382926 -0.0010080975072840892 0 -0.0069846580055064359 -0.00086855859520433348 0 -0.0068714275590123471 -0.0010083635839059429 0 -0.0070423520164382926 -0.0010080975072840892 0 -0.0068714275590123471 -0.0010083635839059429 0 -0.0067675781100577682 -0.0011036694623416021 0 -0.0068318316536703557 -0.00098957795231007775 0 -0.0068714275590123471 -0.0010083635839059429 0 -0.0067675781100577682 -0.0011036694623416021 0 -0.0070423520164382926 -0.0010080975072840892 0 -0.0067675781100577682 -0.0011036694623416021 0 -0.0064289552661874801 -0.00091656651154610447 0 -0.006330039447674597 -0.0010570154809389045 0 -0.0067675781100577682 -0.0011036694623416021 0 -0.0066407042358526593 -0.0008576479739531099 0 -0.0068318316536703557 -0.00098957795231007775 0 -0.0067675781100577682 -0.0011036694623416021 0 -0.0066407042358526593 -0.0008576479739531099 0 -0.0064289552661874801 -0.00091656651154610447 0 -0.0068318316536703557 -0.00098957795231007775 0 -0.0069376635681668965 -0.00086495556697318372 0 -0.0067834421759369237 -0.0007591035395528178 0 -0.0066407042358526593 -0.0008576479739531099 0 -0.0068318316536703557 -0.00098957795231007775 0 -0.0067834421759369237 -0.0007591035395528178 0 -0.0068318316536703557 -0.00098957795231007775 0 -0.0069437889404680882 -0.00096524782822201519 0 -0.0069376635681668965 -0.00086495556697318372 0 -0.0068714275590123471 -0.0010083635839059429 0 -0.0068318316536703557 -0.00098957795231007775 0 -0.0068979532418608205 -0.00098133042603611338 0 -0.0068318316536703557 -0.00098957795231007775 0 -0.0068979532418608205 -0.00098133042603611338 0 -0.0069437889404680882 -0.00096524782822201519 0 -0.0069442926091356659 -0.00098485722209859972 0 -0.0068979532418608205 -0.00098133042603611338 0 -0.0069437889404680882 -0.00096524782822201519 0 -0.0070616330052747575 -0.0010080628889150389 0 -0.0069437889404680882 -0.00096524782822201519 0 -0.0070716679903581143 -0.00089550954212153707 0 -0.0069437889404680882 -0.00096524782822201519 0 -0.0070716679903581143 -0.00089550954212153707 0 -0.0069376635681668965 -0.00086495556697318372 0 -0.0069442926091356659 -0.00098485722209859972 0 -0.0070616330052747575 -0.0010080628889150389 0 -0.0069437889404680882 -0.00096524782822201519 0 -0.0072479992185394667 -0.00079638520248031597 0 -0.0072108253446798816 -0.00093654735269971148 0 -0.0070716679903581143 -0.00089550954212153707 0 -0.0070616330052747575 -0.0010080628889150389 0 -0.0072108253446798816 -0.00093654735269971148 0 -0.0070716679903581143 -0.00089550954212153707 0 -0.0072479992185394667 -0.00079638520248031597 0 -0.0070716679903581143 -0.00089550954212153707 0 -0.0070604075725502948 -0.00079117235578988001 0 -0.0072479992185394667 -0.00079638520248031597 0 -0.0070604075725502948 -0.00079117235578988001 0 -0.0071263757420213349 -0.00066587761542000342 0 -0.0070604075725502948 -0.00079117235578988001 0 -0.0069376635681668965 -0.00086495556697318372 0 -0.0069416530887822531 -0.00068758993875269641 0 -0.0070716679903581143 -0.00089550954212153707 0 -0.0070604075725502948 -0.00079117235578988001 0 -0.0069376635681668965 -0.00086495556697318372 0 -0.0069376635681668965 -0.00086495556697318372 0 -0.0069416530887822531 -0.00068758993875269641 0 -0.0067834421759369237 -0.0007591035395528178 0 -0.0069416530887822531 -0.00068758993875269641 0 -0.0071263757420213349 -0.00066587761542000342 0 -0.0069935146643817026 -0.00052442277603037839 0 -0.0070604075725502948 -0.00079117235578988001 0 -0.0069416530887822531 -0.00068758993875269641 0 -0.0071263757420213349 -0.00066587761542000342 0 -0.007180761851396939 -0.00047221891667574697 0 -0.0069935146643817026 -0.00052442277603037839 0 -0.0069622979609298948 -0.00029825512123064199 0 -0.007180761851396939 -0.00047221891667574697 0 -0.0071263757420213349 -0.00066587761542000342 0 -0.0069935146643817026 -0.00052442277603037839 0 -0.0069935146643817026 -0.00052442277603037839 0 -0.0067044198022676053 -0.00045662405494945594 0 -0.0069622979609298948 -0.00029825512123064199 0 -0.0069416530887822531 -0.00068758993875269641 0 -0.0069935146643817026 -0.00052442277603037839 0 -0.0067044198022676053 -0.00045662405494945594 0 -0.0067044198022676053 -0.00045662405494945594 0 -0.0065228597911897628 -0.00061617009393105594 0 -0.0067834421759369237 -0.0007591035395528178 0 -0.0065228597911897628 -0.00061617009393105594 0 -0.0063343694680486539 -0.00036789839459955916 0 -0.0061428892171916799 -0.0005470680137282727 0 -0.0067044198022676053 -0.00045662405494945594 0 -0.0065228597911897628 -0.00061617009393105594 0 -0.0063343694680486539 -0.00036789839459955916 0 -0.0066407042358526593 -0.0008576479739531099 0 -0.0065228597911897628 -0.00061617009393105594 0 -0.0063342472862393711 -0.00074481850020946809 0 -0.0066407042358526593 -0.0008576479739531099 0 -0.0065228597911897628 -0.00061617009393105594 0 -0.0067834421759369237 -0.0007591035395528178 0 -0.0066407042358526593 -0.0008576479739531099 0 -0.0064289552661874801 -0.00091656651154610447 0 -0.0063342472862393711 -0.00074481850020946809 0 -0.0069416530887822531 -0.00068758993875269641 0 -0.0067044198022676053 -0.00045662405494945594 0 -0.0067834421759369237 -0.0007591035395528178 0 -0.0067076659657453377 -0.00016185707400874272 0 -0.0064061496487656149 -0.00012631601220585521 0 -0.0065659082338553679 0.00012589576634670658 0 -0.0064061496487656149 -0.00012631601220585521 0 -0.0062321823500445725 0.00010614267570015311 0 -0.0061325642098545019 -0.00012270400852813142 0 -0.0064061496487656149 -0.00012631601220585521 0 -0.0063343694680486539 -0.00036789839459955916 0 -0.0061325642098545019 -0.00012270400852813142 0 -0.0067044198022676053 -0.00045662405494945594 0 -0.0064061496487656149 -0.00012631601220585521 0 -0.0063343694680486539 -0.00036789839459955916 0 -0.0067044198022676053 -0.00045662405494945594 0 -0.0067076659657453377 -0.00016185707400874272 0 -0.0064061496487656149 -0.00012631601220585521 0 -0.0067044198022676053 -0.00045662405494945594 0 -0.0067076659657453377 -0.00016185707400874272 0 -0.0069622979609298948 -0.00029825512123064199 0 -0.007180761851396939 -0.00047221891667574697 0 -0.0069622979609298948 -0.00029825512123064199 0 -0.0071564611250767964 -0.00024474046016477739 0 -0.0069622979609298948 -0.00029825512123064199 0 -0.0070391788391686513 0.00010352472288665084 0 -0.0071564611250767964 -0.00024474046016477739 0 -0.0067076659657453377 -0.00016185707400874272 0 -0.0069622979609298948 -0.00029825512123064199 0 -0.0070391788391686513 0.00010352472288665084 0 -0.0070391788391686513 0.00010352472288665084 0 -0.0067204739920319889 0.00038240495981795166 0 -0.0065659082338553679 0.00012589576634670658 0 -0.0067076659657453377 -0.00016185707400874272 0 -0.0070391788391686513 0.00010352472288665084 0 -0.0065659082338553679 0.00012589576634670658 0 0.00073761360813059062 -0.0028556104368779936 0 0.00079445765464113431 -0.0020923402330320731 0 0.00024783622252053946 -0.0027939733909835675 0 0.00073761360813059062 -0.0028556104368779936 0 0.00079445765464113431 -0.0020923402330320731 0 0.0016014719433821972 -0.0022397788158268132 0 -0.0031811195167111895 -0.0014022529087227499 0 -0.0025487739566717581 -0.00092310438064146291 0 -0.0067204739920319889 0.00038240495981795166 0 -0.0065659082338553679 0.00012589576634670658 0 -0.0063418460283568767 0.00036033425308626833 0 -0.0067204739920319889 0.00038240495981795166 0 -0.0063418460283568767 0.00036033425308626833 0 -0.0063930690267589921 0.00069246081242080467 0 -0.0065659082338553679 0.00012589576634670658 0 -0.0062321823500445725 0.00010614267570015311 0 -0.0063418460283568767 0.00036033425308626833 0 -0.0064061496487656149 -0.00012631601220585521 0 -0.0065659082338553679 0.00012589576634670658 0 -0.0062321823500445725 0.00010614267570015311 0 -0.0063418460283568767 0.00036033425308626833 0 -0.0059787699227663209 0.00033685302288270828 0 -0.0060754915135639801 0.00058008231566913514 0 -0.0062321823500445725 0.00010614267570015311 0 -0.0063418460283568767 0.00036033425308626833 0 -0.0059787699227663209 0.00033685302288270828 0 -0.0063930690267589921 0.00069246081242080467 0 -0.0059079523982713683 0.001252929167396956 0 -0.0060754915135639801 0.00058008231566913514 0 -0.0063418460283568767 0.00036033425308626833 0 -0.0063930690267589921 0.00069246081242080467 0 -0.0060754915135639801 0.00058008231566913514 0 -0.0025487739566717581 -0.00092310438064146291 0 -0.001984598760817352 -0.00051445164147545606 0 0.0024118472370411553 -0.001742243932112568 0 0.002000308231427184 -0.0011578505106544089 0 0.0025538946776715167 -0.00069740000731808574 0 0.0024118472370411553 -0.001742243932112568 0 0.002000308231427184 -0.0011578505106544089 0 0.0013516390151912078 -0.0014529520680911451 0 -0.001984598760817352 -0.00051445164147545606 0 -0.0013041364028693015 2.2395317137479406e-05 0 0.0024118472370411553 -0.001742243932112568 0 0.0025538946776715167 -0.00069740000731808574 0 0.0032681543065692779 -0.0012231303799643113 0 0.002000308231427184 -0.0011578505106544089 0 0.0025538946776715167 -0.00069740000731808574 0 0.0016889535854077247 -0.00065023672438410782 0 0.0025538946776715167 -0.00069740000731808574 0 0.0021444603585163129 7.3847285529907755e-05 0 0.0016889535854077247 -0.00065023672438410782 0 0.0025538946776715167 -0.00069740000731808574 0 0.0034499312724342503 -0.0002867045976204214 0 0.0028758630469651845 0.0001382974942437436 0 0.0025538946776715167 -0.00069740000731808574 0 0.0021444603585163129 7.3847285529907755e-05 0 0.0028758630469651845 0.0001382974942437436 0 0.0012786625500731004 -6.5642648415512221e-05 0 0.00032486176346217989 -0.00013482958495761297 0 0.00097380312888774019 0.00049245172680647273 0 0.0012786625500731004 -6.5642648415512221e-05 0 0.00091907301421961156 -0.00062978823279347671 0 0.00032486176346217989 -0.00013482958495761297 0 0.0021444603585163129 7.3847285529907755e-05 0 0.0012786625500731004 -6.5642648415512221e-05 0 0.0016889535854077247 -0.00065023672438410782 0 0.0016889535854077247 -0.00065023672438410782 0 0.00091907301421961156 -0.00062978823279347671 0 0.0013516390151912078 -0.0014529520680911451 0 0.0012786625500731004 -6.5642648415512221e-05 0 0.0016889535854077247 -0.00065023672438410782 0 0.00091907301421961156 -0.00062978823279347671 0 0.0013516390151912078 -0.0014529520680911451 0 0.00077349967025013976 -0.0016205424335673476 0 0.00058325403673633973 -0.001220643821911801 0 0.00091907301421961156 -0.00062978823279347671 0 0.0013516390151912078 -0.0014529520680911451 0 0.00058325403673633973 -0.001220643821911801 0 0.002000308231427184 -0.0011578505106544089 0 0.0016889535854077247 -0.00065023672438410782 0 0.0013516390151912078 -0.0014529520680911451 0 0.00079445765464113431 -0.0020923402330320731 0 0.0016014719433821972 -0.0022397788158268132 0 0.0013516390151912078 -0.0014529520680911451 0 0.0016014719433821972 -0.0022397788158268132 0 0.0024118472370411553 -0.001742243932112568 0 0.0013516390151912078 -0.0014529520680911451 0 0.00079445765464113431 -0.0020923402330320731 0 0.0013516390151912078 -0.0014529520680911451 0 0.00077349967025013976 -0.0016205424335673476 0 0.00038233625680728436 -0.0017074115397784553 0 -0.0001124962494876259 -0.0018638998662799564 0 0.00031669343526633128 -0.0021123652739951037 0 0.00077349967025013976 -0.0016205424335673476 0 0.00038233625680728436 -0.0017074115397784553 0 0.00058325403673633973 -0.001220643821911801 0 0.00079445765464113431 -0.0020923402330320731 0 0.00077349967025013976 -0.0016205424335673476 0 0.00038233625680728436 -0.0017074115397784553 0 -0.0001124962494876259 -0.0018638998662799564 0 -0.00010655157254721181 -0.0013131097738519144 0 -0.00053742505558525007 -0.0016858788339041181 0 0.00038233625680728436 -0.0017074115397784553 0 -0.0001124962494876259 -0.0018638998662799564 0 -0.00010655157254721181 -0.0013131097738519144 0 -0.00010655157254721181 -0.0013131097738519144 0 0.00028407646948688223 -0.00081449815363598195 0 -0.00026558950479276628 -0.00073656232976275601 0 -0.00010655157254721181 -0.0013131097738519144 0 0.00058325403673633973 -0.001220643821911801 0 0.00028407646948688223 -0.00081449815363598195 0 0.00038233625680728436 -0.0017074115397784553 0 -0.00010655157254721181 -0.0013131097738519144 0 0.00058325403673633973 -0.001220643821911801 0 0.00091907301421961156 -0.00062978823279347671 0 0.00028407646948688223 -0.00081449815363598195 0 0.00032486176346217989 -0.00013482958495761297 0 0.00091907301421961156 -0.00062978823279347671 0 0.00058325403673633973 -0.001220643821911801 0 0.00028407646948688223 -0.00081449815363598195 0 0.0045067924596695671 -0.0018677067796238564 0 0.0052379449934478088 -0.0011559524933566856 0 0.0044480272139037144 -0.0016192673635381564 0 0.00028407646948688223 -0.00081449815363598195 0 -0.00026558950479276628 -0.00073656232976275601 0 0.00032486176346217989 -0.00013482958495761297 0 0.0021802016831479745 -0.0013344657822472407 0 0.0027723459651027723 -0.00064395792826318356 0 0.0047155506689586756 -0.00098199189128827884 0 0.0052379449934478088 -0.0011559524933566856 0 0.0044480272139037144 -0.0016192673635381564 0 0.0036656682144184404 -0.00090978252955145882 0 0.0032356813765863075 -0.00056011747584439682 0 0.0036828017635110372 2.2569656007446478e-05 0 0.0036656682144184404 -0.00090978252955145882 0 0.0041710937688348264 -0.0011805845565737098 0 0.0033364090569636727 -0.001127443227993868 0 0.0040167056073630207 -0.0008706542242093631 0 0.0036656682144184404 -0.00090978252955145882 0 0.0041710937688348264 -0.0011805845565737098 0 0.0040167056073630207 -0.0008706542242093631 0 0.0036656682144184404 -0.00090978252955145882 0 0.0040306614587224442 -0.0006138040888340674 0 0.0040167056073630207 -0.0008706542242093631 0 0.0042701452259269494 -0.00071823605295875937 0 0.0041710937688348264 -0.0011805845565737098 0 0.0042474080348452389 -0.00096615115507619185 0 0.0040632940075873286 -0.0015776898064648944 0 0.0044480272139037144 -0.0016192673635381564 0 0.0047155506689586756 -0.00098199189128827884 0 0.0042474080348452389 -0.00096615115507619185 0 0.0044480272139037144 -0.0016192673635381564 0 0.0042509286576751992 -0.0008565045781230733 0 0.0033227801314439994 -0.0010220080075893131 0 0.0040167056073630207 -0.0008706542242093631 0 0.0042701452259269494 -0.00071823605295875937 0 0.0040306614587224442 -0.0006138040888340674 0 0.0033227801314439994 -0.0010220080075893131 0 0.00087642689856526888 -0.0016215641833703151 0 0.0045067924596695671 -0.0018677067796238564 0 0.0039231422364526423 -0.0015448215416560074 0 0.0035590725560084545 -0.0027315489060312204 0 0.0045067924596695671 -0.0018677067796238564 0 0.0039231422364526423 -0.0015448215416560074 0 0.0044480272139037144 -0.0016192673635381564 0 0.0033227801314439994 -0.0010220080075893131 0 0.0044232222481677685 -0.0014292323861836581 0 0.0012279169184446473 -0.00054244214505354965 0 0.0010192505348237937 -0.00068524078535106732 0 0.00085731370341858137 -0.00050756475243250341 0 0.0033227801314439994 -0.0010220080075893131 0 0.0019581877207687963 -0.00079637531489208158 0 0.0012279169184446473 -0.00054244214505354965 0 0.0010192505348237937 -0.00068524078535106732 0 0.001108661171493697 -0.00090549670518806332 0 0.001108661171493697 -0.00090549670518806332 0 0.00086534489837135158 -0.0011124777340445978 0 0.00080587727652428978 -0.00084553825563460914 0 0.0010192505348237937 -0.00068524078535106732 0 0.001108661171493697 -0.00090549670518806332 0 0.00080587727652428978 -0.00084553825563460914 0 0.0021802016831479745 -0.0013344657822472407 0 0.00087642689856526888 -0.0016215641833703151 0 -0.00010655157254721181 -0.0013131097738519144 0 -0.00026558950479276628 -0.00073656232976275601 0 -0.00080276101784502671 -0.0012844146801865184 0 -0.00010655157254721181 -0.0013131097738519144 0 -0.00080276101784502671 -0.0012844146801865184 0 -0.00053742505558525007 -0.0016858788339041181 0 -0.00080276101784502671 -0.0012844146801865184 0 -0.00053742505558525007 -0.0016858788339041181 0 -0.00095436716025541768 -0.0019004516539624448 0 0.00087642689856526888 -0.0016215641833703151 0 -0.001202005809876456 -0.0018346021466483682 0 -0.00077324905639721594 -0.0013233799159908005 0 -0.00095436716025541768 -0.0019004516539624448 0 -0.0011998446547688247 -0.001719899097740707 0 0.00087642689856526888 -0.0016215641833703151 0 -0.00022433645755239525 -0.0013979986847453092 0 -0.00095436716025541768 -0.0019004516539624448 0 -0.0011807460670378413 -0.0020630197431129203 0 -0.0011998446547688247 -0.001719899097740707 0 -0.00095436716025541768 -0.0019004516539624448 0 -0.00091379079396802516 -0.0022885671230324345 0 -0.00054931153984210594 -0.0020655194479740086 0 -0.00095436716025541768 -0.0019004516539624448 0 -0.00091379079396802516 -0.0022885671230324345 0 -0.0011807460670378413 -0.0020630197431129203 0 -0.00091379079396802516 -0.0022885671230324345 0 -0.0012481670597061759 -0.0023845577214876047 0 -0.0011807460670378413 -0.0020630197431129203 0 -0.00091379079396802516 -0.0022885671230324345 0 -0.0005023181979804354 -0.0024776496971718946 0 -0.0010269349683474085 -0.0028095723005870494 0 -0.00091379079396802516 -0.0022885671230324345 0 -0.0010269349683474085 -0.0028095723005870494 0 -0.0012481670597061759 -0.0023845577214876047 0 -0.00091379079396802516 -0.0022885671230324345 0 -0.0005023181979804354 -0.0024776496971718946 0 -0.00054931153984210594 -0.0020655194479740086 0 -0.0005023181979804354 -0.0024776496971718946 0 -0.00010825028786523205 -0.002608718807713092 0 -0.00043599579315551929 -0.0028582552127938503 0 -0.0005023181979804354 -0.0024776496971718946 0 -0.00054931153984210594 -0.0020655194479740086 0 -6.7368823134842469e-05 -0.0022766899979773528 0 -0.00053742505558525007 -0.0016858788339041181 0 -0.00095436716025541768 -0.0019004516539624448 0 -0.00054931153984210594 -0.0020655194479740086 0 -0.0001124962494876259 -0.0018638998662799564 0 -0.00053742505558525007 -0.0016858788339041181 0 -0.00054931153984210594 -0.0020655194479740086 0 -0.0001124962494876259 -0.0018638998662799564 0 -0.00054931153984210594 -0.0020655194479740086 0 -6.7368823134842469e-05 -0.0022766899979773528 0 -0.0001124962494876259 -0.0018638998662799564 0 -6.7368823134842469e-05 -0.0022766899979773528 0 0.00031669343526633128 -0.0021123652739951037 0 0.00079445765464113431 -0.0020923402330320731 0 0.00031669343526633128 -0.0021123652739951037 0 0.00040905773582729596 -0.0024959658550074613 0 -6.7368823134842469e-05 -0.0022766899979773528 0 0.00031669343526633128 -0.0021123652739951037 0 0.00040905773582729596 -0.0024959658550074613 0 0.00069590625890321217 -0.0021519836806058712 0 0.00057921591813252346 -0.0026553873620033743 0 0.00079445765464113431 -0.0020923402330320731 0 0.00038233625680728436 -0.0017074115397784553 0 0.00031669343526633128 -0.0021123652739951037 0 0.00040905773582729596 -0.0024959658550074613 0 -0.00010825028786523205 -0.002608718807713092 0 5.9163919538880629e-05 -0.0029278753322353104 0 0.00057921591813252346 -0.0026553873620033743 0 -0.0036712990208510759 -0.0017311941803761736 0 0.00073761360813059062 -0.0028556104368779936 0 0.00024783622252053946 -0.0027939733909835675 0 -0.00030232949110626985 -0.00357962912896624 0 -6.7368823134842469e-05 -0.0022766899979773528 0 0.00040905773582729596 -0.0024959658550074613 0 -0.00010825028786523205 -0.002608718807713092 0 -0.0005023181979804354 -0.0024776496971718946 0 -6.7368823134842469e-05 -0.0022766899979773528 0 -0.00010825028786523205 -0.002608718807713092 0 5.9163919538880629e-05 -0.0029278753322353104 0 -0.00061374002419046353 -0.0033805295076335777 0 -0.00043599579315551929 -0.0028582552127938503 0 -0.00010825028786523205 -0.002608718807713092 0 5.9163919538880629e-05 -0.0029278753322353104 0 -0.00043599579315551929 -0.0028582552127938503 0 -0.0070391788391686513 0.00010352472288665084 0 -0.0073131989199197072 -0.00015513382403454118 0 -0.0071564611250767964 -0.00024474046016477739 0 -0.0031811195167111895 -0.0014022529087227499 0 -0.0036712990208510759 -0.0017311941803761736 0 -0.0073131989199197072 -0.00015513382403454118 0 -0.0071564611250767964 -0.00024474046016477739 0 -0.0072803169179131945 -0.00037245049765722242 0 -0.007180761851396939 -0.00047221891667574697 0 -0.0071564611250767964 -0.00024474046016477739 0 -0.0072803169179131945 -0.00037245049765722242 0 -0.0036712990208510759 -0.0017311941803761736 0 -0.0077052659525849755 -0.00043810973652248076 0 -0.0073131989199197072 -0.00015513382403454118 0 -0.0072803169179131945 -0.00037245049765722242 0 -0.0074372904091005139 -0.00044592009516225599 0 -0.0070325131979946873 -0.00038153581635762967 0 -0.0072462774973671646 -0.00060537342828321584 0 -0.0073625844931075836 -0.00058178994730233497 0 -0.0036712990208510759 -0.0017311941803761736 0 -0.0039404493844157236 -0.0019374139964982203 0 -0.007323556446911148 -0.00053683623162243386 0 -0.0072803169179131945 -0.00037245049765722242 0 -0.0074372904091005139 -0.00044592009516225599 0 -0.0013561464217754281 -0.0038862246185755495 0 -0.00061374002419046353 -0.0033805295076335777 0 -0.0014672885364212511 -0.0032826928123565443 0 -0.00061374002419046353 -0.0033805295076335777 0 -0.0010269349683474085 -0.0028095723005870494 0 -0.0014672885364212511 -0.0032826928123565443 0 -0.0005023181979804354 -0.0024776496971718946 0 -0.0010269349683474085 -0.0028095723005870494 0 -0.00043599579315551929 -0.0028582552127938503 0 -0.00061374002419046353 -0.0033805295076335777 0 -0.0010269349683474085 -0.0028095723005870494 0 -0.00043599579315551929 -0.0028582552127938503 0 -0.0014246384120554486 -0.0028971575113117781 0 -0.0036371057004512377 -0.0013612232553591608 0 -0.0023471191526831699 -0.0035681631958382194 0 -0.0018484594254696042 -0.0027284800246102671 0 -0.0026379583003840992 -0.0026909147196385735 0 -0.0015767858317600591 -0.002775601566902838 0 -0.0021661767182703318 -0.0027515240293295726 0 -0.0018958293407756457 -0.0024663043375916707 0 -0.0011892933366043346 -0.0027695398543343109 0 -0.0014246384120554486 -0.0028971575113117781 0 -0.0010269349683474085 -0.0028095723005870494 0 -0.0015767858317600591 -0.002775601566902838 0 -0.0012481670597061759 -0.0023845577214876047 0 -0.0010269349683474085 -0.0028095723005870494 0 -0.0018484594254696042 -0.0027284800246102671 0 -0.0014672885364212511 -0.0032826928123565443 0 -0.0023471191526831699 -0.0035681631958382194 0 -0.0018484594254696042 -0.0027284800246102671 0 -0.0014672885364212511 -0.0032826928123565443 0 -0.0039666147943534539 -0.0018239326767103977 0 -0.0036371057004512377 -0.0013612232553591608 0 -0.0057939069906143316 0.00016870796217038916 0 -0.0055803521306542758 1.3783438159876147e-05 0 -0.0056895270716260929 -0.00019948960101973722 0 -0.0055803521306542758 1.3783438159876147e-05 0 -0.0053956434870824545 -0.0001917071769381068 0 -0.0052838066213701986 5.7293171408230778e-05 0 -0.0056439107588488555 0.00016346769252769652 0 -0.0055803521306542758 1.3783438159876147e-05 0 -0.0052838066213701986 5.7293171408230778e-05 0 -0.0055803521306542758 1.3783438159876147e-05 0 -0.0053956434870824545 -0.0001917071769381068 0 -0.0056895270716260929 -0.00019948960101973722 0 -0.0046870836005887722 -0.00010653153646247499 0 -0.0045556998117600965 -9.1344141126799698e-05 0 -0.0046367437021804644 -3.678752426353242e-05 0 -0.0046870836005887722 -0.00010653153646247499 0 -0.0045467138811410499 -0.00011775146185589215 0 -0.0045556998117600965 -9.1344141126799698e-05 0 -0.0053204901831295122 -0.00010863379863623851 0 -0.0036371057004512377 -0.0013612232553591608 0 -0.0036371057004512377 -0.0013612232553591608 0 -0.0032562766119664053 -0.0013430505021154373 0 -0.0021661767182703318 -0.0027515240293295726 0 -0.0021908053410341559 -0.0026726668689251863 0 -0.0018958293407756457 -0.0024663043375916707 0 -0.0020546652708782805 -0.001537893506383842 0 -0.0017553363064051733 -0.001254900475143095 0 -0.0022171621681968275 -0.0010177614747895617 0 -0.0021908053410341559 -0.0026726668689251863 0 -0.0019383948235132179 -0.0024436356946469515 0 -0.0018958293407756457 -0.0024663043375916707 0 -0.0032562766119664053 -0.0013430505021154373 0 -0.00095174501997595474 -0.0017676628517693416 0 -0.0032562766119664053 -0.0013430505021154373 0 -0.0017517419686742819 -0.00068569664183363275 0 -0.00095174501997595474 -0.0017676628517693416 0 -0.0017517419686742819 -0.00068569664183363275 0 -0.00095174501997595474 -0.0017676628517693416 0 -0.0010404816633941807 -0.0017687279474890795 0 -0.0045556998117600965 -9.1344141126799698e-05 0 -0.0046367437021804644 -3.678752426353242e-05 0 -0.0046014671661557174 2.6743739109174472e-05 0 -0.0046870836005887722 -0.00010653153646247499 0 -0.0046367437021804644 -3.678752426353242e-05 0 -0.0047691916283239865 -6.4899207238050644e-06 0 -0.0046367437021804644 -3.678752426353242e-05 0 -0.0046014671661557174 2.6743739109174472e-05 0 -0.0047556254209733242 1.5318961309255988e-05 0 -0.0017517419686742819 -0.00068569664183363275 0 -0.0024716629967519426 -0.00052559966919865826 0 8.4697796280418494e-05 -0.0011897602713255011 0 5.9971414632992233e-05 -0.0010776288003094638 0 -0.00014054781904966705 -0.0010918274597813099 0 -0.0017517419686742819 -0.00068569664183363275 0 7.1173373194576131e-05 -0.001315774193654214 0 0.00016884305211895486 -0.0013979512391570903 0 0.00011173493959774526 -0.0011865921701368321 0 0.00039241810747648291 -0.001192141924057685 0 0.00040124692599372551 -0.0015232899862668891 0 0.00016884305211895486 -0.0013979512391570903 0 0.00039241810747648291 -0.001192141924057685 0 0.00040124692599372551 -0.0015232899862668891 0 0.00039241810747648291 -0.001192141924057685 0 0.00063215573163738763 -0.001315449114367092 0 0.00039241810747648291 -0.001192141924057685 0 0.00063215573163738763 -0.001315449114367092 0 0.00063443027794624323 -0.0010743788762437403 0 -0.0015773074666007479 -0.0020998627684023349 0 -0.0015744565421022816 -0.0024323762511456234 0 -0.0018958293407756457 -0.0024663043375916707 0 -0.00095174501997595474 -0.0017676628517693416 0 -0.000455472951918161 -0.0017194073531703203 0 -0.0019369785126141634 -0.0024444867297393584 0 -0.0015773074666007479 -0.0020998627684023349 0 -0.0018958293407756457 -0.0024663043375916707 0 -0.0015767858317600591 -0.002775601566902838 0 -0.0015744565421022816 -0.0024323762511456234 0 -0.0018958293407756457 -0.0024663043375916707 0 -0.0015767858317600591 -0.002775601566902838 0 -0.0015744565421022816 -0.0024323762511456234 0 -0.0012481670597061759 -0.0023845577214876047 0 -0.0015773074666007479 -0.0020998627684023349 0 -0.0015744565421022816 -0.0024323762511456234 0 -0.0012481670597061759 -0.0023845577214876047 0 -0.0015773074666007479 -0.0020998627684023349 0 -0.0012481670597061759 -0.0023845577214876047 0 -0.0011807460670378413 -0.0020630197431129203 0 -0.0015773074666007479 -0.0020998627684023349 0 -0.0011807460670378413 -0.0020630197431129203 0 -0.0011998446547688247 -0.001719899097740707 0 -0.000455472951918161 -0.0017194073531703203 0 -0.00022433645755239525 -0.0013979986847453092 0 0.00063215573163738763 -0.001315449114367092 0 0.00086534489837135158 -0.0011124777340445978 0 0.00063443027794624323 -0.0010743788762437403 0 0.00086534489837135158 -0.0011124777340445978 0 0.00063443027794624323 -0.0010743788762437403 0 0.00080587727652428978 -0.00084553825563460914 0 0.00039241810747648291 -0.001192141924057685 0 0.00063443027794624323 -0.0010743788762437403 0 0.00047881099809902165 -0.00090375786446096856 0 0.00047881099809902165 -0.00090375786446096856 0 0.00066070343780383865 -0.00064999035018916632 0 0.00040803320144880499 -0.00065570209310443516 0 0.00047881099809902165 -0.00090375786446096856 0 0.00080587727652428978 -0.00084553825563460914 0 0.00066070343780383865 -0.00064999035018916632 0 0.00063443027794624323 -0.0010743788762437403 0 0.00047881099809902165 -0.00090375786446096856 0 0.00080587727652428978 -0.00084553825563460914 0 0.0010192505348237937 -0.00068524078535106732 0 0.00083517787715937399 -0.00067239642285754208 0 0.00085731370341858137 -0.00050756475243250341 0 0.0010192505348237937 -0.00068524078535106732 0 0.00080587727652428978 -0.00084553825563460914 0 0.00083517787715937399 -0.00067239642285754208 0 0.00083517787715937399 -0.00067239642285754208 0 0.00085731370341858137 -0.00050756475243250341 0 0.00066070343780383865 -0.00064999035018916632 0 0.00080587727652428978 -0.00084553825563460914 0 0.00083517787715937399 -0.00067239642285754208 0 0.00066070343780383865 -0.00064999035018916632 0 0.00066070343780383865 -0.00064999035018916632 0 0.0005056024468664661 -0.00048548087690859901 0 0.00040803320144880499 -0.00065570209310443516 0 0.00085731370341858137 -0.00050756475243250341 0 0.00066070343780383865 -0.00064999035018916632 0 0.0005056024468664661 -0.00048548087690859901 0 0.002237673460809783 -0.0010537086170581331 0 0.0017896954761008525 -0.00049705113968594367 0 0.0027808967362679929 -0.00026066312868804791 0 0.002237673460809783 -0.0010537086170581331 0 0.0032356813765863075 -0.00056011747584439682 0 0.0027808967362679929 -0.00026066312868804791 0 0.0019581877207687963 -0.00079637531489208158 0 0.001400237707688148 -0.00076805873634067795 0 0.0033364090569636727 -0.001127443227993868 0 0.002237673460809783 -0.0010537086170581331 0 0.0032356813765863075 -0.00056011747584439682 0 0.0036656682144184404 -0.00090978252955145882 0 0.0033364090569636727 -0.001127443227993868 0 0.0032356813765863075 -0.00056011747584439682 0 0.00093527174563903782 -0.000837219852113524 0 0.0012121539107848782 0.0001711739928393924 0 0.00047820414101407371 -0.00021370389272721874 0 0.00093527174563903782 -0.000837219852113524 0 -6.226413354316089e-05 -0.00043908767359158616 0 0.00047820414101407371 -0.00021370389272721874 0 0.00056534933272653159 -0.00063895237666446874 0 -4.3709349216535104e-06 -0.00048041789707478893 0 0.001400237707688148 -0.00076805873634067795 0 0.00056534933272653159 -0.00063895237666446874 0 0.002237673460809783 -0.0010537086170581331 0 0.00093527174563903782 -0.000837219852113524 0 0.0017896954761008525 -0.00049705113968594367 0 0.00093527174563903782 -0.000837219852113524 0 0.0017896954761008525 -0.00049705113968594367 0 0.0012121539107848782 0.0001711739928393924 0 0.0005056024468664661 -0.00048548087690859901 0 0.00018789605321198807 -0.00047049565673059317 0 0.00040803320144880499 -0.00065570209310443516 0 0.00018789605321198807 -0.00047049565673059317 0 0.00040803320144880499 -0.00065570209310443516 0 0.00022936684772011557 -0.0007847984868067624 0 0.00018789605321198807 -0.00047049565673059317 0 0.00022936684772011557 -0.0007847984868067624 0 -2.4553656113372078e-05 -0.00070372332347597231 0 0.00022936684772011557 -0.0007847984868067624 0 5.4287686896887281e-05 -0.00095700595564875645 0 -2.4553656113372078e-05 -0.00070372332347597231 0 0.00022936684772011557 -0.0007847984868067624 0 0.00025457875485982313 -0.0010023409575316226 0 5.4287686896887281e-05 -0.00095700595564875645 0 0.00047881099809902165 -0.00090375786446096856 0 0.00040803320144880499 -0.00065570209310443516 0 0.00022936684772011557 -0.0007847984868067624 0 0.00047881099809902165 -0.00090375786446096856 0 0.00022936684772011557 -0.0007847984868067624 0 0.00025457875485982313 -0.0010023409575316226 0 0.00011173493959774526 -0.0011865921701368321 0 0.00039241810747648291 -0.001192141924057685 0 0.00025457875485982313 -0.0010023409575316226 0 0.00039241810747648291 -0.001192141924057685 0 0.00047881099809902165 -0.00090375786446096856 0 0.00025457875485982313 -0.0010023409575316226 0 5.9971414632992233e-05 -0.0010776288003094638 0 5.4287686896887281e-05 -0.00095700595564875645 0 -0.00014054781904966705 -0.0010918274597813099 0 0.00011173493959774526 -0.0011865921701368321 0 0.00025457875485982313 -0.0010023409575316226 0 5.4287686896887281e-05 -0.00095700595564875645 0 7.1173373194576131e-05 -0.001315774193654214 0 3.1196800179973325e-05 -0.00093654869675709445 0 5.4287686896887281e-05 -0.00095700595564875645 0 -8.9413562301060117e-05 -0.00092077070070705738 0 -0.00014054781904966705 -0.0010918274597813099 0 -8.9413562301060117e-05 -0.00092077070070705738 0 -0.0002405403285315455 -0.00089242603079598033 0 -0.00014054781904966705 -0.0010918274597813099 0 -0.0024145791528380925 -0.00036858271800379146 0 -0.0024716629967519426 -0.00052559966919865826 0 -0.00014607306905212208 -0.00081287490552021794 0 -0.0024716629967519426 -0.00052559966919865826 0 -0.00046674666975366722 -0.00036513502427035677 0 -0.00085209321757599048 -0.00059197942018039207 0 -0.00030773943959353016 -0.00082172920128452745 0 -0.0002405403285315455 -0.00089242603079598033 0 -2.4553656113372078e-05 -0.00070372332347597231 0 -0.00036171987051146986 -0.00062530135563050929 0 -0.00014607306905212208 -0.00081287490552021794 0 -0.00055311510813700181 -0.00022658244299877608 0 -0.00046674666975366722 -0.00036513502427035677 0 -0.00072062184896790754 8.7214084864193251e-05 0 -0.00089366652016292087 -0.00011913044719814152 0 5.4287686896887281e-05 -0.00095700595564875645 0 -8.9413562301060117e-05 -0.00092077070070705738 0 -2.4553656113372078e-05 -0.00070372332347597231 0 -8.9413562301060117e-05 -0.00092077070070705738 0 -0.0002405403285315455 -0.00089242603079598033 0 -2.4553656113372078e-05 -0.00070372332347597231 0 0.00018789605321198807 -0.00047049565673059317 0 -2.4553656113372078e-05 -0.00070372332347597231 0 -6.226413354316089e-05 -0.00043908767359158616 0 -2.4553656113372078e-05 -0.00070372332347597231 0 -0.00036171987051146986 -0.00062530135563050929 0 -6.226413354316089e-05 -0.00043908767359158616 0 -6.226413354316089e-05 -0.00043908767359158616 0 -0.00054234569920528749 -0.00010413012309854382 0 -0.00036696551629158812 -2.7455083028609227e-05 0 -0.00036171987051146986 -0.00062530135563050929 0 -6.226413354316089e-05 -0.00043908767359158616 0 -0.00054234569920528749 -0.00010413012309854382 0 -0.00067588304581399188 5.1524938170211465e-07 0 9.6181145068793695e-06 -9.5854246715208681e-05 0 0.0006132836076596529 -8.7554553776092499e-07 0 -0.00056497640600366257 3.4306413560170769e-05 0 -0.00067588304581399188 5.1524938170211465e-07 0 9.6181145068793695e-06 -9.5854246715208681e-05 0 -0.00056497640600366257 3.4306413560170769e-05 0 -0.00042761354725846654 -3.9100710586391149e-05 0 9.6181145068793695e-06 -9.5854246715208681e-05 0 -0.00055311510813700181 -0.00022658244299877608 0 -0.00054798614340533013 -0.00013157953505313732 0 -0.00072062184896790754 8.7214084864193251e-05 0 -0.00056497640600366257 3.4306413560170769e-05 0 -0.00054234569920528749 -0.00010413012309854382 0 -0.00056497640600366257 3.4306413560170769e-05 0 -0.00042761354725846654 -3.9100710586391149e-05 0 -0.00054234569920528749 -0.00010413012309854382 0 -0.00072062184896790754 8.7214084864193251e-05 0 -0.00096330744649863391 7.9311236192498326e-05 0 -0.00089366652016292087 -0.00011913044719814152 0 -0.00072062184896790754 8.7214084864193251e-05 0 -0.00056497640600366257 3.4306413560170769e-05 0 -0.00096330744649863391 7.9311236192498326e-05 0 -0.00067588304581399188 5.1524938170211465e-07 0 -0.00096330744649863391 7.9311236192498326e-05 0 -0.0019609822728893236 -9.0482663116645906e-07 0 -0.00056497640600366257 3.4306413560170769e-05 0 -0.00067588304581399188 5.1524938170211465e-07 0 -0.00096330744649863391 7.9311236192498326e-05 0 -0.00096330744649863391 7.9311236192498326e-05 0 -0.0019609822728893236 -9.0482663116645906e-07 0 -0.00089366652016292087 -0.00011913044719814152 0 -0.0019636569230158055 -1.0886497153341737e-07 0 -0.0024145791528380925 -0.00036858271800379146 0 -0.00046674666975366722 -0.00036513502427035677 0 -0.00089366652016292087 -0.00011913044719814152 0 -0.00085209321757599048 -0.00059197942018039207 0 -0.0019609822728893236 -9.0482663116645906e-07 0 -0.00089366652016292087 -0.00011913044719814152 0 -0.00085209321757599048 -0.00059197942018039207 0 -0.0019659692386166626 -1.4988046727094584e-06 0 -0.0039256078734848966 -0.00027219182514530172 0 -0.0034265350979510566 4.552669481677028e-07 0 -0.0034265350979510566 4.552669481677028e-07 0 -0.0043536612701527474 8.64460963025031e-05 0 -0.0048905723391445329 6.1910479690050451e-07 0 -0.0043536612701527474 8.64460963025031e-05 0 -0.0048905723391445329 6.1910479690050451e-07 0 -0.0048364088949030574 6.3216329611300791e-05 0 -0.0039256078734848966 -0.00027219182514530172 0 -0.0034265350979510566 4.552669481677028e-07 0 -0.0043536612701527474 8.64460963025031e-05 0 -0.0043536612701527474 8.64460963025031e-05 0 -0.0046894964114980002 -0.00011544871873167275 0 -0.0047408233104589918 6.0696852541848982e-05 0 -0.0039256078734848966 -0.00027219182514530172 0 -0.0043536612701527474 8.64460963025031e-05 0 -0.0046894964114980002 -0.00011544871873167275 0 -0.0046894964114980002 -0.00011544871873167275 0 -0.0047556254209733242 1.5318961309255988e-05 0 -0.0047408233104589918 6.0696852541848982e-05 0 -0.0046014671661557174 2.6743739109174472e-05 0 -0.004774809077724664 8.8039125818187752e-05 0 -0.0047556254209733242 1.5318961309255988e-05 0 -0.0024716629967519426 -0.00052559966919865826 0 -0.0046480339791878733 0.00043720355540080808 0 -0.0046367437021804644 -3.678752426353242e-05 0 -0.0047556254209733242 1.5318961309255988e-05 0 -0.0047691916283239865 -6.4899207238050644e-06 0 -0.0047556254209733242 1.5318961309255988e-05 0 -0.0047691916283239865 -6.4899207238050644e-06 0 -0.0047408233104589918 6.0696852541848982e-05 0 -0.0047691916283239865 -6.4899207238050644e-06 0 -0.0047408233104589918 6.0696852541848982e-05 0 -0.0049273347480433315 -6.5646239212766459e-05 0 -0.0043536612701527474 8.64460963025031e-05 0 -0.0047408233104589918 6.0696852541848982e-05 0 -0.0048364088949030574 6.3216329611300791e-05 0 -0.0049273347480433315 -6.5646239212766459e-05 0 -0.0050271728784720198 3.3666891562923619e-05 0 -0.0048364088949030574 6.3216329611300791e-05 0 -0.0047408233104589918 6.0696852541848982e-05 0 -0.0049273347480433315 -6.5646239212766459e-05 0 -0.0048364088949030574 6.3216329611300791e-05 0 -0.0053956434870824545 -0.0001917071769381068 0 -0.0049273347480433315 -6.5646239212766459e-05 0 -0.0052838066213701986 5.7293171408230778e-05 0 -0.0046870836005887722 -0.00010653153646247499 0 -0.0047691916283239865 -6.4899207238050644e-06 0 -0.0049273347480433315 -6.5646239212766459e-05 0 -0.0053204901831295122 -0.00010863379863623851 0 -0.0048496087873616351 -9.4451786398401687e-05 0 -0.0049273347480433315 -6.5646239212766459e-05 0 -0.0052838066213701986 5.7293171408230778e-05 0 -0.0050271728784720198 3.3666891562923619e-05 0 -0.0051535818118748989 -0.00013706924420170606 0 -0.0050271728784720198 3.3666891562923619e-05 0 -0.0051819626192782103 0.00012160270699236987 0 -0.0050271728784720198 3.3666891562923619e-05 0 -0.0051819626192782103 0.00012160270699236987 0 -0.0048364088949030574 6.3216329611300791e-05 0 -0.006350803282088458 -7.448810329198589e-07 0 -0.0051819626192782103 0.00012160270699236987 0 -0.0048905723391445329 6.1910479690050451e-07 0 -0.0051819626192782103 0.00012160270699236987 0 -0.0048905723391445329 6.1910479690050451e-07 0 -0.0048364088949030574 6.3216329611300791e-05 0 -0.0060682783396070281 0.00062104676837979446 0 -0.0059731797218516803 0.00049958113901008851 0 -0.0060359319753670567 0.00056128268774537895 0 -0.0060682783396070281 0.00062104676837979446 0 -0.0060528141808914989 0.00060375457227580646 0 -0.0059731797218516803 0.00049958113901008851 0 -0.0060682783396070281 0.00062104676837979446 0 -0.0060359319753670567 0.00056128268774537895 0 -0.0061340678303173062 0.00068010830879411226 0 -0.0060682783396070281 0.00062104676837979446 0 -0.0061340678303173062 0.00068010830879411226 0 -0.0061182967051967175 0.00066283418878442478 0 -0.0060682783396070281 0.00062104676837979446 0 -0.0061061133438574068 0.0006461690778082563 0 -0.0061182967051967175 0.00066283418878442478 0 -0.0060682783396070281 0.00062104676837979446 0 -0.0060528141808914989 0.00060375457227580646 0 -0.0061061133438574068 0.0006461690778082563 0 -0.0060884575210173649 0.00062748355851735321 0 -0.0060528141808914989 0.00060375457227580646 0 -0.0061061133438574068 0.0006461690778082563 0 -0.0060884575210173649 0.00062748355851735321 0 -0.0060748985456613872 0.00061506396637700164 0 -0.0060528141808914989 0.00060375457227580646 0 -0.0060884575210173649 0.00062748355851735321 0 -0.0060748985456613872 0.00061506396637700164 0 -0.0061040129494073277 0.00063147906739080681 0 -0.0060748985456613872 0.00061506396637700164 0 -0.006034898983273319 0.00058514851419988218 0 -0.0060659052029535575 0.00061404099397990939 0 -0.0060748985456613872 0.00061506396637700164 0 -0.0060528141808914989 0.00060375457227580646 0 -0.006034898983273319 0.00058514851419988218 0 -0.004340912437000204 0.00051341310082224801 0 -0.0037259164029532035 0.00057042323050764435 0 -0.0041618655731881591 6.2990020200549761e-05 0 -0.0051946212898258924 0.00054402962911696991 0 -0.0048982235021590523 0.00059009685946032769 0 -0.0037259164029532035 0.00057042323050764435 0 -0.0041618655731881591 6.2990020200549761e-05 0 -0.0036854766922017942 6.903544602008418e-05 0 -0.004340912437000204 0.00051341310082224801 0 -0.0041618655731881591 6.2990020200549761e-05 0 -0.0050205669228191741 0.00040684513033914662 0 -0.0041618655731881591 6.2990020200549761e-05 0 -0.0050205669228191741 0.00040684513033914662 0 -0.0045112614590657376 -0.00032823237050186668 0 -0.0060528141808914989 0.00060375457227580646 0 -0.006034898983273319 0.00058514851419988218 0 -0.0059731797218516803 0.00049958113901008851 0 -0.0051946212898258924 0.00054402962911696991 0 -0.0055158081850582054 0.00043630129035130495 0 -0.0050205669228191741 0.00040684513033914662 0 -0.0058918132028062363 0.00023412107498472056 0 -0.0052230891113141551 -0.00021632271780176824 0 -0.0055158081850582054 0.00043630129035130495 0 -0.0058895790555417247 0.00025612574634145284 0 -0.0058918132028062363 0.00023412107498472056 0 -0.0063323657752553577 3.8466771154761678e-05 0 -0.0062467255394523516 0.00043336117862540131 0 -0.0058918132028062363 0.00023412107498472056 0 -0.0063323657752553577 3.8466771154761678e-05 0 -0.0057586507559674637 -0.00034500354209924009 0 -0.0059731797218516803 0.00049958113901008851 0 -0.0058918132028062363 0.00023412107498472056 0 -0.0060359319753670567 0.00056128268774537895 0 -0.0058918132028062363 0.00023412107498472056 0 -0.0062467255394523516 0.00043336117862540131 0 -0.0060359319753670567 0.00056128268774537895 0 -0.0068055416664937985 -4.7612093521051977e-05 0 -0.0066743781885804897 0.00027475581352129602 0 -0.0071073794236177663 0.00027516727371087519 0 -0.0073458029233261909 -0.00021841821951701173 0 -0.0068055416664937985 -4.7612093521051977e-05 0 -0.0071073794236177663 0.00027516727371087519 0 -0.0063323657752553577 3.8466771154761678e-05 0 -0.0068055416664937985 -4.7612093521051977e-05 0 -0.0066743781885804897 0.00027475581352129602 0 -0.0063323657752553577 3.8466771154761678e-05 0 -0.0062467255394523516 0.00043336117862540131 0 -0.0066743781885804897 0.00027475581352129602 0 -0.0062467255394523516 0.00043336117862540131 0 -0.0066743781885804897 0.00027475581352129602 0 -0.006841857636172192 0.00086860771122969024 0 -0.0066743781885804897 0.00027475581352129602 0 -0.0071073794236177663 0.00027516727371087519 0 -0.006841857636172192 0.00086860771122969024 0 -0.0074564957363281075 0.00056189329917862994 0 -0.0071073794236177663 0.00027516727371087519 0 -0.006841857636172192 0.00086860771122969024 0 -0.018874772501493671 0.0028045784302022461 0 -0.01884962960058377 0.0033855934767118693 0 -0.018104883915091873 0.0031081955359287309 0 -0.013779680365202109 0.0016319320644112641 0 -0.012476864557843611 0.0020939242076063297 0 -0.018104883915091873 0.0031081955359287309 0 -0.017131927260009755 0.0037106004106858639 0 -0.018137389205628719 0.0041029743490858346 0 -0.012476864557843611 0.0020939242076063297 0 -0.010968109113650766 0.0018741671274395634 0 -0.01884962960058377 0.0033855934767118693 0 -0.018104883915091873 0.0031081955359287309 0 -0.018137389205628719 0.0041029743490858346 0 -0.018866785234214898 0.0033802980115296374 0 -0.018293875254419317 0.003975386245269873 0 -0.0060359319753670567 0.00056128268774537895 0 -0.0062009477994873947 0.00071242750184515524 0 -0.0061340678303173062 0.00068010830879411226 0 -0.0062467255394523516 0.00043336117862540131 0 -0.0060359319753670567 0.00056128268774537895 0 -0.0062009477994873947 0.00071242750184515524 0 -0.0062467255394523516 0.00043336117862540131 0 -0.006841857636172192 0.00086860771122969024 0 -0.0062009477994873947 0.00071242750184515524 0 -0.006841857636172192 0.00086860771122969024 0 -0.0062009477994873947 0.00071242750184515524 0 -0.0063413410293032884 0.0011801663438142794 0 -0.0062009477994873947 0.00071242750184515524 0 -0.0061931374318627995 0.00070018083487918576 0 -0.0061340678303173062 0.00068010830879411226 0 -0.0056898314846671651 0.00011292246841030264 0 -0.010968109113650766 0.0018741671274395634 0 -0.0061931374318627995 0.00070018083487918576 0 -0.0061340678303173062 0.00068010830879411226 0 -0.0061531453407414408 0.00068355294119472494 0 -0.010968109113650766 0.0018741671274395634 0 -0.0088728311980554361 0.0015759017008385499 0 -0.013993845250592628 0.001570795913002997 0 -0.01288318994857182 0.0023757342201584258 0 -0.013662749287144383 0.0027194811373874041 0 -0.010968109113650766 0.0018741671274395634 0 -0.018264806993681017 0.0040645927652850702 0 -0.013993845250592628 0.001570795913002997 0 -0.013662749287144383 0.0027194811373874041 0 -0.014379011632631005 0.0030760466840493062 0 -0.013662749287144383 0.0027194811373874041 0 -0.014379011632631005 0.0030760466840493062 0 -0.014123728816309076 0.0033301566401498775 0 -0.018816510220820433 0.0032609629691082737 0 -0.018788760108924513 0.0031244415254229993 0 -0.018943478821090008 0.0031315591040011882 0 -0.018264806993681017 0.0040645927652850702 0 -0.020699746197749544 0.0038326524420598616 0 -0.018264806993681017 0.0040645927652850702 0 -0.018131026740296839 0.0029011733085581026 0 -0.014974451815417093 0.0025536114076660618 0 -0.018131026740296839 0.0029011733085581026 0 -0.013662749287144383 0.0027194811373874041 0 -0.012937105789547524 0.0032501600982818204 0 -0.014123728816309076 0.0033301566401498775 0 -0.01288318994857182 0.0023757342201584258 0 -0.013662749287144383 0.0027194811373874041 0 -0.012937105789547524 0.0032501600982818204 0 -0.017131927260009755 0.0037106004106858639 0 -0.017394343287116708 0.0048104891128457504 0 -0.018137389205628719 0.0041029743490858346 0 -0.018320908151112016 0.0040349729088929673 0 -0.018748833548874227 0.0041554629145270005 0 -0.018345113932491903 0.0041244152075104136 0 -0.018264806993681017 0.0040645927652850702 0 -0.018293875254419317 0.003975386245269873 0 -0.018320908151112016 0.0040349729088929673 0 -0.018624843622144192 0.0036963816854985931 0 -0.018748833548874227 0.0041554629145270005 0 -0.019108845207591221 0.0037362877957000211 0 -0.018624843622144192 0.0036963816854985931 0 -0.018748833548874227 0.0041554629145270005 0 -0.022420784150949388 0.0044228862437551055 0 -0.022837238276998184 0.0039650055992407071 0 -0.022204128001284802 0.0036210989642342008 0 -0.020626849395217414 0.0043338761522701491 0 -0.020699746197749544 0.0038326524420598616 0 -0.023077280590153973 0.0026394401951948944 0 -0.02316141063543356 0.0032660625482921093 0 -0.023277529381389123 0.0029145891967170489 0 -0.02349191641937589 0.0030190011016597096 0 -0.020699746197749544 0.0038326524420598616 0 -0.022837238276998184 0.0039650055992407071 0 -0.023207173995067269 0.003284581104574952 0 -0.023427087464198783 0.0044636799396333988 0 -0.022420784150949388 0.0044228862437551055 0 -0.022837238276998184 0.0039650055992407071 0 -0.023427087464198783 0.0044636799396333988 0 -0.022837238276998184 0.0039650055992407071 0 -0.023207173995067269 0.003284581104574952 0 -0.022204128001284802 0.0036210989642342008 0 -0.022495993759350724 0.0028688225977159085 0 -0.023207173995067269 0.003284581104574952 0 -0.022204128001284802 0.0036210989642342008 0 -0.021847658531254241 0.0029820137427919477 0 -0.022495993759350724 0.0028688225977159085 0 -0.022204128001284802 0.0036210989642342008 0 -0.017038851732172046 0.0018376769504437494 0 -0.017021266741438331 0.0017741235664851585 0 -0.017085866798459866 0.0017789134010937012 0 -0.017038851732172046 0.0018376769504437494 0 -0.017021266741438331 0.0017741235664851585 0 -0.016983486622069267 0.0018353828504500845 0 -0.020521393013026325 0.0022069382670623855 0 -0.018131026740296839 0.0029011733085581026 0 -0.02316141063543356 0.0032660625482921093 0 -0.02329871419082415 0.0032748996564693437 0 -0.023277529381389123 0.0029145891967170489 0 -0.020699746197749544 0.0038326524420598616 0 -0.018131026740296839 0.0029011733085581026 0 -0.023634240418020137 0.0029577181721391912 0 -0.02329871419082415 0.0032748996564693437 0 -0.023277529381389123 0.0029145891967170489 0 -0.023634240418020137 0.0029577181721391912 0 -0.023277529381389123 0.0029145891967170489 0 -0.023631394399803777 0.0027339477303956693 0 -0.023277529381389123 0.0029145891967170489 0 -0.023481431758581896 0.0025847531275798824 0 -0.023631394399803777 0.0027339477303956693 0 -0.023077280590153973 0.0026394401951948944 0 -0.023277529381389123 0.0029145891967170489 0 -0.023481431758581896 0.0025847531275798824 0 -0.017021266741438331 0.0017741235664851585 0 -0.017079990194370159 0.0016787674084952115 0 -0.017085866798459866 0.0017789134010937012 0 -0.023481431758581896 0.0025847531275798824 0 -0.023732351943013385 0.0025958876482808802 0 -0.023631394399803777 0.0027339477303956693 0 -0.023634240418020137 0.0029577181721391912 0 -0.023631394399803777 0.0027339477303956693 0 -0.023845571131802492 0.0027090447662594928 0 -0.020521393013026325 0.0022069382670623855 0 -0.020965436215818926 0.0021927002905044852 0 -0.023634240418020137 0.0029577181721391912 0 -0.023845571131802492 0.0027090447662594928 0 -0.023949655027847724 0.0026429279099480663 0 -0.02245101629496938 0.001836945221493694 0 -0.020965436215818926 0.0021927002905044852 0 -0.023732351943013385 0.0025958876482808802 0 -0.023631394399803777 0.0027339477303956693 0 -0.023845571131802492 0.0027090447662594928 0 -0.023732351943013385 0.0025958876482808802 0 -0.023845571131802492 0.0027090447662594928 0 -0.023959497950724423 0.0026409306570424453 0 -0.017079990194370159 0.0016787674084952115 0 -0.017182499359580623 0.0017278635559912377 0 -0.017085866798459866 0.0017789134010937012 0 -0.017212030352630192 0.0015582322531712887 0 -0.017079990194370159 0.0016787674084952115 0 -0.017182499359580623 0.0017278635559912377 0 -0.017350227346824107 0.0016066234956180145 0 -0.017212030352630192 0.0015582322531712887 0 -0.017182499359580623 0.0017278635559912377 0 -0.011965564048322655 0.0020709296893960849 0 -0.015598319147447602 0.0014297133424015977 0 -0.017182499359580623 0.0017278635559912377 0 -0.01713384577938119 0.0018656175760231723 0 -0.017336334824408311 0.0017652356814010269 0 -0.017038851732172046 0.0018376769504437494 0 -0.017085866798459866 0.0017789134010937012 0 -0.01713384577938119 0.0018656175760231723 0 -0.017182499359580623 0.0017278635559912377 0 -0.017085866798459866 0.0017789134010937012 0 -0.01713384577938119 0.0018656175760231723 0 -0.0088728311980554361 0.0015759017008385499 0 -0.011965564048322655 0.0020709296893960849 0 -0.014974451815417093 0.0025536114076660618 0 -0.011965564048322655 0.0020709296893960849 0 -0.01288318994857182 0.0023757342201584258 0 -0.012937105789547524 0.0032501600982818204 0 -0.011773150777570088 0.0031663923767425461 0 -0.011965564048322655 0.0020709296893960849 0 -0.0087275576352513241 0.0013803772333231123 0 -0.0061607932755219736 0.0006748363628544025 0 -0.0061061133438574068 0.0006461690778082563 0 -0.0061377265859640972 0.00066323541082906215 0 -0.0061607932755219736 0.0006748363628544025 0 -0.0061061133438574068 0.0006461690778082563 0 -0.0061182967051967175 0.00066283418878442478 0 -0.0061531453407414408 0.00068355294119472494 0 -0.0061607932755219736 0.0006748363628544025 0 -0.0061182967051967175 0.00066283418878442478 0 -0.0061340678303173062 0.00068010830879411226 0 -0.0061531453407414408 0.00068355294119472494 0 -0.0061182967051967175 0.00066283418878442478 0 -0.0060884575210173649 0.00062748355851735321 0 -0.0061040129494073277 0.00063147906739080681 0 -0.0061125824121868151 0.00064410953030280213 0 -0.0060884575210173649 0.00062748355851735321 0 -0.0061061133438574068 0.0006461690778082563 0 -0.0061125824121868151 0.00064410953030280213 0 -0.0061061133438574068 0.0006461690778082563 0 -0.0061125824121868151 0.00064410953030280213 0 -0.0061377265859640972 0.00066323541082906215 0 -0.0061125824121868151 0.00064410953030280213 0 -0.0061377265859640972 0.00066323541082906215 0 -0.0061288912143525791 0.00065263790458791637 0 -0.0087275576352513241 0.0013803772333231123 0 -0.010238691146635859 0.001309492975103604 0 -0.012561474873110622 0.0021858494237617754 0 -0.01329124231658284 0.002186058399258067 0 -0.012932682651815904 0.0019939775775094965 0 -0.0061040129494073277 0.00063147906739080681 0 -0.0061125824121868151 0.00064410953030280213 0 -0.0061288912143525791 0.00065263790458791637 0 -0.012561474873110622 0.0021858494237617754 0 -0.01329124231658284 0.002186058399258067 0 -0.013416220460359691 0.0022328196607450104 0 -0.01329124231658284 0.002186058399258067 0 -0.013421489291814333 0.0022345810660819683 0 -0.013221530696071404 0.0018444767715047672 0 -0.011095068233977679 0.0016105938383617253 0 -0.010238691146635859 0.001309492975103604 0 -0.013678609723437729 0.0014354579074813032 0 -0.013221530696071404 0.0018444767715047672 0 -0.012782285275586698 0.0013696616923696253 0 -0.013421489291814333 0.0022345810660819683 0 -0.013678609723437729 0.0014354579074813032 0 -0.013221530696071404 0.0018444767715047672 0 -0.01329124231658284 0.002186058399258067 0 -0.013221530696071404 0.0018444767715047672 0 -0.012932682651815904 0.0019939775775094965 0 -0.012561474873110622 0.0021858494237617754 0 -0.012932682651815904 0.0019939775775094965 0 -0.012782285275586698 0.0013696616923696253 0 -0.011701823682258762 0.0021372499163978317 0 -0.012561474873110622 0.0021858494237617754 0 -0.012782285275586698 0.0013696616923696253 0 -0.013221530696071404 0.0018444767715047672 0 -0.012932682651815904 0.0019939775775094965 0 -0.012782285275586698 0.0013696616923696253 0 -0.017350227346824107 0.0016066234956180145 0 -0.017182499359580623 0.0017278635559912377 0 -0.017336334824408311 0.0017652356814010269 0 -0.015598319147447602 0.0014297133424015977 0 -0.015335740953801399 0.0012034359592683437 0 -0.013678609723437729 0.0014354579074813032 0 -0.012782285275586698 0.0013696616923696253 0 -0.013867673184043808 0.00062588869872245111 0 -0.017350227346824107 0.0016066234956180145 0 -0.017336334824408311 0.0017652356814010269 0 -0.017571021514915804 0.0016250455139775611 0 -0.013678609723437729 0.0014354579074813032 0 -0.013867673184043808 0.00062588869872245111 0 -0.014478321873369756 0.0013798161784530174 0 -0.013867673184043808 0.00062588869872245111 0 -0.014478321873369756 0.0013798161784530174 0 -0.014884980293422416 0.0010018314191191471 0 -0.013678609723437729 0.0014354579074813032 0 -0.014478321873369756 0.0013798161784530174 0 -0.014601456448270511 0.0022998799813595946 0 -0.013421489291814333 0.0022345810660819683 0 -0.013678609723437729 0.0014354579074813032 0 -0.014601456448270511 0.0022998799813595946 0 -0.014478321873369756 0.0013798161784530174 0 -0.01519611552583134 0.0016360087889891019 0 -0.014601456448270511 0.0022998799813595946 0 -0.014884980293422416 0.0010018314191191471 0 -0.015516119975755834 0.001192969697160806 0 -0.01519611552583134 0.0016360087889891019 0 -0.014974174425142711 0.00045978403288729345 0 -0.013867673184043808 0.00062588869872245111 0 -0.014884980293422416 0.0010018314191191471 0 -0.014478321873369756 0.0013798161784530174 0 -0.014884980293422416 0.0010018314191191471 0 -0.01519611552583134 0.0016360087889891019 0 -0.014974174425142711 0.00045978403288729345 0 -0.014884980293422416 0.0010018314191191471 0 -0.015334623583206645 0.00074982351080335409 0 -0.015334623583206645 0.00074982351080335409 0 -0.015790839261769076 0.00072431545454391066 0 -0.015516119975755834 0.001192969697160806 0 -0.014884980293422416 0.0010018314191191471 0 -0.015334623583206645 0.00074982351080335409 0 -0.015516119975755834 0.001192969697160806 0 -0.015516119975755834 0.001192969697160806 0 -0.015976019960917531 0.0011478224816984654 0 -0.015933751667722169 0.0015860211087696302 0 -0.015790839261769076 0.00072431545454391066 0 -0.015516119975755834 0.001192969697160806 0 -0.015976019960917531 0.0011478224816984654 0 -0.015790839261769076 0.00072431545454391066 0 -0.016436385233442485 0.00075058980209531407 0 -0.015976019960917531 0.0011478224816984654 0 -0.015976019960917531 0.0011478224816984654 0 -0.016429364765534627 0.0011974017533348726 0 -0.015933751667722169 0.0015860211087696302 0 -0.016436385233442485 0.00075058980209531407 0 -0.015976019960917531 0.0011478224816984654 0 -0.016429364765534627 0.0011974017533348726 0 -0.015933751667722169 0.0015860211087696302 0 -0.015740119204247324 0.0023514146290739171 0 -0.016651138874152992 0.0017097835942982624 0 -0.016429364765534627 0.0011974017533348726 0 -0.015933751667722169 0.0015860211087696302 0 -0.016651138874152992 0.0017097835942982624 0 -0.015933751667722169 0.0015860211087696302 0 -0.01519611552583134 0.0016360087889891019 0 -0.015740119204247324 0.0023514146290739171 0 -0.015516119975755834 0.001192969697160806 0 -0.015933751667722169 0.0015860211087696302 0 -0.01519611552583134 0.0016360087889891019 0 -0.011599204892912966 0.0010564457362461795 0 -0.011289834324051132 0.0015339116179792145 0 -0.010680885596142727 0.0010191516817526303 0 -0.011599204892912966 0.0010564457362461795 0 -0.011919736534225041 0.001327163990005734 0 -0.011289834324051132 0.0015339116179792145 0 -0.010470687177325223 0.00042985084442246268 0 -0.012981786921188091 0.0016447103370568167 0 -0.013981135597669739 0.00172166739399581 0 -0.012981786921188091 0.0016447103370568167 0 -0.011599204892912966 0.0010564457362461795 0 -0.011919736534225041 0.001327163990005734 0 -0.012556058489701309 0.001105372426295576 0 -0.015740119204247324 0.0023514146290739171 0 -0.016651138874152992 0.0017097835942982624 0 -0.016844826275451436 0.0024098878484896248 0 -0.009077859135211537 -0.00046810263585014681 0 -0.0089719463937599359 -0.00084631962129692059 0 -0.0095181842889640201 -0.00061599642524696942 0 -0.009077859135211537 -0.00046810263585014681 0 -0.0089719463937599359 -0.00084631962129692059 0 -0.0085938963289098735 -0.00071533422423213045 0 -0.0060850696875051407 0.00060237019287637695 0 -0.0061070577269500279 0.00062394272124494999 0 -0.006091106755243751 0.00061063512445337458 0 -0.010470687177325223 0.00042985084442246268 0 -0.0086020389000345584 0.00040907439096827592 0 -0.0073439468379155022 -0.00020086811334705374 0 -0.0086020389000345584 0.00040907439096827592 0 -0.0086020389000345584 0.00040907439096827592 0 -0.0066504426567474519 0.00086274434700154016 0 -0.0061070577269500279 0.00062394272124494999 0 -0.0061008147038440121 0.00061671272173362149 0 -0.0061111964752524539 0.00062297225123757822 0 -0.0061070577269500279 0.00062394272124494999 0 -0.0061008147038440121 0.00061671272173362149 0 -0.006091106755243751 0.00061063512445337458 0 -0.0086020389000345584 0.00040907439096827592 0 -0.0079329606202965496 0.00087450451663559511 0 -0.0061195502965248842 0.00061926441360909143 0 -0.0061111964752524539 0.00062297225123757822 0 -0.006110685428123549 0.00063248644034514081 0 -0.0061008147038440121 0.00061671272173362149 0 -0.0061111964752524539 0.00062297225123757822 0 -0.0060956348888669487 0.00061755325312692184 0 -0.0061111964752524539 0.00062297225123757822 0 -0.0061016984417956556 0.00062491845605790999 0 -0.006110685428123549 0.00063248644034514081 0 -0.0061111964752524539 0.00062297225123757822 0 -0.0061016984417956556 0.00062491845605790999 0 -0.0060956348888669487 0.00061755325312692184 0 -0.0061040129494073277 0.00063147906739080681 0 -0.0061016984417956556 0.00062491845605790999 0 -0.006110685428123549 0.00063248644034514081 0 -0.0061040129494073277 0.00063147906739080681 0 -0.0061016984417956556 0.00062491845605790999 0 -0.0060903309008498363 0.00061954344986344713 0 -0.010238691146635859 0.001309492975103604 0 -0.012866865606727625 0.001696895436651422 0 -0.0061040129494073277 0.00063147906739080681 0 -0.0061288912143525791 0.00065263790458791637 0 -0.006110685428123549 0.00063248644034514081 0 -0.0098198867467467303 0.00099532825652162856 0 -0.010536030879429437 0.0012475290790736155 0 -0.010680885596142727 0.0010191516817526303 0 -0.010238691146635859 0.001309492975103604 0 -0.0079329606202965496 0.00087450451663559511 0 -0.013981135597669739 0.00172166739399581 0 -0.012866865606727625 0.001696895436651422 0 -0.011289834324051132 0.0015339116179792145 0 -0.010536030879429437 0.0012475290790736155 0 -0.010680885596142727 0.0010191516817526303 0 -0.01519611552583134 0.0016360087889891019 0 -0.015740119204247324 0.0023514146290739171 0 -0.014601456448270511 0.0022998799813595946 0 -0.019627064253314001 0.0013373517539970767 0 -0.018821656170375636 0.0016731554338730837 0 -0.01886355210731043 0.0010377919016740433 0 -0.018821656170375636 0.0016731554338730837 0 -0.01886355210731043 0.0010377919016740433 0 -0.018422806950136681 0.0012442250122131732 0 -0.018972505591526086 0.00054298363240043717 0 -0.019404668680709204 0.00078126441174220169 0 -0.01886355210731043 0.0010377919016740433 0 -0.018512517918092365 0.00053658617477357856 0 -0.018972505591526086 0.00054298363240043717 0 -0.01886355210731043 0.0010377919016740433 0 -0.01886355210731043 0.0010377919016740433 0 -0.018422806950136681 0.0012442250122131732 0 -0.018246754911205504 0.00087354226436792777 0 -0.018512517918092365 0.00053658617477357856 0 -0.01886355210731043 0.0010377919016740433 0 -0.018246754911205504 0.00087354226436792777 0 -0.018032356229953587 0.00048003867837562094 0 -0.018246754911205504 0.00087354226436792777 0 -0.017758934146020464 0.00079922196613360457 0 -0.018422806950136681 0.0012442250122131732 0 -0.018090451297310798 0.0015088915457359068 0 -0.017870859391925883 0.0011789663175087632 0 -0.018422806950136681 0.0012442250122131732 0 -0.018246754911205504 0.00087354226436792777 0 -0.017870859391925883 0.0011789663175087632 0 -0.018821656170375636 0.0016731554338730837 0 -0.018422806950136681 0.0012442250122131732 0 -0.018090451297310798 0.0015088915457359068 0 -0.018153822587212872 0.0017475719515826266 0 -0.01709714355228795 0.0022777240257860387 0 -0.018821656170375636 0.0016731554338730837 0 -0.018090451297310798 0.0015088915457359068 0 -0.017854232754363264 0.0020573993281310255 0 -0.018090451297310798 0.0015088915457359068 0 -0.017675659874838833 0.0016057337283579061 0 -0.017854232754363264 0.0020573993281310255 0 -0.017675659874838833 0.0016057337283579061 0 -0.017230633410886962 0.0017906832077424733 0 -0.017854232754363264 0.0020573993281310255 0 -0.017675659874838833 0.0016057337283579061 0 -0.017457562437770319 0.001261383524049152 0 -0.017230633410886962 0.0017906832077424733 0 -0.017675659874838833 0.0016057337283579061 0 -0.017870859391925883 0.0011789663175087632 0 -0.017457562437770319 0.001261383524049152 0 -0.018090451297310798 0.0015088915457359068 0 -0.017675659874838833 0.0016057337283579061 0 -0.017870859391925883 0.0011789663175087632 0 -0.017870859391925883 0.0011789663175087632 0 -0.017758934146020464 0.00079922196613360457 0 -0.017457562437770319 0.001261383524049152 0 -0.018246754911205504 0.00087354226436792777 0 -0.017870859391925883 0.0011789663175087632 0 -0.017758934146020464 0.00079922196613360457 0 -0.017758934146020464 0.00079922196613360457 0 -0.01731264521516249 0.00081943758434733322 0 -0.017457562437770319 0.001261383524049152 0 -0.01731264521516249 0.00081943758434733322 0 -0.017457562437770319 0.001261383524049152 0 -0.016923614552190783 0.0011697208061296209 0 -0.016915498604941952 0.00060731648012517952 0 -0.01731264521516249 0.00081943758434733322 0 -0.016923614552190783 0.0011697208061296209 0 -0.016915498604941952 0.00060731648012517952 0 -0.016436385233442485 0.00075058980209531407 0 -0.016923614552190783 0.0011697208061296209 0 -0.016436385233442485 0.00075058980209531407 0 -0.016429364765534627 0.0011974017533348726 0 -0.016923614552190783 0.0011697208061296209 0 -0.017230633410886962 0.0017906832077424733 0 -0.016651138874152992 0.0017097835942982624 0 -0.016844826275451436 0.0024098878484896248 0 -0.016429364765534627 0.0011974017533348726 0 -0.016923614552190783 0.0011697208061296209 0 -0.016651138874152992 0.0017097835942982624 0 -0.016923614552190783 0.0011697208061296209 0 -0.017230633410886962 0.0017906832077424733 0 -0.016651138874152992 0.0017097835942982624 0 -0.017457562437770319 0.001261383524049152 0 -0.016923614552190783 0.0011697208061296209 0 -0.017230633410886962 0.0017906832077424733 0 -0.009077859135211537 -0.00046810263585014681 0 -0.0086240528638057545 -0.00030626673454191002 0 -0.0085938963289098735 -0.00071533422423213045 0 -0.0086240528638057545 -0.00030626673454191002 0 -0.0085938963289098735 -0.00071533422423213045 0 -0.0078745746795649153 -0.00038477514496579231 0 -0.0089719463937599359 -0.00084631962129692059 0 -0.0085938963289098735 -0.00071533422423213045 0 -0.0083867147283397375 -0.0010812343258182775 0 -0.0085938963289098735 -0.00071533422423213045 0 -0.0079526672421705857 -0.00088334485805447534 0 -0.0078745746795649153 -0.00038477514496579231 0 -0.0085938963289098735 -0.00071533422423213045 0 -0.0079526672421705857 -0.00088334485805447534 0 -0.0083867147283397375 -0.0010812343258182775 0 -0.013474046362199331 0.0031144832702228427 0 -0.015567306681223003 0.0024161517988567334 0 -0.015853098899416398 0.0032641256510119107 0 -0.017230633410886962 0.0017906832077424733 0 -0.016844826275451436 0.0024098878484896248 0 -0.017854232754363264 0.0020573993281310255 0 -0.012981786921188091 0.0016447103370568167 0 -0.011416311654641768 0.0013812500993031296 0 -0.012981786921188091 0.0016447103370568167 0 -0.01709714355228795 0.0022777240257860387 0 -0.017631729979768713 0.0017841670800459362 0 -0.015567306681223003 0.0024161517988567334 0 -0.015853098899416398 0.0032641256510119107 0 -0.011416311654641768 0.0013812500993031296 0 -0.012897682815137972 0.0015051157935845828 0 -0.0078745746795649153 -0.00038477514496579231 0 -0.0074895415479662364 -0.00080434449334131747 0 -0.0072019389642854134 -0.0005780589401119373 0 -0.0079526672421705857 -0.00088334485805447534 0 -0.0074895415479662364 -0.00080434449334131747 0 -0.0075537775627839161 -0.001056880328288863 0 -0.0079526672421705857 -0.00088334485805447534 0 -0.0078745746795649153 -0.00038477514496579231 0 -0.0074895415479662364 -0.00080434449334131747 0 -0.0074895415479662364 -0.00080434449334131747 0 -0.0071848790720050355 -0.00084627039064186053 0 -0.0072019389642854134 -0.0005780589401119373 0 -0.0074895415479662364 -0.00080434449334131747 0 -0.0071848790720050355 -0.00084627039064186053 0 -0.0072942400723013624 -0.0010134111707648503 0 -0.0069846580055064359 -0.00086855859520433348 0 -0.0071848790720050355 -0.00084627039064186053 0 -0.0072019389642854134 -0.0005780589401119373 0 -0.019436499835459722 0.0024111279782588748 0 -0.017631729979768713 0.0017841670800459362 0 -0.018145253381325558 0.0033682838408804028 0 -0.017631729979768713 0.0017841670800459362 0 -0.015853098899416398 0.0032641256510119107 0 -0.018145253381325558 0.0033682838408804028 0 -0.0067675781100577682 -0.0011036694623416021 0 -0.006330039447674597 -0.0010570154809389045 0 -0.0062236244123996176 -0.0012308802605803413 0 -0.0064289552661874801 -0.00091656651154610447 0 -0.006151986808952189 -0.0009184176498018943 0 -0.0063342472862393711 -0.00074481850020946809 0 -0.0064289552661874801 -0.00091656651154610447 0 -0.006151986808952189 -0.0009184176498018943 0 -0.006330039447674597 -0.0010570154809389045 0 -0.0061378692977798778 -0.0011405615034413461 0 -0.006330039447674597 -0.0010570154809389045 0 -0.0062236244123996176 -0.0012308802605803413 0 -0.006151986808952189 -0.0009184176498018943 0 -0.0061378692977798778 -0.0011405615034413461 0 -0.006330039447674597 -0.0010570154809389045 0 -0.0067581991258400696 -0.0011483044469873284 0 -0.0068168731423772959 -0.0012321296314359701 0 -0.0067675781100577682 -0.0011036694623416021 0 -0.0070423520164382926 -0.0010080975072840892 0 -0.0072857989760193708 -0.0012620708057609362 0 -0.0071848790720050355 -0.00084627039064186053 0 -0.0070423520164382926 -0.0010080975072840892 0 -0.0072942400723013624 -0.0010134111707648503 0 -0.0070423520164382926 -0.0010080975072840892 0 -0.0072942400723013624 -0.0010134111707648503 0 -0.0072857989760193708 -0.0012620708057609362 0 -0.0072942400723013624 -0.0010134111707648503 0 -0.0072857989760193708 -0.0012620708057609362 0 -0.0075537775627839161 -0.001056880328288863 0 -0.0074895415479662364 -0.00080434449334131747 0 -0.0072942400723013624 -0.0010134111707648503 0 -0.0075537775627839161 -0.001056880328288863 0 -0.0061378692977798778 -0.0011405615034413461 0 -0.0062236244123996176 -0.0012308802605803413 0 -0.0058491763629728499 -0.0012345574280314773 0 -0.0072857989760193708 -0.0012620708057609362 0 -0.0075537775627839161 -0.001056880328288863 0 -0.0077919996777046823 -0.0012810954983799539 0 -0.0068168731423772959 -0.0012321296314359701 0 -0.006508076600281177 -0.00072876555154231186 0 -0.0058698393262747112 -0.0012148224320521637 0 -0.006508076600281177 -0.00072876555154231186 0 -0.0079526672421705857 -0.00088334485805447534 0 -0.0075537775627839161 -0.001056880328288863 0 -0.0077919996777046823 -0.0012810954983799539 0 -0.00584364965460199 -0.0012378323796319241 0 -0.0059335744023264261 -0.0010431951800924273 0 -0.0056702797696982568 -0.0010002834706612403 0 -0.006151986808952189 -0.0009184176498018943 0 -0.0061378692977798778 -0.0011405615034413461 0 -0.0059335744023264261 -0.0010431951800924273 0 -0.0061378692977798778 -0.0011405615034413461 0 -0.00584364965460199 -0.0012378323796319241 0 -0.0059335744023264261 -0.0010431951800924273 0 -0.006151986808952189 -0.0009184176498018943 0 -0.0059335744023264261 -0.0010431951800924273 0 -0.0058737369151933266 -0.00085563255166579025 0 -0.0059335744023264261 -0.0010431951800924273 0 -0.0056702797696982568 -0.0010002834706612403 0 -0.0058737369151933266 -0.00085563255166579025 0 -0.00584364965460199 -0.0012378323796319241 0 -0.0056702797696982568 -0.0010002834706612403 0 -0.005423217763531738 -0.0012585377239807778 0 -0.0079526672421705857 -0.00088334485805447534 0 -0.0077919996777046823 -0.0012810954983799539 0 -0.0083867147283397375 -0.0010812343258182775 0 -0.006508076600281177 -0.00072876555154231186 0 -0.0051648679062138627 1.3520033555148151e-05 0 -0.0061547900404273735 0.00054822775881583111 0 -0.0061135993784498712 0.00057738624162965643 0 -0.0061095446483013759 0.00058339123381910139 0 -0.006508076600281177 -0.00072876555154231186 0 -0.0073876018549443303 -0.00018476646196827692 0 -0.0061547900404273735 0.00054822775881583111 0 -0.0061078339881210555 0.00058660690056730773 0 -0.0061095446483013759 0.00058339123381910139 0 -0.0060850696875051407 0.00060237019287637695 0 -0.0061135993784498712 0.00057738624162965643 0 -0.0061095446483013759 0.00058339123381910139 0 -0.0061041996807107571 0.00059034646865994977 0 -0.0061095446483013759 0.00058339123381910139 0 -0.006076026076940899 0.00060834167819608673 0 -0.0049812849201683624 0.00032274840055732503 0 -0.0064218298288535357 0.00062609027050225931 0 -0.0073439468379155022 -0.00020086811334705374 0 -0.0073876018549443303 -0.00018476646196827692 0 -0.0049812849201683624 0.00032274840055732503 0 -0.0051648679062138627 1.3520033555148151e-05 0 -0.0061041996807107571 0.00059034646865994977 0 -0.0061078132667271665 0.00058933256723552941 0 -0.0061095446483013759 0.00058339123381910139 0 -0.0051648679062138627 1.3520033555148151e-05 0 -0.0052040670700357087 7.9995861022503562e-05 0 -0.0026573186348119449 0.00065740442018540871 0 -0.0026380500640137377 0.00065673433971967119 0 -0.0027475169270624249 0.00054628429500989647 0 -0.0026380500640137377 0.00065673433971967119 0 -0.002675551719105022 0.00038166700336624899 0 -0.0027475169270624249 0.00054628429500989647 0 -0.0051648679062138627 1.3520033555148151e-05 0 -0.0038685711313859706 -0.00026522167845840523 0 -0.0056702797696982568 -0.0010002834706612403 0 -0.005423217763531738 -0.0012585377239807778 0 -0.0052955636856594577 -0.00084527205472652268 0 -0.0052955636856594577 -0.00084527205472652268 0 -0.0055103051543758767 -0.0005599317895137216 0 -0.0056627352891150751 -0.00074851440596648226 0 -0.0038685711313859706 -0.00026522167845840523 0 -0.0039639619705942692 -0.00022498819385641494 0 -0.0052955636856594577 -0.00084527205472652268 0 -0.0055103051543758767 -0.0005599317895137216 0 -0.0051670717771682981 -0.00046563920692486722 0 -0.0055103051543758767 -0.0005599317895137216 0 -0.0051670717771682981 -0.00046563920692486722 0 -0.0054648988168027627 -0.0002376726097312542 0 -0.0055103051543758767 -0.0005599317895137216 0 -0.0057275028034966639 -0.00035529463409862265 0 -0.0054648988168027627 -0.0002376726097312542 0 -0.0055103051543758767 -0.0005599317895137216 0 -0.0058516635580509709 -0.00059036813319038621 0 -0.0057275028034966639 -0.00035529463409862265 0 -0.0055103051543758767 -0.0005599317895137216 0 -0.0056627352891150751 -0.00074851440596648226 0 -0.0058516635580509709 -0.00059036813319038621 0 -0.0056702797696982568 -0.0010002834706612403 0 -0.0052955636856594577 -0.00084527205472652268 0 -0.0056627352891150751 -0.00074851440596648226 0 -0.0056702797696982568 -0.0010002834706612403 0 -0.0056627352891150751 -0.00074851440596648226 0 -0.0058737369151933266 -0.00085563255166579025 0 -0.0060704125774612783 -0.00072784373540349346 0 -0.0058516635580509709 -0.00059036813319038621 0 -0.0061428892171916799 -0.0005470680137282727 0 -0.0058737369151933266 -0.00085563255166579025 0 -0.0060704125774612783 -0.00072784373540349346 0 -0.0058516635580509709 -0.00059036813319038621 0 -0.0056627352891150751 -0.00074851440596648226 0 -0.0058737369151933266 -0.00085563255166579025 0 -0.0058516635580509709 -0.00059036813319038621 0 -0.006151986808952189 -0.0009184176498018943 0 -0.0058737369151933266 -0.00085563255166579025 0 -0.0060704125774612783 -0.00072784373540349346 0 -0.0058516635580509709 -0.00059036813319038621 0 -0.0059942715657799071 -0.00034330163341821318 0 -0.0057275028034966639 -0.00035529463409862265 0 -0.0058516635580509709 -0.00059036813319038621 0 -0.0061428892171916799 -0.0005470680137282727 0 -0.0059942715657799071 -0.00034330163341821318 0 -0.0063343694680486539 -0.00036789839459955916 0 -0.0061428892171916799 -0.0005470680137282727 0 -0.0059942715657799071 -0.00034330163341821318 0 -0.0065228597911897628 -0.00061617009393105594 0 -0.0061428892171916799 -0.0005470680137282727 0 -0.0063342472862393711 -0.00074481850020946809 0 -0.0060704125774612783 -0.00072784373540349346 0 -0.0061428892171916799 -0.0005470680137282727 0 -0.0063342472862393711 -0.00074481850020946809 0 -0.006151986808952189 -0.0009184176498018943 0 -0.0060704125774612783 -0.00072784373540349346 0 -0.0063342472862393711 -0.00074481850020946809 0 -0.0060748985456613872 0.00061506396637700164 0 -0.0060659052029535575 0.00061404099397990939 0 -0.0060813910899832607 0.00061719178794211813 0 -0.0048982235021590523 0.00059009685946032769 0 -0.0047105857837577295 0.00058428472848815198 0 -0.0060748985456613872 0.00061506396637700164 0 -0.0060813910899832607 0.00061719178794211813 0 -0.0060903309008498363 0.00061954344986344713 0 -0.0060748985456613872 0.00061506396637700164 0 -0.0061040129494073277 0.00063147906739080681 0 -0.0060903309008498363 0.00061954344986344713 0 -0.0061016984417956556 0.00062491845605790999 0 -0.0060903309008498363 0.00061954344986344713 0 -0.0060956348888669487 0.00061755325312692184 0 -0.0060813910899832607 0.00061719178794211813 0 -0.0060956348888669487 0.00061755325312692184 0 -0.0060888111968007436 0.00061242713195487912 0 -0.0060813910899832607 0.00061719178794211813 0 -0.0060903309008498363 0.00061954344986344713 0 -0.0060956348888669487 0.00061755325312692184 0 -0.0060956348888669487 0.00061755325312692184 0 -0.0060935402944320809 0.00061250232708469159 0 -0.0060888111968007436 0.00061242713195487912 0 -0.0061008147038440121 0.00061671272173362149 0 -0.0060956348888669487 0.00061755325312692184 0 -0.0060935402944320809 0.00061250232708469159 0 -0.0061008147038440121 0.00061671272173362149 0 -0.0060935402944320809 0.00061250232708469159 0 -0.006091106755243751 0.00061063512445337458 0 -0.0060935402944320809 0.00061250232708469159 0 -0.006091106755243751 0.00061063512445337458 0 -0.0060887293938960974 0.00060896463492979053 0 -0.0060887293938960974 0.00060896463492979053 0 -0.0060888111968007436 0.00061242713195487912 0 -0.006084256671227248 0.00060343830563693674 0 -0.0060935402944320809 0.00061250232708469159 0 -0.0060887293938960974 0.00060896463492979053 0 -0.0060888111968007436 0.00061242713195487912 0 -0.0049812849201683624 0.00032274840055732503 0 -0.0043641749597055426 0.00065513917397943839 0 -0.0060850696875051407 0.00060237019287637695 0 -0.0061095446483013759 0.00058339123381910139 0 -0.006076026076940899 0.00060834167819608673 0 -0.006033671379913905 0.00059412014448014785 0 -0.006076026076940899 0.00060834167819608673 0 -0.006084256671227248 0.00060343830563693674 0 -0.0060850696875051407 0.00060237019287637695 0 -0.006091106755243751 0.00061063512445337458 0 -0.006076026076940899 0.00060834167819608673 0 -0.006091106755243751 0.00061063512445337458 0 -0.0060887293938960974 0.00060896463492979053 0 -0.006076026076940899 0.00060834167819608673 0 -0.0060887293938960974 0.00060896463492979053 0 -0.006076026076940899 0.00060834167819608673 0 -0.006084256671227248 0.00060343830563693674 0 -0.0026573186348119449 0.00065740442018540871 0 -0.0027475169270624249 0.00054628429500989647 0 -0.0029206525051978394 0.00059371639096259129 0 -0.0027475169270624249 0.00054628429500989647 0 -0.0029206525051978394 0.00059371639096259129 0 -0.0028573218067138588 0.00045298084005667832 0 -0.002675551719105022 0.00038166700336624899 0 -0.0027475169270624249 0.00054628429500989647 0 -0.0028573218067138588 0.00045298084005667832 0 -0.0047105857837577295 0.00058428472848815198 0 -0.0043641749597055426 0.00065513917397943839 0 -0.0060813910899832607 0.00061719178794211813 0 -0.0060888111968007436 0.00061242713195487912 0 -0.006084256671227248 0.00060343830563693674 0 -0.0032650688815486521 0.00057391263480699949 0 -0.0029206525051978394 0.00059371639096259129 0 -0.0030243261253282624 0.00044010229146942867 0 -0.0029206525051978394 0.00059371639096259129 0 -0.0028573218067138588 0.00045298084005667832 0 -0.0030243261253282624 0.00044010229146942867 0 -0.0029308987055201258 0.00023564577732176889 0 -0.0031559658024075442 4.4797564794463841e-05 0 -0.0031550758878514016 0.00031784096004739863 0 -0.0030243261253282624 0.00044010229146942867 0 -0.0029308987055201258 0.00023564577732176889 0 -0.0031550758878514016 0.00031784096004739863 0 -0.0028573218067138588 0.00045298084005667832 0 -0.0030243261253282624 0.00044010229146942867 0 -0.0029308987055201258 0.00023564577732176889 0 -0.002675551719105022 0.00038166700336624899 0 -0.0029308987055201258 0.00023564577732176889 0 -0.002729016513491187 1.443866373974854e-05 0 -0.002675551719105022 0.00038166700336624899 0 -0.0028573218067138588 0.00045298084005667832 0 -0.0029308987055201258 0.00023564577732176889 0 -0.0029308987055201258 0.00023564577732176889 0 -0.002729016513491187 1.443866373974854e-05 0 -0.0029467786799499945 -8.3101735698816825e-05 0 -0.0029308987055201258 0.00023564577732176889 0 -0.0031559658024075442 4.4797564794463841e-05 0 -0.0029467786799499945 -8.3101735698816825e-05 0 -0.0031559658024075442 4.4797564794463841e-05 0 -0.0033949111647487364 0.0002526651365833874 0 -0.0033383531567566281 -0.00014339079009784877 0 -0.0031559658024075442 4.4797564794463841e-05 0 -0.0031550758878514016 0.00031784096004739863 0 -0.0033949111647487364 0.0002526651365833874 0 -0.0032650688815486521 0.00057391263480699949 0 -0.0030243261253282624 0.00044010229146942867 0 -0.0031550758878514016 0.00031784096004739863 0 -0.0032650688815486521 0.00057391263480699949 0 -0.0031550758878514016 0.00031784096004739863 0 -0.0033949111647487364 0.0002526651365833874 0 -0.0037259164029532035 0.00057042323050764435 0 -0.0032650688815486521 0.00057391263480699949 0 -0.0033949111647487364 0.0002526651365833874 0 -0.0037259164029532035 0.00057042323050764435 0 -0.0033949111647487364 0.0002526651365833874 0 -0.0036854766922017942 6.903544602008418e-05 0 -0.0033949111647487364 0.0002526651365833874 0 -0.0036854766922017942 6.903544602008418e-05 0 -0.0033383531567566281 -0.00014339079009784877 0 -0.0036854766922017942 6.903544602008418e-05 0 -0.0033383531567566281 -0.00014339079009784877 0 -0.0038115971202730974 -0.00035097917078193342 0 -0.0033383531567566281 -0.00014339079009784877 0 -0.0032386560749219067 -0.00049916721462376907 0 -0.0038115971202730974 -0.00035097917078193342 0 -0.0032386560749219067 -0.00049916721462376907 0 -0.0037227593792675015 -0.00096608436719129124 0 -0.0038115971202730974 -0.00035097917078193342 0 -0.0032292189062226571 -0.00052421444974105045 0 -0.00337825069328155 -0.0007446314885194553 0 -0.0032386560749219067 -0.00049916721462376907 0 -0.0030810138804993198 -0.00029050536525489516 0 -0.003072185470930861 -0.00051907290978300943 0 -0.0031559658024075442 4.4797564794463841e-05 0 -0.0033383531567566281 -0.00014339079009784877 0 -0.0030810138804993198 -0.00029050536525489516 0 -0.0033383531567566281 -0.00014339079009784877 0 -0.0032386560749219067 -0.00049916721462376907 0 -0.0030810138804993198 -0.00029050536525489516 0 -0.0030810138804993198 -0.00029050536525489516 0 -0.0029467786799499945 -8.3101735698816825e-05 0 -0.0028587752412780939 -0.00036019697785272535 0 -0.0031559658024075442 4.4797564794463841e-05 0 -0.0030810138804993198 -0.00029050536525489516 0 -0.0029467786799499945 -8.3101735698816825e-05 0 -0.002729016513491187 1.443866373974854e-05 0 -0.0029467786799499945 -8.3101735698816825e-05 0 -0.0028587752412780939 -0.00036019697785272535 0 -0.0039639619705942692 -0.00022498819385641494 0 -0.0039293808505950767 -0.00020662725018585933 0 -0.0039293808505950767 -0.00020662725018585933 0 -0.004018374263817643 -0.00012817514223642867 0 -0.0030810138804993198 -0.00029050536525489516 0 -0.0028587752412780939 -0.00036019697785272535 0 -0.003072185470930861 -0.00051907290978300943 0 -0.0028587752412780939 -0.00036019697785272535 0 -0.0030104107307929186 -0.00054651725024605245 0 -0.003072185470930861 -0.00051907290978300943 0 -0.0030104107307929186 -0.00054651725024605245 0 -0.003000721135495499 -0.0005171809841478072 0 -0.003072185470930861 -0.00051907290978300943 0 -0.0050184321190896389 -8.1281796839019948e-05 0 -0.0048715979989735377 0.00031324925944830175 0 -0.0051577712095092288 0.00043646716781726291 0 -0.0048715979989735377 0.00031324925944830175 0 -0.0051577712095092288 0.00043646716781726291 0 -0.0050570476976588329 0.00073075790665002552 0 -0.0030104107307929186 -0.00054651725024605245 0 -0.003000721135495499 -0.0005171809841478072 0 -0.0030679699767036505 -0.00045965229623041163 0 -0.004018374263817643 -0.00012817514223642867 0 -0.0031721719081177018 0.00012126553400738841 0 -0.0048715979989735377 0.00031324925944830175 0 -0.0047277515092743203 0.0007161028989240213 0 -0.0050570476976588329 0.00073075790665002552 0 -0.003000721135495499 -0.0005171809841478072 0 -0.0028368981723160343 -0.00043350329404243457 0 -0.0030679699767036505 -0.00045965229623041163 0 -0.003000721135495499 -0.0005171809841478072 0 -0.002911545985095027 -0.00048020835797196336 0 -0.0030384352046312407 -0.0005475957881924384 0 -0.0029920690346367722 -0.00057999025018557176 0 -0.0030384352046312407 -0.0005475957881924384 0 -0.0029557185393525882 -0.00060460313892629798 0 -0.0030015573494073734 -0.00054009901794393783 0 -0.0028760588839274515 -0.00051833222005760792 0 -0.002911545985095027 -0.00048020835797196336 0 -0.0030384352046312407 -0.0005475957881924384 0 -0.0027592717513822904 -0.00042376422874164734 0 -0.003000721135495499 -0.0005171809841478072 0 -0.002911545985095027 -0.00048020835797196336 0 -0.0028368981723160343 -0.00043350329404243457 0 -0.0029920690346367722 -0.00057999025018557176 0 -0.0030384352046312407 -0.0005475957881924384 0 -0.0030026933080720612 -0.00057338471591368318 0 -0.0032386560749219067 -0.00049916721462376907 0 -0.0030384352046312407 -0.0005475957881924384 0 -0.0030303706518629353 -0.00055650522504531767 0 -0.0030384352046312407 -0.0005475957881924384 0 -0.0030026933080720612 -0.00057338471591368318 0 -0.0030303706518629353 -0.00055650522504531767 0 -0.003000721135495499 -0.0005171809841478072 0 -0.0030384352046312407 -0.0005475957881924384 0 -0.003072185470930861 -0.00051907290978300943 0 -0.0032386560749219067 -0.00049916721462376907 0 -0.0030384352046312407 -0.0005475957881924384 0 -0.003072185470930861 -0.00051907290978300943 0 -0.0061325642098545019 -0.00012270400852813142 0 -0.0058074877666210584 -7.128608337810441e-05 0 -0.0059787290847769714 9.8115751038070783e-05 0 -0.0062321823500445725 0.00010614267570015311 0 -0.0061325642098545019 -0.00012270400852813142 0 -0.0059787290847769714 9.8115751038070783e-05 0 -0.0063343694680486539 -0.00036789839459955916 0 -0.0061325642098545019 -0.00012270400852813142 0 -0.0059942715657799071 -0.00034330163341821318 0 -0.0061325642098545019 -0.00012270400852813142 0 -0.0059942715657799071 -0.00034330163341821318 0 -0.0058074877666210584 -7.128608337810441e-05 0 -0.0059942715657799071 -0.00034330163341821318 0 -0.0058074877666210584 -7.128608337810441e-05 0 -0.0057275028034966639 -0.00035529463409862265 0 -0.0058074877666210584 -7.128608337810441e-05 0 -0.0054648988168027627 -0.0002376726097312542 0 -0.0054427135219052968 0.00016687508150485154 0 -0.0058074877666210584 -7.128608337810441e-05 0 -0.0057275028034966639 -0.00035529463409862265 0 -0.0054648988168027627 -0.0002376726097312542 0 -0.0051670717771682981 -0.00046563920692486722 0 -0.0050184321190896389 -8.1281796839019948e-05 0 -0.0054648988168027627 -0.0002376726097312542 0 -0.0054322157881986632 -0.00022974418150585813 0 -0.0055334793758902252 0.0002325987151418913 0 -0.0050184321190896389 -8.1281796839019948e-05 0 -0.0054648988168027627 -0.0002376726097312542 0 -0.0054119994289615059 0.00025218655264008625 0 -0.0050184321190896389 -8.1281796839019948e-05 0 -0.0051577712095092288 0.00043646716781726291 0 -0.0054119994289615059 0.00025218655264008625 0 -0.0051577712095092288 0.00043646716781726291 0 -0.0054119994289615059 0.00025218655264008625 0 -0.0053752707927103563 0.00074221119338676764 0 -0.0055334793758902252 0.0002325987151418913 0 -0.0046540827488257197 0.00049312778697315515 0 -0.0051577712095092288 0.00043646716781726291 0 -0.0053752707927103563 0.00074221119338676764 0 -0.0050570476976588329 0.00073075790665002552 0 -0.0054427135219052968 0.00016687508150485154 0 -0.0055595759962330255 0.0003452687704366011 0 -0.0054215786506434582 0.00050924688863359475 0 -0.0055595759962330255 0.0003452687704366011 0 -0.0057686013310059014 0.00026145161741824029 0 -0.0056105465313332622 0.00051398167429061233 0 -0.0055595759962330255 0.0003452687704366011 0 -0.0056105465313332622 0.00051398167429061233 0 -0.0054215786506434582 0.00050924688863359475 0 -0.0058074877666210584 -7.128608337810441e-05 0 -0.0054427135219052968 0.00016687508150485154 0 -0.0057686013310059014 0.00026145161741824029 0 -0.0054427135219052968 0.00016687508150485154 0 -0.0055595759962330255 0.0003452687704366011 0 -0.0057686013310059014 0.00026145161741824029 0 -0.0058074877666210584 -7.128608337810441e-05 0 -0.0057686013310059014 0.00026145161741824029 0 -0.0059787290847769714 9.8115751038070783e-05 0 -0.0057686013310059014 0.00026145161741824029 0 -0.0057024050924926444 0.00053558417199857931 0 -0.0056105465313332622 0.00051398167429061233 0 -0.0057686013310059014 0.00026145161741824029 0 -0.0059787699227663209 0.00033685302288270828 0 -0.0057024050924926444 0.00053558417199857931 0 -0.0062321823500445725 0.00010614267570015311 0 -0.0059787699227663209 0.00033685302288270828 0 -0.0059787290847769714 9.8115751038070783e-05 0 -0.0057686013310059014 0.00026145161741824029 0 -0.0059787699227663209 0.00033685302288270828 0 -0.0059787290847769714 9.8115751038070783e-05 0 -0.0059079523982713683 0.001252929167396956 0 -0.0057024050924926444 0.00053558417199857931 0 -0.0051894008827542528 0.0010381124889424225 0 -0.0059079523982713683 0.001252929167396956 0 -0.0060754915135639801 0.00058008231566913514 0 -0.0057024050924926444 0.00053558417199857931 0 -0.0059787699227663209 0.00033685302288270828 0 -0.0060754915135639801 0.00058008231566913514 0 -0.0057024050924926444 0.00053558417199857931 0 -0.0057024050924926444 0.00053558417199857931 0 -0.0051894008827542528 0.0010381124889424225 0 -0.0047741455821883371 0.00035890771302898075 0 -0.0056334474290832236 0.00050683879134717726 0 -0.0051975715688930566 0.00044781564850267594 0 -0.0059079523982713683 0.001252929167396956 0 -0.0051894008827542528 0.0010381124889424225 0 -0.0049273171735858346 0.002087656734504879 0 -0.0051894008827542528 0.0010381124889424225 0 -0.0045294419811306328 0.00099702441921263986 0 -0.0049273171735858346 0.002087656734504879 0 -0.0045294419811306328 0.00099702441921263986 0 -0.0038425990535372288 0.0011908270486820814 0 -0.0049273171735858346 0.002087656734504879 0 -0.0045294419811306328 0.00099702441921263986 0 -0.003913747389447211 0.00029988974730334037 0 -0.0038425990535372288 0.0011908270486820814 0 -0.0045294419811306328 0.00099702441921263986 0 -0.0047741455821883371 0.00035890771302898075 0 -0.003913747389447211 0.00029988974730334037 0 -0.0051894008827542528 0.0010381124889424225 0 -0.0045294419811306328 0.00099702441921263986 0 -0.0047741455821883371 0.00035890771302898075 0 -0.0051975715688930566 0.00044781564850267594 0 -0.0046540827488257197 0.00049312778697315515 0 -0.0046540827488257197 0.00049312778697315515 0 -0.0040405296718305801 0.00046929697676038206 0 -0.0046540827488257197 0.00049312778697315515 0 -0.0038074733607695397 0.0010327922206220155 0 -0.0033901727049156093 0.00068073845832318188 0 -0.0038800437258871504 0.00022655311008645221 0 -0.0038425990535372288 0.0011908270486820814 0 -0.0033901727049156093 0.00068073845832318188 0 -0.0038800437258871504 0.00022655311008645221 0 -0.0029530603977826458 0.00019352893211744033 0 -0.0038425990535372288 0.0011908270486820814 0 -0.0036505576672818426 0.0020339808245830268 0 -0.002891339891695468 0.0011041737393389863 0 -0.0033901727049156093 0.00068073845832318188 0 -0.0038425990535372288 0.0011908270486820814 0 -0.002891339891695468 0.0011041737393389863 0 -0.0036505576672818426 0.0020339808245830268 0 -0.0038161506421937929 0.0028752461004556721 0 -0.0027610117227605526 0.0020496213145905695 0 0.0050569105345149397 -8.1421557350623395e-05 0 0.0041632170216797052 -0.00067189207089390739 0 0.0041268346862045682 3.1280570752792656e-05 0 0.00059473077481906104 0.0013789194119611238 0 -0.00037145393387632929 0.0007117771994244067 0 -0.0036505576672818426 0.0020339808245830268 0 -0.0038161506421937929 0.0028752461004556721 0 -0.0049273171735858346 0.002087656734504879 0 -0.0038425990535372288 0.0011908270486820814 0 -0.0036505576672818426 0.0020339808245830268 0 -0.0049273171735858346 0.002087656734504879 0 -0.0013041364028693015 2.2395317137479406e-05 0 -0.00037145393387632929 0.0007117771994244067 0 0.0041632170216797052 -0.00067189207089390739 0 0.0041268346862045682 3.1280570752792656e-05 0 0.0034499312724342503 -0.0002867045976204214 0 0.0041268346862045682 3.1280570752792656e-05 0 0.0034499312724342503 -0.0002867045976204214 0 0.0035595488819574793 0.00041667997025706462 0 0.0034499312724342503 -0.0002867045976204214 0 0.0035595488819574793 0.00041667997025706462 0 0.0028758630469651845 0.0001382974942437436 0 0.0032681543065692779 -0.0012231303799643113 0 0.0041632170216797052 -0.00067189207089390739 0 0.0034499312724342503 -0.0002867045976204214 0 0.0025538946776715167 -0.00069740000731808574 0 0.0032681543065692779 -0.0012231303799643113 0 0.0034499312724342503 -0.0002867045976204214 0 -0.0027860827500076988 -0.00025708076111321371 0 -0.0028094932671625644 -0.00037094267421708751 0 -0.0028587957878565156 -0.00030685151084927469 0 -0.0027177796635010467 -0.00034739798812843497 0 -0.0027940804381890332 -0.00032913672633942659 0 -0.0027583601542405388 -0.00026893284912973559 0 -0.0027071491030456764 -0.00029827111565605398 0 -0.0028094932671625644 -0.00037094267421708751 0 -0.0028760588839274515 -0.00051833222005760792 0 -0.0026558543788124099 -0.00044317549988939222 0 -0.0027367232543107603 -0.00036161260928531326 0 -0.0027592717513822904 -0.00042376422874164734 0 -0.0025654662498351974 -0.0002735277720517973 0 -0.0027071491030456764 -0.00029827111565605398 0 -0.0027367232543107603 -0.00036161260928531326 0 -0.0025654662498351974 -0.0002735277720517973 0 -0.0027071491030456764 -0.00029827111565605398 0 -0.0027367232543107603 -0.00036161260928531326 0 -0.0028094932671625644 -0.00037094267421708751 0 -0.0027367232543107603 -0.00036161260928531326 0 -0.0028368981723160343 -0.00043350329404243457 0 -0.0028094932671625644 -0.00037094267421708751 0 -0.0027367232543107603 -0.00036161260928531326 0 -0.0027592717513822904 -0.00042376422874164734 0 -0.0028368981723160343 -0.00043350329404243457 0 -0.002911545985095027 -0.00048020835797196336 0 -0.0027592717513822904 -0.00042376422874164734 0 -0.0028368981723160343 -0.00043350329404243457 0 -0.0028094932671625644 -0.00037094267421708751 0 -0.0028687526647451079 -0.00039790379878188641 0 -0.0028587957878565156 -0.00030685151084927469 0 -0.0028368981723160343 -0.00043350329404243457 0 -0.0028094932671625644 -0.00037094267421708751 0 -0.0028687526647451079 -0.00039790379878188641 0 -0.0027462157440961083 -0.00058095684051098285 0 -0.0031721719081177018 0.00012126553400738841 0 -0.0031721719081177018 0.00012126553400738841 0 -0.0022988238353621087 0.00046883069694408707 0 -0.0031721719081177018 0.00012126553400738841 0 -0.0040405296718305801 0.00046929697676038206 0 -0.0020463005782553989 0.0001555378422669837 0 -0.0029530603977826458 0.00019352893211744033 0 -0.002891339891695468 0.0011041737393389863 0 -0.0033901727049156093 0.00068073845832318188 0 -0.0029530603977826458 0.00019352893211744033 0 -0.002891339891695468 0.0011041737393389863 0 -0.002891339891695468 0.0011041737393389863 0 -0.0017152610200594891 0.001205420653081323 0 -0.0027610117227605526 0.0020496213145905695 0 -0.0020463005782553989 0.0001555378422669837 0 -0.002891339891695468 0.0011041737393389863 0 -0.0017152610200594891 0.001205420653081323 0 -0.0017152610200594891 0.001205420653081323 0 -0.0027610117227605526 0.0020496213145905695 0 -0.0013829528345384078 0.0022358826214682096 0 -0.0038161506421937929 0.0028752461004556721 0 -0.0027610117227605526 0.0020496213145905695 0 -0.0027331320809890272 0.0036282545775793481 0 -0.0027610117227605526 0.0020496213145905695 0 -0.0021066851016332284 0.0028087373427232759 0 -0.0027331320809890272 0.0036282545775793481 0 -0.0036505576672818426 0.0020339808245830268 0 -0.002891339891695468 0.0011041737393389863 0 -0.0027610117227605526 0.0020496213145905695 0 -0.0027610117227605526 0.0020496213145905695 0 -0.0021066851016332284 0.0028087373427232759 0 -0.0013829528345384078 0.0022358826214682096 0 -0.0021066851016332284 0.0028087373427232759 0 -0.0013829528345384078 0.0022358826214682096 0 -0.0015466231635163938 0.0033131103296983612 0 -0.0011690409168642289 0.00069656473852938564 0 -0.00010177229699911083 0.0024542545948515395 0 0.0014778709379179009 0.00073384204769330868 0 0.0014894884190750489 0.00095932557099330724 0 0.0016247000517298498 0.0010014830999028738 0 -0.0027326756610810041 -0.00014987793423668473 0 -0.0025546953354411328 -6.616910804674238e-05 0 -0.0025869145627569626 5.8596804789436833e-05 0 -0.0011690409168642289 0.00069656473852938564 0 -0.00092286875037973076 0.00053221660782509664 0 -0.0027860827500076988 -0.00025708076111321371 0 -0.0028587957878565156 -0.00030685151084927469 0 -0.0027973115234707817 -0.00010693555227840086 0 -0.0027583601542405388 -0.00026893284912973559 0 -0.0027326756610810041 -0.00014987793423668473 0 -0.0026339457128088089 -0.00019571119747977103 0 -0.0027177796635010467 -0.00034739798812843497 0 -0.0011690409168642289 0.00069656473852938564 0 -0.0022988238353621087 0.00046883069694408707 0 -0.0011690409168642289 0.00069656473852938564 0 -0.0027071491030456764 -0.00029827111565605398 0 -0.0026339457128088089 -0.00019571119747977103 0 -0.0025654662498351974 -0.0002735277720517973 0 -0.0027583601542405388 -0.00026893284912973559 0 -0.0027071491030456764 -0.00029827111565605398 0 -0.0026339457128088089 -0.00019571119747977103 0 -0.0026339457128088089 -0.00019571119747977103 0 -0.0025546953354411328 -6.616910804674238e-05 0 -0.0024107746060868483 -9.0806067623172982e-05 0 -0.0027326756610810041 -0.00014987793423668473 0 -0.0026339457128088089 -0.00019571119747977103 0 -0.0025546953354411328 -6.616910804674238e-05 0 -0.0025546953354411328 -6.616910804674238e-05 0 -0.0024107746060868483 -9.0806067623172982e-05 0 -0.0024416077786833384 3.6365586373275431e-05 0 -0.0028678065409018572 -0.00078235726770296853 0 -0.0029305077991598565 -0.00076840808524591953 0 -0.0029357415665352132 -0.00082779175481412215 0 -0.0029305077991598565 -0.00076840808524591953 0 -0.0029881264859259013 -0.00071055708188305893 0 -0.0029571477296901805 -0.00067627733382961074 0 -0.0028678065409018572 -0.00078235726770296853 0 -0.0029305077991598565 -0.00076840808524591953 0 -0.0029571477296901805 -0.00067627733382961074 0 -0.0026339457128088089 -0.00019571119747977103 0 -0.0024107746060868483 -9.0806067623172982e-05 0 -0.0025654662498351974 -0.0002735277720517973 0 -0.003264882830269311 -0.00051231161955650397 0 -0.0026558543788124099 -0.00044317549988939222 0 -0.0028678065409018572 -0.00078235726770296853 0 -0.0029064000925886945 -0.0006868836472932225 0 -0.0029571477296901805 -0.00067627733382961074 0 0.00098710538212068303 -0.0013535446267706811 0 0.00068778124907318628 -0.0018876414964321179 0 0.00036158890103460829 -0.00087150068411587841 0 -0.0046325744348888736 -0.0026165039608206163 0 -0.0044758183422139016 -0.0023176381077871554 0 -0.0037223820565724566 -0.003303051668306045 0 0.0061911996315851692 -0.00051868267793493033 0 0.0068195469430250575 -0.00098928042340030086 0 0.0064989475413479445 -0.0010127368376577385 0 0.00026850233751788332 -0.0017669828773277578 0 0.00062287778602668155 -0.001850465942201359 0 0.00026850233751788332 -0.0017669828773277578 0 0.0037463784841079259 -0.0011996653906849372 0 0.0061911996315851692 -0.00051868267793493033 0 0.0060268140420736234 -0.0008379470087496937 0 0.0064989475413479445 -0.0010127368376577385 0 -0.0038053938615254545 -0.001259134670984268 0 0.00062287778602668155 -0.001850465942201359 0 -0.0029305077991598565 -0.00076840808524591953 0 -0.0029881264859259013 -0.00071055708188305893 0 -0.0029357415665352132 -0.00082779175481412215 0 -0.0040914363750500903 -0.0021867669671215514 0 -0.0044758183422139016 -0.0023176381077871554 0 -0.0037223820565724566 -0.003303051668306045 0 -0.0036805174971395317 -0.0018887515808138878 0 -0.0040914363750500903 -0.0021867669671215514 0 -0.0037223820565724566 -0.003303051668306045 0 -0.0036805174971395317 -0.0018887515808138878 0 -0.0040914363750500903 -0.0021867669671215514 0 -0.0044292939710127537 -0.0017338523878210267 0 -0.0040914363750500903 -0.0021867669671215514 0 -0.0044758183422139016 -0.0023176381077871554 0 -0.0044292939710127537 -0.0017338523878210267 0 -0.004819379676604031 -0.0021190356377593349 0 -0.0044292939710127537 -0.0017338523878210267 0 -0.0050781274724308323 -0.0018460750673692256 0 -0.0044758183422139016 -0.0023176381077871554 0 -0.004819379676604031 -0.0021190356377593349 0 -0.0044292939710127537 -0.0017338523878210267 0 -0.0046579862506774755 -0.002615446944512777 0 -0.0044758183422139016 -0.0023176381077871554 0 -0.004819379676604031 -0.0021190356377593349 0 -0.0046579862506774755 -0.002615446944512777 0 -0.004819379676604031 -0.0021190356377593349 0 -0.0051846492708733441 -0.0021326695880349036 0 0.00026850233751788332 -0.0017669828773277578 0 -0.0020997654402183023 -0.0013961614038839165 0 0.00026850233751788332 -0.0017669828773277578 0 -0.0023528038204969287 -0.0032743356586408773 0 -0.0049633384513869802 -0.0015657553395678698 0 -0.0051380944345705915 -0.0015780345374478769 0 -0.0050781274724308323 -0.0018460750673692256 0 -0.004666955365161477 -0.0013670587009234744 0 -0.0050462587603570834 -0.0017921292896357962 0 -0.0044292939710127537 -0.0017338523878210267 0 -0.0043095366499265259 -0.0011170645659277115 0 -0.0050781274724308323 -0.0018460750673692256 0 -0.0036805174971395317 -0.0018887515808138878 0 -0.0043095366499265259 -0.0011170645659277115 0 -0.003595986558862447 -0.00045251605141272643 0 -0.0036805174971395317 -0.0018887515808138878 0 -0.0044292939710127537 -0.0017338523878210267 0 -0.0043095366499265259 -0.0011170645659277115 0 -0.0038053938615254545 -0.001259134670984268 0 -0.0039384736601718656 -0.0010106949141254797 0 -0.0049633384513869802 -0.0015657553395678698 0 -0.0047676442794758684 -0.0013843266994435018 0 -0.0049724866420600448 -0.0012922653548967584 0 -0.004666955365161477 -0.0013670587009234744 0 -0.0039384736601718656 -0.0010106949141254797 0 -0.0049633384513869802 -0.0015657553395678698 0 -0.0051834903634630659 -0.001370852154841799 0 -0.0049724866420600448 -0.0012922653548967584 0 -0.0049633384513869802 -0.0015657553395678698 0 -0.0051834903634630659 -0.001370852154841799 0 -0.0051380944345705915 -0.0015780345374478769 0 -0.0029064000925886945 -0.0006868836472932225 0 -0.0029571477296901805 -0.00067627733382961074 0 -0.0029548603670399446 -0.00063438802382559769 0 -0.0029557185393525882 -0.00060460313892629798 0 -0.0029064000925886945 -0.0006868836472932225 0 -0.0029548603670399446 -0.00063438802382559769 0 -0.0029881264859259013 -0.00071055708188305893 0 -0.0030164514496222533 -0.00061847186226344293 0 -0.0029571477296901805 -0.00067627733382961074 0 -0.0030164514496222533 -0.00061847186226344293 0 -0.0029571477296901805 -0.00067627733382961074 0 -0.0029795637124801484 -0.00061693961153074938 0 -0.0029571477296901805 -0.00067627733382961074 0 -0.0029795637124801484 -0.00061693961153074938 0 -0.0029548603670399446 -0.00063438802382559769 0 -0.0029795637124801484 -0.00061693961153074938 0 -0.0029548603670399446 -0.00063438802382559769 0 -0.002979459347278703 -0.00059735583485174106 0 -0.0029557185393525882 -0.00060460313892629798 0 -0.0029548603670399446 -0.00063438802382559769 0 -0.002979459347278703 -0.00059735583485174106 0 -0.0029795637124801484 -0.00061693961153074938 0 -0.002979459347278703 -0.00059735583485174106 0 -0.0029968964523006038 -0.0005838991653575545 0 -0.0029920690346367722 -0.00057999025018557176 0 -0.002979459347278703 -0.00059735583485174106 0 -0.0030026933080720612 -0.00057338471591368318 0 -0.0029920690346367722 -0.00057999025018557176 0 -0.0029557185393525882 -0.00060460313892629798 0 -0.002979459347278703 -0.00059735583485174106 0 -0.002979459347278703 -0.00059735583485174106 0 -0.0030026933080720612 -0.00057338471591368318 0 -0.0029968964523006038 -0.0005838991653575545 0 -0.0037227593792675015 -0.00096608436719129124 0 -0.0041492200670284153 -0.0013320167959608741 0 -0.0041464405888771974 -0.00077956197119863617 0 -0.00337825069328155 -0.0007446314885194553 0 -0.0035569695490800949 -0.00096546575776707173 0 -0.0030026933080720612 -0.00057338471591368318 0 -0.0030303706518629353 -0.00055650522504531767 0 -0.0029968964523006038 -0.0005838991653575545 0 -0.0041492200670284153 -0.0013320167959608741 0 -0.0045021153260229596 -0.0010187086512795517 0 -0.0041464405888771974 -0.00077956197119863617 0 -0.0039384736601718656 -0.0010106949141254797 0 -0.0035569695490800949 -0.00096546575776707173 0 -0.0030164514496222533 -0.00061847186226344293 0 -0.0029795637124801484 -0.00061693961153074938 0 -0.0029968964523006038 -0.0005838991653575545 0 -0.0045279696808193408 -0.0016797448555462438 0 -0.0041492200670284153 -0.0013320167959608741 0 -0.0045021153260229596 -0.0010187086512795517 0 -0.0047676442794758684 -0.0013843266994435018 0 -0.0049724866420600448 -0.0012922653548967584 0 -0.0046842727132678699 -0.00096788965404783454 0 -0.0039384736601718656 -0.0010106949141254797 0 -0.0046902195274823293 -0.0011060190051476577 0 -0.0049724866420600448 -0.0012922653548967584 0 -0.0051996990354538008 -0.0011095516452725015 0 -0.0046842727132678699 -0.00096788965404783454 0 -0.0051834903634630659 -0.001370852154841799 0 -0.0049724866420600448 -0.0012922653548967584 0 -0.0051996990354538008 -0.0011095516452725015 0 -0.0051996990354538008 -0.0011095516452725015 0 -0.0046842727132678699 -0.00096788965404783454 0 -0.0051296541314594414 -0.00074855918992004365 0 -0.0046842727132678699 -0.00096788965404783454 0 -0.0051296541314594414 -0.00074855918992004365 0 -0.0045112614590657376 -0.00032823237050186668 0 -0.0046902195274823293 -0.0011060190051476577 0 -0.0044914336683516696 -0.00029627801948123669 0 -0.0051296541314594414 -0.00074855918992004365 0 -0.0052230891113141551 -0.00021632271780176824 0 -0.0057586507559674637 -0.00034500354209924009 0 -0.0050205669228191741 0.00040684513033914662 0 -0.0052230891113141551 -0.00021632271780176824 0 -0.0045112614590657376 -0.00032823237050186668 0 -0.0051296541314594414 -0.00074855918992004365 0 -0.0052230891113141551 -0.00021632271780176824 0 -0.0045112614590657376 -0.00032823237050186668 0 -0.0041618655731881591 6.2990020200549761e-05 0 -0.0045112614590657376 -0.00032823237050186668 0 -0.0038115971202730974 -0.00035097917078193342 0 -0.0041618655731881591 6.2990020200549761e-05 0 -0.0036854766922017942 6.903544602008418e-05 0 -0.0038115971202730974 -0.00035097917078193342 0 -0.0037227593792675015 -0.00096608436719129124 0 -0.0038115971202730974 -0.00035097917078193342 0 -0.0041464405888771974 -0.00077956197119863617 0 -0.0045112614590657376 -0.00032823237050186668 0 -0.0038115971202730974 -0.00035097917078193342 0 -0.0041464405888771974 -0.00077956197119863617 0 -0.0045021153260229596 -0.0010187086512795517 0 -0.0045112614590657376 -0.00032823237050186668 0 -0.0041464405888771974 -0.00077956197119863617 0 -0.0056669783305856158 -0.0008236777216075274 0 -0.0056746829466319771 -0.0010090187554201845 0 -0.0057979377449987974 -0.0009440031599146449 0 -0.0058840802836239246 -0.00087636711086064908 0 -0.0058825247054881142 -0.00078814897623145897 0 -0.0057979377449987974 -0.0009440031599146449 0 -0.0056669783305856158 -0.0008236777216075274 0 -0.0058825247054881142 -0.00078814897623145897 0 -0.0057979377449987974 -0.0009440031599146449 0 -0.0073458029233261909 -0.00021841821951701173 0 -0.0068055416664937985 -4.7612093521051977e-05 0 -0.0066033492687228666 -0.00053357174103570366 0 -0.0059969311144468761 -0.00054332452683832078 0 -0.0056669783305856158 -0.0008236777216075274 0 -0.0058825247054881142 -0.00078814897623145897 0 -0.0060551972073340276 -0.00059216949991667352 0 -0.0062814580666527226 -0.00061038897934266383 0 -0.0063323657752553577 3.8466771154761678e-05 0 -0.0068055416664937985 -4.7612093521051977e-05 0 -0.0066033492687228666 -0.00053357174103570366 0 -0.0063323657752553577 3.8466771154761678e-05 0 -0.0066033492687228666 -0.00053357174103570366 0 -0.0057586507559674637 -0.00034500354209924009 0 -0.0058918132028062363 0.00023412107498472056 0 -0.0052230891113141551 -0.00021632271780176824 0 -0.0057586507559674637 -0.00034500354209924009 0 -0.0051296541314594414 -0.00074855918992004365 0 -0.0057586507559674637 -0.00034500354209924009 0 -0.0056162325145323443 -0.0008628448248599762 0 -0.0056669783305856158 -0.0008236777216075274 0 -0.0056162325145323443 -0.0008628448248599762 0 -0.0056746829466319771 -0.0010090187554201845 0 -0.0066033492687228666 -0.00053357174103570366 0 -0.0057586507559674637 -0.00034500354209924009 0 -0.0056162325145323443 -0.0008628448248599762 0 -0.0062814580666527226 -0.00061038897934266383 0 -0.0055847345607958577 -0.00088800548021696687 0 -0.0056162325145323443 -0.0008628448248599762 0 -0.0054802366913630609 -0.0012178035823895673 0 -0.0056746829466319771 -0.0010090187554201845 0 -0.0051996990354538008 -0.0011095516452725015 0 -0.0056162325145323443 -0.0008628448248599762 0 -0.0054802366913630609 -0.0012178035823895673 0 -0.0051996990354538008 -0.0011095516452725015 0 -0.0051296541314594414 -0.00074855918992004365 0 -0.0056162325145323443 -0.0008628448248599762 0 -0.0051834903634630659 -0.001370852154841799 0 -0.0051996990354538008 -0.0011095516452725015 0 -0.0054802366913630609 -0.0012178035823895673 0 -0.0054802366913630609 -0.0012178035823895673 0 -0.0056222973759373447 -0.0011815486695343899 0 -0.0056746829466319771 -0.0010090187554201845 0 -0.0056222973759373447 -0.0011815486695343899 0 -0.0056746829466319771 -0.0010090187554201845 0 -0.0057992896270887559 -0.0011662955828765024 0 -0.0056746829466319771 -0.0010090187554201845 0 -0.0057979377449987974 -0.0009440031599146449 0 -0.0057992896270887559 -0.0011662955828765024 0 0.00080498911603125339 0.00054861434000026373 0 -0.0029723189227696804 -0.00047742642155583834 0 0.0049820240299424997 0.00096710463012451885 0 0.0055977451295214789 0.0001680461772430716 0 0.0049406552243241794 0.00021262861675996425 0 0.00080498911603125339 0.00054861434000026373 0 0.0035409423042768837 -6.8715800006581172e-05 0 0.00019103279037630273 0.00061871533206015101 0 0.00078206484936091402 0.00013352938763693223 0 0.00078583337232199929 -0.00019148025759935345 0 -0.0056222973759373447 -0.0011815486695343899 0 -0.0057992896270887559 -0.0011662955828765024 0 -0.0056564987547627638 -0.0013269890062888483 0 0.00078206484936091402 0.00013352938763693223 0 0.00078583337232199929 -0.00019148025759935345 0 0.0014209323784662919 -0.00035725170754164165 0 -0.0029723189227696804 -0.00047742642155583834 0 -0.0018546564958781602 -0.00098534656031516211 0 0.0045988000988046798 -0.0003099426715788823 0 0.0049406552243241794 0.00021262861675996425 0 0.0051707235217289685 -0.00026442615460353137 0 0.0055977451295214789 0.0001680461772430716 0 0.0049406552243241794 0.00021262861675996425 0 0.0051707235217289685 -0.00026442615460353137 0 -0.0051834903634630659 -0.001370852154841799 0 -0.0054802366913630609 -0.0012178035823895673 0 -0.0053552823063201917 -0.0015624996078304838 0 -0.0054200595214462678 -0.001257902640680014 0 -0.005602030297195762 -0.0014834405351932518 0 -0.0051834903634630659 -0.001370852154841799 0 -0.0053552823063201917 -0.0015624996078304838 0 -0.0051380944345705915 -0.0015780345374478769 0 -0.0054802366913630609 -0.0012178035823895673 0 -0.0056564987547627638 -0.0013269890062888483 0 -0.0054679870333357149 -0.0014909410381469812 0 -0.0054802366913630609 -0.0012178035823895673 0 -0.0054679870333357149 -0.0014909410381469812 0 -0.00534787202778007 -0.0014193510268038945 0 -0.0054802366913630609 -0.0012178035823895673 0 -0.0056222973759373447 -0.0011815486695343899 0 -0.0056564987547627638 -0.0013269890062888483 0 -0.0054679870333357149 -0.0014909410381469812 0 -0.00534787202778007 -0.0014193510268038945 0 -0.0052164807221518816 -0.0016758423428034077 0 -0.0053552823063201917 -0.0015624996078304838 0 -0.0051846492708733441 -0.0021326695880349036 0 -0.0050781274724308323 -0.0018460750673692256 0 -0.005602030297195762 -0.0014834405351932518 0 -0.0020997654402183023 -0.0013961614038839165 0 -0.0053552823063201917 -0.0015624996078304838 0 -0.0051380944345705915 -0.0015780345374478769 0 -0.0050781274724308323 -0.0018460750673692256 0 -0.0018546564958781602 -0.00098534656031516211 0 -0.0020997654402183023 -0.0013961614038839165 0 -0.004819379676604031 -0.0021190356377593349 0 -0.0051846492708733441 -0.0021326695880349036 0 -0.0050781274724308323 -0.0018460750673692256 0 0.00078583337232199929 -0.00019148025759935345 0 0.0014209323784662919 -0.00035725170754164165 0 0.0014372700531808168 -0.0010440749483224859 0 0.0014209323784662919 -0.00035725170754164165 0 0.0020962581941093121 -0.0008670739125089923 0 0.0014372700531808168 -0.0010440749483224859 0 0.0063019729110017448 -0.0006875395603990808 0 0.0057928722059227182 -0.00085739055702114739 0 0.0060346613137721187 -0.0014321102124578351 0 0.0063019729110017448 -0.0006875395603990808 0 0.0070563604853702555 -0.0016597283757887854 0 0.0060346613137721187 -0.0014321102124578351 0 0.0023336186934256598 -0.0015638069156174237 0 0.0014372700531808168 -0.0010440749483224859 0 0.0021372944673592985 -0.0019298633094400335 0 0.0023336186934256598 -0.0015638069156174237 0 0.0020962581941093121 -0.0008670739125089923 0 0.0014372700531808168 -0.0010440749483224859 0 0.0035794431833515734 -0.00074341497946406668 0 0.0059003618503775052 -0.0020641609358070163 0 0.0037463784841079259 -0.0011996653906849372 0 -0.0020997654402183023 -0.0013961614038839165 0 0.0045988000988046798 -0.0003099426715788823 0 0.0051707235217289685 -0.00026442615460353137 0 0.0052793173248170174 -0.00085356923062764099 0 0.0051707235217289685 -0.00026442615460353137 0 0.0055656961647080703 -0.00046568134486057609 0 0.0052793173248170174 -0.00085356923062764099 0 0.0051367448486515175 -0.00042345691244558817 0 0.0064439439423178719 -0.001250512114154957 0 0.0055977451295214789 0.0001680461772430716 0 0.0051707235217289685 -0.00026442615460353137 0 0.0055656961647080703 -0.00046568134486057609 0 0.0055977451295214789 0.0001680461772430716 0 0.0063019729110017448 -0.0006875395603990808 0 0.0055656961647080703 -0.00046568134486057609 0 0.0063019729110017448 -0.0006875395603990808 0 0.0055656961647080703 -0.00046568134486057609 0 0.0057928722059227182 -0.00085739055702114739 0 0.0035409423042768837 -6.8715800006581172e-05 0 0.0035794431833515734 -0.00074341497946406668 0 0.0055656961647080703 -0.00046568134486057609 0 0.0057928722059227182 -0.00085739055702114739 0 0.0052793173248170174 -0.00085356923062764099 0 0.0075830329410646489 -0.0016082362265637143 0 0.0087782613839704864 -0.0035336579745060088 0 0.0095483519321582066 -0.002872513199890586 0 0.0064439439423178719 -0.001250512114154957 0 0.0077959707853196697 -0.0020818934224367939 0 0.0057928722059227182 -0.00085739055702114739 0 0.0052793173248170174 -0.00085356923062764099 0 0.0060346613137721187 -0.0014321102124578351 0 0.0064618084271003771 -0.0022090123463595944 0 0.0075830329410646489 -0.0016082362265637143 0 0.0087782613839704864 -0.0035336579745060088 0 0.0056721728342154073 -0.00050134265372724519 0 0.0064618084271003771 -0.0022090123463595944 0 0.0075830329410646489 -0.0016082362265637143 0 0.011814523451446873 -0.00047293304634689901 0 0.013772181433917487 -0.001701988507544239 0 0.017228571799349227 0.0012294097290725845 0 0.018527534865501471 0.00028716576290720153 0 0.017732795423112076 -0.00014135052227716769 0 0.018527534865501471 0.00028716576290720153 0 0.019257619807185624 -0.001197831012343616 0 0.018325109224536722 -0.0010505349282153231 0 0.018527534865501471 0.00028716576290720153 0 0.017732795423112076 -0.00014135052227716769 0 0.018325109224536722 -0.0010505349282153231 0 0.017732795423112076 -0.00014135052227716769 0 0.018325109224536722 -0.0010505349282153231 0 0.017386654027488416 -0.00085202261698474164 0 0.0087774334453343712 -0.0041216978670755551 0 0.0090051205813297657 -0.0037283482479491849 0 0.0083878489669105445 -0.003295787571432238 0 0.0060423977234238769 -0.00082939384785123214 0 0.0058644668728474172 -0.0011500483660458589 0 0.0062188922003600265 -0.0013238304786569899 0 0.0037463784841079259 -0.0011996653906849372 0 0.0059003618503775052 -0.0020641609358070163 0 0.0059003618503775052 -0.0020641609358070163 0 0.008971670304360831 -0.0037059278354490089 0 0.0087782613839704864 -0.0035336579745060088 0 0.0095483519321582066 -0.002872513199890586 0 0.011076226183682243 -0.0048633977545709433 0 0.011472218974110004 -0.0041632773062074977 0 0.0095483519321582066 -0.002872513199890586 0 0.011076226183682243 -0.0048633977545709433 0 0.0070563604853702555 -0.0016597283757887854 0 0.0068582234823866177 -0.0020219012644645579 0 0.0060346613137721187 -0.0014321102124578351 0 0.013772181433917487 -0.001701988507544239 0 0.014792444779244535 -0.0022802280394923799 0 0.008971670304360831 -0.0037059278354490089 0 0.0077959707853196697 -0.0020818934224367939 0 0.018527534865501471 0.00028716576290720153 0 0.019641759057049173 -0.00050439398273767618 0 0.019257619807185624 -0.001197831012343616 0 0.014792444779244535 -0.0022802280394923799 0 0.019091375846005666 -0.0011864020687658238 0 0.014792444779244535 -0.0022802280394923799 0 0.011690408486734079 -0.0030196605466524117 0 0.009413758987307265 -0.0033989289197683247 0 0.0083878489669105445 -0.003295787571432238 0 0.0082157281023545383 -0.0029922362580564106 0 0.009413758987307265 -0.0033989289197683247 0 0.0081037093947291805 -0.0026770903557226575 0 0.0082157281023545383 -0.0029922362580564106 0 0.0091689142651430206 -0.0038187146345465576 0 0.009413758987307265 -0.0033989289197683247 0 0.0083878489669105445 -0.003295787571432238 0 0.008971670304360831 -0.0037059278354490089 0 0.014792444779244535 -0.0022802280394923799 0 0.008971670304360831 -0.0037059278354490089 0 0.0085053849477950971 -0.0033750289400208194 0 0.018586383126700256 -0.0021157904601484616 0 0.018654937916428905 -0.0021061437147069403 0 0.018613297201521217 -0.002088310067996852 0 0.018588584403768333 -0.002159406508852406 0 0.018586383126700256 -0.0021157904601484616 0 0.018533210293205784 -0.0021159121381961951 0 0.018586383126700256 -0.0021157904601484616 0 0.018613297201521217 -0.002088310067996852 0 0.018533210293205784 -0.0021159121381961951 0 0.018588584403768333 -0.002159406508852406 0 0.018586383126700256 -0.0021157904601484616 0 0.018654937916428905 -0.0021061437147069403 0 0.018654937916428905 -0.0021061437147069403 0 0.018742732693968252 -0.0019474475494898253 0 0.018613297201521217 -0.002088310067996852 0 0.019091375846005666 -0.0011864020687658238 0 0.018703622810913017 -0.0020268368923004802 0 0.018742732693968252 -0.0019474475494898253 0 0.018613297201521217 -0.002088310067996852 0 0.018648793193116839 -0.0021513388036923137 0 0.018613297201521217 -0.002088310067996852 0 0.018604079148833764 -0.0021770214458237034 0 0.018590937752301841 -0.0021330843154593847 0 0.018613297201521217 -0.002088310067996852 0 0.018590937752301841 -0.0021330843154593847 0 0.018533210293205784 -0.0021159121381961951 0 0.018325109224536722 -0.0010505349282153231 0 0.018177316091088646 -0.0017870439879293283 0 0.017386654027488416 -0.00085202261698474164 0 0.018177316091088646 -0.0017870439879293283 0 0.017386654027488416 -0.00085202261698474164 0 0.017283761920459672 -0.001771283442507618 0 0.019257619807185624 -0.001197831012343616 0 0.018742732693968252 -0.0019474475494898253 0 0.018325109224536722 -0.0010505349282153231 0 0.018742732693968252 -0.0019474475494898253 0 0.018325109224536722 -0.0010505349282153231 0 0.018177316091088646 -0.0017870439879293283 0 0.018742732693968252 -0.0019474475494898253 0 0.018523324545559904 -0.0021614889063921307 0 0.018177316091088646 -0.0017870439879293283 0 0.018742732693968252 -0.0019474475494898253 0 0.018523324545559904 -0.0021614889063921307 0 0.018648793193116839 -0.0021513388036923137 0 0.018177316091088646 -0.0017870439879293283 0 0.018182856396270378 -0.0024732527074699572 0 0.017283761920459672 -0.001771283442507618 0 0.018523324545559904 -0.0021614889063921307 0 0.018177316091088646 -0.0017870439879293283 0 0.018182856396270378 -0.0024732527074699572 0 0.018182856396270378 -0.0024732527074699572 0 0.01858748876538379 -0.0024029459769779366 0 0.018540156258375014 -0.0023445629350865929 0 0.018182856396270378 -0.0024732527074699572 0 0.01858748876538379 -0.0024029459769779366 0 0.018895278729600291 -0.0025132515298804184 0 0.01858748876538379 -0.0024029459769779366 0 0.018540156258375014 -0.0023445629350865929 0 0.018602302052660745 -0.0023132234083412719 0 0.018540156258375014 -0.0023445629350865929 0 0.018580139843194503 -0.0022732055560857676 0 0.018602302052660745 -0.0023132234083412719 0 0.018523324545559904 -0.0021614889063921307 0 0.018182856396270378 -0.0024732527074699572 0 0.018540156258375014 -0.0023445629350865929 0 0.018523324545559904 -0.0021614889063921307 0 0.018540156258375014 -0.0023445629350865929 0 0.018648793193116839 -0.0021513388036923137 0 0.018648793193116839 -0.0021513388036923137 0 0.018604079148833764 -0.0021770214458237034 0 0.018580139843194503 -0.0022732055560857676 0 0.018540156258375014 -0.0023445629350865929 0 0.018648793193116839 -0.0021513388036923137 0 0.018580139843194503 -0.0022732055560857676 0 0.018613297201521217 -0.002088310067996852 0 0.018648793193116839 -0.0021513388036923137 0 0.018604079148833764 -0.0021770214458237034 0 0.018604079148833764 -0.0021770214458237034 0 0.018585120507118972 -0.0021854967995100453 0 0.018590937752301841 -0.0021330843154593847 0 0.018604079148833764 -0.0021770214458237034 0 0.018578503424871447 -0.0022286427946515593 0 0.018585120507118972 -0.0021854967995100453 0 0.018578503424871447 -0.0022286427946515593 0 0.018581823699747382 -0.0022282149236489911 0 0.018585120507118972 -0.0021854967995100453 0 0.018604079148833764 -0.0021770214458237034 0 0.018578503424871447 -0.0022286427946515593 0 0.018580139843194503 -0.0022732055560857676 0 0.018580139843194503 -0.0022732055560857676 0 0.018534882442052283 -0.002272082813790822 0 0.018602302052660745 -0.0023132234083412719 0 0.018578503424871447 -0.0022286427946515593 0 0.018580139843194503 -0.0022732055560857676 0 0.018534882442052283 -0.002272082813790822 0 0.018534882442052283 -0.002272082813790822 0 0.018618081260741066 -0.0021555626688435836 0 0.018602302052660745 -0.0023132234083412719 0 0.018457823527533959 -0.0022697037964621463 0 0.018565169895673538 -0.0022827329412322718 0 0.018534882442052283 -0.002272082813790822 0 0.018369643704428 -0.0020197688165640468 0 0.018226125339928557 -0.0023053018295508556 0 0.018578503424871447 -0.0022286427946515593 0 0.018534882442052283 -0.002272082813790822 0 0.018581823699747382 -0.0022282149236489911 0 0.018369643704428 -0.0020197688165640468 0 0.018618081260741066 -0.0021555626688435836 0 0.018576443396678553 -0.0019646151444342045 0 0.018534882442052283 -0.002272082813790822 0 0.018369643704428 -0.0020197688165640468 0 0.018618081260741066 -0.0021555626688435836 0 0.018618081260741066 -0.0021555626688435836 0 0.018777818188022505 -0.0020075232320315413 0 0.0187598522178875 -0.0022369101880376214 0 0.018618081260741066 -0.0021555626688435836 0 0.018777818188022505 -0.0020075232320315413 0 0.018576443396678553 -0.0019646151444342045 0 0.019020874881735577 -0.0020244934277604616 0 0.0187598522178875 -0.0022369101880376214 0 0.019054088690508432 -0.0022548225519517812 0 0.018777818188022505 -0.0020075232320315413 0 0.019020874881735577 -0.0020244934277604616 0 0.0187598522178875 -0.0022369101880376214 0 0.01858748876538379 -0.0024029459769779366 0 0.0187598522178875 -0.0022369101880376214 0 0.018602302052660745 -0.0023132234083412719 0 0.01858748876538379 -0.0024029459769779366 0 0.0187598522178875 -0.0022369101880376214 0 0.019054088690508432 -0.0022548225519517812 0 0.018618081260741066 -0.0021555626688435836 0 0.0187598522178875 -0.0022369101880376214 0 0.018602302052660745 -0.0023132234083412719 0 0.017233786188658964 -0.0018993429622733962 0 0.01733012811216373 -0.0017242408306352519 0 0.017289961527134058 -0.0018956030264922694 0 0.014742199368037027 -0.002795351295008611 0 0.014320243773499351 -0.0028111462759965672 0 0.014673650153533675 -0.0017586106046490601 0 0.012692944206201659 -0.0022764229466079198 0 0.015342926103463548 -0.0019185264437277328 0 0.012692944206201659 -0.0022764229466079198 0 0.013670263650583561 -0.0031198316724780949 0 0.016125212846187498 -0.0030478376366676785 0 0.016007669760416558 -0.0024842387047912147 0 0.015594969100052402 -0.003065753331716466 0 0.013670263650583561 -0.0031198316724780949 0 0.016754287330896497 -0.003068781054780242 0 0.017085922866884581 -0.0024683228013716537 0 0.016754287330896497 -0.003068781054780242 0 0.016125212846187498 -0.0030478376366676785 0 0.016007669760416558 -0.0024842387047912147 0 0.016445939858020238 -0.0020431498794400709 0 0.016007669760416558 -0.0024842387047912147 0 0.016445939858020238 -0.0020431498794400709 0 0.016433485893190776 -0.0018986965914834755 0 0.013670263650583561 -0.0031198316724780949 0 0.016739835025562037 -0.00183971898028312 0 0.017085922866884581 -0.0024683228013716537 0 0.017221953777331954 -0.0018524431460528634 0 0.012692944206201659 -0.0022764229466079198 0 0.016739835025562037 -0.00183971898028312 0 0.017233786188658964 -0.0018993429622733962 0 0.01733012811216373 -0.0017242408306352519 0 0.017298150420670018 -0.0017087443397002778 0 0.01733012811216373 -0.0017242408306352519 0 0.017595289425325875 -0.0019444784142075545 0 0.017539490914178772 -0.0023056985450370967 0 0.017915993069212356 -0.0019260843890770562 0 0.015342926103463548 -0.0019185264437277328 0 0.01733012811216373 -0.0017242408306352519 0 0.017553385258010201 -0.0017519392201639948 0 0.017595289425325875 -0.0019444784142075545 0 0.018004335780536288 -0.0019472465075323101 0 0.0174500287397279 -0.0019074371860258793 0 0.017553385258010201 -0.0017519392201639948 0 0.017595289425325875 -0.0019444784142075545 0 0.017921229542561763 -0.0017651475781002011 0 0.017595289425325875 -0.0019444784142075545 0 0.017921229542561763 -0.0017651475781002011 0 0.017644749686327642 -0.0021425809973839114 0 0.018369643704428 -0.0020197688165640468 0 0.01802096001589204 -0.0019837396476839954 0 0.018226125339928557 -0.0023053018295508556 0 0.01802096001589204 -0.0019837396476839954 0 0.018226125339928557 -0.0023053018295508556 0 0.017928695843295872 -0.0023150229042761183 0 0.018565169895673538 -0.0022827329412322718 0 0.0174500287397279 -0.0019074371860258793 0 0.018581823699747382 -0.0022282149236489911 0 0.018576506852840301 -0.0021983032321159085 0 0.018580396725150446 -0.0021946714269295655 0 0.017595289425325875 -0.0019444784142075545 0 0.017644749686327642 -0.0021425809973839114 0 0.017539490914178772 -0.0023056985450370967 0 0.017921229542561763 -0.0017651475781002011 0 0.017644749686327642 -0.0021425809973839114 0 0.017753582281141433 -0.0022967428443773979 0 0.0174500287397279 -0.0019074371860258793 0 0.015342926103463548 -0.0019185264437277328 0 0.017644749686327642 -0.0021425809973839114 0 0.017753582281141433 -0.0022967428443773979 0 0.017539490914178772 -0.0023056985450370967 0 0.015342926103463548 -0.0019185264437277328 0 0.012675471129535111 -0.0019161355621378979 0 0.01504909843106246 -0.0019342895124483874 0 0.014974365557020508 -0.0019370280543732701 0 0.015000320740329977 -0.002043942458344807 0 0.018576506852840301 -0.0021983032321159085 0 0.018571479348671757 -0.0021865210775106093 0 0.018580396725150446 -0.0021946714269295655 0 0.0174500287397279 -0.0019074371860258793 0 0.012675471129535111 -0.0019161355621378979 0 0.018571479348671757 -0.0021865210775106093 0 0.018585120507118972 -0.0021854967995100453 0 0.018580396725150446 -0.0021946714269295655 0 0.018581823699747382 -0.0022282149236489911 0 0.018585120507118972 -0.0021854967995100453 0 0.018580396725150446 -0.0021946714269295655 0 0.018585120507118972 -0.0021854967995100453 0 0.018590937752301841 -0.0021330843154593847 0 0.018568241702469519 -0.0021352604953480984 0 0.0074359876896102559 -0.0012655301753366135 0 0.0072218313288671433 -0.0017756667092281089 0 0.0076363574404257383 -0.0018852102764791306 0 0.012675471129535111 -0.0019161355621378979 0 0.013309253902483494 -0.0019303615893214259 0 0.012675471129535111 -0.0019161355621378979 0 0.0090235753813858056 -0.0019931080397447769 0 0.018571479348671757 -0.0021865210775106093 0 0.018585120507118972 -0.0021854967995100453 0 0.018568241702469519 -0.0021352604953480984 0 0.011032030907955051 -0.0020882732302503347 0 0.011035152064229576 -0.0019592005985899874 0 0.011102330408378713 -0.0020077062497822137 0 0.0083453730370277243 -0.0021717695073058198 0 0.0082162968147997274 -0.0014952687539938963 0 0.0085116568198971669 -0.0017812078041285122 0 0.011167431376032627 -0.0021970705738002354 0 0.011032030907955051 -0.0020882732302503347 0 0.011102330408378713 -0.0020077062497822137 0 0.012692944206201659 -0.0022764229466079198 0 0.0094445269149740357 -0.0016334095933440949 0 0.011167431376032627 -0.0021970705738002354 0 0.011093392035882946 -0.0022005149674599162 0 0.011032030907955051 -0.0020882732302503347 0 0.0086531375804043183 -0.0021612550679494533 0 0.0085116568198971669 -0.0017812078041285122 0 0.0087838523577164363 -0.0015254273845448025 0 0.013670263650583561 -0.0031198316724780949 0 0.012456118421123021 -0.0024296006461914511 0 0.015729286039264226 -0.0035969482973856421 0 0.015955087108248483 -0.0029971958554753579 0 0.016142139219995376 -0.0032435024646480844 0 0.0083453730370277243 -0.0021717695073058198 0 0.0086531375804043183 -0.0021612550679494533 0 0.0085116568198971669 -0.0017812078041285122 0 0.0082162968147997274 -0.0014952687539938963 0 0.0085116568198971669 -0.0017812078041285122 0 0.0087838523577164363 -0.0015254273845448025 0 0.0082162968147997274 -0.0014952687539938963 0 0.0087838523577164363 -0.0015254273845448025 0 0.0085646379605474141 -0.0011653335952911436 0 0.0087838523577164363 -0.0015254273845448025 0 0.0085646379605474141 -0.0011653335952911436 0 0.0088398013370255754 -0.00094155373379975612 0 0.0085853987770003054 -0.00089325223282731069 0 0.0085646379605474141 -0.0011653335952911436 0 0.0088398013370255754 -0.00094155373379975612 0 0.0085853987770003054 -0.00089325223282731069 0 0.0087238220826681371 -0.00072537541664548179 0 0.0088398013370255754 -0.00094155373379975612 0 0.0085853987770003054 -0.00089325223282731069 0 0.0083741088317410648 -0.00097835412359028847 0 0.0084289141279012131 -0.0006971999473127299 0 0.0085853987770003054 -0.00089325223282731069 0 0.0085646379605474141 -0.0011653335952911436 0 0.0083741088317410648 -0.00097835412359028847 0 0.0094445269149740357 -0.0016334095933440949 0 0.0085477907181797201 -0.0017198513263140625 0 0.011035152064229576 -0.0019592005985899874 0 0.011102330408378713 -0.0020077062497822137 0 0.011023613382152618 -0.001837730114230508 0 0.0082162968147997274 -0.0014952687539938963 0 0.0085646379605474141 -0.0011653335952911436 0 0.0083741088317410648 -0.00097835412359028847 0 0.0082162968147997274 -0.0014952687539938963 0 0.008095991698274756 -0.00082844373167820348 0 0.0083741088317410648 -0.00097835412359028847 0 0.0090235753813858056 -0.0019931080397447769 0 0.0085477907181797201 -0.0017198513263140625 0 0.008095991698274756 -0.00082844373167820348 0 0.0083741088317410648 -0.00097835412359028847 0 0.0084289141279012131 -0.0006971999473127299 0 0.008095991698274756 -0.00082844373167820348 0 0.008174215892588526 -0.00044061618382271243 0 0.0084289141279012131 -0.0006971999473127299 0 0.0085477907181797201 -0.0017198513263140625 0 0.0076409810865001879 -0.00092091380700666308 0 0.0085477907181797201 -0.0017198513263140625 0 0.0072848817433024586 -0.002015647740625846 0 0.0071537696481147328 -0.0022106832645524075 0 0.0071806946262835897 -0.0018835007405724866 0 0.0071067057102358793 -0.0020612899072849329 0 0.0072337896622630751 -0.0022072680290951712 0 0.0071806946262835897 -0.0018835007405724866 0 0.0073161014214208177 -0.00189767854205051 0 0.0087238220826681371 -0.00072537541664548179 0 0.0084289141279012131 -0.0006971999473127299 0 0.0086085107856844409 -0.00031629114175782218 0 0.008174215892588526 -0.00044061618382271243 0 0.0084289141279012131 -0.0006971999473127299 0 0.0086085107856844409 -0.00031629114175782218 0 0.0085853987770003054 -0.00089325223282731069 0 0.0087238220826681371 -0.00072537541664548179 0 0.0084289141279012131 -0.0006971999473127299 0 0.018590937752301841 -0.0021330843154593847 0 0.018568241702469519 -0.0021352604953480984 0 0.018533210293205784 -0.0021159121381961951 0 0.013309253902483494 -0.0019303615893214259 0 0.011690408486734079 -0.0030196605466524117 0 0.0072218313288671433 -0.0017756667092281089 0 0.0071537696481147328 -0.0022106832645524075 0 0.0072269311624830372 -0.0022101417667329294 0 0.0076363574404257383 -0.0018852102764791306 0 0.0072269311624830372 -0.0022101417667329294 0 0.0079992149774411395 -0.0027063356316367766 0 0.0072218313288671433 -0.0017756667092281089 0 0.0076363574404257383 -0.0018852102764791306 0 0.0072269311624830372 -0.0022101417667329294 0 0.0072269311624830372 -0.0022101417667329294 0 0.0067795556609702651 -0.0018998867525948757 0 0.0064750836825149408 -0.0018364522694043531 0 0.0072269311624830372 -0.0022101417667329294 0 0.0079992149774411395 -0.0027063356316367766 0 0.0080160004966410622 -0.0031262274047159696 0 0.0072269311624830372 -0.0022101417667329294 0 0.0069973926837211872 -0.0019968926757878169 0 0.0067795556609702651 -0.0018998867525948757 0 0.0070981562126265565 -0.002127507122783312 0 0.007511917092618497 -0.0026460098639612593 0 0.0071537696481147328 -0.0022106832645524075 0 0.0072269311624830372 -0.0022101417667329294 0 0.0071067057102358793 -0.0020612899072849329 0 0.0072269311624830372 -0.0022101417667329294 0 0.0071067057102358793 -0.0020612899072849329 0 0.0069973926837211872 -0.0019968926757878169 0 0.0071067057102358793 -0.0020612899072849329 0 0.0070168938651971897 -0.0018966362594858453 0 0.0069973926837211872 -0.0019968926757878169 0 0.0071806946262835897 -0.0018835007405724866 0 0.0071067057102358793 -0.0020612899072849329 0 0.0070168938651971897 -0.0018966362594858453 0 0.0070168938651971897 -0.0018966362594858453 0 0.0069973926837211872 -0.0019968926757878169 0 0.0068792031910179267 -0.0018653324138338577 0 0.0069973926837211872 -0.0019968926757878169 0 0.0067795556609702651 -0.0018998867525948757 0 0.0068792031910179267 -0.0018653324138338577 0 0.0076363574404257383 -0.0018852102764791306 0 0.0080910932324177957 -0.0027518517987392601 0 0.0079992149774411395 -0.0027063356316367766 0 0.0081013765222141473 -0.0027550682434818209 0 0.0079992149774411395 -0.0027063356316367766 0 0.0080160004966410622 -0.0031262274047159696 0 0.0081013765222141473 -0.0027550682434818209 0 0.0082157281023545383 -0.0029922362580564106 0 0.0080160004966410622 -0.0031262274047159696 0 0.011690408486734079 -0.0030196605466524117 0 0.011082253574641475 -0.0027586769710384938 0 0.011690408486734079 -0.0030196605466524117 0 0.010400748605162975 -0.0024282778124881826 0 0.0058644668728474172 -0.0011500483660458589 0 0.0064750836825149408 -0.0018364522694043531 0 0.0062188922003600265 -0.0013238304786569899 0 0.0059003618503775052 -0.0020641609358070163 0 0.007511917092618497 -0.0026460098639612593 0 0.0064750836825149408 -0.0018364522694043531 0 0.0064703955621243509 -0.0015186929685781375 0 0.0062188922003600265 -0.0013238304786569899 0 0.0087774334453343712 -0.0041216978670755551 0 0.0083878489669105445 -0.003295787571432238 0 0.0080160004966410622 -0.0031262274047159696 0 0.0083878489669105445 -0.003295787571432238 0 0.0082157281023545383 -0.0029922362580564106 0 0.0080160004966410622 -0.0031262274047159696 0 0.0067795556609702651 -0.0018998867525948757 0 0.0064750836825149408 -0.0018364522694043531 0 0.0066610901311276848 -0.0017406469736444207 0 0.0064750836825149408 -0.0018364522694043531 0 0.0066070026692736129 -0.0015918060753921969 0 0.0066610901311276848 -0.0017406469736444207 0 0.0064703955621243509 -0.0015186929685781375 0 0.0066070026692736129 -0.0015918060753921969 0 0.0065754888834137389 -0.0013305161178506009 0 0.0064750836825149408 -0.0018364522694043531 0 0.0064703955621243509 -0.0015186929685781375 0 0.0066070026692736129 -0.0015918060753921969 0 0.0066070026692736129 -0.0015918060753921969 0 0.0067243758507042253 -0.0014619250111820826 0 0.0065754888834137389 -0.0013305161178506009 0 0.0067243758507042253 -0.0014619250111820826 0 0.0068645304531177089 -0.0015581816979607205 0 0.0068395321777211804 -0.0014419711123501615 0 0.0067243758507042253 -0.0014619250111820826 0 0.0067589177123427609 -0.0016333237086501103 0 0.0068645304531177089 -0.0015581816979607205 0 0.0067589177123427609 -0.0016333237086501103 0 0.0068951799672303084 -0.0016847024701939343 0 0.0068645304531177089 -0.0015581816979607205 0 0.0066070026692736129 -0.0015918060753921969 0 0.0067589177123427609 -0.0016333237086501103 0 0.0066610901311276848 -0.0017406469736444207 0 0.0066070026692736129 -0.0015918060753921969 0 0.0067243758507042253 -0.0014619250111820826 0 0.0067589177123427609 -0.0016333237086501103 0 0.0067589177123427609 -0.0016333237086501103 0 0.0066610901311276848 -0.0017406469736444207 0 0.0067900657839895682 -0.0017589269220432641 0 0.0067795556609702651 -0.0018998867525948757 0 0.0066610901311276848 -0.0017406469736444207 0 0.0067900657839895682 -0.0017589269220432641 0 0.0067795556609702651 -0.0018998867525948757 0 0.0068792031910179267 -0.0018653324138338577 0 0.0067900657839895682 -0.0017589269220432641 0 0.0068792031910179267 -0.0018653324138338577 0 0.0067900657839895682 -0.0017589269220432641 0 0.0069232024703423222 -0.0017942437795423144 0 0.0067589177123427609 -0.0016333237086501103 0 0.0067900657839895682 -0.0017589269220432641 0 0.0068951799672303084 -0.0016847024701939343 0 0.0067900657839895682 -0.0017589269220432641 0 0.0068951799672303084 -0.0016847024701939343 0 0.0069232024703423222 -0.0017942437795423144 0 0.0068951799672303084 -0.0016847024701939343 0 0.0069232024703423222 -0.0017942437795423144 0 0.0070280064325123287 -0.0017606225253269825 0 0.0070168938651971897 -0.0018966362594858453 0 0.0068792031910179267 -0.0018653324138338577 0 0.0069232024703423222 -0.0017942437795423144 0 0.0070168938651971897 -0.0018966362594858453 0 0.0069232024703423222 -0.0017942437795423144 0 0.0070280064325123287 -0.0017606225253269825 0 0.0071806946262835897 -0.0018835007405724866 0 0.0070168938651971897 -0.0018966362594858453 0 0.0070280064325123287 -0.0017606225253269825 0 0.0068951799672303084 -0.0016847024701939343 0 0.0070280064325123287 -0.0017606225253269825 0 0.0070134113176148934 -0.0016104459316825821 0 0.0070280064325123287 -0.0017606225253269825 0 0.0070134113176148934 -0.0016104459316825821 0 0.0071844792985589039 -0.0016949122718047465 0 0.0068951799672303084 -0.0016847024701939343 0 0.0070134113176148934 -0.0016104459316825821 0 0.0068645304531177089 -0.0015581816979607205 0 0.0068645304531177089 -0.0015581816979607205 0 0.0068395321777211804 -0.0014419711123501615 0 0.0069788557990707609 -0.00143325826390183 0 0.0070134113176148934 -0.0016104459316825821 0 0.0068645304531177089 -0.0015581816979607205 0 0.0069788557990707609 -0.00143325826390183 0 0.0070134113176148934 -0.0016104459316825821 0 0.0069788557990707609 -0.00143325826390183 0 0.0071422499114704762 -0.0015081728370996248 0 0.0068191673480697294 -0.0010002998754441268 0 0.0068195095531369924 -0.0010866403598394632 0 0.0074268430294909364 -0.0014881890088427772 0 0.0069788557990707609 -0.00143325826390183 0 0.0068195095531369924 -0.0010866403598394632 0 0.0071422499114704762 -0.0015081728370996248 0 0.0069788557990707609 -0.00143325826390183 0 0.0068195095531369924 -0.0010866403598394632 0 0.0068123025167832404 -0.0012415984664925599 0 0.0069788557990707609 -0.00143325826390183 0 0.0068371616794450007 -0.0013501899771270454 0 0.0068123025167832404 -0.0012415984664925599 0 0.0068395321777211804 -0.0014419711123501615 0 0.0069788557990707609 -0.00143325826390183 0 0.0068371616794450007 -0.0013501899771270454 0 0.00062287778602668155 -0.001850465942201359 0 0.0011343749831120961 -0.0015502664076214256 0 0.0068195469430250575 -0.00098928042340030086 0 0.0068195095531369924 -0.0010866403598394632 0 0.0064989475413479445 -0.0010127368376577385 0 0.0068195095531369924 -0.0010866403598394632 0 0.0066845518418186551 -0.0011913222354812875 0 0.0068123025167832404 -0.0012415984664925599 0 0.0066845518418186551 -0.0011913222354812875 0 0.0065754888834137389 -0.0013305161178506009 0 0.0064989475413479445 -0.0010127368376577385 0 0.0068195095531369924 -0.0010866403598394632 0 0.0066845518418186551 -0.0011913222354812875 0 0.0064989475413479445 -0.0010127368376577385 0 0.0066845518418186551 -0.0011913222354812875 0 0.0067464730544943719 -0.0013368218664963586 0 0.0065754888834137389 -0.0013305161178506009 0 0.0066845518418186551 -0.0011913222354812875 0 0.0068123025167832404 -0.0012415984664925599 0 0.0067464730544943719 -0.0013368218664963586 0 0.0067243758507042253 -0.0014619250111820826 0 0.0068395321777211804 -0.0014419711123501615 0 0.0067464730544943719 -0.0013368218664963586 0 0.0068371616794450007 -0.0013501899771270454 0 0.0068123025167832404 -0.0012415984664925599 0 0.0067464730544943719 -0.0013368218664963586 0 0.0068395321777211804 -0.0014419711123501615 0 0.0068371616794450007 -0.0013501899771270454 0 0.0067464730544943719 -0.0013368218664963586 0 0.0067243758507042253 -0.0014619250111820826 0 0.0067464730544943719 -0.0013368218664963586 0 0.0065754888834137389 -0.0013305161178506009 0 0.0064703955621243509 -0.0015186929685781375 0 0.0065754888834137389 -0.0013305161178506009 0 0.0062188922003600265 -0.0013238304786569899 0 0.0065754888834137389 -0.0013305161178506009 0 0.0064989475413479445 -0.0010127368376577385 0 0.0062188922003600265 -0.0013238304786569899 0 0.0060268140420736234 -0.0008379470087496937 0 0.0064989475413479445 -0.0010127368376577385 0 0.0062188922003600265 -0.0013238304786569899 0 0.0037463784841079259 -0.0011996653906849372 0 0.0060850105438779315 -0.0013844293333200271 0 0.008174215892588526 -0.00044061618382271243 0 0.0086085107856844409 -0.00031629114175782218 0 0.0082466148501814749 -5.2594029335603064e-05 0 -0.0023705946272330834 0.00017742221340842328 0 -0.0022774877030552832 9.8517692305760508e-05 0 -0.0024416077786833384 3.6365586373275431e-05 0 0.0031056249577577663 -7.145669323857611e-05 0 0.0024984924157247001 -0.00069649808307197393 0 0.0076409810865001879 -0.00092091380700666308 0 0.0024984924157247001 -0.00069649808307197393 0 0.0073161014214208177 -0.00189767854205051 0 0.0071844792985589039 -0.0016949122718047465 0 0.0074268430294909364 -0.0014881890088427772 0 0.0071806946262835897 -0.0018835007405724866 0 0.0070280064325123287 -0.0017606225253269825 0 0.0071844792985589039 -0.0016949122718047465 0 0.0071806946262835897 -0.0018835007405724866 0 0.0073161014214208177 -0.00189767854205051 0 0.0071844792985589039 -0.0016949122718047465 0 0.0071844792985589039 -0.0016949122718047465 0 0.0071422499114704762 -0.0015081728370996248 0 0.0074268430294909364 -0.0014881890088427772 0 0.0070134113176148934 -0.0016104459316825821 0 0.0071844792985589039 -0.0016949122718047465 0 0.0071422499114704762 -0.0015081728370996248 0 -0.0028678065409018572 -0.00078235726770296853 0 -0.0029357415665352132 -0.00082779175481412215 0 -0.0028324319651065219 -0.00088356802213541497 0 0.00062287778602668155 -0.001850465942201359 0 0.0024984924157247001 -0.00069649808307197393 0 0.0068195095531369924 -0.0010866403598394632 0 0.0071422499114704762 -0.0015081728370996248 0 0.0074268430294909364 -0.0014881890088427772 0 -0.0024107746060868483 -9.0806067623172982e-05 0 -0.0022774877030552832 9.8517692305760508e-05 0 -0.0024416077786833384 3.6365586373275431e-05 0 -0.003264882830269311 -0.00051231161955650397 0 0.0024984924157247001 -0.00069649808307197393 0 -0.0025546953354411328 -6.616910804674238e-05 0 -0.0024416077786833384 3.6365586373275431e-05 0 -0.0025869145627569626 5.8596804789436833e-05 0 -0.0023705946272330834 0.00017742221340842328 0 -0.0025869145627569626 5.8596804789436833e-05 0 -0.002439439766321896 0.00025261042731046512 0 -0.0023705946272330834 0.00017742221340842328 0 -0.0024416077786833384 3.6365586373275431e-05 0 -0.0025869145627569626 5.8596804789436833e-05 0 -0.00092286875037973076 0.00053221660782509664 0 0.0033807105834128396 -1.7099540863887704e-06 0 -0.00010177229699911083 0.0024542545948515395 0 0.0016132145060441529 0.0019891876576734898 0 0.0016247000517298498 0.0010014830999028738 0 0.0014863070906310405 0.0011909620795078452 0 0.001775659725079504 0.001281001265284082 0 0.0014894884190750489 0.00095932557099330724 0 0.0016247000517298498 0.0010014830999028738 0 0.0014863070906310405 0.0011909620795078452 0 -0.0021066851016332284 0.0028087373427232759 0 -0.0015466231635163938 0.0033131103296983612 0 -0.0027331320809890272 0.0036282545775793481 0 0.0058752485710933302 0.00057541803466989311 0 0.0058806211096946344 0.0007748905942564176 0 0.0058393268601384454 0.00066000688026417447 0 0.0058752485710933302 0.00057541803466989311 0 0.0058806211096946344 0.0007748905942564176 0 0.0054157618432987388 0.00065126791264913679 0 0.0058806211096946344 0.0007748905942564176 0 0.0058393268601384454 0.00066000688026417447 0 0.0060029012786025097 0.00059162036224343485 0 -0.0015466231635163938 0.0033131103296983612 0 -0.0027331320809890272 0.0036282545775793481 0 -0.0016928892656760148 0.0043594493389647283 0 0.0058752485710933302 0.00057541803466989311 0 0.0058393268601384454 0.00066000688026417447 0 0.0057670612284908065 0.00066063959773617011 0 0.001654494094330329 0.0021956015222515612 0 0.0016132145060441529 0.0019891876576734898 0 0.0058393268601384454 0.00066000688026417447 0 0.0057958652595043519 0.00061848269786445368 0 0.0057670612284908065 0.00066063959773617011 0 0.0057958652595043519 0.00061848269786445368 0 0.0057670612284908065 0.00066063959773617011 0 0.0057423772611829606 0.00060459346831374483 0 0.0016132145060441529 0.0019891876576734898 0 0.001944243289475861 0.0015578785037655863 0 0.0057917691946069933 0.00040086426554028682 0 0.005916137964970823 0.00047527458663873079 0 0.0060758460922741469 0.00015986671725005562 0 0.0057423772611829606 0.00060459346831374483 0 0.0058243590173415521 0.00053668997074876579 0 0.0057917691946069933 0.00040086426554028682 0 0.0057958652595043519 0.00061848269786445368 0 0.0057423772611829606 0.00060459346831374483 0 0.0058243590173415521 0.00053668997074876579 0 0.0058393268601384454 0.00066000688026417447 0 0.0058243590173415521 0.00053668997074876579 0 0.005916137964970823 0.00047527458663873079 0 0.0058393268601384454 0.00066000688026417447 0 0.0057958652595043519 0.00061848269786445368 0 0.0058243590173415521 0.00053668997074876579 0 0.0058243590173415521 0.00053668997074876579 0 0.0057917691946069933 0.00040086426554028682 0 0.005916137964970823 0.00047527458663873079 0 0.0060029012786025097 0.00059162036224343485 0 0.005916137964970823 0.00047527458663873079 0 0.0062271179610044391 0.00050275437085432046 0 0.005916137964970823 0.00047527458663873079 0 0.0060758460922741469 0.00015986671725005562 0 0.0062271179610044391 0.00050275437085432046 0 0.0058806211096946344 0.0007748905942564176 0 0.0060029012786025097 0.00059162036224343485 0 0.0062271179610044391 0.00050275437085432046 0 0.0058393268601384454 0.00066000688026417447 0 0.0060029012786025097 0.00059162036224343485 0 0.005916137964970823 0.00047527458663873079 0 0.015083865372205721 -0.0034065629603724128 0 0.015170452684120084 -0.0035763294153832014 0 0.014312068815976074 -0.0034403734089820475 0 0.016422592708297771 -0.0034010351583417435 0 0.016898095478197206 -0.0032911737036089967 0 0.016676116717412461 -0.0031659067753665037 0 0.01616461696351212 -0.0036315786840118887 0 0.014024826794415768 -0.0024627070711950383 0 0.0096371537078936143 -0.0015745713548515762 0 0.014024826794415768 -0.0024627070711950383 0 0.0057917691946069933 0.00040086426554028682 0 0.0060758460922741469 0.00015986671725005562 0 0.0057463515879855598 0.00019993814070229623 0 0.014024826794415768 -0.0024627070711950383 0 0.01736338873466528 -0.003629258875005511 0 0.016639446398979522 -0.0028351822614774837 0 0.016619594049455896 -0.002957965057763553 0 0.016676116717412461 -0.0031659067753665037 0 0.01650978383865661 -0.0028721147640049793 0 0.016639446398979522 -0.0028351822614774837 0 0.016172731827152408 -0.0027488678163743291 0 0.014024826794415768 -0.0024627070711950383 0 0.017070303470069312 -0.002736356881686173 0 0.016606375416740121 -0.0028770833054628147 0 0.016639446398979522 -0.0028351822614774837 0 0.016619594049455896 -0.002957965057763553 0 0.016606375416740121 -0.0028770833054628147 0 0.01650978383865661 -0.0028721147640049793 0 0.016619594049455896 -0.002957965057763553 0 0.014024826794415768 -0.0024627070711950383 0 0.007539940998532813 -0.00047813568751787908 0 0.015677157855064697 -0.002617857893425756 0 0.01613969453049903 -0.0027005200821544222 0 0.01604601461355391 -0.0028572475340383225 0 0.016147352876751026 -0.0027026234165339847 0 0.016172731827152408 -0.0027488678163743291 0 0.01613969453049903 -0.0027005200821544222 0 0.0057917691946069933 0.00040086426554028682 0 0.0057463515879855598 0.00019993814070229623 0 0.0055061007664593421 0.00040642465730875767 0 0.016606375416740121 -0.0028770833054628147 0 0.01650978383865661 -0.0028721147640049793 0 0.016639446398979522 -0.0028351822614774837 0 0.014024826794415768 -0.0024627070711950383 0 0.016820534362591642 -0.0027925987470130724 0 0.01650978383865661 -0.0028721147640049793 0 0.016172731827152408 -0.0027488678163743291 0 0.016473032433571212 -0.0029207583743941119 0 0.0087838523577164363 -0.0015254273845448025 0 0.0088398013370255754 -0.00094155373379975612 0 0.0089047104940233202 -0.00088634902127423024 0 0.012456118421123021 -0.0024296006461914511 0 0.0099832366473279598 -0.00059465717884773887 0 0.015955087108248483 -0.0029971958554753579 0 0.016172731827152408 -0.0027488678163743291 0 0.016118944626767141 -0.0026717881281441533 0 0.0087238220826681371 -0.00072537541664548179 0 0.0088398013370255754 -0.00094155373379975612 0 0.0088958428108676119 -0.00088795158075630556 0 0.0096548710422390081 -0.00078979582099197876 0 0.0099832366473279598 -0.00059465717884773887 0 0.016172731827152408 -0.0027488678163743291 0 0.016118944626767141 -0.0026717881281441533 0 0.01613969453049903 -0.0027005200821544222 0 0.016118944626767141 -0.0026717881281441533 0 0.01613969453049903 -0.0027005200821544222 0 0.01604601461355391 -0.0028572475340383225 0 0.0099832366473279598 -0.00059465717884773887 0 0.007539940998532813 -0.00047813568751787908 0 0.0073699291673709581 0.00012456414825532945 0 0.006385042567387476 -0.00061833700220990191 0 0.0069802060923580805 -0.0010932675280075179 0 0.0087238220826681371 -0.00072537541664548179 0 0.0086085107856844409 -0.00031629114175782218 0 0.0089548519826745075 -0.00058218039095080684 0 0.007539940998532813 -0.00047813568751787908 0 0.0033807105834128396 -1.7099540863887704e-06 0 0.0099832366473279598 -0.00059465717884773887 0 0.0033807105834128396 -1.7099540863887704e-06 0 0.0087238220826681371 -0.00072537541664548179 0 0.0088958428108676119 -0.00088795158075630556 0 0.0089548519826745075 -0.00058218039095080684 0 0.0031056249577577663 -7.145669323857611e-05 0 0.0033807105834128396 -1.7099540863887704e-06 0 0.0014863070906310405 0.0011909620795078452 0 0.0017202390498809754 0.0013315117963249444 0 0.001775659725079504 0.001281001265284082 0 0.0057325561571765424 0.0006434238154278373 0 0.0057423772611829606 0.00060459346831374483 0 0.0055061007664593421 0.00040642465730875767 0 0.0057423772611829606 0.00060459346831374483 0 0.0057917691946069933 0.00040086426554028682 0 0.0055061007664593421 0.00040642465730875767 0 0.0016132145060441529 0.0019891876576734898 0 0.007539940998532813 -0.00047813568751787908 0 0.0034764410525695596 0.00097778953836178285 0 0.0037857063127526994 0.0013711519993078608 0 0.0031766867536077532 0.0014390083806106327 0 0.0034764410525695596 0.00097778953836178285 0 0.0031766867536077532 0.0014390083806106327 0 0.0030078353446713764 0.0011279245336774607 0 0.0034764410525695596 0.00097778953836178285 0 0.0030460893015441196 0.00067721218192288188 0 0.0030078353446713764 0.0011279245336774607 0 0.0034764410525695596 0.00097778953836178285 0 0.0035595488819574793 0.00041667997025706462 0 0.0030460893015441196 0.00067721218192288188 0 0.0035595488819574793 0.00041667997025706462 0 0.0030460893015441196 0.00067721218192288188 0 0.0028758630469651845 0.0001382974942437436 0 0.0041268346862045682 3.1280570752792656e-05 0 0.0035595488819574793 0.00041667997025706462 0 0.0043928872324584872 0.00079413137906678231 0 0.0034764410525695596 0.00097778953836178285 0 0.0043928872324584872 0.00079413137906678231 0 0.0037857063127526994 0.0013711519993078608 0 0.0034764410525695596 0.00097778953836178285 0 0.0035595488819574793 0.00041667997025706462 0 0.0043928872324584872 0.00079413137906678231 0 0.0043928872324584872 0.00079413137906678231 0 0.0044222474093667773 0.0012172261134616731 0 0.0041902639555959371 0.0011993260177275882 0 0.0044945574438402273 0.0007209143513567574 0 0.0036355535570609383 0.0015542453930843243 0 0.0043928872324584872 0.00079413137906678231 0 0.004880286760130562 0.0013214477525947759 0 0.0044222474093667773 0.0012172261134616731 0 0.0043928872324584872 0.00079413137906678231 0 0.0049721346556355333 0.00067637639821759141 0 0.004880286760130562 0.0013214477525947759 0 0.0050569105345149397 -8.1421557350623395e-05 0 0.0043928872324584872 0.00079413137906678231 0 0.0049721346556355333 0.00067637639821759141 0 0.0050569105345149397 -8.1421557350623395e-05 0 0.0041268346862045682 3.1280570752792656e-05 0 0.0043928872324584872 0.00079413137906678231 0 0.0050569105345149397 -8.1421557350623395e-05 0 0.0058752485710933302 0.00057541803466989311 0 0.0054157618432987388 0.00065126791264913679 0 0.00059473077481906104 0.0013789194119611238 0 0.001654494094330329 0.0021956015222515612 0 0.0050569105345149397 -8.1421557350623395e-05 0 0.0049721346556355333 0.00067637639821759141 0 0.0054157618432987388 0.00065126791264913679 0 0.0058806211096946344 0.0007748905942564176 0 0.0054157618432987388 0.00065126791264913679 0 0.004880286760130562 0.0013214477525947759 0 0.0062465969582750245 0.0006240404322062561 0 0.004999300760550324 0.0013353654436045433 0 0.0049721346556355333 0.00067637639821759141 0 0.0054157618432987388 0.00065126791264913679 0 0.004880286760130562 0.0013214477525947759 0 0.0062271179610044391 0.00050275437085432046 0 0.0064371520039006955 0.00031087582897007353 0 0.0067530517347013357 0.00060223461652503631 0 0.0060758460922741469 0.00015986671725005562 0 0.0062271179610044391 0.00050275437085432046 0 0.0064371520039006955 0.00031087582897007353 0 0.0058806211096946344 0.0007748905942564176 0 0.0062271179610044391 0.00050275437085432046 0 0.0067530517347013357 0.00060223461652503631 0 0.0064371520039006955 0.00031087582897007353 0 0.0067740855806646318 5.9152136208032435e-05 0 0.0067530517347013357 0.00060223461652503631 0 0.015083865372205721 -0.0034065629603724128 0 0.015170452684120084 -0.0035763294153832014 0 0.015532235980826037 -0.0035037835964093272 0 0.0096371537078936143 -0.0015745713548515762 0 0.011710697438819312 -0.0018108218973021208 0 0.015170452684120084 -0.0035763294153832014 0 0.015532235980826037 -0.0035037835964093272 0 0.015582236999816262 -0.0034806030730873249 0 0.0060758460922741469 0.00015986671725005562 0 0.0064371520039006955 0.00031087582897007353 0 0.0067740855806646318 5.9152136208032435e-05 0 0.015532235980826037 -0.0035037835964093272 0 0.015314383070687753 -0.0035237358481474872 0 0.015582236999816262 -0.0034806030730873249 0 0.011710697438819312 -0.0018108218973021208 0 0.0095216377182441338 -0.00079895718360158108 0 0.004999300760550324 0.0013353654436045433 0 0.0095216377182441338 -0.00079895718360158108 0 0.0067740855806646318 5.9152136208032435e-05 0 0.0067530517347013357 0.00060223461652503631 0 0.0077600279980739447 0.0001228682102333039 0 0.0044222474093667773 0.0012172261134616731 0 0.0041902639555959371 0.0011993260177275882 0 0.0042626722488626027 0.0015064191531835884 0 0.004880286760130562 0.0013214477525947759 0 0.0044222474093667773 0.0012172261134616731 0 0.0042626722488626027 0.0015064191531835884 0 0.015077238403867901 -0.0038317254175464508 0 0.015314383070687753 -0.0035237358481474872 0 0.015019952383802456 -0.0032861163663302087 0 0.015532235980826037 -0.0035037835964093272 0 0.015077238403867901 -0.0038317254175464508 0 0.015314383070687753 -0.0035237358481474872 0 0.0095216377182441338 -0.00079895718360158108 0 0.0060810863775916345 0.00082765755989372631 0 0.015077238403867901 -0.0038317254175464508 0 0.014596234649632826 -0.0032584323196180802 0 0.014224800584403004 -0.0035230329649946703 0 0.0095216377182441338 -0.00079895718360158108 0 0.015438985941607851 -0.004204500730248196 0 0.010080902851788771 -0.0014734342298228613 0 0.013125329325088845 -0.001178157184756693 0 0.014224800584403004 -0.0035230329649946703 0 0.0037857063127526994 0.0013711519993078608 0 0.0032631335246690175 0.0018590175954774049 0 0.0031766867536077532 0.0014390083806106327 0 0.0041902639555959371 0.0011993260177275882 0 0.0042626722488626027 0.0015064191531835884 0 0.0039844758688717188 0.0014562303168012527 0 0.0036355535570609383 0.0015542453930843243 0 0.0060810863775916345 0.00082765755989372631 0 0.014783944979607597 -0.00288117883931848 0 0.014501635478052643 -0.0025073803989601171 0 0.014371965907693499 -0.0028542572281680663 0 0.014783944979607597 -0.00288117883931848 0 0.014956840983141316 -0.0024638669544086093 0 0.014501635478052643 -0.0025073803989601171 0 0.014783944979607597 -0.00288117883931848 0 0.014596234649632826 -0.0032584323196180802 0 0.014371965907693499 -0.0028542572281680663 0 0.015077238403867901 -0.0038317254175464508 0 0.014596234649632826 -0.0032584323196180802 0 0.015019952383802456 -0.0032861163663302087 0 0.014783944979607597 -0.00288117883931848 0 0.014596234649632826 -0.0032584323196180802 0 0.015019952383802456 -0.0032861163663302087 0 0.015019952383802456 -0.0032861163663302087 0 0.015403137503320355 -0.0032630220237197362 0 0.015384024337839326 -0.0028738375229478584 0 0.015314383070687753 -0.0035237358481474872 0 0.015019952383802456 -0.0032861163663302087 0 0.015403137503320355 -0.0032630220237197362 0 0.014783944979607597 -0.00288117883931848 0 0.015019952383802456 -0.0032861163663302087 0 0.015384024337839326 -0.0028738375229478584 0 0.014783944979607597 -0.00288117883931848 0 0.015384024337839326 -0.0028738375229478584 0 0.014956840983141316 -0.0024638669544086093 0 0.015384024337839326 -0.0028738375229478584 0 0.015699465087258588 -0.0031247096071650182 0 0.016008598259762242 -0.0029035179335047657 0 0.015384024337839326 -0.0028738375229478584 0 0.016008598259762242 -0.0029035179335047657 0 0.015971706823345481 -0.0025984261278520315 0 0.015403137503320355 -0.0032630220237197362 0 0.015384024337839326 -0.0028738375229478584 0 0.015699465087258588 -0.0031247096071650182 0 0.015403137503320355 -0.0032630220237197362 0 0.015582236999816262 -0.0034806030730873249 0 0.015699465087258588 -0.0031247096071650182 0 0.015582236999816262 -0.0034806030730873249 0 0.015699465087258588 -0.0031247096071650182 0 0.016130529402165226 -0.0031615127065708591 0 0.015314383070687753 -0.0035237358481474872 0 0.015403137503320355 -0.0032630220237197362 0 0.015582236999816262 -0.0034806030730873249 0 0.01616461696351212 -0.0036315786840118887 0 0.015409315628587899 -0.0034285362578703031 0 0.016422592708297771 -0.0034010351583417435 0 0.015582236999816262 -0.0034806030730873249 0 0.016130529402165226 -0.0031615127065708591 0 0.016130529402165226 -0.0031615127065708591 0 0.016008598259762242 -0.0029035179335047657 0 0.016373708356031969 -0.0029659492542149059 0 0.016130529402165226 -0.0031615127065708591 0 0.016463914459924262 -0.0031403039816912419 0 0.016373708356031969 -0.0029659492542149059 0 0.015699465087258588 -0.0031247096071650182 0 0.016130529402165226 -0.0031615127065708591 0 0.016008598259762242 -0.0029035179335047657 0 0.016008598259762242 -0.0029035179335047657 0 0.016330403221975563 -0.0027066350489297363 0 0.016373708356031969 -0.0029659492542149059 0 0.016008598259762242 -0.0029035179335047657 0 0.016330403221975563 -0.0027066350489297363 0 0.015971706823345481 -0.0025984261278520315 0 0.016330403221975563 -0.0027066350489297363 0 0.016327199328763742 -0.0024093826738935489 0 0.015971706823345481 -0.0025984261278520315 0 0.016327199328763742 -0.0024093826738935489 0 0.01607789341033199 -0.0022598549467060859 0 0.015971706823345481 -0.0025984261278520315 0 0.016327199328763742 -0.0024093826738935489 0 0.016625391263856037 -0.0022140886826590754 0 0.016356917284535616 -0.0021576694024774633 0 0.016327199328763742 -0.0024093826738935489 0 0.01607789341033199 -0.0022598549467060859 0 0.016356917284535616 -0.0021576694024774633 0 0.01607789341033199 -0.0022598549467060859 0 0.015697420291260349 -0.0023744629548507249 0 0.016040023517416575 -0.0019793144087376226 0 0.01607789341033199 -0.0022598549467060859 0 0.015971706823345481 -0.0025984261278520315 0 0.015697420291260349 -0.0023744629548507249 0 0.015384024337839326 -0.0028738375229478584 0 0.015971706823345481 -0.0025984261278520315 0 0.015697420291260349 -0.0023744629548507249 0 0.015384024337839326 -0.0028738375229478584 0 0.014956840983141316 -0.0024638669544086093 0 0.015321492483887394 -0.0019580328441689164 0 0.014956840983141316 -0.0024638669544086093 0 0.015321492483887394 -0.0019580328441689164 0 0.014805972606990793 -0.0021185769855863327 0 0.015396639544537389 -0.0028480771903385107 0 0.015515954658626336 -0.002213040139701309 0 0.015321492483887394 -0.0019580328441689164 0 0.014805972606990793 -0.0021185769855863327 0 0.01467576919193408 -0.001692911057869298 0 0.015321492483887394 -0.0019580328441689164 0 0.01467576919193408 -0.001692911057869298 0 0.014969277560961778 -0.0014307478438518857 0 0.014805972606990793 -0.0021185769855863327 0 0.01467576919193408 -0.001692911057869298 0 0.014237341694448298 -0.0020868782993309475 0 0.014805972606990793 -0.0021185769855863327 0 0.014501635478052643 -0.0025073803989601171 0 0.014237341694448298 -0.0020868782993309475 0 0.014956840983141316 -0.0024638669544086093 0 0.014805972606990793 -0.0021185769855863327 0 0.014501635478052643 -0.0025073803989601171 0 0.016691420927269253 -0.0030369136440502212 0 0.016846235824330567 -0.0029493145420355893 0 0.016624152772704643 -0.0030858764794424827 0 0.016691420927269253 -0.0030369136440502212 0 0.01653941963912859 -0.0030692423427722921 0 0.016624152772704643 -0.0030858764794424827 0 0.016691420927269253 -0.0030369136440502212 0 0.01653941963912859 -0.0030692423427722921 0 0.016650360946743503 -0.0030456787334131106 0 0.016407356960323149 -0.0032130302404675152 0 0.016754287330896497 -0.003068781054780242 0 0.016142139219995376 -0.0032435024646480844 0 0.01653941963912859 -0.0030692423427722921 0 0.016152455509512959 -0.0035920851398356145 0 0.01653941963912859 -0.0030692423427722921 0 0.016624152772704643 -0.0030858764794424827 0 0.016602375612469168 -0.0030863798552523466 0 0.015729286039264226 -0.0035969482973856421 0 0.016142139219995376 -0.0032435024646480844 0 0.016152455509512959 -0.0035920851398356145 0 0.016224416492439726 -0.0029746712709133099 0 0.016354339563998874 -0.0029353992341212345 0 0.01653941963912859 -0.0030692423427722921 0 0.016142139219995376 -0.0032435024646480844 0 0.016224416492439726 -0.0029746712709133099 0 0.01653941963912859 -0.0030692423427722921 0 0.015955087108248483 -0.0029971958554753579 0 0.016142139219995376 -0.0032435024646480844 0 0.016224416492439726 -0.0029746712709133099 0 0.015955087108248483 -0.0029971958554753579 0 0.016172731827152408 -0.0027488678163743291 0 0.016224416492439726 -0.0029746712709133099 0 0.016172731827152408 -0.0027488678163743291 0 0.016354339563998874 -0.0029353992341212345 0 0.016473032433571212 -0.0029207583743941119 0 0.016172731827152408 -0.0027488678163743291 0 0.016224416492439726 -0.0029746712709133099 0 0.016354339563998874 -0.0029353992341212345 0 0.016354339563998874 -0.0029353992341212345 0 0.016473032433571212 -0.0029207583743941119 0 0.01653941963912859 -0.0030692423427722921 0 0.016473032433571212 -0.0029207583743941119 0 0.01653941963912859 -0.0030692423427722921 0 0.016650360946743503 -0.0030456787334131106 0 0.01650978383865661 -0.0028721147640049793 0 0.016473032433571212 -0.0029207583743941119 0 0.016619594049455896 -0.002957965057763553 0 0.016473032433571212 -0.0029207583743941119 0 0.016650360946743503 -0.0030456787334131106 0 0.016619594049455896 -0.002957965057763553 0 0.016650360946743503 -0.0030456787334131106 0 0.016619594049455896 -0.002957965057763553 0 0.016676116717412461 -0.0031659067753665037 0 0.016676116717412461 -0.0031659067753665037 0 0.016604241927940629 -0.0030208542672813341 0 0.016703414163006844 -0.0030482003768973064 0 0.016650360946743503 -0.0030456787334131106 0 0.016676116717412461 -0.0031659067753665037 0 0.016703414163006844 -0.0030482003768973064 0 0.016676116717412461 -0.0031659067753665037 0 0.016463914459924262 -0.0031403039816912419 0 0.016604241927940629 -0.0030208542672813341 0 0.016422592708297771 -0.0034010351583417435 0 0.016130529402165226 -0.0031615127065708591 0 0.016463914459924262 -0.0031403039816912419 0 0.016422592708297771 -0.0034010351583417435 0 0.016676116717412461 -0.0031659067753665037 0 0.016463914459924262 -0.0031403039816912419 0 0.016463914459924262 -0.0031403039816912419 0 0.016373708356031969 -0.0029659492542149059 0 0.016604241927940629 -0.0030208542672813341 0 0.016373708356031969 -0.0029659492542149059 0 0.016604241927940629 -0.0030208542672813341 0 0.016606455131178643 -0.0028118529864749708 0 0.016691420927269253 -0.0030369136440502212 0 0.016650360946743503 -0.0030456787334131106 0 0.016703414163006844 -0.0030482003768973064 0 0.016604241927940629 -0.0030208542672813341 0 0.016703414163006844 -0.0030482003768973064 0 0.016846235824330567 -0.0029493145420355893 0 0.016604241927940629 -0.0030208542672813341 0 0.016846235824330567 -0.0029493145420355893 0 0.016606455131178643 -0.0028118529864749708 0 0.016691420927269253 -0.0030369136440502212 0 0.016703414163006844 -0.0030482003768973064 0 0.016846235824330567 -0.0029493145420355893 0 0.016846235824330567 -0.0029493145420355893 0 0.016606455131178643 -0.0028118529864749708 0 0.016927289283679134 -0.0025678538347702964 0 0.016846235824330567 -0.0029493145420355893 0 0.016927289283679134 -0.0025678538347702964 0 0.017233780934661838 -0.0026245672317584136 0 0.016330403221975563 -0.0027066350489297363 0 0.016373708356031969 -0.0029659492542149059 0 0.016606455131178643 -0.0028118529864749708 0 0.016606455131178643 -0.0028118529864749708 0 0.016611126433224498 -0.00250205751257486 0 0.016927289283679134 -0.0025678538347702964 0 0.016330403221975563 -0.0027066350489297363 0 0.016606455131178643 -0.0028118529864749708 0 0.016611126433224498 -0.00250205751257486 0 0.016330403221975563 -0.0027066350489297363 0 0.016327199328763742 -0.0024093826738935489 0 0.016611126433224498 -0.00250205751257486 0 0.016327199328763742 -0.0024093826738935489 0 0.016611126433224498 -0.00250205751257486 0 0.016625391263856037 -0.0022140886826590754 0 0.016611126433224498 -0.00250205751257486 0 0.016625391263856037 -0.0022140886826590754 0 0.016922779392768757 -0.002258024717198227 0 0.016927289283679134 -0.0025678538347702964 0 0.01726100510257015 -0.0022971428127844433 0 0.017233780934661838 -0.0026245672317584136 0 0.016611126433224498 -0.00250205751257486 0 0.016927289283679134 -0.0025678538347702964 0 0.016922779392768757 -0.002258024717198227 0 0.016927289283679134 -0.0025678538347702964 0 0.016922779392768757 -0.002258024717198227 0 0.01726100510257015 -0.0022971428127844433 0 0.01726100510257015 -0.0022971428127844433 0 0.017649465182008738 -0.0024669521469629931 0 0.017516810859753467 -0.0020432346820710972 0 0.01726100510257015 -0.0022971428127844433 0 0.017233780934661838 -0.0026245672317584136 0 0.017649465182008738 -0.0024669521469629931 0 0.016846235824330567 -0.0029493145420355893 0 0.017233780934661838 -0.0026245672317584136 0 0.017441728508823553 -0.0029381727811645117 0 0.017233780934661838 -0.0026245672317584136 0 0.017441728508823553 -0.0029381727811645117 0 0.017649465182008738 -0.0024669521469629931 0 0.016837569156968459 -0.0029745121938497556 0 0.017100785211900199 -0.0029969284515928723 0 0.018141425781488106 -0.0024532439303114576 0 0.017859293967187915 -0.002897990110250148 0 0.017649465182008738 -0.0024669521469629931 0 0.017100785211900199 -0.0029969284515928723 0 0.016754287330896497 -0.003068781054780242 0 0.017441728508823553 -0.0029381727811645117 0 0.017859293967187915 -0.002897990110250148 0 0.017649465182008738 -0.0024669521469629931 0 0.018141425781488106 -0.0024532439303114576 0 0.017649465182008738 -0.0024669521469629931 0 0.017867554733042103 -0.0020516277567367044 0 0.017649465182008738 -0.0024669521469629931 0 0.017867554733042103 -0.0020516277567367044 0 0.017516810859753467 -0.0020432346820710972 0 0.017867554733042103 -0.0020516277567367044 0 0.017642234227717143 -0.001651871096323961 0 0.018034510848933271 -0.0017445735450028327 0 0.017642234227717143 -0.001651871096323961 0 0.017933314988266332 -0.0014675639585321218 0 0.018034510848933271 -0.0017445735450028327 0 0.017642234227717143 -0.001651871096323961 0 0.017223832052812159 -0.0019480601385472086 0 0.017358600564089294 -0.0016307055598727279 0 0.017642234227717143 -0.001651871096323961 0 0.017358600564089294 -0.0016307055598727279 0 0.017631958590165572 -0.0013239554234783361 0 0.017867554733042103 -0.0020516277567367044 0 0.017642234227717143 -0.001651871096323961 0 0.017516810859753467 -0.0020432346820710972 0 0.017642234227717143 -0.001651871096323961 0 0.017516810859753467 -0.0020432346820710972 0 0.017223832052812159 -0.0019480601385472086 0 0.01726100510257015 -0.0022971428127844433 0 0.017516810859753467 -0.0020432346820710972 0 0.017223832052812159 -0.0019480601385472086 0 0.016922779392768757 -0.002258024717198227 0 0.01726100510257015 -0.0022971428127844433 0 0.017223832052812159 -0.0019480601385472086 0 0.016922779392768757 -0.002258024717198227 0 0.017223832052812159 -0.0019480601385472086 0 0.016867325398531897 -0.0020184950097227143 0 0.017223832052812159 -0.0019480601385472086 0 0.016867325398531897 -0.0020184950097227143 0 0.016998778512138928 -0.0017818998389148501 0 0.016625391263856037 -0.0022140886826590754 0 0.016922779392768757 -0.002258024717198227 0 0.016867325398531897 -0.0020184950097227143 0 0.016867325398531897 -0.0020184950097227143 0 0.016998778512138928 -0.0017818998389148501 0 0.016595881465669982 -0.0018950373572956135 0 0.016625391263856037 -0.0022140886826590754 0 0.016867325398531897 -0.0020184950097227143 0 0.016595881465669982 -0.0018950373572956135 0 0.016998778512138928 -0.0017818998389148501 0 0.016824061006117552 -0.0016102031843605368 0 0.016595881465669982 -0.0018950373572956135 0 0.016998778512138928 -0.0017818998389148501 0 0.016824061006117552 -0.0016102031843605368 0 0.017162940933977439 -0.0015714810218612043 0 0.017223832052812159 -0.0019480601385472086 0 0.016998778512138928 -0.0017818998389148501 0 0.017358600564089294 -0.0016307055598727279 0 0.016998778512138928 -0.0017818998389148501 0 0.017162940933977439 -0.0015714810218612043 0 0.017358600564089294 -0.0016307055598727279 0 0.017436444484950072 -0.0013966784330990167 0 0.017658643198850264 -0.0011733107211163529 0 0.017631958590165572 -0.0013239554234783361 0 0.017358600564089294 -0.0016307055598727279 0 0.017436444484950072 -0.0013966784330990167 0 0.017631958590165572 -0.0013239554234783361 0 0.017162940933977439 -0.0015714810218612043 0 0.017358600564089294 -0.0016307055598727279 0 0.017436444484950072 -0.0013966784330990167 0 0.017162940933977439 -0.0015714810218612043 0 0.017436444484950072 -0.0013966784330990167 0 0.017092583166602313 -0.0013363728697789808 0 0.017436444484950072 -0.0013966784330990167 0 0.017092583166602313 -0.0013363728697789808 0 0.017658643198850264 -0.0011733107211163529 0 0.016824061006117552 -0.0016102031843605368 0 0.017092583166602313 -0.0013363728697789808 0 0.016606393125776903 -0.001419113538730223 0 0.016824061006117552 -0.0016102031843605368 0 0.017162940933977439 -0.0015714810218612043 0 0.017092583166602313 -0.0013363728697789808 0 0.017092583166602313 -0.0013363728697789808 0 0.016606393125776903 -0.001419113538730223 0 0.016668648211563504 -0.001099969468721777 0 0.017092583166602313 -0.0013363728697789808 0 0.016917293861450192 -0.00067480463456668532 0 0.017658643198850264 -0.0011733107211163529 0 0.017092583166602313 -0.0013363728697789808 0 0.016917293861450192 -0.00067480463456668532 0 0.016668648211563504 -0.001099969468721777 0 0.017658643198850264 -0.0011733107211163529 0 0.019034118371587493 -0.00085222628850425562 0 0.018364466710872444 -0.0003733946845843478 0 0.016917293861450192 -0.00067480463456668532 0 0.017658643198850264 -0.0011733107211163529 0 0.018364466710872444 -0.0003733946845843478 0 0.017631317509106032 -0.0011816321831630248 0 0.018932054041561581 -0.0011085158232395074 0 0.017658643198850264 -0.0011733107211163529 0 0.017756394989329117 -0.0011686282476254825 0 0.017631958590165572 -0.0013239554234783361 0 0.017658643198850264 -0.0011733107211163529 0 0.019034118371587493 -0.00085222628850425562 0 0.019688029765701373 -0.0010143695212726396 0 0.017756394989329117 -0.0011686282476254825 0 0.017771306955601751 -0.0013259139529307278 0 0.017631958590165572 -0.0013239554234783361 0 0.019688029765701373 -0.0010143695212726396 0 0.020157584106259476 -0.00037713813737359661 0 0.021165164208749147 -0.00069575174924769198 0 0.017756394989329117 -0.0011686282476254825 0 0.017991496972237377 -0.0012704463936058551 0 0.018227029436588472 -0.0010320753363381981 0 0.019034118371587493 -0.00085222628850425562 0 0.019688029765701373 -0.0010143695212726396 0 0.020157584106259476 -0.00037713813737359661 0 0.018932054041561581 -0.0011085158232395074 0 0.018731724670500157 -0.00052153273102343461 0 0.017756394989329117 -0.0011686282476254825 0 0.017991496972237377 -0.0012704463936058551 0 0.017771306955601751 -0.0013259139529307278 0 0.017642234227717143 -0.001651871096323961 0 0.017771306955601751 -0.0013259139529307278 0 0.017933314988266332 -0.0014675639585321218 0 0.017991496972237377 -0.0012704463936058551 0 0.017771306955601751 -0.0013259139529307278 0 0.017933314988266332 -0.0014675639585321218 0 0.017642234227717143 -0.001651871096323961 0 0.017771306955601751 -0.0013259139529307278 0 0.017631958590165572 -0.0013239554234783361 0 0.014721078096954044 -0.00088139566915956271 0 0.014606865626636246 -0.0012575858416889922 0 0.014390418338268998 -0.00093314110406506404 0 0.014721078096954044 -0.00088139566915956271 0 0.014894594007986501 -0.0010621564629493953 0 0.014985383775698561 -0.00075920547123944557 0 0.014721078096954044 -0.00088139566915956271 0 0.014894594007986501 -0.0010621564629493953 0 0.014606865626636246 -0.0012575858416889922 0 0.01467576919193408 -0.001692911057869298 0 0.014606865626636246 -0.0012575858416889922 0 0.014034613761293188 -0.0014375420061855614 0 0.01467576919193408 -0.001692911057869298 0 0.014606865626636246 -0.0012575858416889922 0 0.014969277560961778 -0.0014307478438518857 0 0.014894594007986501 -0.0010621564629493953 0 0.014606865626636246 -0.0012575858416889922 0 0.014969277560961778 -0.0014307478438518857 0 0.015321492483887394 -0.0019580328441689164 0 0.015268089558983768 -0.0013040392622194568 0 0.015328175578497702 -0.0011622461695761572 0 0.014969277560961778 -0.0014307478438518857 0 0.015268089558983768 -0.0013040392622194568 0 0.015122011948115077 -0.0011552545407792049 0 0.015321492483887394 -0.0019580328441689164 0 0.014969277560961778 -0.0014307478438518857 0 0.015268089558983768 -0.0013040392622194568 0 0.015515954658626336 -0.002213040139701309 0 0.015476417875518022 -0.0013752402948266963 0 0.015432953170904849 -0.0013318507023139135 0 0.015476417875518022 -0.0013752402948266963 0 0.015337266784763541 -0.0011640121364638796 0 0.01522866238559225 -0.00097450338658898418 0 0.015406937028222907 -0.00054001170895577881 0 0.015268089558983768 -0.0013040392622194568 0 0.015337266784763541 -0.0011640121364638796 0 0.015122011948115077 -0.0011552545407792049 0 0.015476417875518022 -0.0013752402948266963 0 0.015385385360392452 -0.00053392682076244368 0 0.015122011948115077 -0.0011552545407792049 0 0.015084092112730461 -0.00095575326989115028 0 0.01522866238559225 -0.00097450338658898418 0 0.015337266784763541 -0.0011640121364638796 0 0.015122011948115077 -0.0011552545407792049 0 0.01522866238559225 -0.00097450338658898418 0 0.014894594007986501 -0.0010621564629493953 0 0.014969277560961778 -0.0014307478438518857 0 0.015122011948115077 -0.0011552545407792049 0 0.014894594007986501 -0.0010621564629493953 0 0.015122011948115077 -0.0011552545407792049 0 0.015084092112730461 -0.00095575326989115028 0 0.014894594007986501 -0.0010621564629493953 0 0.015084092112730461 -0.00095575326989115028 0 0.014985383775698561 -0.00075920547123944557 0 0.015084092112730461 -0.00095575326989115028 0 0.015189241673363846 -0.00082359061811798867 0 0.014985383775698561 -0.00075920547123944557 0 0.015084092112730461 -0.00095575326989115028 0 0.015189241673363846 -0.00082359061811798867 0 0.01522866238559225 -0.00097450338658898418 0 0.015829729683950102 -0.0018133791583997887 0 0.016082682248025691 -0.0016826518000925788 0 0.016033786542673178 -0.0014021159028665166 0 0.015476417875518022 -0.0013752402948266963 0 0.015790577782209402 -0.0010961588209965124 0 0.016082682248025691 -0.0016826518000925788 0 0.016272804247967235 -0.0016816835560168348 0 0.016291259288862374 -0.001509609514230816 0 0.016082682248025691 -0.0016826518000925788 0 0.016172932762511728 -0.001827128709992353 0 0.016018192420774381 -0.0018251924078117887 0 0.016082682248025691 -0.0016826518000925788 0 0.016172932762511728 -0.001827128709992353 0 0.016272804247967235 -0.0016816835560168348 0 0.016172932762511728 -0.001827128709992353 0 0.016018192420774381 -0.0018251924078117887 0 0.016040023517416575 -0.0019793144087376226 0 0.015829729683950102 -0.0018133791583997887 0 0.016018192420774381 -0.0018251924078117887 0 0.016040023517416575 -0.0019793144087376226 0 0.015829729683950102 -0.0018133791583997887 0 0.016082682248025691 -0.0016826518000925788 0 0.016018192420774381 -0.0018251924078117887 0 0.015697420291260349 -0.0023744629548507249 0 0.015829729683950102 -0.0018133791583997887 0 0.016040023517416575 -0.0019793144087376226 0 0.01607789341033199 -0.0022598549467060859 0 0.016040023517416575 -0.0019793144087376226 0 0.01627728357931622 -0.0019897482565753009 0 0.016172932762511728 -0.001827128709992353 0 0.016040023517416575 -0.0019793144087376226 0 0.01627728357931622 -0.0019897482565753009 0 0.01607789341033199 -0.0022598549467060859 0 0.01627728357931622 -0.0019897482565753009 0 0.016356917284535616 -0.0021576694024774633 0 0.016625391263856037 -0.0022140886826590754 0 0.016356917284535616 -0.0021576694024774633 0 0.016595881465669982 -0.0018950373572956135 0 0.01627728357931622 -0.0019897482565753009 0 0.016356917284535616 -0.0021576694024774633 0 0.016595881465669982 -0.0018950373572956135 0 0.01627728357931622 -0.0019897482565753009 0 0.016595881465669982 -0.0018950373572956135 0 0.016353465843041662 -0.0017996106430580394 0 0.016595881465669982 -0.0018950373572956135 0 0.016353465843041662 -0.0017996106430580394 0 0.016501305698915565 -0.0016356033414347399 0 0.016172932762511728 -0.001827128709992353 0 0.01627728357931622 -0.0019897482565753009 0 0.016353465843041662 -0.0017996106430580394 0 0.016172932762511728 -0.001827128709992353 0 0.016353465843041662 -0.0017996106430580394 0 0.016272804247967235 -0.0016816835560168348 0 0.016272804247967235 -0.0016816835560168348 0 0.016501305698915565 -0.0016356033414347399 0 0.016291259288862374 -0.001509609514230816 0 0.016353465843041662 -0.0017996106430580394 0 0.016272804247967235 -0.0016816835560168348 0 0.016501305698915565 -0.0016356033414347399 0 0.016824061006117552 -0.0016102031843605368 0 0.016595881465669982 -0.0018950373572956135 0 0.016501305698915565 -0.0016356033414347399 0 0.016824061006117552 -0.0016102031843605368 0 0.016501305698915565 -0.0016356033414347399 0 0.016606393125776903 -0.001419113538730223 0 0.016501305698915565 -0.0016356033414347399 0 0.016606393125776903 -0.001419113538730223 0 0.016291259288862374 -0.001509609514230816 0 0.016606393125776903 -0.001419113538730223 0 0.016291259288862374 -0.001509609514230816 0 0.01638097779728339 -0.0012595284536473142 0 0.016606393125776903 -0.001419113538730223 0 0.01638097779728339 -0.0012595284536473142 0 0.016668648211563504 -0.001099969468721777 0 0.018220008035834765 -0.00036801900901145101 0 0.017856976763241345 -0.00047988644351196121 0 0.017990453976734409 -0.00021169971574291896 0 0.016917293861450192 -0.00067480463456668532 0 0.016668648211563504 -0.001099969468721777 0 0.016260864916397718 -0.00088396088096102184 0 0.01761312039822643 -0.00053623186401630378 0 0.016923491885264475 -0.00047474981615345862 0 0.016923491885264475 -0.00047474981615345862 0 0.018030581043568143 -0.00013666785438722746 0 0.01638097779728339 -0.0012595284536473142 0 0.016668648211563504 -0.001099969468721777 0 0.016260864916397718 -0.00088396088096102184 0 0.015956494173338723 -5.3680116576328988e-05 0 0.015658958863873515 -0.0006644514929529451 0 0.015347964535203231 -0.00022459901183042685 0 0.016923491885264475 -0.00047474981615345862 0 0.016524259134523829 -0.00040243334579437431 0 0.017877164027413548 -0.00052691639745685388 0 0.01749361038392604 -0.00064168946747052353 0 0.017660615050954898 -0.00021578899280763061 0 0.016923491885264475 -0.00047474981615345862 0 0.015790577782209402 -0.0010961588209965124 0 0.01638097779728339 -0.0012595284536473142 0 0.016260864916397718 -0.00088396088096102184 0 0.016033786542673178 -0.0014021159028665166 0 0.015369441738343028 -0.001297001624484258 0 0.015406937028222907 -0.00054001170895577881 0 0.015658958863873515 -0.0006644514929529451 0 0.015406937028222907 -0.00054001170895577881 0 0.015658958863873515 -0.0006644514929529451 0 0.015347964535203231 -0.00022459901183042685 0 0.016291259288862374 -0.001509609514230816 0 0.01638097779728339 -0.0012595284536473142 0 0.016033786542673178 -0.0014021159028665166 0 0.016082682248025691 -0.0016826518000925788 0 0.016291259288862374 -0.001509609514230816 0 0.016033786542673178 -0.0014021159028665166 0 0.015165250287558822 -0.000463999401747688 0 0.015347964535203231 -0.00022459901183042685 0 0.014796835928008869 -0.00039630104767288566 0 0.015189241673363846 -0.00082359061811798867 0 0.015406937028222907 -0.00054001170895577881 0 0.015200078302481365 -0.00063393422470971986 0 0.015189241673363846 -0.00082359061811798867 0 0.01522866238559225 -0.00097450338658898418 0 0.015406937028222907 -0.00054001170895577881 0 0.015189241673363846 -0.00082359061811798867 0 0.015200078302481365 -0.00063393422470971986 0 0.014985383775698561 -0.00075920547123944557 0 0.014985383775698561 -0.00075920547123944557 0 0.014961331823133755 -0.00053873056538337387 0 0.0147748276205557 -0.00059496354623971904 0 0.014985383775698561 -0.00075920547123944557 0 0.01509226446812684 -0.00058273348935028652 0 0.014961331823133755 -0.00053873056538337387 0 0.015200078302481365 -0.00063393422470971986 0 0.014985383775698561 -0.00075920547123944557 0 0.01509226446812684 -0.00058273348935028652 0 0.014961331823133755 -0.00053873056538337387 0 0.015165250287558822 -0.000463999401747688 0 0.014796835928008869 -0.00039630104767288566 0 0.01509226446812684 -0.00058273348935028652 0 0.014961331823133755 -0.00053873056538337387 0 0.015165250287558822 -0.000463999401747688 0 0.015406937028222907 -0.00054001170895577881 0 0.015165250287558822 -0.000463999401747688 0 0.015347964535203231 -0.00022459901183042685 0 0.015406937028222907 -0.00054001170895577881 0 0.015200078302481365 -0.00063393422470971986 0 0.015165250287558822 -0.000463999401747688 0 0.015200078302481365 -0.00063393422470971986 0 0.01509226446812684 -0.00058273348935028652 0 0.015165250287558822 -0.000463999401747688 0 0.01749361038392604 -0.00064168946747052353 0 0.017095417218189406 -0.00075420504437353748 0 0.017196815187896335 -0.0001385518834462273 0 0.016524259134523829 -0.00040243334579437431 0 0.01538178513809503 -0.0006701039620889632 0 0.014601241676244438 -0.00051217247959526983 0 0.014691080993935379 0.00012232484666318074 0 0.014168761376028167 -0.00021059368577404144 0 0.01538178513809503 -0.0006701039620889632 0 0.016007080292775026 4.8019881420899154e-06 0 0.014799342527867116 -0.00040078559416147671 0 0.0147748276205557 -0.00059496354623971904 0 0.013972520602282377 -0.00067723551416375605 0 0.01538178513809503 -0.0006701039620889632 0 0.015191050473196605 -0.00059308627693786375 0 0.014961331823133755 -0.00053873056538337387 0 0.014796835928008869 -0.00039630104767288566 0 0.0147748276205557 -0.00059496354623971904 0 0.014721078096954044 -0.00088139566915956271 0 0.014985383775698561 -0.00075920547123944557 0 0.0147748276205557 -0.00059496354623971904 0 0.014721078096954044 -0.00088139566915956271 0 0.0147748276205557 -0.00059496354623971904 0 0.014390418338268998 -0.00093314110406506404 0 0.014429769080753142 0.00047294352026423531 0 0.014691080993935379 0.00012232484666318074 0 0.014227857014061538 0.00019655611852923647 0 0.014429769080753142 0.00047294352026423531 0 0.014691080993935379 0.00012232484666318074 0 0.014824453681534381 0.00077971849173268202 0 0.014691080993935379 0.00012232484666318074 0 0.014168761376028167 -0.00021059368577404144 0 0.014227857014061538 0.00019655611852923647 0 0.017196815187896335 -0.0001385518834462273 0 0.017532776641247454 0.00016088218335826143 0 0.017660615050954898 -0.00021578899280763061 0 0.01749361038392604 -0.00064168946747052353 0 0.017196815187896335 -0.0001385518834462273 0 0.017660615050954898 -0.00021578899280763061 0 0.016007080292775026 4.8019881420899154e-06 0 0.016073911354156221 0.00062010060278321674 0 0.017196815187896335 -0.0001385518834462273 0 0.017532776641247454 0.00016088218335826143 0 0.017307759980740394 0.00046338788425688462 0 0.017532776641247454 0.00016088218335826143 0 0.017861361398485431 7.7924122134301582e-05 0 0.017660615050954898 -0.00021578899280763061 0 0.017532776641247454 0.00016088218335826143 0 0.017861361398485431 7.7924122134301582e-05 0 0.017752198078520614 0.00032034108178512888 0 0.017861361398485431 7.7924122134301582e-05 0 0.017995478730147955 0.00032457628036627233 0 0.017752198078520614 0.00032034108178512888 0 0.017877164027413548 -0.00052691639745685388 0 0.017660615050954898 -0.00021578899280763061 0 0.018028795402851627 -0.00019427573835303273 0 0.017861361398485431 7.7924122134301582e-05 0 0.017660615050954898 -0.00021578899280763061 0 0.018028795402851627 -0.00019427573835303273 0 0.018220008035834765 -0.00036801900901145101 0 0.017990453976734409 -0.00021169971574291896 0 0.018187458058141783 -0.0001559444811186056 0 0.017990453976734409 -0.00021169971574291896 0 0.018153826114797465 0.00010098031367419801 0 0.018187458058141783 -0.0001559444811186056 0 0.018030581043568143 -0.00013666785438722746 0 0.018125613914896598 4.2951828444808511e-05 0 0.017861361398485431 7.7924122134301582e-05 0 0.018028795402851627 -0.00019427573835303273 0 0.018153826114797465 0.00010098031367419801 0 0.017861361398485431 7.7924122134301582e-05 0 0.018153826114797465 0.00010098031367419801 0 0.017995478730147955 0.00032457628036627233 0 0.018153826114797465 0.00010098031367419801 0 0.017995478730147955 0.00032457628036627233 0 0.018261282151536051 0.00042695739777640952 0 0.017995478730147955 0.00032457628036627233 0 0.018089271362818456 0.00056195958021331837 0 0.018261282151536051 0.00042695739777640952 0 0.017995478730147955 0.00032457628036627233 0 0.018089271362818456 0.00056195958021331837 0 0.017858760140645788 0.00054875131903233646 0 0.018089271362818456 0.00056195958021331837 0 0.01802952785936477 0.00078144546242733457 0 0.017858760140645788 0.00054875131903233646 0 0.018089271362818456 0.00056195958021331837 0 0.018261282151536051 0.00042695739777640952 0 0.018328408248236602 0.00073715729101979854 0 0.018202067694468096 0.00097461467398317022 0 0.01802952785936477 0.00078144546242733457 0 0.018328408248236602 0.00073715729101979854 0 0.018089271362818456 0.00056195958021331837 0 0.01802952785936477 0.00078144546242733457 0 0.018328408248236602 0.00073715729101979854 0 0.018202067694468096 0.00097461467398317022 0 0.01802952785936477 0.00078144546242733457 0 0.017955625709001135 0.00099087505462189447 0 0.01802952785936477 0.00078144546242733457 0 0.017769971464485886 0.00079016533899200602 0 0.017858760140645788 0.00054875131903233646 0 0.01802952785936477 0.00078144546242733457 0 0.017769971464485886 0.00079016533899200602 0 0.017955625709001135 0.00099087505462189447 0 0.017769971464485886 0.00079016533899200602 0 0.017704459700360567 0.0010266544048018187 0 0.017955625709001135 0.00099087505462189447 0 0.017769971464485886 0.00079016533899200602 0 0.017563352370319221 0.00078082420356486717 0 0.017704459700360567 0.0010266544048018187 0 0.017769971464485886 0.00079016533899200602 0 0.017596802566703439 0.00053333194207086268 0 0.017563352370319221 0.00078082420356486717 0 0.017769971464485886 0.00079016533899200602 0 0.017596802566703439 0.00053333194207086268 0 0.017858760140645788 0.00054875131903233646 0 0.017532776641247454 0.00016088218335826143 0 0.017596802566703439 0.00053333194207086268 0 0.017752198078520614 0.00032034108178512888 0 0.017995478730147955 0.00032457628036627233 0 0.017858760140645788 0.00054875131903233646 0 0.017752198078520614 0.00032034108178512888 0 0.017596802566703439 0.00053333194207086268 0 0.017858760140645788 0.00054875131903233646 0 0.017752198078520614 0.00032034108178512888 0 0.017532776641247454 0.00016088218335826143 0 0.017596802566703439 0.00053333194207086268 0 0.017307759980740394 0.00046338788425688462 0 0.017596802566703439 0.00053333194207086268 0 0.017307759980740394 0.00046338788425688462 0 0.017563352370319221 0.00078082420356486717 0 0.017307759980740394 0.00046338788425688462 0 0.017563352370319221 0.00078082420356486717 0 0.017448221959469573 0.001060651695769313 0 0.016073911354156221 0.00062010060278321674 0 0.016109940248965077 0.0013064201280715108 0 0.017563352370319221 0.00078082420356486717 0 0.017448221959469573 0.001060651695769313 0 0.017704459700360567 0.0010266544048018187 0 0.014824453681534381 0.00077971849173268202 0 0.014447783735255071 0.0012166030400473033 0 0.014987575554590479 0.0015456639736391481 0 0.014434786812285313 0.0012226090634327755 0 0.014494109564231576 0.00093582550423069273 0 0.014267323315006396 0.00092092490532887474 0 0.015530213438058058 0.0010703200606188728 0 0.014837556435227923 0.0011344430608186467 0 0.015530213438058058 0.0010703200606188728 0 0.014503589601644452 0.00076604519183072223 0 0.014824453681534381 0.00077971849173268202 0 0.014447783735255071 0.0012166030400473033 0 0.014494109564231576 0.00093582550423069273 0 0.014494109564231576 0.00093582550423069273 0 0.014407096268009007 0.00073023314309225359 0 0.014267323315006396 0.00092092490532887474 0 0.014824453681534381 0.00077971849173268202 0 0.014494109564231576 0.00093582550423069273 0 0.014407096268009007 0.00073023314309225359 0 0.014429769080753142 0.00047294352026423531 0 0.014824453681534381 0.00077971849173268202 0 0.014407096268009007 0.00073023314309225359 0 0.019447225249158366 0.00018157352467850442 0 0.018814430862829447 -0.00011078993228179274 0 0.01874250741749154 0.00016442353290273444 0 0.019447225249158366 0.00018157352467850442 0 0.01874250741749154 0.00016442353290273444 0 0.019032235623300132 0.00042999231276445602 0 0.019447225249158366 0.00018157352467850442 0 0.019742460521412066 -8.2922910327638333e-05 0 0.019328941773766102 -0.00018775785490284845 0 0.019447225249158366 0.00018157352467850442 0 0.019328941773766102 -0.00018775785490284845 0 0.018814430862829447 -0.00011078993228179274 0 0.019447225249158366 0.00018157352467850442 0 0.019928640994978458 0.00021192432921701972 0 0.019855229110946514 0.0004070101853430711 0 0.019928640994978458 0.00021192432921701972 0 0.020153664898241112 0.00043617585089937713 0 0.019855229110946514 0.0004070101853430711 0 0.019928640994978458 0.00021192432921701972 0 0.020153664898241112 0.00043617585089937713 0 0.02018807634684551 0.00013075334714070504 0 0.019928640994978458 0.00021192432921701972 0 0.019742460521412066 -8.2922910327638333e-05 0 0.02018807634684551 0.00013075334714070504 0 0.019447225249158366 0.00018157352467850442 0 0.019928640994978458 0.00021192432921701972 0 0.019742460521412066 -8.2922910327638333e-05 0 0.019742460521412066 -8.2922910327638333e-05 0 0.019902797017799938 -0.0004957307769069074 0 0.019328941773766102 -0.00018775785490284845 0 0.019742460521412066 -8.2922910327638333e-05 0 0.019902797017799938 -0.0004957307769069074 0 0.02018807634684551 0.00013075334714070504 0 0.019091341212264686 -0.00085303364717197693 0 0.020117468569151725 -0.0003872375824038282 0 0.019034118371587493 -0.00085222628850425562 0 0.019902797017799938 -0.0004957307769069074 0 0.018971214583258646 -0.00041300005655446099 0 0.019902797017799938 -0.0004957307769069074 0 0.019328941773766102 -0.00018775785490284845 0 0.018971214583258646 -0.00041300005655446099 0 0.019328941773766102 -0.00018775785490284845 0 0.018971214583258646 -0.00041300005655446099 0 0.018814430862829447 -0.00011078993228179274 0 0.019034118371587493 -0.00085222628850425562 0 0.018971214583258646 -0.00041300005655446099 0 0.018364466710872444 -0.0003733946845843478 0 0.018364466710872444 -0.0003733946845843478 0 0.018814430862829447 -0.00011078993228179274 0 0.018359859982718219 -0.00011936331536703028 0 0.018971214583258646 -0.00041300005655446099 0 0.018364466710872444 -0.0003733946845843478 0 0.018814430862829447 -0.00011078993228179274 0 0.018220008035834765 -0.00036801900901145101 0 0.018359859982718219 -0.00011936331536703028 0 0.018187458058141783 -0.0001559444811186056 0 0.018220008035834765 -0.00036801900901145101 0 0.018364466710872444 -0.0003733946845843478 0 0.018359859982718219 -0.00011936331536703028 0 0.01761312039822643 -0.00053623186401630378 0 0.018277373784457929 -0.00037471656471339744 0 0.018153826114797465 0.00010098031367419801 0 0.018359859982718219 -0.00011936331536703028 0 0.018187458058141783 -0.0001559444811186056 0 0.018153826114797465 0.00010098031367419801 0 0.018359859982718219 -0.00011936331536703028 0 0.018439605536383026 0.00025271571918056296 0 0.018153826114797465 0.00010098031367419801 0 0.018439605536383026 0.00025271571918056296 0 0.018261282151536051 0.00042695739777640952 0 0.018814430862829447 -0.00011078993228179274 0 0.018359859982718219 -0.00011936331536703028 0 0.01874250741749154 0.00016442353290273444 0 0.018359859982718219 -0.00011936331536703028 0 0.018439605536383026 0.00025271571918056296 0 0.01874250741749154 0.00016442353290273444 0 0.018439605536383026 0.00025271571918056296 0 0.01874250741749154 0.00016442353290273444 0 0.018706442921691709 0.00041644492590840336 0 0.018706442921691709 0.00041644492590840336 0 0.01889495751828249 0.00072222467177136091 0 0.019032235623300132 0.00042999231276445602 0 0.01874250741749154 0.00016442353290273444 0 0.018706442921691709 0.00041644492590840336 0 0.019032235623300132 0.00042999231276445602 0 0.018439605536383026 0.00025271571918056296 0 0.018706442921691709 0.00041644492590840336 0 0.018557988702768414 0.00059241931191138957 0 0.018706442921691709 0.00041644492590840336 0 0.01889495751828249 0.00072222467177136091 0 0.018557988702768414 0.00059241931191138957 0 0.018439605536383026 0.00025271571918056296 0 0.018261282151536051 0.00042695739777640952 0 0.018557988702768414 0.00059241931191138957 0 0.018261282151536051 0.00042695739777640952 0 0.018557988702768414 0.00059241931191138957 0 0.018328408248236602 0.00073715729101979854 0 0.018557988702768414 0.00059241931191138957 0 0.018328408248236602 0.00073715729101979854 0 0.018603050851440157 0.00081711222635245603 0 0.018328408248236602 0.00073715729101979854 0 0.018603050851440157 0.00081711222635245603 0 0.01846292007129019 0.00097451727231111706 0 0.018603050851440157 0.00081711222635245603 0 0.01846292007129019 0.00097451727231111706 0 0.018749193407871918 0.0010123272947100449 0 0.018202067694468096 0.00097461467398317022 0 0.018328408248236602 0.00073715729101979854 0 0.01846292007129019 0.00097451727231111706 0 0.01889495751828249 0.00072222467177136091 0 0.018557988702768414 0.00059241931191138957 0 0.018603050851440157 0.00081711222635245603 0 0.01889495751828249 0.00072222467177136091 0 0.018603050851440157 0.00081711222635245603 0 0.018749193407871918 0.0010123272947100449 0 0.01889495751828249 0.00072222467177136091 0 0.018749193407871918 0.0010123272947100449 0 0.019000150626702579 0.0010751796643598405 0 0.019703402566882279 0.0011680726283836858 0 0.019742209526374899 0.00091507122905966343 0 0.019510418394785661 0.00054106169358789135 0 0.019376697012792852 0.0010663336238555146 0 0.019518829442909894 0.00055544415185920489 0 0.01889495751828249 0.00072222467177136091 0 0.019000150626702579 0.0010751796643598405 0 0.019510418394785661 0.00054106169358789135 0 0.019703402566882279 0.0011680726283836858 0 0.019742209526374899 0.00091507122905966343 0 0.01972839893760131 0.0011766099430322034 0 0.01889495751828249 0.00072222467177136091 0 0.019510418394785661 0.00054106169358789135 0 0.019032235623300132 0.00042999231276445602 0 0.019447225249158366 0.00018157352467850442 0 0.019510418394785661 0.00054106169358789135 0 0.019032235623300132 0.00042999231276445602 0 0.019447225249158366 0.00018157352467850442 0 0.019510418394785661 0.00054106169358789135 0 0.019855229110946514 0.0004070101853430711 0 0.020153664898241112 0.00043617585089937713 0 0.020175370241133018 0.00067851363305735074 0 0.020410730935243794 0.00064926412312815544 0 0.020153664898241112 0.00043617585089937713 0 0.019855229110946514 0.0004070101853430711 0 0.020175370241133018 0.00067851363305735074 0 0.019510418394785661 0.00054106169358789135 0 0.019855229110946514 0.0004070101853430711 0 0.020175370241133018 0.00067851363305735074 0 0.019742209526374899 0.00091507122905966343 0 0.019510418394785661 0.00054106169358789135 0 0.020175370241133018 0.00067851363305735074 0 0.019742209526374899 0.00091507122905966343 0 0.020175370241133018 0.00067851363305735074 0 0.01972839893760131 0.0011766099430322034 0 0.020175370241133018 0.00067851363305735074 0 0.020502975640446577 0.00062125130893149797 0 0.020836053623339557 0.00056886358859562804 0 0.020223843583282178 0.00066887700034906226 0 0.02028569253540095 0.00083164419780097426 0 0.020175370241133018 0.00067851363305735074 0 0.020502975640446577 0.00062125130893149797 0 0.020410730935243794 0.00064926412312815544 0 0.02053871491526945 0.00051574283874065454 0 0.020548450520508261 0.00052489598535900885 0 0.02059605719104805 0.00052420585690675966 0 0.020543049187558803 0.00063004277061923708 0 0.020561313384669752 0.00051752529132090698 0 0.020502975640446577 0.00062125130893149797 0 0.020410730935243794 0.00064926412312815544 0 0.02059605719104805 0.00052420585690675966 0 0.02053871491526945 0.00051574283874065454 0 0.020531277409255404 0.00052424199922805007 0 0.020548450520508261 0.00052489598535900885 0 0.020531277409255404 0.00052424199922805007 0 0.020514137811155103 0.00053310095105851677 0 0.02050945840727799 0.00051983560997119862 0 0.02053871491526945 0.00051574283874065454 0 0.020531277409255404 0.00052424199922805007 0 0.02050945840727799 0.00051983560997119862 0 0.020531277409255404 0.00052424199922805007 0 0.020548450520508261 0.00052489598535900885 0 0.020532644079896196 0.00052949085898677556 0 0.020531277409255404 0.00052424199922805007 0 0.020532644079896196 0.00052949085898677556 0 0.020514137811155103 0.00053310095105851677 0 0.020153664898241112 0.00043617585089937713 0 0.020410730935243794 0.00064926412312815544 0 0.02018807634684551 0.00013075334714070504 0 0.020543049187558803 0.00063004277061923708 0 0.020114945020654359 -5.3818492335383513e-05 0 0.020548450520508261 0.00052489598535900885 0 0.020532644079896196 0.00052949085898677556 0 0.020532317196419379 0.00053660486457644688 0 0.020410730935243794 0.00064926412312815544 0 0.02018807634684551 0.00013075334714070504 0 0.020538515730634106 -0.00012805185702504784 0 0.020114945020654359 -5.3818492335383513e-05 0 0.019328967534161804 0.00026149647618656989 0 0.018355679420565055 -0.00015250528477068085 0 0.018194026556333932 -0.0001244589517769721 0 0.018381844933995681 8.9405955628634681e-06 0 0.020532644079896196 0.00052949085898677556 0 0.020532317196419379 0.00053660486457644688 0 0.020514137811155103 0.00053310095105851677 0 0.018382294267295242 -0.0002516780828473327 0 0.01828682293246172 -0.00020291522251725768 0 0.018209474506024084 -0.00028026292642406266 0 0.018355679420565055 -0.00015250528477068085 0 0.01828682293246172 -0.00020291522251725768 0 0.018194026556333932 -0.0001244589517769721 0 0.017927380523471915 -0.00032743875493388715 0 0.018731724670500157 -0.00052153273102343461 0 0.018355679420565055 -0.00015250528477068085 0 0.018382294267295242 -0.0002516780828473327 0 0.01828682293246172 -0.00020291522251725768 0 0.020157584106259476 -0.00037713813737359661 0 0.021077662109118895 0.00011471847180278907 0 0.021165164208749147 -0.00069575174924769198 0 0.020114945020654359 -5.3818492335383513e-05 0 0.018731724670500157 -0.00052153273102343461 0 0.020117468569151725 -0.0003872375824038282 0 0.020114945020654359 -5.3818492335383513e-05 0 0.019902797017799938 -0.0004957307769069074 0 0.02018807634684551 0.00013075334714070504 0 0.020538515730634106 -0.00012805185702504784 0 0.01828682293246172 -0.00020291522251725768 0 0.018194026556333932 -0.0001244589517769721 0 0.018209474506024084 -0.00028026292642406266 0 0.018751132210071596 -0.00016895029844419014 0 0.018547085021110358 -0.00036940002301450337 0 0.018940262924253496 -0.00023062962895041011 0 0.018247118210597046 -0.00042127024519931328 0 0.018607235226628081 -0.00041342962070759723 0 0.018569539356398278 -0.00014818819576047491 0 0.018751132210071596 -0.00016895029844419014 0 0.018569553614663722 -0.00025882973087761637 0 0.018569539356398278 -0.00014818819576047491 0 0.018751132210071596 -0.00016895029844419014 0 0.018617669413287862 -3.6551023202805118e-05 0 0.018751132210071596 -0.00016895029844419014 0 0.018547085021110358 -0.00036940002301450337 0 0.018569553614663722 -0.00025882973087761637 0 0.017788008665327631 -0.00033037034726042855 0 0.018547085021110358 -0.00036940002301450337 0 0.01763063499908999 -0.00058134470979412454 0 0.017788008665327631 -0.00033037034726042855 0 0.018547085021110358 -0.00036940002301450337 0 0.018569553614663722 -0.00025882973087761637 0 0.018382294267295242 -0.0002516780828473327 0 0.018569553614663722 -0.00025882973087761637 0 0.018498534108936773 -0.00020886766730183302 0 0.017927380523471915 -0.00032743875493388715 0 0.018572348385867701 -0.00024038251426531325 0 0.018382294267295242 -0.0002516780828473327 0 0.018427282218391752 -0.00018648055446618587 0 0.018498534108936773 -0.00020886766730183302 0 0.018355679420565055 -0.00015250528477068085 0 0.018427282218391752 -0.00018648055446618587 0 0.018476141832322868 -0.00012686779071881607 0 0.018355679420565055 -0.00015250528477068085 0 0.018382294267295242 -0.0002516780828473327 0 0.018427282218391752 -0.00018648055446618587 0 0.018569539356398278 -0.00014818819576047491 0 0.018498534108936773 -0.00020886766730183302 0 0.018476141832322868 -0.00012686779071881607 0 0.018569539356398278 -0.00014818819576047491 0 0.018569553614663722 -0.00025882973087761637 0 0.018498534108936773 -0.00020886766730183302 0 0.018427282218391752 -0.00018648055446618587 0 0.018498534108936773 -0.00020886766730183302 0 0.018476141832322868 -0.00012686779071881607 0 0.018476141832322868 -0.00012686779071881607 0 0.018381844933995681 8.9405955628634681e-06 0 0.018617669413287862 -3.6551023202805118e-05 0 0.018569539356398278 -0.00014818819576047491 0 0.018476141832322868 -0.00012686779071881607 0 0.018617669413287862 -3.6551023202805118e-05 0 0.019328967534161804 0.00026149647618656989 0 0.019600317710185746 0.00035786392155840477 0 0.018381844933995681 8.9405955628634681e-06 0 0.018617669413287862 -3.6551023202805118e-05 0 0.018647213511973234 0.00019374308118218908 0 0.018355679420565055 -0.00015250528477068085 0 0.018476141832322868 -0.00012686779071881607 0 0.018381844933995681 8.9405955628634681e-06 0 0.018617669413287862 -3.6551023202805118e-05 0 0.018800577739002504 -1.406483640008011e-05 0 0.018647213511973234 0.00019374308118218908 0 0.018751132210071596 -0.00016895029844419014 0 0.018617669413287862 -3.6551023202805118e-05 0 0.018800577739002504 -1.406483640008011e-05 0 0.020493531047551489 0.00050790570145614741 0 0.020486408376793355 0.00051414582705946923 0 0.020540803924207016 0.00050084902719985211 0 0.019600317710185746 0.00035786392155840477 0 0.019734170523731824 0.000448840890531063 0 0.020493531047551489 0.00050790570145614741 0 0.02050945840727799 0.00051983560997119862 0 0.020486408376793355 0.00051414582705946923 0 0.020514137811155103 0.00053310095105851677 0 0.020493531047551489 0.00050790570145614741 0 0.02050945840727799 0.00051983560997119862 0 0.02053871491526945 0.00051574283874065454 0 0.02050945840727799 0.00051983560997119862 0 0.020486408376793355 0.00051414582705946923 0 0.02053871491526945 0.00051574283874065454 0 0.020486408376793355 0.00051414582705946923 0 0.020533501612031067 0.00046640302759392319 0 0.020486408376793355 0.00051414582705946923 0 0.020540803924207016 0.00050084902719985211 0 0.020535199877012824 0.00053493859074958108 0 0.020540803924207016 0.00050084902719985211 0 0.020568083456756196 0.00053421287335358059 0 0.020535199877012824 0.00053493859074958108 0 0.019734170523731824 0.000448840890531063 0 0.020098568543149592 0.00037432270454415231 0 0.018967988740644866 0.00037593403593160065 0 0.019308625353300076 0.00056002373189364605 0 0.01921938229055823 0.00033743592204118231 0 0.020540803924207016 0.00050084902719985211 0 0.020601060741198725 0.00052156969027022482 0 0.020568083456756196 0.00053421287335358059 0 0.020098568543149592 0.00037432270454415231 0 0.02020603272347898 0.00024113338310911459 0 0.019308625353300076 0.00056002373189364605 0 0.01921938229055823 0.00033743592204118231 0 0.019376155739815486 0.00043662768563960871 0 0.01921938229055823 0.00033743592204118231 0 0.019376155739815486 0.00043662768563960871 0 0.01939325538431004 0.00014890839547382622 0 0.018967988740644866 0.00037593403593160065 0 0.01921938229055823 0.00033743592204118231 0 0.019056512408882915 0.00016234318370182148 0 0.01921938229055823 0.00033743592204118231 0 0.019056512408882915 0.00016234318370182148 0 0.01939325538431004 0.00014890839547382622 0 0.018647213511973234 0.00019374308118218908 0 0.018967988740644866 0.00037593403593160065 0 0.019056512408882915 0.00016234318370182148 0 0.019633967031965367 -3.7024831250627755e-05 0 0.019729872199622463 -0.00023961646967329852 0 0.019886385787790607 -5.9139087400429563e-05 0 0.019633967031965367 -3.7024831250627755e-05 0 0.019731899005752007 0.00025215694849971189 0 0.019886385787790607 -5.9139087400429563e-05 0 0.019633967031965367 -3.7024831250627755e-05 0 0.019412937594934107 6.7394414266585498e-05 0 0.019731899005752007 0.00025215694849971189 0 0.019965861336145366 0.00026440577483977801 0 0.019957475693233081 0.00025976958773467302 0 0.019954637467913223 0.00028198717260360327 0 0.019633967031965367 -3.7024831250627755e-05 0 0.019412937594934107 6.7394414266585498e-05 0 0.019424057464524257 -7.47134241809016e-05 0 0.02020603272347898 0.00024113338310911459 0 0.019650318092361133 0.00021101329160514074 0 0.020098568543149592 0.00037432270454415231 0 0.019650318092361133 0.00021101329160514074 0 0.019354430216560196 9.4510542181943467e-05 0 0.019364504635386127 -0.00011944293155521818 0 0.019453987141301324 -9.107146426463838e-05 0 0.019633967031965367 -3.7024831250627755e-05 0 0.019424057464524257 -7.47134241809016e-05 0 0.019552135822313292 -0.00029469484306983819 0 0.019650318092361133 0.00021101329160514074 0 0.019377803852138904 4.2631274395584344e-05 0 0.019650318092361133 0.00021101329160514074 0 0.019511486463397357 -0.00020408807722598003 0 0.019364504635386127 -0.00011944293155521818 0 0.019453987141301324 -9.107146426463838e-05 0 0.019459213591326421 -0.00022003033374575141 0 0.019633967031965367 -3.7024831250627755e-05 0 0.019552135822313292 -0.00029469484306983819 0 0.019729872199622463 -0.00023961646967329852 0 0.019729872199622463 -0.00023961646967329852 0 0.019668468652021452 -0.0004861863341800242 0 0.019905350278776556 -0.00027904924384197771 0 0.019552135822313292 -0.00029469484306983819 0 0.019729872199622463 -0.00023961646967329852 0 0.019668468652021452 -0.0004861863341800242 0 0.019729872199622463 -0.00023961646967329852 0 0.019886385787790607 -5.9139087400429563e-05 0 0.019905350278776556 -0.00027904924384197771 0 0.019423956659836785 -0.00042979269441169277 0 0.019895641733181167 -0.00030848232982574365 0 0.019677371679013678 -0.00051292305709519097 0 0.019388191630364277 -0.00055550005450233895 0 0.019905350278776556 -0.00027904924384197771 0 0.019629323756183984 -0.00064325480195850211 0 0.019677371679013678 -0.00051292305709519097 0 0.019456034619193419 -0.00056481858179102174 0 0.019611398262159446 -0.00048576028514991319 0 0.019423956659836785 -0.00042979269441169277 0 0.019364504635386127 -0.00011944293155521818 0 0.019459213591326421 -0.00022003033374575141 0 0.019375862382079494 -0.00033228546774179954 0 0.019377803852138904 4.2631274395584344e-05 0 0.019177517414650087 -0.00035608996251194468 0 0.019353757668413386 -0.00037949003523457981 0 0.019087705177986723 -0.00046476302421332924 0 0.019095625313665456 -0.00060033338499527306 0 0.019554547898017728 -0.00027547636811282888 0 0.019459213591326421 -0.00022003033374575141 0 0.019375862382079494 -0.00033228546774179954 0 0.019423956659836785 -0.00042979269441169277 0 0.019177517414650087 -0.00035608996251194468 0 0.019453987141301324 -9.107146426463838e-05 0 0.019554547898017728 -0.00027547636811282888 0 0.019459213591326421 -0.00022003033374575141 0 0.019511486463397357 -0.00020408807722598003 0 0.019423956659836785 -0.00042979269441169277 0 0.018881528189203498 -0.00054428445123872165 0 0.01889039185694643 -0.00069667400891731859 0 0.01861454678592284 -0.0009319515228950713 0 0.018916389935234021 -0.00068276222793683082 0 0.018792105804244626 -0.0010133102339375021 0 0.018764703458305037 -0.00062040137428939659 0 0.018974798702839388 -0.00081895281777745867 0 0.018798262898679547 -0.0010534354433150879 0 0.019177517414650087 -0.00035608996251194468 0 0.018916389935234021 -0.00068276222793683082 0 0.018764703458305037 -0.00062040137428939659 0 0.018974798702839388 -0.00081895281777745867 0 0.01902981972218825 -0.00056549435429287698 0 0.019423956659836785 -0.00042979269441169277 0 0.018916389935234021 -0.00068276222793683082 0 0.019097447437239675 -0.00033693251384261138 0 0.018764703458305037 -0.00062040137428939659 0 0.01902981972218825 -0.00056549435429287698 0 0.019423956659836785 -0.00042979269441169277 0 0.019419126459116757 -0.00075775540142552795 0 0.019097447437239675 -0.00033693251384261138 0 0.01902981972218825 -0.00056549435429287698 0 0.01929645504829491 -0.00069014682148955345 0 0.018974798702839388 -0.00081895281777745867 0 0.01902981972218825 -0.00056549435429287698 0 0.01929645504829491 -0.00069014682148955345 0 0.019629323756183984 -0.00064325480195850211 0 0.019456034619193419 -0.00056481858179102174 0 0.01955044966979785 -0.00081370842667706023 0 0.019056512408882915 0.00016234318370182148 0 0.019195468376496549 -3.3026021324937522e-05 0 0.018915682694655978 -0.00029831547755206138 0 0.018800577739002504 -1.406483640008011e-05 0 0.019056512408882915 0.00016234318370182148 0 0.018940262924253496 -0.00023062962895041011 0 0.019138948162045637 0.0002181835366262201 0 0.018607235226628081 -0.00041342962070759723 0 0.018800577739002504 -1.406483640008011e-05 0 0.018647213511973234 0.00019374308118218908 0 0.019056512408882915 0.00016234318370182148 0 0.019056512408882915 0.00016234318370182148 0 0.01939325538431004 0.00014890839547382622 0 0.019195468376496549 -3.3026021324937522e-05 0 0.01939325538431004 0.00014890839547382622 0 0.019412661559860305 -0.00014923820694139105 0 0.019195468376496549 -3.3026021324937522e-05 0 0.019412661559860305 -0.00014923820694139105 0 0.019195468376496549 -3.3026021324937522e-05 0 0.018915682694655978 -0.00029831547755206138 0 0.019177517414650087 -0.00035608996251194468 0 0.018607235226628081 -0.00041342962070759723 0 0.018881528189203498 -0.00054428445123872165 0 0.018298696114178489 -0.00072339760123299392 0 0.01861454678592284 -0.0009319515228950713 0 0.018916389935234021 -0.00068276222793683082 0 0.018568626587461584 -0.00095681316635947192 0 0.018751132210071596 -0.00016895029844419014 0 0.018800577739002504 -1.406483640008011e-05 0 0.018940262924253496 -0.00023062962895041011 0 0.018298696114178489 -0.00072339760123299392 0 0.018339136083349104 -0.0011602031451755643 0 0.018170854121447484 -0.001220576588748877 0 0.018298696114178489 -0.00072339760123299392 0 0.018339136083349104 -0.0011602031451755643 0 0.01861454678592284 -0.0009319515228950713 0 0.018607235226628081 -0.00041342962070759723 0 0.018154902857123196 -0.0010496182753328995 0 0.018372841540132558 -0.0011286747664975608 0 0.018568626587461584 -0.00095681316635947192 0 0.018553817404601304 -0.00095254759425499784 0 0.018584639920340984 -0.0012189650163835853 0 0.018798262898679547 -0.0010534354433150879 0 0.018339136083349104 -0.0011602031451755643 0 0.018553817404601304 -0.00095254759425499784 0 0.018584639920340984 -0.0012189650163835853 0 0.018584639920340984 -0.0012189650163835853 0 0.01883170558885407 -0.0013291591492278116 0 0.018593203222632117 -0.0015053374990913425 0 0.018584639920340984 -0.0012189650163835853 0 0.018422722204580015 -0.0013161698343567832 0 0.018593203222632117 -0.0015053374990913425 0 0.018422722204580015 -0.0013161698343567832 0 0.018340623787060022 -0.0014911848550203215 0 0.018593203222632117 -0.0015053374990913425 0 0.018339136083349104 -0.0011602031451755643 0 0.018584639920340984 -0.0012189650163835853 0 0.018422722204580015 -0.0013161698343567832 0 0.018170854121447484 -0.001220576588748877 0 0.018422722204580015 -0.0013161698343567832 0 0.018340623787060022 -0.0014911848550203215 0 0.018170854121447484 -0.001220576588748877 0 0.018340623787060022 -0.0014911848550203215 0 0.018094979759227511 -0.0016334529874207967 0 0.018339136083349104 -0.0011602031451755643 0 0.018170854121447484 -0.001220576588748877 0 0.018422722204580015 -0.0013161698343567832 0 0.018974798702839388 -0.00081895281777745867 0 0.01929645504829491 -0.00069014682148955345 0 0.019121933432191263 -0.0011313392793765222 0 0.01929645504829491 -0.00069014682148955345 0 0.019121933432191263 -0.0011313392793765222 0 0.019520676142398361 -0.0010477988320972598 0 0.019419126459116757 -0.00075775540142552795 0 0.019528355923151434 -0.0010199083184396934 0 0.01877873047232503 -0.00075696168276799991 0 0.018553817404601304 -0.00095254759425499784 0 0.018798262898679547 -0.0010534354433150879 0 0.019121933432191263 -0.0011313392793765222 0 0.018798262898679547 -0.0010534354433150879 0 0.01883170558885407 -0.0013291591492278116 0 0.018974798702839388 -0.00081895281777745867 0 0.019121933432191263 -0.0011313392793765222 0 0.018798262898679547 -0.0010534354433150879 0 0.018584639920340984 -0.0012189650163835853 0 0.018798262898679547 -0.0010534354433150879 0 0.01883170558885407 -0.0013291591492278116 0 0.01883170558885407 -0.0013291591492278116 0 0.018838472430405723 -0.0015732744569063317 0 0.018593203222632117 -0.0015053374990913425 0 0.01883170558885407 -0.0013291591492278116 0 0.019116265943755307 -0.001473999064248362 0 0.018838472430405723 -0.0015732744569063317 0 0.019121933432191263 -0.0011313392793765222 0 0.019116265943755307 -0.001473999064248362 0 0.019507398172495173 -0.0013737490584885053 0 0.019121933432191263 -0.0011313392793765222 0 0.01883170558885407 -0.0013291591492278116 0 0.019116265943755307 -0.001473999064248362 0 0.019116265943755307 -0.001473999064248362 0 0.0189714548642449 -0.0017650208279469308 0 0.019319942237964873 -0.0017095625885520001 0 0.019116265943755307 -0.001473999064248362 0 0.018838472430405723 -0.0015732744569063317 0 0.0189714548642449 -0.0017650208279469308 0 0.018838472430405723 -0.0015732744569063317 0 0.018697667163056091 -0.0017667507350570143 0 0.0189714548642449 -0.0017650208279469308 0 0.018838472430405723 -0.0015732744569063317 0 0.018697667163056091 -0.0017667507350570143 0 0.018593203222632117 -0.0015053374990913425 0 0.018777818188022505 -0.0020075232320315413 0 0.018697667163056091 -0.0017667507350570143 0 0.0189714548642449 -0.0017650208279469308 0 0.018777818188022505 -0.0020075232320315413 0 0.018697667163056091 -0.0017667507350570143 0 0.018576443396678553 -0.0019646151444342045 0 0.019020874881735577 -0.0020244934277604616 0 0.0189714548642449 -0.0017650208279469308 0 0.019319942237964873 -0.0017095625885520001 0 0.018777818188022505 -0.0020075232320315413 0 0.019020874881735577 -0.0020244934277604616 0 0.0189714548642449 -0.0017650208279469308 0 0.018340623787060022 -0.0014911848550203215 0 0.018431052978385366 -0.0017500435263867777 0 0.018094979759227511 -0.0016334529874207967 0 0.018697667163056091 -0.0017667507350570143 0 0.018593203222632117 -0.0015053374990913425 0 0.018431052978385366 -0.0017500435263867777 0 0.018340623787060022 -0.0014911848550203215 0 0.018593203222632117 -0.0015053374990913425 0 0.018431052978385366 -0.0017500435263867777 0 0.018369643704428 -0.0020197688165640468 0 0.018431052978385366 -0.0017500435263867777 0 0.018576443396678553 -0.0019646151444342045 0 0.018697667163056091 -0.0017667507350570143 0 0.018431052978385366 -0.0017500435263867777 0 0.018576443396678553 -0.0019646151444342045 0 0.018369643704428 -0.0020197688165640468 0 0.018431052978385366 -0.0017500435263867777 0 0.018094979759227511 -0.0016334529874207967 0 0.018369643704428 -0.0020197688165640468 0 0.01802096001589204 -0.0019837396476839954 0 0.018094979759227511 -0.0016334529874207967 0 0.018004335780536288 -0.0019472465075323101 0 0.01809096275745729 -0.0014199980327378777 0 0.017921229542561763 -0.0017651475781002011 0 0.018081316789927526 -0.001257904266907456 0 0.017764693791361853 -0.0012767823516329475 0 0.018081316789927526 -0.001257904266907456 0 0.017764693791361853 -0.0012767823516329475 0 0.017883683343486872 -0.00095663044678260818 0 0.017764693791361853 -0.0012767823516329475 0 0.017539117680722558 -0.0010778555315273523 0 0.017883683343486872 -0.00095663044678260818 0 0.017764693791361853 -0.0012767823516329475 0 0.017472862909735258 -0.0013732367387126552 0 0.017539117680722558 -0.0010778555315273523 0 0.017764693791361853 -0.0012767823516329475 0 0.017603133981927772 -0.0015463723053144179 0 0.017472862909735258 -0.0013732367387126552 0 0.017553385258010201 -0.0017519392201639948 0 0.017921229542561763 -0.0017651475781002011 0 0.017603133981927772 -0.0015463723053144179 0 0.017921229542561763 -0.0017651475781002011 0 0.017764693791361853 -0.0012767823516329475 0 0.017603133981927772 -0.0015463723053144179 0 0.017553385258010201 -0.0017519392201639948 0 0.017603133981927772 -0.0015463723053144179 0 0.01742054181247614 -0.0016311988901319074 0 0.01733012811216373 -0.0017242408306352519 0 0.017553385258010201 -0.0017519392201639948 0 0.01742054181247614 -0.0016311988901319074 0 0.017603133981927772 -0.0015463723053144179 0 0.01742054181247614 -0.0016311988901319074 0 0.017459162192716104 -0.0015199874597286538 0 0.0169877950032103 -0.0018867666403687244 0 0.016974278812408788 -0.0017375716512460307 0 0.017080019262870522 -0.0015921910238168042 0 0.016739835025562037 -0.00183971898028312 0 0.017277751170507779 -0.001585975408447239 0 0.01733012811216373 -0.0017242408306352519 0 0.01742054181247614 -0.0016311988901319074 0 0.017298150420670018 -0.0017087443397002778 0 0.01742054181247614 -0.0016311988901319074 0 0.017298150420670018 -0.0017087443397002778 0 0.017340820201200653 -0.0015283227552333309 0 0.016739835025562037 -0.00183971898028312 0 0.017221953777331954 -0.0018524431460528634 0 0.017221953777331954 -0.0018524431460528634 0 0.017277751170507779 -0.001585975408447239 0 0.017277751170507779 -0.001585975408447239 0 0.017420969939058964 -0.0014123035448516316 0 0.017340820201200653 -0.0015283227552333309 0 0.017459162192716104 -0.0015199874597286538 0 0.017472862909735258 -0.0013732367387126552 0 0.017603133981927772 -0.0015463723053144179 0 0.017459162192716104 -0.0015199874597286538 0 0.017472862909735258 -0.0013732367387126552 0 0.01742054181247614 -0.0016311988901319074 0 0.017340820201200653 -0.0015283227552333309 0 0.017459162192716104 -0.0015199874597286538 0 0.017867554733042103 -0.0020516277567367044 0 0.018380599783431928 -0.0020672438576927734 0 0.018034510848933271 -0.0017445735450028327 0 0.018141425781488106 -0.0024532439303114576 0 0.017867554733042103 -0.0020516277567367044 0 0.018380599783431928 -0.0020672438576927734 0 0.018380599783431928 -0.0020672438576927734 0 0.018034510848933271 -0.0017445735450028327 0 0.018290522283604033 -0.0015088128442604927 0 0.017933314988266332 -0.0014675639585321218 0 0.018034510848933271 -0.0017445735450028327 0 0.018290522283604033 -0.0015088128442604927 0 0.01741008134659211 -0.0017676902140500662 0 0.017475295541842364 -0.0016771701389389343 0 0.017350716761853742 -0.0011353765994053932 0 0.017349361882410128 -0.0015176355109878799 0 0.017472862909735258 -0.0013732367387126552 0 0.017539117680722558 -0.0010778555315273523 0 0.017475295541842364 -0.0016771701389389343 0 0.017627699423575446 -0.0011821712623949943 0 0.017350716761853742 -0.0011353765994053932 0 0.017221953777331954 -0.0018524431460528634 0 0.017780585370757593 -0.0013869775159876417 0 0.017277751170507779 -0.001585975408447239 0 0.017596155305010856 -0.0011262486065155039 0 0.017350716761853742 -0.0011353765994053932 0 0.017529957034305196 -0.00087896629058139164 0 0.017255775221615925 -0.00049220803335610157 0 0.017627699423575446 -0.0011821712623949943 0 0.017529957034305196 -0.00087896629058139164 0 0.017744087954193903 -0.00068066338283895376 0 0.017627699423575446 -0.0011821712623949943 0 0.017350716761853742 -0.0011353765994053932 0 0.017529957034305196 -0.00087896629058139164 0 0.017991496972237377 -0.0012704463936058551 0 0.017933314988266332 -0.0014675639585321218 0 0.018290522283604033 -0.0015088128442604927 0 0.017780585370757593 -0.0013869775159876417 0 0.018731724670500157 -0.00052153273102343461 0 0.017991496972237377 -0.0012704463936058551 0 0.018290522283604033 -0.0015088128442604927 0 0.018227029436588472 -0.0010320753363381981 0 0.017788008665327631 -0.00033037034726042855 0 0.017255775221615925 -0.00049220803335610157 0 0.01763063499908999 -0.00058134470979412454 0 0.017529957034305196 -0.00087896629058139164 0 0.017255775221615925 -0.00049220803335610157 0 0.017606035040656408 -0.00072251343762386698 0 0.017529957034305196 -0.00087896629058139164 0 0.017606035040656408 -0.00072251343762386698 0 0.017744087954193903 -0.00068066338283895376 0 0.017606035040656408 -0.00072251343762386698 0 0.01763063499908999 -0.00058134470979412454 0 0.017744087954193903 -0.00068066338283895376 0 0.017255775221615925 -0.00049220803335610157 0 0.017606035040656408 -0.00072251343762386698 0 0.01763063499908999 -0.00058134470979412454 0 0.018247118210597046 -0.00042127024519931328 0 0.017682422137834775 -0.00057663000674749749 0 0.01763063499908999 -0.00058134470979412454 0 0.017744087954193903 -0.00068066338283895376 0 0.017822423812745899 -0.00062045359354131536 0 0.017965994961884588 -0.00049495963422615304 0 0.01763063499908999 -0.00058134470979412454 0 0.017822423812745899 -0.00062045359354131536 0 0.017744087954193903 -0.00068066338283895376 0 0.017822423812745899 -0.00062045359354131536 0 0.017948107608274044 -0.00072337440873598813 0 0.017744087954193903 -0.00068066338283895376 0 0.017948107608274044 -0.00072337440873598813 0 0.017883683343486872 -0.00095663044678260818 0 0.017965994961884588 -0.00049495963422615304 0 0.017822423812745899 -0.00062045359354131536 0 0.017948107608274044 -0.00072337440873598813 0 0.017965994961884588 -0.00049495963422615304 0 0.018211916035191171 -0.00080038017203126863 0 0.017948107608274044 -0.00072337440873598813 0 0.017965994961884588 -0.00049495963422615304 0 0.018334812030315149 -0.00038526136715117044 0 0.018211916035191171 -0.00080038017203126863 0 0.018211916035191171 -0.00080038017203126863 0 0.017948107608274044 -0.00072337440873598813 0 0.017883683343486872 -0.00095663044678260818 0 0.018211916035191171 -0.00080038017203126863 0 0.018081316789927526 -0.001257904266907456 0 0.017883683343486872 -0.00095663044678260818 0 0.018154902857123196 -0.0010496182753328995 0 0.01809096275745729 -0.0014199980327378777 0 0.017539117680722558 -0.0010778555315273523 0 0.017744087954193903 -0.00068066338283895376 0 0.017883683343486872 -0.00095663044678260818 0 0.017596155305010856 -0.0011262486065155039 0 0.017724875751029327 -0.00072021534939506959 0 0.0048847904104296737 0.00024261925870305961 0 0.0057651407435418706 8.6244226511994209e-07 0 0.0044768952294035333 2.8048788083890713e-07 0 0.0048847904104296737 0.00024261925870305961 0 0.0043809720613953293 0.00015254944235648814 0 0.0044768952294035333 2.8048788083890713e-07 0 0.0048847904104296737 0.00024261925870305961 0 0.0057651407435418706 8.6244226511994209e-07 0 0.0054790261245786015 -7.1845393636072469e-05 0 0.0048847904104296737 0.00024261925870305961 0 0.0049817389502101496 0.00025692813472562998 0 0.0054790261245786015 -7.1845393636072469e-05 0 0.0048847904104296737 0.00024261925870305961 0 0.0048810451294199354 0.00028056900647319155 0 0.0049817389502101496 0.00025692813472562998 0 0.0054281767554386646 0.00045904412686101109 0 0.0048810451294199354 0.00028056900647319155 0 0.0049817389502101496 0.00025692813472562998 0 0.0054906093195047183 0.00045613477563253066 0 0.0057249085928143539 0.00040547729477272029 0 0.0050427117252276939 0.00024394482185422517 0 0.0048810451294199354 0.00028056900647319155 0 0.0043512743528597063 0.00019547844915683823 0 0.0054281767554386646 0.00045904412686101109 0 0.0050427117252276939 0.00024394482185422517 0 0.0048810451294199354 0.00028056900647319155 0 0.0048847904104296737 0.00024261925870305961 0 0.0048810451294199354 0.00028056900647319155 0 0.0043512743528597063 0.00019547844915683823 0 0.0050427117252276939 0.00024394482185422517 0 0.0043512743528597063 0.00019547844915683823 0 0.0048139093505529373 0.00012699220104816497 0 0.0043512743528597063 0.00019547844915683823 0 0.0048139093505529373 0.00012699220104816497 0 0.0043474506351257177 6.4296534220707963e-05 0 0.0048139093505529373 0.00012699220104816497 0 0.0043474506351257177 6.4296534220707963e-05 0 0.0048907422289890925 -6.0729727604210803e-05 0 0.0043512743528597063 0.00019547844915683823 0 0.0043474506351257177 6.4296534220707963e-05 0 0.0037049058478803155 3.6110419819205568e-05 0 0.0043512743528597063 0.00019547844915683823 0 0.0038002738618804184 0.00013513512836634521 0 0.0037049058478803155 3.6110419819205568e-05 0 0.0043512743528597063 0.00019547844915683823 0 0.0038002738618804184 0.00013513512836634521 0 0.0043809720613953293 0.00015254944235648814 0 0.0048847904104296737 0.00024261925870305961 0 0.0043512743528597063 0.00019547844915683823 0 0.0043809720613953293 0.00015254944235648814 0 0.0038002738618804184 0.00013513512836634521 0 0.0043809720613953293 0.00015254944235648814 0 0.0044768952294035333 2.8048788083890713e-07 0 0.0038002738618804184 0.00013513512836634521 0 0.0044768952294035333 2.8048788083890713e-07 0 0.0031891491517326404 2.2420474044769309e-07 0 0.0038002738618804184 0.00013513512836634521 0 0.0031891491517326404 2.2420474044769309e-07 0 0.0030467766250575085 3.880881079135281e-05 0 0.0031891491517326404 2.2420474044769309e-07 0 0.0030467766250575085 3.880881079135281e-05 0 0.0019013517428876092 8.0560150438969057e-08 0 0.0038002738618804184 0.00013513512836634521 0 0.0030467766250575085 3.880881079135281e-05 0 0.0037049058478803155 3.6110419819205568e-05 0 0.0030467766250575085 3.880881079135281e-05 0 0.0031743281492096235 -7.3597437160065262e-05 0 0.0037049058478803155 3.6110419819205568e-05 0 0.0030467766250575085 3.880881079135281e-05 0 0.0031743281492096235 -7.3597437160065262e-05 0 0.0024330090995669735 -6.5324295888418991e-05 0 0.0031743281492096235 -7.3597437160065262e-05 0 0.0024330090995669735 -6.5324295888418991e-05 0 0.0026975269331903592 -0.00020214773288663833 0 0.0024330090995669735 -6.5324295888418991e-05 0 0.0022200832217759061 -0.00016583505259712064 0 0.0026975269331903592 -0.00020214773288663833 0 0.0031743281492096235 -7.3597437160065262e-05 0 0.0026975269331903592 -0.00020214773288663833 0 0.0033744917195276691 -0.00030815870991617478 0 0.0030467766250575085 3.880881079135281e-05 0 0.0024330090995669735 -6.5324295888418991e-05 0 0.0019013517428876092 8.0560150438969057e-08 0 0.0024330090995669735 -6.5324295888418991e-05 0 0.0019013517428876092 8.0560150438969057e-08 0 0.0016355142305922077 -8.8603716240903764e-05 0 0.0019013517428876092 8.0560150438969057e-08 0 0.0016355142305922077 -8.8603716240903764e-05 0 0.0006132836076596529 -8.7554553776092499e-07 0 0.0016355142305922077 -8.8603716240903764e-05 0 0.0006132836076596529 -8.7554553776092499e-07 0 0.001274953070209652 -0.00022530520291033906 0 0.0018119416513933508 -0.00021620810718951617 0 0.0016355142305922077 -8.8603716240903764e-05 0 0.001274953070209652 -0.00022530520291033906 0 0.0018119416513933508 -0.00021620810718951617 0 0.0016355142305922077 -8.8603716240903764e-05 0 0.0022200832217759061 -0.00016583505259712064 0 0.0024330090995669735 -6.5324295888418991e-05 0 0.0016355142305922077 -8.8603716240903764e-05 0 0.0022200832217759061 -0.00016583505259712064 0 0.0022200832217759061 -0.00016583505259712064 0 0.0026975269331903592 -0.00020214773288663833 0 0.0023722728031259892 -0.00039291190462148245 0 0.0018119416513933508 -0.00021620810718951617 0 0.0022200832217759061 -0.00016583505259712064 0 0.0023722728031259892 -0.00039291190462148245 0 0.0009590092105563146 -2.5553420491653183e-05 0 0.0023522514914173518 0.0001613429695234056 0 0.0026975269331903592 -0.00020214773288663833 0 0.0025245843349485371 -0.00044900437733242006 0 0.0033744917195276691 -0.00030815870991617478 0 0.0026975269331903592 -0.00020214773288663833 0 0.0025245843349485371 -0.00044900437733242006 0 0.0023722728031259892 -0.00039291190462148245 0 0.0009590092105563146 -2.5553420491653183e-05 0 0.0012170031788078632 -8.4343314417310007e-05 0 0.0018119416513933508 -0.00021620810718951617 0 0.0023722728031259892 -0.00039291190462148245 0 0.001274953070209652 -0.00022530520291033906 0 0.0025517093572008397 -0.00048209255687836568 0 0.0023722728031259892 -0.00039291190462148245 0 0.001274953070209652 -0.00022530520291033906 0 -0.00053523590973834456 -3.55935904198399e-05 0 -0.00048481612162083168 -4.641390109221589e-05 0 9.6181145068793695e-06 -9.5854246715208681e-05 0 -0.00053523590973834456 -3.55935904198399e-05 0 -0.00048481612162083168 -4.641390109221589e-05 0 -0.00036696551629158812 -2.7455083028609227e-05 0 -0.00054234569920528749 -0.00010413012309854382 0 -0.00048481612162083168 -4.641390109221589e-05 0 -0.00036696551629158812 -2.7455083028609227e-05 0 -0.00042761354725846654 -3.9100710586391149e-05 0 -0.00054234569920528749 -0.00010413012309854382 0 -0.00048481612162083168 -4.641390109221589e-05 0 -0.00042761354725846654 -3.9100710586391149e-05 0 -0.00048481612162083168 -4.641390109221589e-05 0 9.6181145068793695e-06 -9.5854246715208681e-05 0 0.0009590092105563146 -2.5553420491653183e-05 0 0.00022832645377098704 -0.0001331196496188688 0 0.0025517093572008397 -0.00048209255687836568 0 9.6181145068793695e-06 -9.5854246715208681e-05 0 0.001274953070209652 -0.00022530520291033906 0 9.6181145068793695e-06 -9.5854246715208681e-05 0 0.0006132836076596529 -8.7554553776092499e-07 0 0.001274953070209652 -0.00022530520291033906 0 -6.226413354316089e-05 -0.00043908767359158616 0 -1.7823535554579507e-05 0.00021905090727511459 0 0.00047820414101407371 -0.00021370389272721874 0 -0.00053523590973834456 -3.55935904198399e-05 0 -1.7823535554579507e-05 0.00021905090727511459 0 -0.00036696551629158812 -2.7455083028609227e-05 0 -6.226413354316089e-05 -0.00043908767359158616 0 -1.7823535554579507e-05 0.00021905090727511459 0 -0.00036696551629158812 -2.7455083028609227e-05 0 0.0010074319267933569 0.00025355791389976799 0 0.0015714332567879829 0.0001290116627087819 0 0.001247172177608668 0.00049692775558722634 0 0.0009590092105563146 -2.5553420491653183e-05 0 0.00063431851952568878 0.00019687769982317375 0 0.0015714332567879829 0.0001290116627087819 0 0.0015200274221194522 0.00046346355656682264 0 0.001247172177608668 0.00049692775558722634 0 0.0015714332567879829 0.0001290116627087819 0 0.0017705766229051758 0.00048240949428817874 0 0.0020167970299624543 0.00032060262698030471 0 0.0015714332567879829 0.0001290116627087819 0 0.0015200274221194522 0.00046346355656682264 0 0.0017705766229051758 0.00048240949428817874 0 0.0017705766229051758 0.00048240949428817874 0 0.0014916238217387383 0.00074281078849045988 0 0.0021141137324487825 0.00073276563940311967 0 0.0034414928825419857 -0.00018932013388183429 0 0.0035102823469648527 8.3688690809036604e-05 0 0.0015200274221194522 0.00046346355656682264 0 0.0017705766229051758 0.00048240949428817874 0 0.0014916238217387383 0.00074281078849045988 0 0.0034414928825419857 -0.00018932013388183429 0 0.0023522514914173518 0.0001613429695234056 0 0.0015200274221194522 0.00046346355656682264 0 0.0014916238217387383 0.00074281078849045988 0 0.001247172177608668 0.00049692775558722634 0 0.0038415967653742493 -0.000199476471244551 0 0.0033744917195276691 -0.00030815870991617478 0 0.0036851755050223839 -0.00018352942176421354 0 0.0034414928825419857 -0.00018932013388183429 0 0.0037954543224555711 -0.00021266418525521272 0 0.0031743281492096235 -7.3597437160065262e-05 0 0.0033744917195276691 -0.00030815870991617478 0 0.0036851755050223839 -0.00018352942176421354 0 0.0031743281492096235 -7.3597437160065262e-05 0 0.0036851755050223839 -0.00018352942176421354 0 0.0037049058478803155 3.6110419819205568e-05 0 0.0041293546633979564 -0.00032560588378206692 0 0.0036851755050223839 -0.00018352942176421354 0 0.0041795037369502719 -8.4419671379209639e-05 0 0.0036851755050223839 -0.00018352942176421354 0 0.0041795037369502719 -8.4419671379209639e-05 0 0.0037049058478803155 3.6110419819205568e-05 0 0.0043474506351257177 6.4296534220707963e-05 0 0.0041795037369502719 -8.4419671379209639e-05 0 0.0037049058478803155 3.6110419819205568e-05 0 0.0043474506351257177 6.4296534220707963e-05 0 0.0041795037369502719 -8.4419671379209639e-05 0 0.0048907422289890925 -6.0729727604210803e-05 0 0.0041293546633979564 -0.00032560588378206692 0 0.0041795037369502719 -8.4419671379209639e-05 0 0.0048907422289890925 -6.0729727604210803e-05 0 0.0034414928825419857 -0.00018932013388183429 0 0.0050732425611786317 -0.0002051788599265409 0 0.0046385677808300626 -0.00062279843101681494 0 0.0050574308413127329 -0.00064799165254141445 0 0.0049344614297095373 -0.00035978346399261789 0 0.0052348336424267146 -0.00040885991096759224 0 0.0050574308413127329 -0.00064799165254141445 0 0.0049344614297095373 -0.00035978346399261789 0 0.0052348336424267146 -0.00040885991096759224 0 0.0050574308413127329 -0.00064799165254141445 0 0.0054320597972698954 -0.00065368177125750375 0 0.0021141137324487825 0.00073276563940311967 0 0.0024975676140390245 0.00030131295385485548 0 0.0028494287120571257 0.00076030387827515761 0 0.0035102823469648527 8.3688690809036604e-05 0 0.0041186285975924252 3.7403157757935175e-05 0 0.0017705766229051758 0.00048240949428817874 0 0.0021141137324487825 0.00073276563940311967 0 0.0020167970299624543 0.00032060262698030471 0 0.0015714332567879829 0.0001290116627087819 0 0.0020167970299624543 0.00032060262698030471 0 0.0021634229350574207 -3.1029117430672551e-05 0 0.0021141137324487825 0.00073276563940311967 0 0.0020167970299624543 0.00032060262698030471 0 0.0024975676140390245 0.00030131295385485548 0 0.0020167970299624543 0.00032060262698030471 0 0.0021634229350574207 -3.1029117430672551e-05 0 0.0024975676140390245 0.00030131295385485548 0 0.0017896954761008525 -0.00049705113968594367 0 0.0012121539107848782 0.0001711739928393924 0 0.0027808967362679929 -0.00026066312868804791 0 0.00063431851952568878 0.00019687769982317375 0 0.0017437584664198777 4.167016860027068e-05 0 -1.7823535554579507e-05 0.00021905090727511459 0 0.0012121539107848782 0.0001711739928393924 0 0.00047820414101407371 -0.00021370389272721874 0 0.0032356813765863075 -0.00056011747584439682 0 0.0027808967362679929 -0.00026066312868804791 0 0.0031091869170484722 0.00020310109899365024 0 0.0032356813765863075 -0.00056011747584439682 0 0.0031091869170484722 0.00020310109899365024 0 0.0036828017635110372 2.2569656007446478e-05 0 0.0027808967362679929 -0.00026066312868804791 0 0.0024975676140390245 0.00030131295385485548 0 0.0031091869170484722 0.00020310109899365024 0 0.0021634229350574207 -3.1029117430672551e-05 0 0.0027808967362679929 -0.00026066312868804791 0 0.0024975676140390245 0.00030131295385485548 0 0.0017437584664198777 4.167016860027068e-05 0 0.0027093700243416533 -0.00022563719216037992 0 0.0024975676140390245 0.00030131295385485548 0 0.0031091869170484722 0.00020310109899365024 0 0.0028494287120571257 0.00076030387827515761 0 0.0031091869170484722 0.00020310109899365024 0 0.0028494287120571257 0.00076030387827515761 0 0.003744122275449061 0.00075191878360221271 0 0.0041186285975924252 3.7403157757935175e-05 0 0.0049562155253978502 0.000110799293508709 0 0.0054320597972698954 -0.00065368177125750375 0 0.0056364234392711991 -0.00049684135012552746 0 0.0057708747239252093 -0.00066334999197709349 0 0.0052348336424267146 -0.00040885991096759224 0 0.0054320597972698954 -0.00065368177125750375 0 0.0055032819331614601 -0.00033740241318197262 0 0.0054320597972698954 -0.00065368177125750375 0 0.0056364234392711991 -0.00049684135012552746 0 0.0055032819331614601 -0.00033740241318197262 0 0.0056300938315210084 -0.00012266570434891461 0 0.0052217803883646092 -0.00013770508071644634 0 0.0054888631569329502 5.1986317346183809e-05 0 0.0055032819331614601 -0.00033740241318197262 0 0.0056300938315210084 -0.00012266570434891461 0 0.0052217803883646092 -0.00013770508071644634 0 0.0055032819331614601 -0.00033740241318197262 0 0.0056300938315210084 -0.00012266570434891461 0 0.0058212447971287022 -0.00035531043117479889 0 0.0052348336424267146 -0.00040885991096759224 0 0.0055032819331614601 -0.00033740241318197262 0 0.0052217803883646092 -0.00013770508071644634 0 0.0052348336424267146 -0.00040885991096759224 0 0.0049344614297095373 -0.00035978346399261789 0 0.0052217803883646092 -0.00013770508071644634 0 0.0048139093505529373 0.00012699220104816497 0 0.0048907422289890925 -6.0729727604210803e-05 0 0.005373472934277067 0.00011114291271858631 0 0.0050732425611786317 -0.0002051788599265409 0 0.00526892261286866 -1.5251661072792077e-05 0 0.0050427117252276939 0.00024394482185422517 0 0.0048139093505529373 0.00012699220104816497 0 0.005373472934277067 0.00011114291271858631 0 0.005373472934277067 0.00011114291271858631 0 0.0055081205945651896 0.0003292313760406804 0 0.00564101364198385 0.0002121293993786233 0 0.0050427117252276939 0.00024394482185422517 0 0.005373472934277067 0.00011114291271858631 0 0.0055081205945651896 0.0003292313760406804 0 0.0054281767554386646 0.00045904412686101109 0 0.0055081205945651896 0.0003292313760406804 0 0.0056019660184531131 0.00031643826061059619 0 0.0054281767554386646 0.00045904412686101109 0 0.0050427117252276939 0.00024394482185422517 0 0.0055081205945651896 0.0003292313760406804 0 0.0055081205945651896 0.0003292313760406804 0 0.0056700581222523397 0.00022372775060795649 0 0.00564101364198385 0.0002121293993786233 0 0.0056700581222523397 0.00022372775060795649 0 0.00564101364198385 0.0002121293993786233 0 0.0057589352485181381 0.00017032622175984258 0 0.0054888631569329502 5.1986317346183809e-05 0 0.0057356498162828467 4.6061818712568272e-05 0 0.0057589352485181381 0.00017032622175984258 0 0.0055740218494223842 0.00013149718188142632 0 0.0057380763147917499 0.00017716424204559459 0 0.0056300938315210084 -0.00012266570434891461 0 0.0054888631569329502 5.1986317346183809e-05 0 0.0057356498162828467 4.6061818712568272e-05 0 0.00526892261286866 -1.5251661072792077e-05 0 0.0055740218494223842 0.00013149718188142632 0 0.006475513182035513 -0.00035136602320493541 0 0.0064352770609007893 -0.00031186239407309793 0 0.0065085140423115665 -0.0002519792611878295 0 0.006173297474107841 -0.00010876125922064575 0 0.0061624510600038181 -0.00014329226897475907 0 0.0057356498162828467 4.6061818712568272e-05 0 0.0058638643128994658 0.00014185104863209439 0 0.0058579596179908445 -6.4696778657694887e-05 0 0.0056300938315210084 -0.00012266570434891461 0 0.0057356498162828467 4.6061818712568272e-05 0 0.0058579596179908445 -6.4696778657694887e-05 0 0.0057356498162828467 4.6061818712568272e-05 0 0.0057589352485181381 0.00017032622175984258 0 0.0058638643128994658 0.00014185104863209439 0 0.006475513182035513 -0.00035136602320493541 0 0.0064352770609007893 -0.00031186239407309793 0 0.0064384389175009878 -0.00037090488219764433 0 0.0064086719365086201 -0.00034398708645808919 0 0.0064352770609007893 -0.00031186239407309793 0 0.0064384389175009878 -0.00037090488219764433 0 0.0064086719365086201 -0.00034398708645808919 0 0.0063761450505971642 -0.0002987898090017652 0 0.0063722742012669404 -0.00034111676703841101 0 0.0064086719365086201 -0.00034398708645808919 0 0.0063722742012669404 -0.00034111676703841101 0 0.0064276044084479048 -0.00037754699995851376 0 0.0064086719365086201 -0.00034398708645808919 0 0.0063761450505971642 -0.0002987898090017652 0 0.0064352770609007893 -0.00031186239407309793 0 0.0064352770609007893 -0.00031186239407309793 0 0.0064091719336203182 -0.00021748372090021832 0 0.0065085140423115665 -0.0002519792611878295 0 0.0063761450505971642 -0.0002987898090017652 0 0.0064352770609007893 -0.00031186239407309793 0 0.0064091719336203182 -0.00021748372090021832 0 0.0064091719336203182 -0.00021748372090021832 0 0.0062946781347265864 -0.00012465063790964586 0 0.0063199670015858817 -0.00023032652308939007 0 0.0063761450505971642 -0.0002987898090017652 0 0.0064091719336203182 -0.00021748372090021832 0 0.0063199670015858817 -0.00023032652308939007 0 0.0064091719336203182 -0.00021748372090021832 0 0.0062946781347265864 -0.00012465063790964586 0 0.0064086835654924594 -6.5631127781985116e-05 0 0.0064091719336203182 -0.00021748372090021832 0 0.0065294709521990461 -0.0001081881447200509 0 0.0064086835654924594 -6.5631127781985116e-05 0 0.0061624510600038181 -0.00014329226897475907 0 0.0063276175337027727 -0.0003083019018105676 0 0.0064091719336203182 -0.00021748372090021832 0 0.0065085140423115665 -0.0002519792611878295 0 0.0065294709521990461 -0.0001081881447200509 0 0.0056300938315210084 -0.00012266570434891461 0 0.0058579596179908445 -6.4696778657694887e-05 0 0.0058212447971287022 -0.00035531043117479889 0 0.0056364234392711991 -0.00049684135012552746 0 0.0055032819331614601 -0.00033740241318197262 0 0.0058212447971287022 -0.00035531043117479889 0 0.0056364234392711991 -0.00049684135012552746 0 0.0058212447971287022 -0.00035531043117479889 0 0.0057708747239252093 -0.00066334999197709349 0 0.0063276175337027727 -0.0003083019018105676 0 0.0049562155253978502 0.000110799293508709 0 0.0065294709521990461 -0.0001081881447200509 0 0.0065458716915631756 6.4495230896618013e-05 0 0.0064086835654924594 -6.5631127781985116e-05 0 0.0049562155253978502 0.000110799293508709 0 0.0057249023508149722 0.00024573567881600532 0 0.0065458716915631756 6.4495230896618013e-05 0 0.0063782589614627648 9.3408376483997377e-05 0 0.0064086835654924594 -6.5631127781985116e-05 0 0.0049562155253978502 0.000110799293508709 0 0.0036491917273841451 -7.063734197852366e-05 0 0.0031091869170484722 0.00020310109899365024 0 0.003744122275449061 0.00075191878360221271 0 0.0036828017635110372 2.2569656007446478e-05 0 0.0039324984920911061 0.00044269419425079588 0 0.0044502337206791098 -0.00034430444215340767 0 0.0038371633574498022 -0.0003109015420386493 0 0.0039324984920911061 0.00044269419425079588 0 0.0044502337206791098 -0.00034430444215340767 0 0.0049376488888923506 0.00037952009070751886 0 0.0042509286576751992 -0.0008565045781230733 0 0.0044159633243482915 -0.0003921602565703732 0 0.0044502337206791098 -0.00034430444215340767 0 0.0038371633574498022 -0.0003109015420386493 0 0.0040306614587224442 -0.0006138040888340674 0 0.0047155506689586756 -0.00098199189128827884 0 0.0042474080348452389 -0.00096615115507619185 0 0.0044502337206791098 -0.00034430444215340767 0 0.0042701452259269494 -0.00071823605295875937 0 0.0044502337206791098 -0.00034430444215340767 0 0.0040306614587224442 -0.0006138040888340674 0 0.0036886285786904604 -0.00090523751569128767 0 0.0036491917273841451 -7.063734197852366e-05 0 0.0036656682144184404 -0.00090978252955145882 0 0.0038371633574498022 -0.0003109015420386493 0 0.0040306614587224442 -0.0006138040888340674 0 0.0027723459651027723 -0.00064395792826318356 0 0.0034402846847909662 3.3653163742528784e-06 0 0.0052379449934478088 -0.0011559524933566856 0 0.0051629407392431723 -0.00047625726407299769 0 0.0058952996398434904 -0.00048381880464317924 0 0.0051629407392431723 -0.00047625726407299769 0 0.0055320610916191875 -0.00012693266912667449 0 0.0058952996398434904 -0.00048381880464317924 0 0.0047155506689586756 -0.00098199189128827884 0 0.0052379449934478088 -0.0011559524933566856 0 0.0051629407392431723 -0.00047625726407299769 0 0.0047155506689586756 -0.00098199189128827884 0 0.0044502337206791098 -0.00034430444215340767 0 0.0051629407392431723 -0.00047625726407299769 0 0.0044502337206791098 -0.00034430444215340767 0 0.0051629407392431723 -0.00047625726407299769 0 0.0049376488888923506 0.00037952009070751886 0 0.0051629407392431723 -0.00047625726407299769 0 0.0055320610916191875 -0.00012693266912667449 0 0.0049376488888923506 0.00037952009070751886 0 0.0055320610916191875 -0.00012693266912667449 0 0.0049376488888923506 0.00037952009070751886 0 0.0060617420062627414 0.00011887093447014823 0 0.0063782589614627648 9.3408376483997377e-05 0 0.0062569665817153505 -1.8771701217545469e-05 0 0.0060617420062627414 0.00011887093447014823 0 0.0057249023508149722 0.00024573567881600532 0 0.0060054691687570867 0.00013200122494150341 0 0.0063782589614627648 9.3408376483997377e-05 0 0.0064086835654924594 -6.5631127781985116e-05 0 0.0062569665817153505 -1.8771701217545469e-05 0 0.0062946781347265864 -0.00012465063790964586 0 0.0064086835654924594 -6.5631127781985116e-05 0 0.0062569665817153505 -1.8771701217545469e-05 0 0.0062946781347265864 -0.00012465063790964586 0 0.0062569665817153505 -1.8771701217545469e-05 0 0.0061824277014631028 -3.9940314247177319e-05 0 0.0062569665817153505 -1.8771701217545469e-05 0 0.0061824277014631028 -3.9940314247177319e-05 0 0.0060617420062627414 0.00011887093447014823 0 0.0061824277014631028 -3.9940314247177319e-05 0 0.0061506277655958086 2.946870753363462e-05 0 0.0061099094095424045 -7.2094066044507379e-05 0 0.0061506277655958086 2.946870753363462e-05 0 0.0062042144509117285 9.5739726722756831e-06 0 0.0060983046588045983 2.500279135489563e-05 0 0.0061824277014631028 -3.9940314247177319e-05 0 0.0061506277655958086 2.946870753363462e-05 0 0.0060617420062627414 0.00011887093447014823 0 0.0061506277655958086 2.946870753363462e-05 0 0.0060617420062627414 0.00011887093447014823 0 0.0062042144509117285 9.5739726722756831e-06 0 0.0038273849866924336 0.00058318902226147881 0 0.0034402846847909662 3.3653163742528784e-06 0 0.0060617420062627414 0.00011887093447014823 0 0.0062042144509117285 9.5739726722756831e-06 0 0.0058952996398434904 -0.00048381880464317924 0 0.0055320610916191875 -0.00012693266912667449 0 0.0060617420062627414 0.00011887093447014823 0 0.0058952996398434904 -0.00048381880464317924 0 0.0016579961700014887 0.001130678241291395 0 0.0016679917297934953 0.00046891430998586143 0 0.002220578250158472 0.00070150794350345991 0 0.0021444603585163129 7.3847285529907755e-05 0 0.0012786625500731004 -6.5642648415512221e-05 0 0.0016679917297934953 0.00046891430998586143 0 0.0016579961700014887 0.001130678241291395 0 0.0016679917297934953 0.00046891430998586143 0 0.00097380312888774019 0.00049245172680647273 0 0.0012786625500731004 -6.5642648415512221e-05 0 0.0016679917297934953 0.00046891430998586143 0 0.00097380312888774019 0.00049245172680647273 0 0.0021444603585163129 7.3847285529907755e-05 0 0.0025981706557452484 0.00048807202106099614 0 0.0028758630469651845 0.0001382974942437436 0 0.0025981706557452484 0.00048807202106099614 0 0.0030460893015441196 0.00067721218192288188 0 0.0027096180732493896 0.00085196408556900151 0 0.0025981706557452484 0.00048807202106099614 0 0.0030460893015441196 0.00067721218192288188 0 0.0028758630469651845 0.0001382974942437436 0 0.0021444603585163129 7.3847285529907755e-05 0 0.0025981706557452484 0.00048807202106099614 0 0.002220578250158472 0.00070150794350345991 0 0.0021444603585163129 7.3847285529907755e-05 0 0.0016679917297934953 0.00046891430998586143 0 0.002220578250158472 0.00070150794350345991 0 0.0025981706557452484 0.00048807202106099614 0 0.002220578250158472 0.00070150794350345991 0 0.0027096180732493896 0.00085196408556900151 0 0.002220578250158472 0.00070150794350345991 0 0.0024736813669219999 0.0011312203007618968 0 0.0027096180732493896 0.00085196408556900151 0 0.0016579961700014887 0.001130678241291395 0 0.002220578250158472 0.00070150794350345991 0 0.0024736813669219999 0.0011312203007618968 0 0.0016579961700014887 0.001130678241291395 0 0.0024736813669219999 0.0011312203007618968 0 0.0024190813508266169 0.0015301178244280487 0 0.0024736813669219999 0.0011312203007618968 0 0.0030078353446713764 0.0011279245336774607 0 0.0027833848773691464 0.0014246022858908915 0 0.0024736813669219999 0.0011312203007618968 0 0.0027096180732493896 0.00085196408556900151 0 0.0030078353446713764 0.0011279245336774607 0 0.0030460893015441196 0.00067721218192288188 0 0.0027096180732493896 0.00085196408556900151 0 0.0030078353446713764 0.0011279245336774607 0 0.0031766867536077532 0.0014390083806106327 0 0.0030078353446713764 0.0011279245336774607 0 0.0027833848773691464 0.0014246022858908915 0 0.0027833848773691464 0.0014246022858908915 0 0.0027990292482172564 0.0018074394067533206 0 0.0024190813508266169 0.0015301178244280487 0 0.0032631335246690175 0.0018590175954774049 0 0.0031766867536077532 0.0014390083806106327 0 0.0027990292482172564 0.0018074394067533206 0 0.0031766867536077532 0.0014390083806106327 0 0.0027833848773691464 0.0014246022858908915 0 0.0027990292482172564 0.0018074394067533206 0 0.0060810863775916345 0.00082765755989372631 0 0.0022735715137602395 0.0015308293912244255 0 0.0038273849866924336 0.00058318902226147881 0 0.0049555748322588841 0.00047147048731596111 0 0.0016579961700014887 0.001130678241291395 0 0.0024190813508266169 0.0015301178244280487 0 0.0023733168876892128 0.00176644603405781 0 0.0024736813669219999 0.0011312203007618968 0 0.0027833848773691464 0.0014246022858908915 0 0.0024190813508266169 0.0015301178244280487 0 0.0027990292482172564 0.0018074394067533206 0 0.0024190813508266169 0.0015301178244280487 0 0.0023728729641863608 0.0017560358233868381 0 0.0039448009772921977 0.0016025681333612432 0 0.0049555748322588841 0.00047147048731596111 0 0.008194176954552863 -0.00053786234871784123 0 0.0083838301940825227 -0.0013058237117705078 0 0.0076233381252858723 -0.0011181714728207089 0 0.0049555748322588841 0.00047147048731596111 0 0.0072792342377907462 -0.00077880217914707086 0 0.0061506277655958086 2.946870753363462e-05 0 0.0060983046588045983 2.500279135489563e-05 0 0.0061099094095424045 -7.2094066044507379e-05 0 0.0060810863775916345 0.00082765755989372631 0 0.0088347419981402563 -0.001404620735826728 0 0.0034534238563063754 0.0018431043957116578 0 0.0027990292482172564 0.0018074394067533206 0 0.0029704121513129561 0.0023035007607632796 0 0.0027990292482172564 0.0018074394067533206 0 0.0023728729641863608 0.0017560358233868381 0 0.0029704121513129561 0.0023035007607632796 0 0.0049555748322588841 0.00047147048731596111 0 0.0088347419981402563 -0.001404620735826728 0 0.014334780443554957 -0.0034843076618786724 0 0.014819354379110068 -0.0030511371610217734 0 0.014224800584403004 -0.0035230329649946703 0 0.013125329325088845 -0.001178157184756693 0 0.014819354379110068 -0.0030511371610217734 0 0.014224800584403004 -0.0035230329649946703 0 0.010194839378956065 -0.0011464853659423489 0 0.0088347419981402563 -0.001404620735826728 0 0.014596234649632826 -0.0032584323196180802 0 0.014224800584403004 -0.0035230329649946703 0 0.014229774489920275 -0.003197778013216592 0 0.014229774489920275 -0.003197778013216592 0 0.014000178887807937 -0.0026867388910902265 0 0.013875154882789113 -0.0032931698506243907 0 0.014334780443554957 -0.0034843076618786724 0 0.014224800584403004 -0.0035230329649946703 0 0.014229774489920275 -0.003197778013216592 0 0.0088347419981402563 -0.001404620735826728 0 0.011405885439498118 -0.0029691772834258994 0 0.014334780443554957 -0.0034843076618786724 0 0.014229774489920275 -0.003197778013216592 0 0.013875154882789113 -0.0032931698506243907 0 0.014334780443554957 -0.0034843076618786724 0 0.014236378739194231 -0.0035711112457040002 0 0.013875154882789113 -0.0032931698506243907 0 0.014596234649632826 -0.0032584323196180802 0 0.014229774489920275 -0.003197778013216592 0 0.014371965907693499 -0.0028542572281680663 0 0.014229774489920275 -0.003197778013216592 0 0.014000178887807937 -0.0026867388910902265 0 0.014371965907693499 -0.0028542572281680663 0 0.014501635478052643 -0.0025073803989601171 0 0.014000178887807937 -0.0026867388910902265 0 0.014371965907693499 -0.0028542572281680663 0 0.014000178887807937 -0.0026867388910902265 0 0.013540001198544682 -0.0029695789125959481 0 0.013875154882789113 -0.0032931698506243907 0 0.014000178887807937 -0.0026867388910902265 0 0.013540001198544682 -0.0029695789125959481 0 0.013365799674292519 -0.0021229603648514703 0 0.0061099094095424045 -7.2094066044507379e-05 0 0.0061458299583506369 -0.00019247465528121675 0 0.0061680563979368188 -0.00011146653507449901 0 0.008636613272180323 -0.0015098273504517545 0 0.011405885439498118 -0.0029691772834258994 0 0.0083838301940825227 -0.0013058237117705078 0 0.0085615408877972969 -0.0020681444154206593 0 0.0080955636737571474 -0.0015957237015680737 0 0.0083838301940825227 -0.0013058237117705078 0 0.0076233381252858723 -0.0011181714728207089 0 0.0080955636737571474 -0.0015957237015680737 0 0.0072792342377907462 -0.00077880217914707086 0 0.008636613272180323 -0.0015098273504517545 0 0.0061458299583506369 -0.00019247465528121675 0 0.0062317948542149225 -0.00015324496302092933 0 0.0061680563979368188 -0.00011146653507449901 0 0.0061824277014631028 -3.9940314247177319e-05 0 0.0061099094095424045 -7.2094066044507379e-05 0 0.0061680563979368188 -0.00011146653507449901 0 0.0061824277014631028 -3.9940314247177319e-05 0 0.0062317948542149225 -0.00015324496302092933 0 0.0061680563979368188 -0.00011146653507449901 0 0.0062946781347265864 -0.00012465063790964586 0 0.0062317948542149225 -0.00015324496302092933 0 0.0063199670015858817 -0.00023032652308939007 0 0.0062946781347265864 -0.00012465063790964586 0 0.0061824277014631028 -3.9940314247177319e-05 0 0.0062317948542149225 -0.00015324496302092933 0 0.0062317948542149225 -0.00015324496302092933 0 0.0063199670015858817 -0.00023032652308939007 0 0.0062572549909242024 -0.00026594190632139175 0 0.0063199670015858817 -0.00023032652308939007 0 0.0062572549909242024 -0.00026594190632139175 0 0.0063223770309790471 -0.00029237401390106794 0 0.0061458299583506369 -0.00019247465528121675 0 0.0062317948542149225 -0.00015324496302092933 0 0.0062572549909242024 -0.00026594190632139175 0 0.006253103378236655 -0.00025645303601046476 0 0.0062572549909242024 -0.00026594190632139175 0 0.0062981213774868997 -0.00031454863671077872 0 0.008636613272180323 -0.0015098273504517545 0 0.0058072398013362366 0.00032594417727438191 0 0.008636613272180323 -0.0015098273504517545 0 0.01002838011282409 -0.0012662835784575594 0 0.0062572549909242024 -0.00026594190632139175 0 0.0062981213774868997 -0.00031454863671077872 0 0.0063223770309790471 -0.00029237401390106794 0 0.0063761450505971642 -0.0002987898090017652 0 0.0063199670015858817 -0.00023032652308939007 0 0.0063223770309790471 -0.00029237401390106794 0 0.0063761450505971642 -0.0002987898090017652 0 0.0063223770309790471 -0.00029237401390106794 0 0.0063722742012669404 -0.00034111676703841101 0 0.0062981213774868997 -0.00031454863671077872 0 0.0063223770309790471 -0.00029237401390106794 0 0.0063722742012669404 -0.00034111676703841101 0 0.01002838011282409 -0.0012662835784575594 0 0.0097465377754907823 -0.00082667720844796521 0 0.0062981213774868997 -0.00031454863671077872 0 0.0063722742012669404 -0.00034111676703841101 0 0.0064049361475530513 -0.00039227177801037593 0 0.013365799674292519 -0.0021229603648514703 0 0.014237341694448298 -0.0020868782993309475 0 0.014034613761293188 -0.0014375420061855614 0 0.01467576919193408 -0.001692911057869298 0 0.014237341694448298 -0.0020868782993309475 0 0.014034613761293188 -0.0014375420061855614 0 0.014501635478052643 -0.0025073803989601171 0 0.014000178887807937 -0.0026867388910902265 0 0.014237341694448298 -0.0020868782993309475 0 0.014000178887807937 -0.0026867388910902265 0 0.013365799674292519 -0.0021229603648514703 0 0.014237341694448298 -0.0020868782993309475 0 0.014034613761293188 -0.0014375420061855614 0 0.013215803661471104 -0.0013073923856286788 0 0.013972520602282377 -0.00067723551416375605 0 0.014606865626636246 -0.0012575858416889922 0 0.014390418338268998 -0.00093314110406506404 0 0.014034613761293188 -0.0014375420061855614 0 0.014390418338268998 -0.00093314110406506404 0 0.014034613761293188 -0.0014375420061855614 0 0.013972520602282377 -0.00067723551416375605 0 0.013365799674292519 -0.0021229603648514703 0 0.014034613761293188 -0.0014375420061855614 0 0.013215803661471104 -0.0013073923856286788 0 0.013215803661471104 -0.0013073923856286788 0 0.013087685419712105 -0.00056892765638771924 0 0.013972520602282377 -0.00067723551416375605 0 0.0063722742012669404 -0.00034111676703841101 0 0.0064049361475530513 -0.00039227177801037593 0 0.0064276044084479048 -0.00037754699995851376 0 0.0064049361475530513 -0.00039227177801037593 0 0.0064632596382995173 -0.00040274084318374251 0 0.0064276044084479048 -0.00037754699995851376 0 0.0064049361475530513 -0.00039227177801037593 0 0.0064632596382995173 -0.00040274084318374251 0 0.0064967475148134408 -0.00045742139051133915 0 0.0097465377754907823 -0.00082667720844796521 0 0.01002328503800947 -0.00053039905813616903 0 0.013087685419712105 -0.00056892765638771924 0 0.013586622716057867 -0.00015791631867397634 0 0.013972520602282377 -0.00067723551416375605 0 0.0064632596382995173 -0.00040274084318374251 0 0.0065801501072443027 -0.00033631099026900589 0 0.0064891425245469656 -0.00037533893170712179 0 0.0064632596382995173 -0.00040274084318374251 0 0.0064967475148134408 -0.00045742139051133915 0 0.00652302081332988 -0.00046605295716614398 0 0.0065165937884352886 -0.0003885856438977899 0 0.0063792194770932757 -0.00042387707425329012 0 0.0064967475148134408 -0.00045742139051133915 0 0.00652302081332988 -0.00046605295716614398 0 0.0065830021667651808 -0.00051489250731848429 0 0.01002328503800947 -0.00053039905813616903 0 0.0082304100373771418 -0.00026505106408751831 0 0.0065801501072443027 -0.00033631099026900589 0 0.006682664534085855 -0.00017862405344870608 0 0.0065174185867275716 -0.00024997972455904216 0 0.0063792194770932757 -0.00042387707425329012 0 0.0082304100373771418 -0.00026505106408751831 0 0.013087685419712105 -0.00056892765638771924 0 0.013586622716057867 -0.00015791631867397634 0 0.01295942804932175 0.00010380686654766452 0 0.013586622716057867 -0.00015791631867397634 0 0.013972520602282377 -0.00067723551416375605 0 0.014168761376028167 -0.00021059368577404144 0 0.0147748276205557 -0.00059496354623971904 0 0.014390418338268998 -0.00093314110406506404 0 0.013972520602282377 -0.00067723551416375605 0 0.01538178513809503 -0.0006701039620889632 0 0.013730524983411653 -0.00063625889599502547 0 0.014601241676244438 -0.00051217247959526983 0 0.013972520602282377 -0.00067723551416375605 0 0.014168761376028167 -0.00021059368577404144 0 0.014168761376028167 -0.00021059368577404144 0 0.014227857014061538 0.00019655611852923647 0 0.013850609995326944 0.00023335747529947318 0 0.013586622716057867 -0.00015791631867397634 0 0.014168761376028167 -0.00021059368577404144 0 0.013850609995326944 0.00023335747529947318 0 0.013586622716057867 -0.00015791631867397634 0 0.013850609995326944 0.00023335747529947318 0 0.01341212231374605 0.00032254930086360838 0 0.013850609995326944 0.00023335747529947318 0 0.013651589854958903 0.00073694732470517231 0 0.01341212231374605 0.00032254930086360838 0 0.013850609995326944 0.00023335747529947318 0 0.014081710881214571 0.00060873798329851741 0 0.013651589854958903 0.00073694732470517231 0 0.014429769080753142 0.00047294352026423531 0 0.014227857014061538 0.00019655611852923647 0 0.014081710881214571 0.00060873798329851741 0 0.014227857014061538 0.00019655611852923647 0 0.013850609995326944 0.00023335747529947318 0 0.014081710881214571 0.00060873798329851741 0 0.014429769080753142 0.00047294352026423531 0 0.014407096268009007 0.00073023314309225359 0 0.014081710881214571 0.00060873798329851741 0 0.014407096268009007 0.00073023314309225359 0 0.014081710881214571 0.00060873798329851741 0 0.014267323315006396 0.00092092490532887474 0 0.014081710881214571 0.00060873798329851741 0 0.014267323315006396 0.00092092490532887474 0 0.013980770396741884 0.00089928159610090706 0 0.014081710881214571 0.00060873798329851741 0 0.013980770396741884 0.00089928159610090706 0 0.013651589854958903 0.00073694732470517231 0 0.013980770396741884 0.00089928159610090706 0 0.013651589854958903 0.00073694732470517231 0 0.013823547476460233 0.0012009196633363652 0 0.013651589854958903 0.00073694732470517231 0 0.013823547476460233 0.0012009196633363652 0 0.013429689755182864 0.0010780832555868083 0 0.013823547476460233 0.0012009196633363652 0 0.013429689755182864 0.0010780832555868083 0 0.013483960387110409 0.0015478641313684649 0 0.013823547476460233 0.0012009196633363652 0 0.014098239220052405 0.0011301137092842451 0 0.014093205471282179 0.0013293904787028232 0 0.014371346441003604 0.0011344478296208343 0 0.014098239220052405 0.0011301137092842451 0 0.014093205471282179 0.0013293904787028232 0 0.014267323315006396 0.00092092490532887474 0 0.013980770396741884 0.00089928159610090706 0 0.014098239220052405 0.0011301137092842451 0 0.014371346441003604 0.0011344478296208343 0 0.014267323315006396 0.00092092490532887474 0 0.014098239220052405 0.0011301137092842451 0 0.013980770396741884 0.00089928159610090706 0 0.013823547476460233 0.0012009196633363652 0 0.014098239220052405 0.0011301137092842451 0 0.0068911977553975526 0.00020795815297685956 0 0.0071371799581263252 0.00039960940084194583 0 0.0069734343132325689 -1.7956376438873341e-05 0 0.013071218578531078 0.0012447862067135735 0 0.013429689755182864 0.0010780832555868083 0 0.013016051090964854 0.00068479650501572411 0 0.010080126631647153 0.00083043994347514597 0 0.010201792810187052 0.00035431676781498827 0 0.0068911977553975526 0.00020795815297685956 0 0.0071371799581263252 0.00039960940084194583 0 0.0069230811094333879 0.00039236667364910357 0 0.013071218578531078 0.0012447862067135735 0 0.013429689755182864 0.0010780832555868083 0 0.013483960387110409 0.0015478641313684649 0 0.013651589854958903 0.00073694732470517231 0 0.013429689755182864 0.0010780832555868083 0 0.013016051090964854 0.00068479650501572411 0 0.0068911977553975526 0.00020795815297685956 0 0.0069734343132325689 -1.7956376438873341e-05 0 0.0068158270957077022 5.023135534167251e-05 0 0.013016051090964854 0.00068479650501572411 0 0.01341212231374605 0.00032254930086360838 0 0.01295942804932175 0.00010380686654766452 0 0.006402054971145296 6.3962003515411129e-05 0 0.0082304100373771418 -0.00026505106408751831 0 0.0069734343132325689 -1.7956376438873341e-05 0 0.0068158270957077022 5.023135534167251e-05 0 0.0070044079578296982 -0.00048873340973182213 0 0.010201792810187052 0.00035431676781498827 0 0.0082304100373771418 -0.00026505106408751831 0 0.013651589854958903 0.00073694732470517231 0 0.013016051090964854 0.00068479650501572411 0 0.01341212231374605 0.00032254930086360838 0 0.013586622716057867 -0.00015791631867397634 0 0.01341212231374605 0.00032254930086360838 0 0.01295942804932175 0.00010380686654766452 0 0.006682664534085855 -0.00017862405344870608 0 0.006591207443933305 -7.2739992906279002e-05 0 0.0065174185867275716 -0.00024997972455904216 0 0.0063058279222021176 -6.7544920618355735e-05 0 0.0062149674947751185 -0.00013338962538437412 0 0.0063235159037380098 -8.3665834619240357e-05 0 0.006591207443933305 -7.2739992906279002e-05 0 0.0065174185867275716 -0.00024997972455904216 0 0.0063235159037380098 -8.3665834619240357e-05 0 0.0063773680542829579 -0.0003217936375216511 0 0.0065174185867275716 -0.00024997972455904216 0 0.0063235159037380098 -8.3665834619240357e-05 0 0.006591207443933305 -7.2739992906279002e-05 0 0.006476763962920502 5.0891809648387889e-05 0 0.0068158270957077022 5.023135534167251e-05 0 0.006682664534085855 -0.00017862405344870608 0 0.006591207443933305 -7.2739992906279002e-05 0 0.006591207443933305 -7.2739992906279002e-05 0 0.0066512205399480518 5.202095378159457e-05 0 0.006476763962920502 5.0891809648387889e-05 0 0.0068158270957077022 5.023135534167251e-05 0 0.006591207443933305 -7.2739992906279002e-05 0 0.0066512205399480518 5.202095378159457e-05 0 0.0068158270957077022 5.023135534167251e-05 0 0.006761769430461733 0.00014183893245580602 0 0.0066512205399480518 5.202095378159457e-05 0 0.0068911977553975526 0.00020795815297685956 0 0.0068158270957077022 5.023135534167251e-05 0 0.006761769430461733 0.00014183893245580602 0 0.006761769430461733 0.00014183893245580602 0 0.0066254153725426399 0.00011736247344401055 0 0.0067742686085905295 0.00026040820995501166 0 0.006761769430461733 0.00014183893245580602 0 0.0066254153725426399 0.00011736247344401055 0 0.0066512205399480518 5.202095378159457e-05 0 0.0066254153725426399 0.00011736247344401055 0 0.0066512205399480518 5.202095378159457e-05 0 0.006476763962920502 5.0891809648387889e-05 0 0.006476763962920502 5.0891809648387889e-05 0 0.0065138487017147939 0.00017497111300453309 0 0.0063893788352387014 0.00017148426683486308 0 0.0066254153725426399 0.00011736247344401055 0 0.006476763962920502 5.0891809648387889e-05 0 0.0065138487017147939 0.00017497111300453309 0 0.0066254153725426399 0.00011736247344401055 0 0.0065138487017147939 0.00017497111300453309 0 0.006618021326506609 0.00026395637464677284 0 0.0065138487017147939 0.00017497111300453309 0 0.0064806361463303295 0.00027019218519637629 0 0.006618021326506609 0.00026395637464677284 0 0.0065138487017147939 0.00017497111300453309 0 0.0064806361463303295 0.00027019218519637629 0 0.0063893788352387014 0.00017148426683486308 0 0.0064806361463303295 0.00027019218519637629 0 0.006618021326506609 0.00026395637464677284 0 0.0065756771431977733 0.00038897877179490604 0 0.006618021326506609 0.00026395637464677284 0 0.0067409221277278412 0.00036708864843145491 0 0.0065756771431977733 0.00038897877179490604 0 0.006618021326506609 0.00026395637464677284 0 0.0067409221277278412 0.00036708864843145491 0 0.0067742686085905295 0.00026040820995501166 0 0.0067409221277278412 0.00036708864843145491 0 0.0069230811094333879 0.00039236667364910357 0 0.0067742686085905295 0.00026040820995501166 0 0.0068911977553975526 0.00020795815297685956 0 0.006761769430461733 0.00014183893245580602 0 0.0067742686085905295 0.00026040820995501166 0 0.0068911977553975526 0.00020795815297685956 0 0.0069230811094333879 0.00039236667364910357 0 0.0067742686085905295 0.00026040820995501166 0 0.0066254153725426399 0.00011736247344401055 0 0.006618021326506609 0.00026395637464677284 0 0.0067742686085905295 0.00026040820995501166 0 0.0063112648165298676 0.00019998531824520386 0 0.0062262092689861102 6.8298979547072106e-05 0 0.0062288926860081875 0.00021178379807266457 0 0.0063112648165298676 0.00019998531824520386 0 0.0063893788352387014 0.00017148426683486308 0 0.006309091776455421 6.120100863348615e-05 0 0.0063112648165298676 0.00019998531824520386 0 0.0063971467112617355 0.0002692581338424892 0 0.0063893788352387014 0.00017148426683486308 0 0.0063112648165298676 0.00019998531824520386 0 0.0063971467112617355 0.0002692581338424892 0 0.0063723906203050932 0.00031795212839751537 0 0.0064806361463303295 0.00027019218519637629 0 0.0063971467112617355 0.0002692581338424892 0 0.0063893788352387014 0.00017148426683486308 0 0.0064806361463303295 0.00027019218519637629 0 0.0063971467112617355 0.0002692581338424892 0 0.0064429361848874029 0.0003332368047164224 0 0.006476763962920502 5.0891809648387889e-05 0 0.0063893788352387014 0.00017148426683486308 0 0.006309091776455421 6.120100863348615e-05 0 0.006309091776455421 6.120100863348615e-05 0 0.0062262092689861102 6.8298979547072106e-05 0 0.0061893897281588501 -1.9210224528042759e-05 0 0.0063112648165298676 0.00019998531824520386 0 0.006309091776455421 6.120100863348615e-05 0 0.0062262092689861102 6.8298979547072106e-05 0 0.0063235159037380098 -8.3665834619240357e-05 0 0.006309091776455421 6.120100863348615e-05 0 0.0061893897281588501 -1.9210224528042759e-05 0 0.0063235159037380098 -8.3665834619240357e-05 0 0.006476763962920502 5.0891809648387889e-05 0 0.006309091776455421 6.120100863348615e-05 0 0.0063235159037380098 -8.3665834619240357e-05 0 0.0061893897281588501 -1.9210224528042759e-05 0 0.0061291633576520824 -3.8691855279861405e-05 0 0.0063235159037380098 -8.3665834619240357e-05 0 0.0061291633576520824 -3.8691855279861405e-05 0 0.0060329516675238426 2.236596710733826e-05 0 0.0061893897281588501 -1.9210224528042759e-05 0 0.0061291633576520824 -3.8691855279861405e-05 0 0.0061344901727664151 -6.2738253482803928e-05 0 0.0059390925534433146 0.00010907264722104812 0 0.0060329516675238426 2.236596710733826e-05 0 0.006016808031918972 6.3456738365982149e-05 0 0.0061291633576520824 -3.8691855279861405e-05 0 0.0060329516675238426 2.236596710733826e-05 0 0.006016808031918972 6.3456738365982149e-05 0 0.0059390925534433146 0.00010907264722104812 0 0.0058024087689551151 0.0001599383850282768 0 0.006016808031918972 6.3456738365982149e-05 0 0.0059390925534433146 0.00010907264722104812 0 0.0060329516675238426 2.236596710733826e-05 0 0.0058958936109374457 0.0001384248667927389 0 0.0062149674947751185 -0.00013338962538437412 0 0.0061678435747206011 -0.00011965544840902866 0 0.0063773680542829579 -0.0003217936375216511 0 0.0065174185867275716 -0.00024997972455904216 0 0.0065062087381330611 -0.00033053089364915044 0 0.0065801501072443027 -0.00033631099026900589 0 0.0065174185867275716 -0.00024997972455904216 0 0.0065062087381330611 -0.00033053089364915044 0 0.0065801501072443027 -0.00033631099026900589 0 0.0065062087381330611 -0.00033053089364915044 0 0.0064891425245469656 -0.00037533893170712179 0 0.0065062087381330611 -0.00033053089364915044 0 0.0064891425245469656 -0.00037533893170712179 0 0.0064543122981534006 -0.00037337492392648989 0 0.0063773680542829579 -0.0003217936375216511 0 0.0065062087381330611 -0.00033053089364915044 0 0.0064543122981534006 -0.00037337492392648989 0 0.0063773680542829579 -0.0003217936375216511 0 0.0064543122981534006 -0.00037337492392648989 0 0.006433788611719813 -0.00038949618876036885 0 0.0064543122981534006 -0.00037337492392648989 0 0.0064523594837255166 -0.0003902575153151757 0 0.006433788611719813 -0.00038949618876036885 0 0.0064632596382995173 -0.00040274084318374251 0 0.0064891425245469656 -0.00037533893170712179 0 0.0064523594837255166 -0.0003902575153151757 0 0.0064891425245469656 -0.00037533893170712179 0 0.0064543122981534006 -0.00037337492392648989 0 0.0064523594837255166 -0.0003902575153151757 0 0.0064632596382995173 -0.00040274084318374251 0 0.0064523594837255166 -0.0003902575153151757 0 0.0064276044084479048 -0.00037754699995851376 0 0.0064086719365086201 -0.00034398708645808919 0 0.0064276044084479048 -0.00037754699995851376 0 0.0064384389175009878 -0.00037090488219764433 0 0.0064523594837255166 -0.0003902575153151757 0 0.0064276044084479048 -0.00037754699995851376 0 0.0064384389175009878 -0.00037090488219764433 0 0.0064523594837255166 -0.0003902575153151757 0 0.0064384389175009878 -0.00037090488219764433 0 0.006433788611719813 -0.00038949618876036885 0 0.006475513182035513 -0.00035136602320493541 0 0.0064384389175009878 -0.00037090488219764433 0 0.006433788611719813 -0.00038949618876036885 0 0.0058638643128994658 0.00014185104863209439 0 0.0058499710234943963 0.00015558431675927249 0 0.0058958936109374457 0.0001384248667927389 0 0.006173297474107841 -0.00010876125922064575 0 0.0061678435747206011 -0.00011965544840902866 0 0.0057589352485181381 0.00017032622175984258 0 0.0058638643128994658 0.00014185104863209439 0 0.0058499710234943963 0.00015558431675927249 0 0.0057589352485181381 0.00017032622175984258 0 0.0058499710234943963 0.00015558431675927249 0 0.0058024087689551151 0.0001599383850282768 0 0.0059390925534433146 0.00010907264722104812 0 0.0058499710234943963 0.00015558431675927249 0 0.0058958936109374457 0.0001384248667927389 0 0.0059390925534433146 0.00010907264722104812 0 0.0058499710234943963 0.00015558431675927249 0 0.0058024087689551151 0.0001599383850282768 0 0.0058024087689551151 0.0001599383850282768 0 0.0056248201968427071 0.00023499436794869507 0 0.0057201894367058803 0.00015060657531170953 0 0.0056700581222523397 0.00022372775060795649 0 0.0057589352485181381 0.00017032622175984258 0 0.0058024087689551151 0.0001599383850282768 0 0.0056700581222523397 0.00022372775060795649 0 0.0058024087689551151 0.0001599383850282768 0 0.0056248201968427071 0.00023499436794869507 0 0.0055081205945651896 0.0003292313760406804 0 0.0056700581222523397 0.00022372775060795649 0 0.0056248201968427071 0.00023499436794869507 0 0.0055081205945651896 0.0003292313760406804 0 0.0056248201968427071 0.00023499436794869507 0 0.0056019660184531131 0.00031643826061059619 0 0.0054281767554386646 0.00045904412686101109 0 0.0056019660184531131 0.00031643826061059619 0 0.0058903868290245808 0.00027802719664171428 0 0.0056019660184531131 0.00031643826061059619 0 0.0056941618448989317 3.5348996683527005e-05 0 0.0058903868290245808 0.00027802719664171428 0 0.0056248201968427071 0.00023499436794869507 0 0.0056019660184531131 0.00031643826061059619 0 0.0056941618448989317 3.5348996683527005e-05 0 0.0056248201968427071 0.00023499436794869507 0 0.0056941618448989317 3.5348996683527005e-05 0 0.0057201894367058803 0.00015060657531170953 0 0.0063109416358412933 -2.7304918273695927e-06 0 0.0062800161633716784 -0.00015211239942306045 0 0.0061856861353919608 -1.6213499442365956e-05 0 0.0060312125412315711 1.8788070866344402e-05 0 0.0059482151458703858 5.9463208859523043e-05 0 0.0062800161633716784 -0.00015211239942306045 0 0.0061856861353919608 -1.6213499442365956e-05 0 0.0062226252619230673 -0.00012767310112121483 0 0.0063109416358412933 -2.7304918273695927e-06 0 0.0062800161633716784 -0.00015211239942306045 0 0.0064157816766483924 -0.00033763758764341609 0 0.0059482151458703858 5.9463208859523043e-05 0 0.0059988548876205956 6.345733596093347e-05 0 0.0058024087689551151 0.0001599383850282768 0 0.0057201894367058803 0.00015060657531170953 0 0.006016808031918972 6.3456738365982149e-05 0 0.0061856861353919608 -1.6213499442365956e-05 0 0.006016808031918972 6.3456738365982149e-05 0 0.0061344901727664151 -6.2738253482803928e-05 0 0.0061856861353919608 -1.6213499442365956e-05 0 0.0061344901727664151 -6.2738253482803928e-05 0 0.0062226252619230673 -0.00012767310112121483 0 0.0061291633576520824 -3.8691855279861405e-05 0 0.006016808031918972 6.3456738365982149e-05 0 0.0061344901727664151 -6.2738253482803928e-05 0 0.0061344901727664151 -6.2738253482803928e-05 0 0.0061687760472296524 -5.1971875150680095e-05 0 0.0062226252619230673 -0.00012767310112121483 0 0.0061687760472296524 -5.1971875150680095e-05 0 0.0062201397599983216 -0.00011028724913371485 0 0.0062226252619230673 -0.00012767310112121483 0 0.0061893897281588501 -1.9210224528042759e-05 0 0.0061344901727664151 -6.2738253482803928e-05 0 0.0061687760472296524 -5.1971875150680095e-05 0 0.0062262092689861102 6.8298979547072106e-05 0 0.0061687760472296524 -5.1971875150680095e-05 0 0.0061812628302181302 8.6296032303832368e-05 0 0.0062262092689861102 6.8298979547072106e-05 0 0.0061893897281588501 -1.9210224528042759e-05 0 0.0061687760472296524 -5.1971875150680095e-05 0 0.0061687760472296524 -5.1971875150680095e-05 0 0.0061873152865657994 -6.6261427694031688e-05 0 0.0062201397599983216 -0.00011028724913371485 0 0.0061687760472296524 -5.1971875150680095e-05 0 0.0061873152865657994 -6.6261427694031688e-05 0 0.0061812628302181302 8.6296032303832368e-05 0 0.0059410895686207365 5.1553251871482439e-06 0 0.0062742428317735105 8.4738795604872999e-05 0 0.0061186632318664261 0.00011972238074008203 0 0.006117568887686599 0.00017166106863662341 0 0.0061812628302181302 8.6296032303832368e-05 0 0.006117568887686599 0.00017166106863662341 0 0.0061812628302181302 8.6296032303832368e-05 0 0.0062288926860081875 0.00021178379807266457 0 0.0062262092689861102 6.8298979547072106e-05 0 0.0061812628302181302 8.6296032303832368e-05 0 0.0062288926860081875 0.00021178379807266457 0 0.0092724267439170931 -0.00022505825964671362 0 0.0092601046108539298 -0.00040874306116350627 0 0.0090013028339984095 -0.0004531978239411477 0 0.010556851539614727 -0.00023237512599669704 0 0.0097733356893338307 -0.0003180313912507843 0 0.012878509526638573 -0.00027067284275117935 0 0.011847291191332718 -0.00023477123433065128 0 0.011664710473928495 -0.00028757430520062998 0 0.011582435174747189 -0.00030088344401649561 0 0.011347634946093485 -0.00054421473794917464 0 0.010556851539614727 -0.00023237512599669704 0 0.010543600993088882 -7.3794032327479796e-05 0 0.012878509526638573 -0.00027067284275117935 0 0.013143015749394563 -2.5796723889104412e-06 0 0.0077517692873124364 1.8543946630436221e-05 0 0.0073632740954374396 -0.0001281430813234355 0 0.0096701633794438191 -0.00010543256429688728 0 0.0092724267439170931 -0.00022505825964671362 0 0.0095683217860317374 1.3837054054733815e-05 0 0.0096701633794438191 -0.00010543256429688728 0 0.0092724267439170931 -0.00022505825964671362 0 0.0092601046108539298 -0.00040874306116350627 0 0.0061186632318664261 0.00011972238074008203 0 0.006117568887686599 0.00017166106863662341 0 0.0061071833413281111 0.00010234248167156515 0 0.011664710473928495 -0.00028757430520062998 0 0.011582435174747189 -0.00030088344401649561 0 0.011941689095915224 -3.8999584049810695e-05 0 0.0062201397599983216 -0.00011028724913371485 0 0.006260545598246515 -0.00014719771725469865 0 0.0062812058079115655 -0.00015614419200537516 0 0.0059410895686207365 5.1553251871482439e-06 0 0.0073632740954374396 -0.0001281430813234355 0 0.0061873152865657994 -6.6261427694031688e-05 0 0.0062201397599983216 -0.00011028724913371485 0 0.006260545598246515 -0.00014719771725469865 0 0.007987174343446285 -0.00030217753454179217 0 0.0082192379705971399 -0.00013629857065867987 0 0.0081911625664981332 -0.00027525307552138969 0 0.0073632740954374396 -0.0001281430813234355 0 0.007183844905460977 -0.00019604853842851921 0 0.0073632740954374396 -0.0001281430813234355 0 0.0097733356893338307 -0.0003180313912507843 0 0.006260545598246515 -0.00014719771725469865 0 0.0062812058079115655 -0.00015614419200537516 0 0.0063323817718733107 -0.00018228469502381037 0 0.0062812058079115655 -0.00015614419200537516 0 0.0062226252619230673 -0.00012767310112121483 0 0.0063164593460607434 -0.00020397937269563577 0 0.0062812058079115655 -0.00015614419200537516 0 0.0063164593460607434 -0.00020397937269563577 0 0.0063323817718733107 -0.00018228469502381037 0 0.0062201397599983216 -0.00011028724913371485 0 0.0062812058079115655 -0.00015614419200537516 0 0.0062226252619230673 -0.00012767310112121483 0 0.0062800161633716784 -0.00015211239942306045 0 0.0063164593460607434 -0.00020397937269563577 0 0.0064157816766483924 -0.00033763758764341609 0 0.0062800161633716784 -0.00015211239942306045 0 0.0062226252619230673 -0.00012767310112121483 0 0.0063164593460607434 -0.00020397937269563577 0 0.0063164593460607434 -0.00020397937269563577 0 0.0064157816766483924 -0.00033763758764341609 0 0.0063323817718733107 -0.00018228469502381037 0 0.0064157816766483924 -0.00033763758764341609 0 0.0063212631503092162 -0.00026486403971549404 0 0.0063323817718733107 -0.00018228469502381037 0 0.0064157816766483924 -0.00033763758764341609 0 0.0067922191775025955 -0.0008565507630148596 0 0.0067015809307068158 -0.00017140597769575917 0 0.0062215897239393195 -0.00031015209821555077 0 0.0076755921611082224 -0.00013387065341663665 0 0.0092977706925472022 0.00012500959035258643 0 0.0092673785901480708 0.00015305721455943349 0 0.0092163148769791141 0.00010833344576822556 0 0.010155657179988325 -0.00017298921260359716 0 0.010284575793321251 6.2012364315768021e-06 0 0.0098452048655527057 -0.00031206915305049382 0 0.0099056796471280444 -0.00037105321375565417 0 0.010155657179988325 -0.00017298921260359716 0 0.0098452048655527057 -0.00031206915305049382 0 0.0084360999758984062 2.4478538372476223e-05 0 0.0084983916062308026 -3.2974623787287022e-05 0 0.0083466923215911697 -0.00015171955150233721 0 0.0076755921611082224 -0.00013387065341663665 0 0.0092996821430536211 -7.1863911877076642e-05 0 0.0092996821430536211 -7.1863911877076642e-05 0 0.009196228974711583 -0.00020396860238960885 0 0.0076755921611082224 -0.00013387065341663665 0 0.007183844905460977 -0.00019604853842851921 0 0.0084360999758984062 2.4478538372476223e-05 0 0.0083466923215911697 -0.00015171955150233721 0 0.0082192379705971399 -0.00013629857065867987 0 0.011582435174747189 -0.00030088344401649561 0 0.011347634946093485 -0.00054421473794917464 0 0.011226334924574935 -0.00056490425494697377 0 0.0097733356893338307 -0.0003180313912507843 0 0.011847291191332718 -0.00023477123433065128 0 0.010155657179988325 -0.00017298921260359716 0 0.010403901527411934 2.6075578188478442e-05 0 0.010284575793321251 6.2012364315768021e-06 0 0.0083466923215911697 -0.00015171955150233721 0 0.0082192379705971399 -0.00013629857065867987 0 0.0081911625664981332 -0.00027525307552138969 0 0.009196228974711583 -0.00020396860238960885 0 0.0097733356893338307 -0.0003180313912507843 0 0.013797414994774109 -0.00045880268912745293 0 0.013470817736844179 -0.00057218602563046197 0 0.013748857301445939 -0.0001588561759318657 0 0.011847291191332718 -0.00023477123433065128 0 0.012718311652291961 -0.00029999724540669663 0 0.011847291191332718 -0.00023477123433065128 0 0.0099701915975910597 -0.00012817457382545251 0 0.011786350166160491 -3.4475926145396428e-05 0 0.011388498532725857 -9.7490224261505731e-05 0 0.011253234370650192 -0.00041580769762293254 0 0.013748857301445939 -0.0001588561759318657 0 0.013397006320739722 -0.00021467085610187283 0 0.013694952947955414 0.00011450954601683934 0 0.013470817736844179 -0.00057218602563046197 0 0.013748857301445939 -0.0001588561759318657 0 0.013397006320739722 -0.00021467085610187283 0 0.014023205304360745 -0.00020013272383485726 0 0.013797414994774109 -0.00045880268912745293 0 0.013748857301445939 -0.0001588561759318657 0 0.014023205304360745 -0.00020013272383485726 0 0.013748857301445939 -0.0001588561759318657 0 0.013906084022008641 -3.4391426613021185e-05 0 0.011916123588098758 -1.3847335441469498e-06 0 0.012809971228171648 3.3881534606303104e-05 0 0.013230166105244027 1.0872749745804982e-06 0 0.012809971228171648 3.3881534606303104e-05 0 0.013116146141581349 -0.00018105035412546713 0 0.012961415101521191 -0.00042968680780555263 0 0.011916123588098758 -1.3847335441469498e-06 0 0.012809971228171648 3.3881534606303104e-05 0 0.012961415101521191 -0.00042968680780555263 0 0.012809971228171648 3.3881534606303104e-05 0 0.013116146141581349 -0.00018105035412546713 0 0.013176709368573306 5.3015897937284898e-05 0 0.013397006320739722 -0.00021467085610187283 0 0.013116146141581349 -0.00018105035412546713 0 0.013176709368573306 5.3015897937284898e-05 0 0.013397006320739722 -0.00021467085610187283 0 0.013116146141581349 -0.00018105035412546713 0 0.013153944583198181 -0.00045464175799846975 0 0.013116146141581349 -0.00018105035412546713 0 0.013153944583198181 -0.00045464175799846975 0 0.012961415101521191 -0.00042968680780555263 0 0.013153944583198181 -0.00045464175799846975 0 0.012911612362575493 -0.00061295803605149039 0 0.012961415101521191 -0.00042968680780555263 0 0.013470817736844179 -0.00057218602563046197 0 0.013153944583198181 -0.00045464175799846975 0 0.013014576256292168 -0.00069919570552828586 0 0.012718311652291961 -0.00029999724540669663 0 0.011170437717822584 -0.00013176833366182041 0 0.013470817736844179 -0.00057218602563046197 0 0.013397006320739722 -0.00021467085610187283 0 0.013153944583198181 -0.00045464175799846975 0 0.011388498532725857 -9.7490224261505731e-05 0 0.010991637481906527 -0.00016147264699331563 0 0.011253234370650192 -0.00041580769762293254 0 0.013153944583198181 -0.00045464175799846975 0 0.013014576256292168 -0.00069919570552828586 0 0.012911612362575493 -0.00061295803605149039 0 0.0091732327809517129 0.00030791469659959518 0 0.0091286432655819025 0.00030230419791073173 0 0.0091678957555188997 0.00026001645259181723 0 0.011170437717822584 -0.00013176833366182041 0 0.010863871929024067 -0.00017907888411266643 0 0.011232791624312684 -4.6717249095252698e-05 0 0.011268056754796002 1.492984626768328e-05 0 0.01096893430056819 -4.9149692109142997e-09 0 0.011912358515253166 5.2720808439952936e-10 0 0.011268056754796002 1.492984626768328e-05 0 0.01096893430056819 -4.9149692109142997e-09 0 0.010863871929024067 -0.00017907888411266643 0 0.011719911966331972 -0.00033894840592599258 0 0.011304703113593939 -9.4508057351562949e-05 0 0.011327752477250985 -9.1139797437342406e-05 0 0.011322673675309609 -0.00011171512603600528 0 0.011170437717822584 -0.00013176833366182041 0 0.011719911966331972 -0.00033894840592599258 0 0.011719911966331972 -0.00033894840592599258 0 0.012289180336169412 -0.00036853071569550492 0 0.011916123588098758 -1.3847335441469498e-06 0 0.012800176203542792 -0.00096686216245385243 0 0.012961415101521191 -0.00042968680780555263 0 0.011914477005438765 -3.2565747030075504e-07 0 0.011719911966331972 -0.00033894840592599258 0 0.010863871929024067 -0.00017907888411266643 0 0.010967048560675267 -7.5610795539377067e-08 0 0.010965556857204599 -2.1213947713329943e-07 0 0.01000210388018277 2.1062129064630703e-07 0 0.010181547363155106 2.1834695313171617e-05 0 0.010736439759978558 -4.8195635070175249e-05 0 0.010965556857204599 -2.1213947713329943e-07 0 0.010181547363155106 2.1834695313171617e-05 0 0.0091286432655819025 0.00030230419791073173 0 0.0091574092144320225 0.0002094525336343049 0 0.0090513094135689174 0.00011927453953657562 0 0.010863871929024067 -0.00017907888411266643 0 0.0095481670058726181 0.00016316979134875888 0 0.0091286432655819025 0.00030230419791073173 0 0.0091678957555188997 0.00026001645259181723 0 0.0091574092144320225 0.0002094525336343049 0 0.0091574092144320225 0.0002094525336343049 0 0.0091491528216277804 0.00013976347910594767 0 0.0090513094135689174 0.00011927453953657562 0 0.0091732327809517129 0.00030791469659959518 0 0.0092128782042246136 0.00022002801651218202 0 0.0091678957555188997 0.00026001645259181723 0 0.011170437717822584 -0.00013176833366182041 0 0.0099701915975910597 -0.00012817457382545251 0 0.0091732327809517129 0.00030791469659959518 0 0.0092128782042246136 0.00022002801651218202 0 0.0092763453098608159 0.00020442734946532221 0 0.0092128782042246136 0.00022002801651218202 0 0.0091678957555188997 0.00026001645259181723 0 0.0091574092144320225 0.0002094525336343049 0 0.0091574092144320225 0.0002094525336343049 0 0.0091944227857683261 0.00017563913126157903 0 0.0091491528216277804 0.00013976347910594767 0 0.0091944227857683261 0.00017563913126157903 0 0.0092163148769791141 0.00010833344576822556 0 0.0091491528216277804 0.00013976347910594767 0 0.0092128782042246136 0.00022002801651218202 0 0.0091944227857683261 0.00017563913126157903 0 0.0092584834469417419 0.00019242297824723756 0 0.0092128782042246136 0.00022002801651218202 0 0.0091574092144320225 0.0002094525336343049 0 0.0091944227857683261 0.00017563913126157903 0 0.0091944227857683261 0.00017563913126157903 0 0.0092584834469417419 0.00019242297824723756 0 0.0092163148769791141 0.00010833344576822556 0 0.0093103300633501744 0.00017420039554997437 0 0.0092584834469417419 0.00019242297824723756 0 0.0092163148769791141 0.00010833344576822556 0 0.0092996821430536211 -7.1863911877076642e-05 0 0.0092858785342583763 9.4610429751616675e-05 0 0.0092128782042246136 0.00022002801651218202 0 0.0092584834469417419 0.00019242297824723756 0 0.0092763453098608159 0.00020442734946532221 0 0.0093103300633501744 0.00017420039554997437 0 0.0092584834469417419 0.00019242297824723756 0 0.0092779379764893772 0.00020602869673447816 0 0.0092996821430536211 -7.1863911877076642e-05 0 0.0099701915975910597 -0.00012817457382545251 0 0.0098866760125101826 -0.00014234734827947232 0 0.0099701915975910597 -0.00012817457382545251 0 0.0076755921611082224 -0.00013387065341663665 0 0.0083564048853409512 -0.00030753848145775864 0 0.0092977706925472022 0.00012500959035258643 0 0.0092163148769791141 0.00010833344576822556 0 0.0092002022118619631 7.5908809915090793e-06 0 0.0092163148769791141 0.00010833344576822556 0 0.0091491528216277804 0.00013976347910594767 0 0.009127831720538793 8.9507226906288906e-05 0 0.0092163148769791141 0.00010833344576822556 0 0.009127831720538793 8.9507226906288906e-05 0 0.0092002022118619631 7.5908809915090793e-06 0 0.0090513094135689174 0.00011927453953657562 0 0.0090337747072682401 -2.5092052274541659e-07 0 0.0090385365620756046 3.5369674043498716e-05 0 0.0095481670058726181 0.00016316979134875888 0 0.0090362925493220666 1.624340710199313e-07 0 0.01000210388018277 2.1062129064630703e-07 0 0.010181547363155106 2.1834695313171617e-05 0 0.0090360651281623707 -2.0899159631732047e-07 0 0.0091491528216277804 0.00013976347910594767 0 0.0090513094135689174 0.00011927453953657562 0 0.009127831720538793 8.9507226906288906e-05 0 0.009127831720538793 8.9507226906288906e-05 0 0.0090385365620756046 3.5369674043498716e-05 0 0.0092002022118619631 7.5908809915090793e-06 0 0.0090513094135689174 0.00011927453953657562 0 0.009127831720538793 8.9507226906288906e-05 0 0.0090385365620756046 3.5369674043498716e-05 0 0.0086311221095055901 -4.2657162604458105e-08 0 0.0083564048853409512 -0.00030753848145775864 0 0.0086287255961896778 -1.3383660209314537e-06 0 0.007303222646046225 2.3147694277751806e-05 0 0.0073832717038362647 -0.00067131815274235702 0 0.0090337747072682401 -2.5092052274541659e-07 0 0.0090385365620756046 3.5369674043498716e-05 0 0.0086333475039116325 2.2730845757940061e-07 0 0.0090385365620756046 3.5369674043498716e-05 0 0.0086333475039116325 2.2730845757940061e-07 0 0.0092002022118619631 7.5908809915090793e-06 0 0.0086287255961896778 -1.3383660209314537e-06 0 0.0078422554966289248 6.5422340640827857e-07 0 0.007303222646046225 2.3147694277751806e-05 0 0.0078422554966289248 6.5422340640827857e-07 0 0.007303222646046225 2.3147694277751806e-05 0 0.0072880939079415135 0.00017969892096093788 0 0.007303222646046225 2.3147694277751806e-05 0 0.0073832717038362647 -0.00067131815274235702 0 0.0067015809307068158 -0.00017140597769575917 0 0.0067922191775025955 -0.0008565507630148596 0 0.0073832717038362647 -0.00067131815274235702 0 0.0067015809307068158 -0.00017140597769575917 0 0.0063109416358412933 -2.7304918273695927e-06 0 0.0064157816766483924 -0.00033763758764341609 0 0.0067015809307068158 -0.00017140597769575917 0 0.0063109416358412933 -2.7304918273695927e-06 0 0.0067015809307068158 -0.00017140597769575917 0 0.0066261539511259133 7.4759459866140021e-05 0 0.0060312125412315711 1.8788070866344402e-05 0 0.0065962307740584395 8.5267883544955713e-05 0 0.007303222646046225 2.3147694277751806e-05 0 0.0067015809307068158 -0.00017140597769575917 0 0.0066261539511259133 7.4759459866140021e-05 0 0.0066261539511259133 7.4759459866140021e-05 0 0.0058903868290245808 0.00027802719664171428 0 0.0063856560091062877 0.00061786508493129116 0 0.0056941618448989317 3.5348996683527005e-05 0 0.0066261539511259133 7.4759459866140021e-05 0 0.0058903868290245808 0.00027802719664171428 0 0.0054281767554386646 0.00045904412686101109 0 0.0058903868290245808 0.00027802719664171428 0 0.0063856560091062877 0.00061786508493129116 0 0.0066261539511259133 7.4759459866140021e-05 0 0.0063856560091062877 0.00061786508493129116 0 0.0071393104340926475 0.00039651272714755453 0 0.0057249085928143539 0.00040547729477272029 0 0.006279261797177204 0.00019099983412482183 0 0.006279261797177204 0.00019099983412482183 0 0.0070527513281647631 7.4286856069460145e-08 0 0.0057651407435418706 8.6244226511994209e-07 0 0.0054790261245786015 -7.1845393636072469e-05 0 0.007050652452032324 -1.4591609841926958e-06 0 0.0071393104340926475 0.00039651272714755453 0 0.0070544640498288102 2.625025303028112e-07 0 0.0072880939079415135 0.00017969892096093788 0 0.0078422554966289248 6.5422340640827857e-07 0 0.0070544640498288102 2.625025303028112e-07 0 0.0072880939079415135 0.00017969892096093788 0 0.007303222646046225 2.3147694277751806e-05 0 0.0066261539511259133 7.4759459866140021e-05 0 0.0072880939079415135 0.00017969892096093788 0 0.0066261539511259133 7.4759459866140021e-05 0 0.0071393104340926475 0.00039651272714755453 0 0.0072880939079415135 0.00017969892096093788 0 0.017864352538488875 4.8454654516924078e-05 0 0.018445200776207663 0.00016815838584742192 0 0.018445926342976929 -2.1900878310387758e-05 0 0.017864352538488875 4.8454654516924078e-05 0 0.017746429378842039 3.1830579500020678e-08 0 0.018445200776207663 0.00016815838584742192 0 0.017746429378842039 3.1830579500020678e-08 0 0.018445200776207663 0.00016815838584742192 0 0.019014203092458985 4.7582365869994982e-07 0 0.018445200776207663 0.00016815838584742192 0 0.018992753289196338 0.00018856125386428342 0 0.019041668490342067 0.00029018937469368027 0 0.018445200776207663 0.00016815838584742192 0 0.018992753289196338 0.00018856125386428342 0 0.018445926342976929 -2.1900878310387758e-05 0 0.018992753289196338 0.00018856125386428342 0 0.019755794287919081 -5.4248808646697522e-05 0 0.019512314411257854 0.00028626499806110408 0 0.018992753289196338 0.00018856125386428342 0 0.019227984373199419 -0.00027750799731791426 0 0.019755794287919081 -5.4248808646697522e-05 0 0.018992753289196338 0.00018856125386428342 0 0.019227984373199419 -0.00027750799731791426 0 0.018445926342976929 -2.1900878310387758e-05 0 0.018445926342976929 -2.1900878310387758e-05 0 0.018674884424418298 -0.00066492359651826045 0 0.017546260539689169 -0.00017974103292216784 0 0.019227984373199419 -0.00027750799731791426 0 0.018674884424418298 -0.00066492359651826045 0 0.019466718810694908 -0.00081006907753505798 0 0.019227984373199419 -0.00027750799731791426 0 0.018445926342976929 -2.1900878310387758e-05 0 0.018674884424418298 -0.00066492359651826045 0 0.018674884424418298 -0.00066492359651826045 0 0.017546260539689169 -0.00017974103292216784 0 0.017400897785453111 -0.0012352677961158984 0 0.017864352538488875 4.8454654516924078e-05 0 0.018445926342976929 -2.1900878310387758e-05 0 0.017546260539689169 -0.00017974103292216784 0 0.017864352538488875 4.8454654516924078e-05 0 0.017546260539689169 -0.00017974103292216784 0 0.016477235709833192 7.4421426737860561e-07 0 0.017864352538488875 4.8454654516924078e-05 0 0.017746429378842039 3.1830579500020678e-08 0 0.016477235709833192 7.4421426737860561e-07 0 0.017546260539689169 -0.00017974103292216784 0 0.016477235709833192 7.4421426737860561e-07 0 0.015211903054447536 -3.1854832635830744e-06 0 0.017546260539689169 -0.00017974103292216784 0 0.015211903054447536 -3.1854832635830744e-06 0 0.017400897785453111 -0.0012352677961158984 0 0.01520516128658757 -1.1324464788016559e-06 0 0.014196333502889213 -9.9268246378183736e-05 0 0.014549062800035074 1.0623745993273146e-06 0 0.015208977757704021 -2.8200384740008356e-07 0 0.015816779201115495 -0.00061840751865428019 0 0.014196333502889213 -9.9268246378183736e-05 0 0.014170063325028683 0.00017178825406741162 0 0.013896429503326034 0.00010435686525027406 0 0.014545361430154329 5.0938959344281618e-08 0 0.013794530725481256 0.00015871146235651949 0 0.014196333502889213 -9.9268246378183736e-05 0 0.014549062800035074 1.0623745993273146e-06 0 0.014170063325028683 0.00017178825406741162 0 0.01454389276636427 -7.7694917868105093e-07 0 0.013368826365949623 0.00011945122770447545 0 0.013230166105244027 1.0872749745804982e-06 0 0.013794530725481256 0.00015871146235651949 0 0.01372692891050677 0.00010173754517714685 0 0.013368826365949623 0.00011945122770447545 0 0.013176709368573306 5.3015897937284898e-05 0 0.013694952947955414 0.00011450954601683934 0 0.013397006320739722 -0.00021467085610187283 0 0.013176709368573306 5.3015897937284898e-05 0 0.013694952947955414 0.00011450954601683934 0 0.012809971228171648 3.3881534606303104e-05 0 0.013176709368573306 5.3015897937284898e-05 0 0.013230166105244027 1.0872749745804982e-06 0 0.013368826365949623 0.00011945122770447545 0 0.013176709368573306 5.3015897937284898e-05 0 0.013230166105244027 1.0872749745804982e-06 0 0.013748857301445939 -0.0001588561759318657 0 0.013906084022008641 -3.4391426613021185e-05 0 0.013694952947955414 0.00011450954601683934 0 0.013906084022008641 -3.4391426613021185e-05 0 0.013694952947955414 0.00011450954601683934 0 0.013865080652724401 9.7491523706303779e-05 0 0.014170063325028683 0.00017178825406741162 0 0.013694952947955414 0.00011450954601683934 0 0.013896429503326034 0.00010435686525027406 0 0.013694952947955414 0.00011450954601683934 0 0.013896429503326034 0.00010435686525027406 0 0.013865080652724401 9.7491523706303779e-05 0 0.013896429503326034 0.00010435686525027406 0 0.013865080652724401 9.7491523706303779e-05 0 0.013870205775521661 4.2357556194802523e-05 0 0.013865080652724401 9.7491523706303779e-05 0 0.013870205775521661 4.2357556194802523e-05 0 0.013977160233800376 0.00014523541391044361 0 0.01623703837784184 -0.00074416437027905087 0 0.016568090748602559 -0.00067674835976439505 0 0.014196333502889213 -9.9268246378183736e-05 0 0.013896429503326034 0.00010435686525027406 0 0.013870205775521661 4.2357556194802523e-05 0 0.015816779201115495 -0.00061840751865428019 0 0.01623703837784184 -0.00074416437027905087 0 0.018674884424418298 -0.00066492359651826045 0 0.017400897785453111 -0.0012352677961158984 0 0.018577275797487421 -0.0015427399841426743 0 0.018674884424418298 -0.00066492359651826045 0 0.018577275797487421 -0.0015427399841426743 0 0.019298624387631587 -0.0011461890904400794 0 0.019298624387631587 -0.0011461890904400794 0 0.019533681961268555 -0.0013043193069533308 0 0.019282108668529606 -0.0015198431296708651 0 0.019298624387631587 -0.0011461890904400794 0 0.019533681961268555 -0.0013043193069533308 0 0.019566655457708575 -0.0010589825011153755 0 0.016568090748602559 -0.00067674835976439505 0 0.017118806534576318 -0.00069061877539043214 0 0.013977160233800376 0.00014523541391044361 0 0.014101644914520631 8.270063003549634e-05 0 0.014204503967538305 0.00014000351058563614 0 0.019533681961268555 -0.0013043193069533308 0 0.019282108668529606 -0.0015198431296708651 0 0.019576225954000687 -0.0013960763341966758 0 0.018577275797487421 -0.0015427399841426743 0 0.019298624387631587 -0.0011461890904400794 0 0.019282108668529606 -0.0015198431296708651 0 0.013977160233800376 0.00014523541391044361 0 0.014034393906050855 2.6309427009671595e-05 0 0.014101644914520631 8.270063003549634e-05 0 0.013906084022008641 -3.4391426613021185e-05 0 0.013865080652724401 9.7491523706303779e-05 0 0.014034393906050855 2.6309427009671595e-05 0 0.013865080652724401 9.7491523706303779e-05 0 0.013977160233800376 0.00014523541391044361 0 0.014034393906050855 2.6309427009671595e-05 0 0.014034393906050855 2.6309427009671595e-05 0 0.014101644914520631 8.270063003549634e-05 0 0.014199189051952018 3.7331753960663724e-05 0 0.014101644914520631 8.270063003549634e-05 0 0.014199189051952018 3.7331753960663724e-05 0 0.014204503967538305 0.00014000351058563614 0 0.014023205304360745 -0.00020013272383485726 0 0.014034393906050855 2.6309427009671595e-05 0 0.01416262788508502 -7.4668850558605912e-05 0 0.014034393906050855 2.6309427009671595e-05 0 0.01416262788508502 -7.4668850558605912e-05 0 0.014199189051952018 3.7331753960663724e-05 0 0.011664710473928495 -0.00028757430520062998 0 0.011941689095915224 -3.8999584049810695e-05 0 0.011985100565371463 -3.294506880808954e-05 0 0.014023205304360745 -0.00020013272383485726 0 0.013906084022008641 -3.4391426613021185e-05 0 0.014034393906050855 2.6309427009671595e-05 0 0.0077517692873124364 1.8543946630436221e-05 0 0.0092821528710808014 0.00020357522037596317 0 0.0096701633794438191 -0.00010543256429688728 0 0.0098913171654882934 0.00027470310856483686 0 0.010123363042724664 0.00023462895643520419 0 0.006117568887686599 0.00017166106863662341 0 0.0062288926860081875 0.00021178379807266457 0 0.0062432566709842482 0.00034559475005429348 0 0.010543600993088882 -7.3794032327479796e-05 0 0.012739969734871268 -9.351293436042949e-05 0 0.011941689095915224 -3.8999584049810695e-05 0 0.011985100565371463 -3.294506880808954e-05 0 0.012311242794569891 0.00022118521759189317 0 0.013143015749394563 -2.5796723889104412e-06 0 0.012739969734871268 -9.351293436042949e-05 0 0.0096701633794438191 -0.00010543256429688728 0 0.0095683217860317374 1.3837054054733815e-05 0 0.0098913171654882934 0.00027470310856483686 0 0.014669700853496516 -7.5515191024825188e-05 0 0.012739969734871268 -9.351293436042949e-05 0 0.015809145470905752 -0.00027110475778356234 0 0.017118806534576318 -0.00069061877539043214 0 0.014199189051952018 3.7331753960663724e-05 0 0.014403881639988724 -4.3563045063633993e-06 0 0.014204503967538305 0.00014000351058563614 0 0.014403881639988724 -4.3563045063633993e-06 0 0.014434414343978822 1.5789891628263254e-05 0 0.014204503967538305 0.00014000351058563614 0 0.01416262788508502 -7.4668850558605912e-05 0 0.014199189051952018 3.7331753960663724e-05 0 0.014276576230505256 2.0796087011410557e-05 0 0.014434414343978822 1.5789891628263254e-05 0 0.014524995734544192 7.8089273363907171e-05 0 0.014204503967538305 0.00014000351058563614 0 0.013375756499138251 -0.00014068158948411406 0 0.015809145470905752 -0.00027110475778356234 0 0.012891503929197509 0.00015737629569098922 0 0.012814692912915693 0.0001024155623180662 0 0.012439804588960992 0.00024082126518109901 0 0.012739969734871268 -9.351293436042949e-05 0 0.013375756499138251 -0.00014068158948411406 0 0.012814692912915693 0.0001024155623180662 0 0.012439804588960992 0.00024082126518109901 0 0.012589023691984842 -6.0358734863829917e-05 0 0.012739969734871268 -9.351293436042949e-05 0 0.0092821528710808014 0.00020357522037596317 0 0.020032865131805813 -0.0012104819817627672 0 0.017590188720641289 -0.00079552174076020924 0 0.019300439814912702 -0.0012187007811026941 0 0.019548037965844256 -0.0013910117463278796 0 0.019472535449042094 -0.00163788511787829 0 0.019300439814912702 -0.0012187007811026941 0 0.019472535449042094 -0.00163788511787829 0 0.019048669768278962 -0.0013839452342641499 0 0.019528168330010844 -0.0015046026499109986 0 0.020032865131805813 -0.0012104819817627672 0 0.019533681961268555 -0.0013043193069533308 0 0.019548037965844256 -0.0013910117463278796 0 0.019674527141681775 -0.0012400972296538085 0 0.019300439814912702 -0.0012187007811026941 0 0.019576225954000687 -0.0013960763341966758 0 0.019548037965844256 -0.0013910117463278796 0 0.019533681961268555 -0.0013043193069533308 0 0.019576225954000687 -0.0013960763341966758 0 0.019548037965844256 -0.0013910117463278796 0 0.019533681961268555 -0.0013043193069533308 0 0.019674527141681775 -0.0012400972296538085 0 0.019566655457708575 -0.0010589825011153755 0 0.020032865131805813 -0.0012104819817627672 0 0.019916763805063922 -0.0012176177577381702 0 0.01939709192789791 -0.00058201418864908014 0 0.0193885421911856 -0.00061872675079801122 0 0.019356217730906011 -0.00058958599259091105 0 0.020032865131805813 -0.0012104819817627672 0 0.020133991871816092 -0.00075222416269147435 0 0.020996303732666102 -0.00089882973363054452 0 0.020324000949290405 -0.00071488439987200416 0 0.020783904373435545 -0.00060249089215531394 0 0.020996303732666102 -0.00089882973363054452 0 0.020203892038206855 -0.0013388869461174661 0 0.020324000949290405 -0.00071488439987200416 0 0.020736856707697749 -0.0016732539712277579 0 0.020996303732666102 -0.00089882973363054452 0 0.020203892038206855 -0.0013388869461174661 0 0.020203892038206855 -0.0013388869461174661 0 0.019466718810694908 -0.00081006907753505798 0 0.020324000949290405 -0.00071488439987200416 0 0.019916763805063922 -0.0012176177577381702 0 0.019469109837128434 -0.00084220176826924368 0 0.019298624387631587 -0.0011461890904400794 0 0.019566655457708575 -0.0010589825011153755 0 0.019466718810694908 -0.00081006907753505798 0 0.018674884424418298 -0.00066492359651826045 0 0.019298624387631587 -0.0011461890904400794 0 0.019466718810694908 -0.00081006907753505798 0 0.019227984373199419 -0.00027750799731791426 0 0.019466718810694908 -0.00081006907753505798 0 0.019837533339664246 -0.0004118745488519815 0 0.019466718810694908 -0.00081006907753505798 0 0.020324000949290405 -0.00071488439987200416 0 0.019837533339664246 -0.0004118745488519815 0 0.019837533339664246 -0.0004118745488519815 0 0.02038507096078819 -0.00036068603822456304 0 0.019755794287919081 -5.4248808646697522e-05 0 0.020324000949290405 -0.00071488439987200416 0 0.019837533339664246 -0.0004118745488519815 0 0.02038507096078819 -0.00036068603822456304 0 0.019227984373199419 -0.00027750799731791426 0 0.019837533339664246 -0.0004118745488519815 0 0.019755794287919081 -5.4248808646697522e-05 0 0.02038507096078819 -0.00036068603822456304 0 0.019755794287919081 -5.4248808646697522e-05 0 0.020460874592763509 -5.1590630954143613e-05 0 0.019755794287919081 -5.4248808646697522e-05 0 0.020460874592763509 -5.1590630954143613e-05 0 0.0200325116782713 0.00028447491957198974 0 0.02038507096078819 -0.00036068603822456304 0 0.020460874592763509 -5.1590630954143613e-05 0 0.020914609753414897 -0.00042416225513819357 0 0.020460874592763509 -5.1590630954143613e-05 0 0.020914609753414897 -0.00042416225513819357 0 0.020945011415547905 -5.2576853244510398e-05 0 0.0214419578584727 -0.00012866379511044284 0 0.020914609753414897 -0.00042416225513819357 0 0.020945011415547905 -5.2576853244510398e-05 0 0.0214419578584727 -0.00012866379511044284 0 0.020914609753414897 -0.00042416225513819357 0 0.021567010048407515 -0.00055793521352416836 0 0.020783904373435545 -0.00060249089215531394 0 0.020914609753414897 -0.00042416225513819357 0 0.02114792156961184 -0.00037921066387975916 0 0.020996303732666102 -0.00089882973363054452 0 0.020783904373435545 -0.00060249089215531394 0 0.02114792156961184 -0.00037921066387975916 0 0.020133991871816092 -0.00075222416269147435 0 0.020730083328870576 -0.00052098149696280685 0 0.021184987900466197 -0.00044227166564259578 0 0.020730083328870576 -0.00052098149696280685 0 0.02038507096078819 -0.00036068603822456304 0 0.020783904373435545 -0.00060249089215531394 0 0.020914609753414897 -0.00042416225513819357 0 0.020324000949290405 -0.00071488439987200416 0 0.02038507096078819 -0.00036068603822456304 0 0.020783904373435545 -0.00060249089215531394 0 0.019189692773101116 -9.3419010711425553e-06 0 0.019212325628156293 -1.7507704219471054e-05 0 0.019177357044239281 -2.0003987980667538e-06 0 0.021075526495476046 -2.0763716372192897e-05 0 0.019269206299317485 -0.00038306625781343211 0 0.019189692773101116 -9.3419010711425553e-06 0 0.019212325628156293 -1.7507704219471054e-05 0 0.019191889231174451 -1.3629960873409064e-05 0 0.021075526495476046 -2.0763716372192897e-05 0 0.020409489490116249 0.00053298545128555442 0 0.0193885421911856 -0.00061872675079801122 0 0.019391683115231075 -0.00064208936809855412 0 0.01937387857117109 -0.00062784812569893018 0 0.019391683115231075 -0.00064208936809855412 0 0.019379891435018632 -0.00064144673336766244 0 0.01937387857117109 -0.00062784812569893018 0 0.020730083328870576 -0.00052098149696280685 0 0.021075526495476046 -2.0763716372192897e-05 0 0.021334331062188065 -0.00025897269301488138 0 0.021635741563697207 -0.00025809999351411659 0 0.021527085222264257 0.00032346573639603702 0 0.021075526495476046 -2.0763716372192897e-05 0 0.022507056005803806 0.00033857628528857926 0 0.020730083328870576 -0.00052098149696280685 0 0.022507056005803806 0.00033857628528857926 0 0.0214419578584727 -0.00012866379511044284 0 0.021567010048407515 -0.00055793521352416836 0 0.022103934502459933 6.6878979144898982e-05 0 0.023690993871385145 0.0010713004018170979 0 0.023523979199499469 0.00081759004018804103 0 0.023195544893083685 0.001107624232414024 0 0.023690993871385145 0.0010713004018170979 0 0.023523979199499469 0.00081759004018804103 0 0.023764088916116106 0.00054456358699034172 0 0.023523979199499469 0.00081759004018804103 0 0.023136888517464524 0.00078937178942822437 0 0.023195544893083685 0.001107624232414024 0 0.023019694981416122 0.00090489694808963206 0 0.022713575862398958 0.0010617053259643408 0 0.022740440361825726 0.00071344217543025713 0 0.023019694981416122 0.00090489694808963206 0 0.022713575862398958 0.0010617053259643408 0 0.023067945954476275 0.0013787431912641011 0 0.023000994293147725 0.0010155264648272053 0 0.020409489490116249 0.00053298545128555442 0 0.022713575862398958 0.0010617053259643408 0 0.022459499379798794 0.0013884233543424054 0 0.023067945954476275 0.0013787431912641011 0 0.022350595186187035 0.0009038179783082016 0 0.022713575862398958 0.0010617053259643408 0 0.022740440361825726 0.00071344217543025713 0 0.022350595186187035 0.0009038179783082016 0 0.022713575862398958 0.0010617053259643408 0 0.022459499379798794 0.0013884233543424054 0 0.019144211476991059 0.0010164586707944016 0 0.020409489490116249 0.00053298545128555442 0 0.016295216890211604 0.00061486333246291126 0 0.01628225165663404 0.00061817554600427618 0 0.016311168479735433 0.00061527971156814104 0 0.016295216890211604 0.00061486333246291126 0 0.01628225165663404 0.00061817554600427618 0 0.01626985013363107 0.0006268211757028589 0 0.019189692773101116 -9.3419010711425553e-06 0 0.019191889231174451 -1.3629960873409064e-05 0 0.019168649587267907 -1.3991397530778031e-06 0 0.020409489490116249 0.00053298545128555442 0 0.017505056904040223 0.00023435675534015622 0 0.01628225165663404 0.00061817554600427618 0 0.016311168479735433 0.00061527971156814104 0 0.016272829869884212 0.00060594888292003508 0 0.016311168479735433 0.00061527971156814104 0 0.016272829869884212 0.00060594888292003508 0 0.016270052412678815 0.00059399866734745018 0 0.016272829869884212 0.00060594888292003508 0 0.016270052412678815 0.00059399866734745018 0 0.016264660861653166 0.00058901169782276449 0 0.016272829869884212 0.00060594888292003508 0 0.016261981077376822 0.00059289131102379918 0 0.016264660861653166 0.00058901169782276449 0 0.01628225165663404 0.00061817554600427618 0 0.016248452154546084 0.00064454841310473499 0 0.01626985013363107 0.0006268211757028589 0 0.01628225165663404 0.00061817554600427618 0 0.016264571416690004 0.00061595514796653893 0 0.016248452154546084 0.00064454841310473499 0 0.01628225165663404 0.00061817554600427618 0 0.016272829869884212 0.00060594888292003508 0 0.016264571416690004 0.00061595514796653893 0 0.016272829869884212 0.00060594888292003508 0 0.016261981077376822 0.00059289131102379918 0 0.016264571416690004 0.00061595514796653893 0 0.016261981077376822 0.00059289131102379918 0 0.016264571416690004 0.00061595514796653893 0 0.016278603631182186 0.00057295389680918178 0 0.016272797332279244 0.00059516130931705448 0 0.016278603631182186 0.00057295389680918178 0 0.016337083084400069 0.00053594049727297231 0 0.016264571416690004 0.00061595514796653893 0 0.016272797332279244 0.00059516130931705448 0 0.016278603631182186 0.00057295389680918178 0 0.016264571416690004 0.00061595514796653893 0 0.016272797332279244 0.00059516130931705448 0 0.016248452154546084 0.00064454841310473499 0 0.016278603631182186 0.00057295389680918178 0 0.016241058939175802 0.00056721501864817169 0 0.016337083084400069 0.00053594049727297231 0 0.015539019162023701 8.7728729368268023e-05 0 0.015650716065761815 -0.00018936023451682148 0 0.016337083084400069 0.00053594049727297231 0 0.015837077784589496 0.00032935323271903849 0 0.016318074082595942 0.00053821607406381216 0 0.016278603631182186 0.00057295389680918178 0 0.016254680432968422 0.00058093702305763481 0 0.016241058939175802 0.00056721501864817169 0 0.016261981077376822 0.00059289131102379918 0 0.016254680432968422 0.00058093702305763481 0 0.016264660861653166 0.00058901169782276449 0 0.016261981077376822 0.00059289131102379918 0 0.016278603631182186 0.00057295389680918178 0 0.016254680432968422 0.00058093702305763481 0 0.016098583490862826 0.00062994719326604841 0 0.016726916436447317 0.0002555156788620756 0 0.016270052412678815 0.00059399866734745018 0 0.016264660861653166 0.00058901169782276449 0 0.016275329467425739 0.000589828418006191 0 0.016254680432968422 0.00058093702305763481 0 0.016241058939175802 0.00056721501864817169 0 0.016165803438046168 0.00052743738011682925 0 0.017505056904040223 0.00023435675534015622 0 0.016726916436447317 0.0002555156788620756 0 0.016254680432968422 0.00058093702305763481 0 0.016264660861653166 0.00058901169782276449 0 0.016275329467425739 0.000589828418006191 0 0.019345784205259176 -0.00061477153218689456 0 0.019356217730906011 -0.00058958599259091105 0 0.019308777315073574 -0.00057246984111663807 0 0.019269206299317485 -0.00038306625781343211 0 0.017424382850921502 -0.00024609581804649669 0 0.019168649587267907 -1.3991397530778031e-06 0 0.019177357044239281 -2.0003987980667538e-06 0 0.01913366772413257 7.2383449673338902e-06 0 0.019189692773101116 -9.3419010711425553e-06 0 0.019168649587267907 -1.3991397530778031e-06 0 0.019177357044239281 -2.0003987980667538e-06 0 0.019379891435018632 -0.00064144673336766244 0 0.019345784205259176 -0.00061477153218689456 0 0.01937387857117109 -0.00062784812569893018 0 0.0193885421911856 -0.00061872675079801122 0 0.019345784205259176 -0.00061477153218689456 0 0.01937387857117109 -0.00062784812569893018 0 0.0193885421911856 -0.00061872675079801122 0 0.019345784205259176 -0.00061477153218689456 0 0.019356217730906011 -0.00058958599259091105 0 0.01939709192789791 -0.00058201418864908014 0 0.019356217730906011 -0.00058958599259091105 0 0.019334488493874168 -0.00054869663531185954 0 0.019356217730906011 -0.00058958599259091105 0 0.019308777315073574 -0.00057246984111663807 0 0.019334488493874168 -0.00054869663531185954 0 0.019177357044239281 -2.0003987980667538e-06 0 0.019132054443323113 7.8286654675151014e-06 0 0.01913366772413257 7.2383449673338902e-06 0 0.016064141310872759 -0.00033068795875493398 0 0.014497305535929095 -0.00050462089531283711 0 0.017424382850921502 -0.00024609581804649669 0 0.016064141310872759 -0.00033068795875493398 0 0.016169158427485387 -3.9777537987608491e-05 0 0.016206648641761367 -0.00022221846232099702 0 0.016367596687663265 -0.00010463065786344018 0 0.016064141310872759 -0.00033068795875493398 0 0.01581883743865576 -0.00021575469333920945 0 0.015107543478896632 -0.0002063161148081876 0 0.015236889079419847 -0.00011248605768246318 0 0.015170387386758504 -0.00052095894110298544 0 0.01581883743865576 -0.00021575469333920945 0 0.014497305535929095 -0.00050462089531283711 0 0.016169158427485387 -3.9777537987608491e-05 0 0.016367596687663265 -0.00010463065786344018 0 0.016407453698480318 0.00015152305413987255 0 0.01581883743865576 -0.00021575469333920945 0 0.016726916436447317 0.0002555156788620756 0 0.017424382850921502 -0.00024609581804649669 0 0.016726916436447317 0.0002555156788620756 0 0.012200666206669273 -2.1668003038369273e-05 0 0.012349785205588579 0.00051060141563869009 0 0.016064141310872759 -0.00033068795875493398 0 0.017590188720641289 -0.00079552174076020924 0 0.017424382850921502 -0.00024609581804649669 0 0.017590188720641289 -0.00079552174076020924 0 0.014885453882415517 -0.00065772438932701425 0 0.014939583397915204 -0.00053880486358650074 0 0.015139137273984745 -0.00048153571902379472 0 0.014853447906270864 -0.00052276104973097732 0 0.015026190644858784 -0.00041626875580268142 0 0.015178482878325282 -0.00027248584114562921 0 0.017151426209915145 -0.00067789228493645435 0 0.017146621712651876 -0.00065471429424665442 0 0.017324894114870801 -0.00054395740353078471 0 0.014885453882415517 -0.00065772438932701425 0 0.01486791524440928 -0.0005822280596145717 0 0.014939583397915204 -0.00053880486358650074 0 0.014664631672987467 -0.00048711233474421921 0 0.014642717263420611 -0.000936724731303082 0 0.014612459643376204 -0.00076754574136488583 0 0.012200666206669273 -2.1668003038369273e-05 0 0.014497305535929095 -0.00050462089531283711 0 0.014853447906270864 -0.00052276104973097732 0 0.01486791524440928 -0.0005822280596145717 0 0.014939583397915204 -0.00053880486358650074 0 0.014853447906270864 -0.00052276104973097732 0 0.014939583397915204 -0.00053880486358650074 0 0.015026190644858784 -0.00041626875580268142 0 0.014939583397915204 -0.00053880486358650074 0 0.015026190644858784 -0.00041626875580268142 0 0.015139137273984745 -0.00048153571902379472 0 0.015026190644858784 -0.00041626875580268142 0 0.015132433665206387 -0.00048048965163321691 0 0.015178482878325282 -0.00027248584114562921 0 0.015506927907565369 -2.4503274600785509e-05 0 0.017590188720641289 -0.00079552174076020924 0 0.015809145470905752 -0.00027110475778356234 0 0.017590188720641289 -0.00079552174076020924 0 0.010688997604115753 0.00067256521220448074 0 0.0099895239891408302 0.00013571814047897652 0 0.0080342309300930337 0.0011420095955497673 0 0.015357771716598858 -0.00031443357304775256 0 0.015132433665206387 -0.00048048965163321691 0 0.015178482878325282 -0.00027248584114562921 0 0.015809145470905752 -0.00027110475778356234 0 0.012349785205588579 0.00051060141563869009 0 0.012439804588960992 0.00024082126518109901 0 0.012589023691984842 -6.0358734863829917e-05 0 0.01217451224169693 3.9254159652801376e-05 0 0.0092821528710808014 0.00020357522037596317 0 0.012349785205588579 0.00051060141563869009 0 0.0099895239891408302 0.00013571814047897652 0 0.0080342309300930337 0.0011420095955497673 0 0.0075394905264628727 0.00070319788914045616 0 0.010323393469616055 -0.00038067888504571056 0 0.011891054394317866 0.00082323977634455941 0 0.0099637003412051655 0.0012643562573967184 0 0.012349785205588579 0.00051060141563869009 0 0.0075897577548203034 0.0010633847148885751 0 0.012200666206669273 -2.1668003038369273e-05 0 0.0075897577548203034 0.0010633847148885751 0 0.0064160242930363714 0.00041636260397459276 0 0.0063723906203050932 0.00031795212839751537 0 0.0063130370881223519 0.00031311063882786378 0 0.0069766457633403198 0.0008704233823920727 0 0.0069468188438784181 0.00091526655761981293 0 0.0064160242930363714 0.00041636260397459276 0 0.0064429361848874029 0.0003332368047164224 0 0.0063723906203050932 0.00031795212839751537 0 0.0063971467112617355 0.0002692581338424892 0 0.0064429361848874029 0.0003332368047164224 0 0.0063723906203050932 0.00031795212839751537 0 0.0063112648165298676 0.00019998531824520386 0 0.0063723906203050932 0.00031795212839751537 0 0.0063130370881223519 0.00031311063882786378 0 0.0062288926860081875 0.00021178379807266457 0 0.0062432566709842482 0.00034559475005429348 0 0.0063130370881223519 0.00031311063882786378 0 0.0063112648165298676 0.00019998531824520386 0 0.0062288926860081875 0.00021178379807266457 0 0.0063130370881223519 0.00031311063882786378 0 0.0062432566709842482 0.00034559475005429348 0 0.0064160242930363714 0.00041636260397459276 0 0.0063130370881223519 0.00031311063882786378 0 0.0092821528710808014 0.00020357522037596317 0 0.0069766457633403198 0.0008704233823920727 0 0.0068032452825622907 0.00074550777627008854 0 0.0072008986506733094 0.00062607422474218136 0 0.0066657340001482889 0.00072060933940877017 0 0.0068486470284222067 0.00055153833318448539 0 0.0071694620732504124 0.00061599207278601939 0 0.0066657340001482889 0.00072060933940877017 0 0.0068486470284222067 0.00055153833318448539 0 0.0062518559155705844 0.00067337034056177188 0 0.0069230811094333879 0.00039236667364910357 0 0.0068486470284222067 0.00055153833318448539 0 0.0071694620732504124 0.00061599207278601939 0 0.0067409221277278412 0.00036708864843145491 0 0.0069230811094333879 0.00039236667364910357 0 0.0068486470284222067 0.00055153833318448539 0 0.0067409221277278412 0.00036708864843145491 0 0.0068486470284222067 0.00055153833318448539 0 0.0065756771431977733 0.00038897877179490604 0 0.0068486470284222067 0.00055153833318448539 0 0.0065756771431977733 0.00038897877179490604 0 0.0064864310707375313 0.0004440223649150117 0 0.0066165008210236336 0.00050117891541362274 0 0.0069468188438784181 0.00091526655761981293 0 0.0066657340001482889 0.00072060933940877017 0 0.0062518559155705844 0.00067337034056177188 0 0.0062282902175305405 0.00082818998799784294 0 0.0064160242930363714 0.00041636260397459276 0 0.0064429361848874029 0.0003332368047164224 0 0.0065756771431977733 0.00038897877179490604 0 0.0064806361463303295 0.00027019218519637629 0 0.0064429361848874029 0.0003332368047164224 0 0.0065756771431977733 0.00038897877179490604 0 0.0064160242930363714 0.00041636260397459276 0 0.0065756771431977733 0.00038897877179490604 0 0.0064864310707375313 0.0004440223649150117 0 0.0069468188438784181 0.00091526655761981293 0 0.0075897577548203034 0.0010633847148885751 0 0.0080342309300930337 0.0011420095955497673 0 0.0074448739247365307 0.0012443059901634706 0 0.0075394905264628727 0.00070319788914045616 0 0.0068032452825622907 0.00074550777627008854 0 0.0075897577548203034 0.0010633847148885751 0 0.0071104740830435715 0.00089810103302264007 0 0.0071324681986530622 0.00074544284565999659 0 0.007187804276337504 0.00079364193983960587 0 0.0072081349379498555 0.00072066510962182908 0 0.0071324681986530622 0.00074544284565999659 0 0.007187804276337504 0.00079364193983960587 0 0.007187804276337504 0.00079364193983960587 0 0.0072257462708160717 0.00077895305106757018 0 0.0072620054779073658 0.00086474107961061653 0 0.0072081349379498555 0.00072066510962182908 0 0.0072462725147246585 0.00075651069614028849 0 0.0071694620732504124 0.00061599207278601939 0 0.0072081349379498555 0.00072066510962182908 0 0.0072257462708160717 0.00077895305106757018 0 0.0072462725147246585 0.00075651069614028849 0 0.0072081349379498555 0.00072066510962182908 0 0.007187804276337504 0.00079364193983960587 0 0.0072257462708160717 0.00077895305106757018 0 0.0072257462708160717 0.00077895305106757018 0 0.0072462725147246585 0.00075651069614028849 0 0.0072620054779073658 0.00086474107961061653 0 0.0072462725147246585 0.00075651069614028849 0 0.0072620054779073658 0.00086474107961061653 0 0.0073458173647007029 0.00085016659233895855 0 0.0071104740830435715 0.00089810103302264007 0 0.0072620054779073658 0.00086474107961061653 0 0.0072833765028858851 0.0010790569938245306 0 0.0071104740830435715 0.00089810103302264007 0 0.007187804276337504 0.00079364193983960587 0 0.0072620054779073658 0.00086474107961061653 0 0.015539019162023701 8.7728729368268023e-05 0 0.014664631672987467 -0.00048711233474421921 0 0.015650716065761815 -0.00018936023451682148 0 0.016241058939175802 0.00056721501864817169 0 0.016163405064245826 0.00051435472657488583 0 0.016165803438046168 0.00052743738011682925 0 0.012200666206669273 -2.1668003038369273e-05 0 0.010901800736502874 0.00021306127764995266 0 0.014664631672987467 -0.00048711233474421921 0 0.014642717263420611 -0.000936724731303082 0 0.015650716065761815 -0.00018936023451682148 0 0.015837077784589496 0.00032935323271903849 0 0.01581883743865576 -0.00021575469333920945 0 0.0072620054779073658 0.00086474107961061653 0 0.0072833765028858851 0.0010790569938245306 0 0.0075056124794022879 0.0009901090865818891 0 0.0099809244278563063 0.0017605750239883457 0 0.013623304485134538 0.0013547070106335272 0 0.0072833765028858851 0.0010790569938245306 0 0.0075056124794022879 0.0009901090865818891 0 0.0076077326181112912 0.0012924063426691566 0 0.013179350915590885 0.0022580146926415739 0 0.014491553248487691 0.0023674266750073627 0 0.013180157109159922 0.0022737713799860816 0 0.013461494260446795 0.0021069034087793591 0 0.013374045877983987 0.002552282288955559 0 0.013461494260446795 0.0021069034087793591 0 0.013677185022640113 0.0024585243239372539 0 0.013418750155839772 0.0026810087297939426 0 0.014982737655598769 0.0024541698784323819 0 0.014491553248487691 0.0023674266750073627 0 0.013180157109159922 0.0022737713799860816 0 0.013461494260446795 0.0021069034087793591 0 0.013123839630830433 0.0017857014695100955 0 0.0099809244278563063 0.0017605750239883457 0 0.010283619224785078 0.0012635124480286745 0 0.0072620054779073658 0.00086474107961061653 0 0.0075056124794022879 0.0009901090865818891 0 0.0073458173647007029 0.00085016659233895855 0 0.0075056124794022879 0.0009901090865818891 0 0.0073458173647007029 0.00085016659233895855 0 0.0073648122670301108 0.00078207621245291305 0 0.0072462725147246585 0.00075651069614028849 0 0.0073458173647007029 0.00085016659233895855 0 0.0073648122670301108 0.00078207621245291305 0 0.0072462725147246585 0.00075651069614028849 0 0.0073648122670301108 0.00078207621245291305 0 0.0071694620732504124 0.00061599207278601939 0 0.013123839630830433 0.0017857014695100955 0 0.01348537070405738 0.0018300220146374078 0 0.013483960387110409 0.0015478641313684649 0 0.013461494260446795 0.0021069034087793591 0 0.013123839630830433 0.0017857014695100955 0 0.01348537070405738 0.0018300220146374078 0 0.013461494260446795 0.0021069034087793591 0 0.01348537070405738 0.0018300220146374078 0 0.013752957585929504 0.0018656198028311091 0 0.01348537070405738 0.0018300220146374078 0 0.013483960387110409 0.0015478641313684649 0 0.013752957585929504 0.0018656198028311091 0 0.0071371799581263252 0.00039960940084194583 0 0.0073648122670301108 0.00078207621245291305 0 0.0071694620732504124 0.00061599207278601939 0 0.013071218578531078 0.0012447862067135735 0 0.013123839630830433 0.0017857014695100955 0 0.013483960387110409 0.0015478641313684649 0 0.010080126631647153 0.00083043994347514597 0 0.010283619224785078 0.0012635124480286745 0 0.0071371799581263252 0.00039960940084194583 0 0.0069230811094333879 0.00039236667364910357 0 0.0071694620732504124 0.00061599207278601939 0 0.014371346441003604 0.0011344478296208343 0 0.014249489194974502 0.0016096531410111075 0 0.014093205471282179 0.0013293904787028232 0 0.013823547476460233 0.0012009196633363652 0 0.014093205471282179 0.0013293904787028232 0 0.01391535458785001 0.0015698206885174104 0 0.014249489194974502 0.0016096531410111075 0 0.014093205471282179 0.0013293904787028232 0 0.01391535458785001 0.0015698206885174104 0 0.013823547476460233 0.0012009196633363652 0 0.013483960387110409 0.0015478641313684649 0 0.01391535458785001 0.0015698206885174104 0 0.013483960387110409 0.0015478641313684649 0 0.01391535458785001 0.0015698206885174104 0 0.013752957585929504 0.0018656198028311091 0 0.01391535458785001 0.0015698206885174104 0 0.013752957585929504 0.0018656198028311091 0 0.013998688810214238 0.0018305403143488946 0 0.013752957585929504 0.0018656198028311091 0 0.013998688810214238 0.0018305403143488946 0 0.013935467232018144 0.0020248939749651991 0 0.015897059360619956 0.0015080765441460172 0 0.016724054565361642 0.0020341698261522388 0 0.014249489194974502 0.0016096531410111075 0 0.013998688810214238 0.0018305403143488946 0 0.014139268336384044 0.0020841201437218097 0 0.014249489194974502 0.0016096531410111075 0 0.01391535458785001 0.0015698206885174104 0 0.013998688810214238 0.0018305403143488946 0 0.017827833295434393 0.0017452354473885441 0 0.017878905564057357 0.0019223659262740352 0 0.017912411595473614 0.0018267499920176283 0 0.013998688810214238 0.0018305403143488946 0 0.014139268336384044 0.0020841201437218097 0 0.013935467232018144 0.0020248939749651991 0 0.014139268336384044 0.0020841201437218097 0 0.013935467232018144 0.0020248939749651991 0 0.01395039890416833 0.0022368470937069703 0 0.016724054565361642 0.0020341698261522388 0 0.015660602725619054 0.0023863722792045426 0 0.013461494260446795 0.0021069034087793591 0 0.013787439522305741 0.0021528900523894346 0 0.013677185022640113 0.0024585243239372539 0 0.013461494260446795 0.0021069034087793591 0 0.013752957585929504 0.0018656198028311091 0 0.013787439522305741 0.0021528900523894346 0 0.013752957585929504 0.0018656198028311091 0 0.013935467232018144 0.0020248939749651991 0 0.013787439522305741 0.0021528900523894346 0 0.013935467232018144 0.0020248939749651991 0 0.01395039890416833 0.0022368470937069703 0 0.013787439522305741 0.0021528900523894346 0 0.016257247831482805 0.0024705299071939627 0 0.016331350197271839 0.0024122283924998961 0 0.016285605421617676 0.002318450760697682 0 0.015660602725619054 0.0023863722792045426 0 0.016641796016387565 0.0022396842867988083 0 0.015660602725619054 0.0023863722792045426 0 0.014982737655598769 0.0024541698784323819 0 0.01395039890416833 0.0022368470937069703 0 0.013787439522305741 0.0021528900523894346 0 0.013677185022640113 0.0024585243239372539 0 0.017827833295434393 0.0017452354473885441 0 0.017878905564057357 0.0019223659262740352 0 0.017794436396988116 0.0019911782419750734 0 0.016725380144908229 0.0022294159963066841 0 0.016728103291569114 0.0022046132036786848 0 0.016738180716657405 0.0021925260206557343 0 0.016713260750598858 0.0022384598027251935 0 0.016725380144908229 0.0022294159963066841 0 0.016728103291569114 0.0022046132036786848 0 0.016724054565361642 0.0020341698261522388 0 0.017355219973128281 0.0020674175055841724 0 0.017355219973128281 0.0020674175055841724 0 0.017040158276017108 0.0022447773185429966 0 0.017878905564057357 0.0019223659262740352 0 0.017862114345320243 0.0020504351603797643 0 0.017794436396988116 0.0019911782419750734 0 0.016728103291569114 0.0022046132036786848 0 0.016746733418749632 0.0021713664543210717 0 0.016738180716657405 0.0021925260206557343 0 0.017878905564057357 0.0019223659262740352 0 0.017862114345320243 0.0020504351603797643 0 0.017928833858509942 0.0020215003624525149 0 0.017794436396988116 0.0019911782419750734 0 0.017842658600362903 0.0021365738711960451 0 0.017740714261996925 0.0022517258401310194 0 0.017862114345320243 0.0020504351603797643 0 0.017794436396988116 0.0019911782419750734 0 0.017842658600362903 0.0021365738711960451 0 0.017862114345320243 0.0020504351603797643 0 0.017842658600362903 0.0021365738711960451 0 0.01799430893415466 0.0021448452071711993 0 0.017842658600362903 0.0021365738711960451 0 0.017840288720094643 0.0022325708649453798 0 0.01799430893415466 0.0021448452071711993 0 0.017842658600362903 0.0021365738711960451 0 0.017840288720094643 0.0022325708649453798 0 0.017740714261996925 0.0022517258401310194 0 0.017840288720094643 0.0022325708649453798 0 0.017740714261996925 0.0022517258401310194 0 0.017817495725286903 0.0023217324765269264 0 0.017840288720094643 0.0022325708649453798 0 0.017920520470407882 0.0022956407481520519 0 0.01799430893415466 0.0021448452071711993 0 0.017840288720094643 0.0022325708649453798 0 0.017920520470407882 0.0022956407481520519 0 0.017817495725286903 0.0023217324765269264 0 0.016354541463436654 0.0023025078218517768 0 0.016417690151211882 0.0022665063431117041 0 0.016319412016383202 0.0021786830396323285 0 0.017040158276017108 0.0022447773185429966 0 0.016641796016387565 0.0022396842867988083 0 0.016306750098053584 0.0022353439488846613 0 0.016354541463436654 0.0023025078218517768 0 0.016319412016383202 0.0021786830396323285 0 0.016306750098053584 0.0022353439488846613 0 0.016354541463436654 0.0023025078218517768 0 0.016285605421617676 0.002318450760697682 0 0.01700912019437879 0.0016130599445194989 0 0.018231091446090926 0.0019244533555804863 0 0.016331350197271839 0.0024122283924998961 0 0.016354541463436654 0.0023025078218517768 0 0.016285605421617676 0.002318450760697682 0 0.016354541463436654 0.0023025078218517768 0 0.016399603711881285 0.0023536089070502987 0 0.016417690151211882 0.0022665063431117041 0 0.016331350197271839 0.0024122283924998961 0 0.016354541463436654 0.0023025078218517768 0 0.016399603711881285 0.0023536089070502987 0 0.015180669220427231 0.0020656909118946763 0 0.015453972149441771 0.0018351963491702154 0 0.015246203665687361 0.0016188749256045758 0 0.014491553248487691 0.0023674266750073627 0 0.01700912019437879 0.0016130599445194989 0 0.014491553248487691 0.0023674266750073627 0 0.013623304485134538 0.0013547070106335272 0 0.010901800736502874 0.00021306127764995266 0 0.013623304485134538 0.0013547070106335272 0 0.015650716065761815 -0.00018936023451682148 0 0.016475862598656042 0.00043502255006413706 0 0.016337083084400069 0.00053594049727297231 0 0.013180157109159922 0.0022737713799860816 0 0.013374045877983987 0.002552282288955559 0 0.013212838385211112 0.0026786129240613491 0 0.015452526677629691 0.0017821389572038977 0 0.015453972149441771 0.0018351963491702154 0 0.015246203665687361 0.0016188749256045758 0 0.014957915346544193 0.0011648585096609204 0 0.013623304485134538 0.0013547070106335272 0 0.014957915346544193 0.0011648585096609204 0 0.016911720111732136 0.00079884618226503008 0 0.017503579638415357 0.0011296936097152516 0 0.017529291013432313 0.0011214733733928314 0 0.017512034416736676 0.0011279793155391687 0 0.016237885926204471 0.00065127028120772639 0 0.01624792883667071 0.00064453128153262572 0 0.016256467695051808 0.00063542303173997467 0 0.016940713378518824 7.3838575143697472e-05 0 0.013623304485134538 0.0013547070106335272 0 0.016248452154546084 0.00064454841310473499 0 0.016475862598656042 0.00043502255006413706 0 0.016337083084400069 0.00053594049727297231 0 0.016248452154546084 0.00064454841310473499 0 0.01623680268844049 0.00065266714726786035 0 0.01624792883667071 0.00064453128153262572 0 0.016272797332279244 0.00059516130931705448 0 0.016248452154546084 0.00064454841310473499 0 0.016337083084400069 0.00053594049727297231 0 0.016237885926204471 0.00065127028120772639 0 0.01623680268844049 0.00065266714726786035 0 0.01624792883667071 0.00064453128153262572 0 0.01624792883667071 0.00064453128153262572 0 0.016256467695051808 0.00063542303173997467 0 0.01626985013363107 0.0006268211757028589 0 0.016248452154546084 0.00064454841310473499 0 0.01624792883667071 0.00064453128153262572 0 0.01626985013363107 0.0006268211757028589 0 0.014957915346544193 0.0011648585096609204 0 0.01700912019437879 0.0016130599445194989 0 0.017529291013432313 0.0011214733733928314 0 0.017512034416736676 0.0011279793155391687 0 0.017552678159619733 0.0011115066072053979 0 0.019916557235657602 0.0010663731854045019 0 0.020550426824231038 0.0011275755443559629 0 0.01700912019437879 0.0016130599445194989 0 0.019916557235657602 0.0010663731854045019 0 0.018826684959885459 0.0011620652363868668 0 0.018810018841372119 0.0014268264731184597 0 0.019081969328697487 0.0013453547118780428 0 0.017529291013432313 0.0011214733733928314 0 0.017552678159619733 0.0011115066072053979 0 0.017554943036977237 0.0011112687941545506 0 0.016295216890211604 0.00061486333246291126 0 0.01626985013363107 0.0006268211757028589 0 0.01628163939839658 0.00062138326634189492 0 0.016256467695051808 0.00063542303173997467 0 0.01626985013363107 0.0006268211757028589 0 0.01628163939839658 0.00062138326634189492 0 0.019144211476991059 0.0010164586707944016 0 0.019615093855481772 0.0010686389551156725 0 0.016911720111732136 0.00079884618226503008 0 0.019615093855481772 0.0010686389551156725 0 0.019916557235657602 0.0010663731854045019 0 0.019615093855481772 0.0010686389551156725 0 0.021853557836994837 0.00068954990196843605 0 0.021860387108849497 0.00067914864554867742 0 0.021886985566949249 0.00064877048999741115 0 0.022350595186187035 0.0009038179783082016 0 0.021834236643854008 0.0013913779474463391 0 0.021823545865815398 0.00052682297926693428 0 0.019615093855481772 0.0010686389551156725 0 0.022054669985274923 0.00050074673316976887 0 0.022350595186187035 0.0009038179783082016 0 0.022459499379798794 0.0013884233543424054 0 0.021834236643854008 0.0013913779474463391 0 0.021856731524662568 0.00068448732617364973 0 0.0218537145286808 0.00067654503010153538 0 0.021835059779202193 0.00068608248366240946 0 0.021856731524662568 0.00068448732617364973 0 0.0218537145286808 0.00067654503010153538 0 0.021860387108849497 0.00067914864554867742 0 0.019916557235657602 0.0010663731854045019 0 0.020625135894525051 0.0006419124881407506 0 0.021847745039667906 0.00069038024346237904 0 0.021853557836994837 0.00068954990196843605 0 0.021860387108849497 0.00067914864554867742 0 0.0218537145286808 0.00067654503010153538 0 0.021860387108849497 0.00067914864554867742 0 0.021868891055270862 0.00066114320680271232 0 0.020550426824231038 0.0011275755443559629 0 0.02211226166446241 0.00045695742519687637 0 0.02183933668846496 0.00066463073624628555 0 0.021841111660600026 0.00068718964626897675 0 0.021860265110484473 0.0006557517145028526 0 0.0218537145286808 0.00067654503010153538 0 0.021835059779202193 0.00068608248366240946 0 0.021860265110484473 0.0006557517145028526 0 0.02183933668846496 0.00066463073624628555 0 0.021828707696564205 0.00068675544647149676 0 0.021841111660600026 0.00068718964626897675 0 0.02183933668846496 0.00066463073624628555 0 0.021828707696564205 0.00068675544647149676 0 0.021822294970355816 0.00066579275365599277 0 0.017920520470407882 0.0022956407481520519 0 0.017848425373018794 0.0024597319012201525 0 0.018033337928242434 0.0023392624687842392 0 0.019522486725390122 0.0019653272704870978 0 0.020550426824231038 0.0011275755443559629 0 0.019522486725390122 0.0019653272704870978 0 0.018231091446090926 0.0019244533555804863 0 0.017920520470407882 0.0022956407481520519 0 0.017848425373018794 0.0024597319012201525 0 0.017817495725286903 0.0023217324765269264 0 0.017848425373018794 0.0024597319012201525 0 0.017817495725286903 0.0023217324765269264 0 0.017734709466988366 0.0023716836353839922 0 0.017040158276017108 0.0022447773185429966 0 0.018231091446090926 0.0019244533555804863 0 0.017740714261996925 0.0022517258401310194 0 0.017817495725286903 0.0023217324765269264 0 0.017734709466988366 0.0023716836353839922 0 0.018810018841372119 0.0014268264731184597 0 0.019081969328697487 0.0013453547118780428 0 0.019080221560146732 0.001427408002974639 0 0.019468700035383556 0.0019037121506502211 0 0.019213448270153047 0.001708415508970094 0 0.01920193635963912 0.0019020249517339839 0 0.018231091446090926 0.0019244533555804863 0 0.020550426824231038 0.0011275755443559629 0 0.021890829623960197 0.00062531230047332997 0 0.021860265110484473 0.0006557517145028526 0 0.021888280686769131 0.00063504203473488808 0 0.021890829623960197 0.00062531230047332997 0 0.021859439987502696 0.00063487421613258438 0 0.021860265110484473 0.0006557517145028526 0 0.021890829623960197 0.00062531230047332997 0 0.021859439987502696 0.00063487421613258438 0 0.02186034452578562 0.00061108583230450291 0 0.021859439987502696 0.00063487421613258438 0 0.021840958975033145 0.00063791696511860622 0 0.021849501370368767 0.00062193936052433181 0 0.02183933668846496 0.00066463073624628555 0 0.021859439987502696 0.00063487421613258438 0 0.021840958975033145 0.00063791696511860622 0 0.02183933668846496 0.00066463073624628555 0 0.021859439987502696 0.00063487421613258438 0 0.021860265110484473 0.0006557517145028526 0 0.021860265110484473 0.0006557517145028526 0 0.021868891055270862 0.00066114320680271232 0 0.021888280686769131 0.00063504203473488808 0 0.0218537145286808 0.00067654503010153538 0 0.021860265110484473 0.0006557517145028526 0 0.021868891055270862 0.00066114320680271232 0 0.021860387108849497 0.00067914864554867742 0 0.021868891055270862 0.00066114320680271232 0 0.021886985566949249 0.00064877048999741115 0 0.021868891055270862 0.00066114320680271232 0 0.021886985566949249 0.00064877048999741115 0 0.021888280686769131 0.00063504203473488808 0 0.022350595186187035 0.0009038179783082016 0 0.021823545865815398 0.00052682297926693428 0 0.022550292549296573 0.00034450067640209907 0 0.021823545865815398 0.00052682297926693428 0 0.021804234172064379 -0.000328575144865116 0 0.022417483983274984 -5.490328935942867e-05 0 0.021823545865815398 0.00052682297926693428 0 0.022417483983274984 -5.490328935942867e-05 0 0.022550292549296573 0.00034450067640209907 0 0.021886985566949249 0.00064877048999741115 0 0.021888280686769131 0.00063504203473488808 0 0.021901682538882281 0.00062819314194451613 0 0.022054669985274923 0.00050074673316976887 0 0.022434551049665991 0.00056100417364342802 0 0.022434551049665991 0.00056100417364342802 0 0.021761993661440614 0.00058166729799980345 0 0.021888280686769131 0.00063504203473488808 0 0.021901682538882281 0.00062819314194451613 0 0.021915932304673692 0.00062469992005735695 0 0.024176582108926006 0.00080356936436284899 0 0.024125801502795682 0.00084763378099502037 0 0.024147131226532541 0.00076376844537496083 0 0.022434551049665991 0.00056100417364342802 0 0.023362772034055953 0.00034804631455738868 0 0.023898907674611256 0.00077420482302704052 0 0.024137878277920851 0.00069644733643970844 0 0.024125801502795682 0.00084763378099502037 0 0.023544458260015739 0.00061694415881718761 0 0.024307090385312237 0.00093561493153021546 0 0.024176582108926006 0.00080356936436284899 0 0.02417240134872755 0.00086470260083507404 0 0.024125801502795682 0.00084763378099502037 0 0.021954010449165607 0.00064310741814029894 0 0.021950327630413623 0.0006123995671016107 0 0.021915932304673692 0.00062469992005735695 0 0.021950327630413623 0.0006123995671016107 0 0.02192471269610155 0.00061870171743442874 0 0.021915932304673692 0.00062469992005735695 0 0.021950327630413623 0.0006123995671016107 0 0.02192471269610155 0.00061870171743442874 0 0.021934072016796268 0.00061459130966982391 0 0.022434551049665991 0.00056100417364342802 0 0.023544458260015739 0.00061694415881718761 0 0.02192471269610155 0.00061870171743442874 0 0.021919897706906343 0.00062048505035083423 0 0.021934361060433102 0.00061930497667967463 0 0.02192471269610155 0.00061870171743442874 0 0.021919897706906343 0.00062048505035083423 0 0.021915932304673692 0.00062469992005735695 0 0.021890829623960197 0.00062531230047332997 0 0.021888280686769131 0.00063504203473488808 0 0.021915932304673692 0.00062469992005735695 0 0.021890829623960197 0.00062531230047332997 0 0.021919897706906343 0.00062048505035083423 0 0.021915932304673692 0.00062469992005735695 0 0.021859439987502696 0.00063487421613258438 0 0.02186034452578562 0.00061108583230450291 0 0.021849501370368767 0.00062193936052433181 0 0.021890829623960197 0.00062531230047332997 0 0.021919897706906343 0.00062048505035083423 0 0.021927934164387177 0.00061383005824606693 0 0.021920419172792121 0.00063937936285485351 0 0.021819596423464319 0.00056261163879666126 0 0.021919897706906343 0.00062048505035083423 0 0.021927934164387177 0.00061383005824606693 0 0.021936071631859871 0.00061711896094839664 0 0.021819596423464319 0.00056261163879666126 0 0.022755657789032106 0.00025237932769482218 0 0.021927934164387177 0.00061383005824606693 0 0.021936071631859871 0.00061711896094839664 0 0.021946984361732619 0.00061370828062704691 0 0.021936071631859871 0.00061711896094839664 0 0.021934361060433102 0.00061930497667967463 0 0.021949398496703795 0.00062108203285091948 0 0.021919897706906343 0.00062048505035083423 0 0.021936071631859871 0.00061711896094839664 0 0.021934361060433102 0.00061930497667967463 0 0.021934361060433102 0.00061930497667967463 0 0.021942443892579398 0.00062093452899017226 0 0.021949398496703795 0.00062108203285091948 0 0.023469574395868917 0.00024467820856629132 0 0.024603277639084476 8.9289376189435605e-05 0 0.023469574395868917 0.00024467820856629132 0 0.023746584413462949 0.00025023520460105021 0 0.023787973733931298 0.00016079152957468044 0 0.024056379749287531 8.970194104660677e-05 0 0.024001202499439642 0.00026728980990430392 0 0.023746584413462949 0.00025023520460105021 0 0.024603277639084476 8.9289376189435605e-05 0 0.023409335714380818 0.00021286660408864863 0 0.023628751873959544 0.00032333040219876446 0 0.023624739265601297 0.0001539845191242541 0 0.02192471269610155 0.00061870171743442874 0 0.021942443892579398 0.00062093452899017226 0 0.021934072016796268 0.00061459130966982391 0 0.02192471269610155 0.00061870171743442874 0 0.021934361060433102 0.00061930497667967463 0 0.021942443892579398 0.00062093452899017226 0 0.023469574395868917 0.00024467820856629132 0 0.022587562467453089 0.00038001172936867925 0 0.023469574395868917 0.00024467820856629132 0 0.024421362375586429 6.9849930689986031e-05 0 0.024980586299934354 4.8701917937332103e-05 0 0.024966139083599619 3.8663297235628165e-05 0 0.024986291404086463 2.5746171832069017e-05 0 0.024954830541797365 5.6995661601028674e-05 0 0.024980586299934354 4.8701917937332103e-05 0 0.024966139083599619 3.8663297235628165e-05 0 0.024603277639084476 8.9289376189435605e-05 0 0.025023109598900899 -8.1815567628166662e-07 0 0.024999569859095898 4.6207355243785675e-05 0 0.025005895576033894 1.6902423438364049e-05 0 0.024994050731611143 2.9241928889926915e-05 0 0.024966139083599619 3.8663297235628165e-05 0 0.024940361601661756 4.8750705393489739e-05 0 0.024966288483393956 1.6406625471266494e-05 0 0.024954830541797365 5.6995661601028674e-05 0 0.024966139083599619 3.8663297235628165e-05 0 0.024940361601661756 4.8750705393489739e-05 0 0.024966139083599619 3.8663297235628165e-05 0 0.024966288483393956 1.6406625471266494e-05 0 0.024986291404086463 2.5746171832069017e-05 0 0.024966288483393956 1.6406625471266494e-05 0 0.024986291404086463 2.5746171832069017e-05 0 0.024993097242773429 8.0223300145193524e-06 0 0.024999934312635631 -1.2801740067673763e-09 0 0.024993097242773429 8.0223300145193524e-06 0 0.025000032886012793 5.8121867490873842e-09 0 0.024966288483393956 1.6406625471266494e-05 0 0.024999934312635631 -1.2801740067673763e-09 0 0.024993097242773429 8.0223300145193524e-06 0 0.025023109598900899 -8.1815567628166662e-07 0 0.024999971183176775 4.4428052357913073e-08 0 0.025005895576033894 1.6902423438364049e-05 0 0.025000010373919492 6.0179006538086864e-09 0 0.025000015129306611 2.703823558095927e-09 0 0.024999819932067735 8.1476601337641154e-08 0 0.024902647549232541 9.2253715378306505e-05 0 0.024858905925486639 0.00011901012618718313 0 0.024999819932067735 8.1476601337641154e-08 0 0.024858905925486639 0.00011901012618718313 0 0.024999723329550794 1.344981085936714e-07 0 0.02499997074351484 6.0163355963823913e-08 0 0.024988880689973708 3.4137490401392084e-05 0 0.024993097242773429 8.0223300145193524e-06 0 0.025000032886012793 5.8121867490873842e-09 0 0.025002358202586564 1.5371989167429999e-05 0 0.024986291404086463 2.5746171832069017e-05 0 0.025002358202586564 1.5371989167429999e-05 0 0.024999687437508019 4.231703868361532e-05 0 0.024988880689973708 3.4137490401392084e-05 0 0.024365625117731361 0.00017414748366874984 0 0.024986291404086463 2.5746171832069017e-05 0 0.024993097242773429 8.0223300145193524e-06 0 0.025002358202586564 1.5371989167429999e-05 0 0.024902647549232541 9.2253715378306505e-05 0 0.024858905925486639 0.00011901012618718313 0 0.024813506582777277 6.3595531913870212e-05 0 0.024449164061292338 0.0002229029206489332 0 0.024365625117731361 0.00017414748366874984 0 0.024902647549232541 9.2253715378306505e-05 0 0.024813506582777277 6.3595531913870212e-05 0 0.024877418628812945 3.9742610650601069e-05 0 0.024072736725989505 0.00037515243688304207 0 0.023855889285901096 0.00046264796950698381 0 0.023985935129165716 0.00058452195064091035 0 0.024980586299934354 4.8701917937332103e-05 0 0.024986291404086463 2.5746171832069017e-05 0 0.024999687437508019 4.231703868361532e-05 0 0.024421362375586429 6.9849930689986031e-05 0 0.024365625117731361 0.00017414748366874984 0 0.023544458260015739 0.00061694415881718761 0 0.022587562467453089 0.00038001172936867925 0 0.023628751873959544 0.00032333040219876446 0 0.023624739265601297 0.0001539845191242541 0 0.023840953791508253 9.6456384174669927e-05 0 0.023849623678922533 0.00043608934761110751 0 0.023628751873959544 0.00032333040219876446 0 0.023840953791508253 9.6456384174669927e-05 0 0.023544458260015739 0.00061694415881718761 0 0.024365625117731361 0.00017414748366874984 0 0.023898907674611256 0.00077420482302704052 0 0.023985935129165716 0.00058452195064091035 0 0.024137878277920851 0.00069644733643970844 0 0.024072736725989505 0.00037515243688304207 0 0.023985935129165716 0.00058452195064091035 0 0.024137878277920851 0.00069644733643970844 0 0.023898907674611256 0.00077420482302704052 0 0.023855889285901096 0.00046264796950698381 0 0.023985935129165716 0.00058452195064091035 0 0.024137878277920851 0.00069644733643970844 0 0.024250461148884524 0.00074704673312851418 0 0.02414241500323426 0.00085776875521833889 0 0.024137878277920851 0.00069644733643970844 0 0.024250461148884524 0.00074704673312851418 0 0.024306334220206283 0.00054099866140105979 0 0.024250461148884524 0.00074704673312851418 0 0.024424599754971979 0.00049276587371040583 0 0.024306334220206283 0.00054099866140105979 0 0.024250461148884524 0.00074704673312851418 0 0.024424599754971979 0.00049276587371040583 0 0.024395351285839063 0.00058462595426410618 0 0.024424599754971979 0.00049276587371040583 0 0.024539041589013606 0.00021678528991825297 0 0.024567634736929359 0.0003679811996739483 0 0.024424599754971979 0.00049276587371040583 0 0.024567634736929359 0.0003679811996739483 0 0.024395351285839063 0.00058462595426410618 0 0.024424599754971979 0.00049276587371040583 0 0.024306334220206283 0.00054099866140105979 0 0.024539041589013606 0.00021678528991825297 0 0.024449164061292338 0.0002229029206489332 0 0.024535321773855971 0.00020986619988267116 0 0.024072736725989505 0.00037515243688304207 0 0.024306334220206283 0.00054099866140105979 0 0.024539041589013606 0.00021678528991825297 0 0.024072736725989505 0.00037515243688304207 0 0.024137878277920851 0.00069644733643970844 0 0.024306334220206283 0.00054099866140105979 0 0.024858905925486639 0.00011901012618718313 0 0.024539041589013606 0.00021678528991825297 0 0.024787041937137655 0.00012084902847068587 0 0.024858905925486639 0.00011901012618718313 0 0.024813506582777277 6.3595531913870212e-05 0 0.024539041589013606 0.00021678528991825297 0 0.024539041589013606 0.00021678528991825297 0 0.024787041937137655 0.00012084902847068587 0 0.024743559710581543 0.0001868440716844073 0 0.024539041589013606 0.00021678528991825297 0 0.024743559710581543 0.0001868440716844073 0 0.024567634736929359 0.0003679811996739483 0 0.024787041937137655 0.00012084902847068587 0 0.024999723329550794 1.344981085936714e-07 0 0.024999618997728238 8.527735115673215e-08 0 0.024787041937137655 0.00012084902847068587 0 0.024999618997728238 8.527735115673215e-08 0 0.024743559710581543 0.0001868440716844073 0 0.024858905925486639 0.00011901012618718313 0 0.024787041937137655 0.00012084902847068587 0 0.024999723329550794 1.344981085936714e-07 0 0.024878866490227178 0.00013368401577020851 0 0.024999905522221907 7.1658701066679341e-08 0 0.024999618997728238 8.527735115673215e-08 0 0.024878866490227178 0.00013368401577020851 0 0.024999905522221907 7.1658701066679341e-08 0 0.024995518546089605 8.4240087855792011e-05 0 0.024878866490227178 0.00013368401577020851 0 0.024999618997728238 8.527735115673215e-08 0 0.024743559710581543 0.0001868440716844073 0 0.024743559710581543 0.0001868440716844073 0 0.024705555233575652 0.00033491468201773532 0 0.024567634736929359 0.0003679811996739483 0 0.024878866490227178 0.00013368401577020851 0 0.024743559710581543 0.0001868440716844073 0 0.024705555233575652 0.00033491468201773532 0 0.024859421228789664 0.00014230588030894468 0 0.024912391816542756 0.00017890292872150111 0 0.024878866490227178 0.00013368401577020851 0 0.024802293286936138 0.00031875791697544124 0 0.024832479138658194 0.00028451263526596988 0 0.024878866490227178 0.00013368401577020851 0 0.024802293286936138 0.00031875791697544124 0 0.024705555233575652 0.00033491468201773532 0 0.024705555233575652 0.00033491468201773532 0 0.024620269491182966 0.00051033546138406789 0 0.024752510849985695 0.00045692961782353275 0 0.024802293286936138 0.00031875791697544124 0 0.024705555233575652 0.00033491468201773532 0 0.024752510849985695 0.00045692961782353275 0 0.024620269491182966 0.00051033546138406789 0 0.024547381144830981 0.00046851985234309327 0 0.024426508682794661 0.00062561287331034136 0 0.024705555233575652 0.00033491468201773532 0 0.024620269491182966 0.00051033546138406789 0 0.024547381144830981 0.00046851985234309327 0 0.024620269491182966 0.00051033546138406789 0 0.024712910650829846 0.00056068047984999788 0 0.024752510849985695 0.00045692961782353275 0 0.024705555233575652 0.00033491468201773532 0 0.024567634736929359 0.0003679811996739483 0 0.024547381144830981 0.00046851985234309327 0 0.024567634736929359 0.0003679811996739483 0 0.024547381144830981 0.00046851985234309327 0 0.024395351285839063 0.00058462595426410618 0 0.024395351285839063 0.00058462595426410618 0 0.024426508682794661 0.00062561287331034136 0 0.024264875114444143 0.00074598297075607249 0 0.024547381144830981 0.00046851985234309327 0 0.024395351285839063 0.00058462595426410618 0 0.024426508682794661 0.00062561287331034136 0 0.024426508682794661 0.00062561287331034136 0 0.024264875114444143 0.00074598297075607249 0 0.024266241662497356 0.00082936540918111042 0 0.024264875114444143 0.00074598297075607249 0 0.024266241662497356 0.00082936540918111042 0 0.024084416782038091 0.00094354151381100058 0 0.024250461148884524 0.00074704673312851418 0 0.024395351285839063 0.00058462595426410618 0 0.024264875114444143 0.00074598297075607249 0 0.024250461148884524 0.00074704673312851418 0 0.024264875114444143 0.00074598297075607249 0 0.024084416782038091 0.00094354151381100058 0 0.024620269491182966 0.00051033546138406789 0 0.024585903940426958 0.00065886956978625645 0 0.024712910650829846 0.00056068047984999788 0 0.024620269491182966 0.00051033546138406789 0 0.024426508682794661 0.00062561287331034136 0 0.024585903940426958 0.00065886956978625645 0 0.024426508682794661 0.00062561287331034136 0 0.024585903940426958 0.00065886956978625645 0 0.024266241662497356 0.00082936540918111042 0 0.024266241662497356 0.00082936540918111042 0 0.023907036844022369 0.0012074231442158673 0 0.024811587111999538 0.00087213254741133877 0 0.022721360360503918 0.00081052157279675754 0 0.023907036844022369 0.0012074231442158673 0 0.021833899131288782 0.0016408466307203137 0 0.024585903940426958 0.00065886956978625645 0 0.024266241662497356 0.00082936540918111042 0 0.024811587111999538 0.00087213254741133877 0 0.023827211929319667 0.0012217292925430499 0 0.023309870703217765 0.0012301302955087085 0 0.022721360360503918 0.00081052157279675754 0 0.023775249025028807 0.00095720511768161243 0 0.0227910039494203 0.00041006121875185927 0 0.022721360360503918 0.00081052157279675754 0 0.023775249025028807 0.00095720511768161243 0 0.023907036844022369 0.0012074231442158673 0 0.022721360360503918 0.00081052157279675754 0 0.022250745686626414 0.00044113394239560921 0 0.0227910039494203 0.00041006121875185927 0 0.022721360360503918 0.00081052157279675754 0 0.022250745686626414 0.00044113394239560921 0 0.021742261421837265 0.00066935917619733419 0 0.023775249025028807 0.00095720511768161243 0 0.023970549541210404 0.0008538499521978793 0 0.02368989005424306 0.00066395871439504353 0 0.02365746391270469 0.00097877853584647204 0 0.023306708940641269 0.0006076621688689064 0 0.023970549541210404 0.0008538499521978793 0 0.023999735017397623 0.00078881344794642428 0 0.023897790303652255 0.00070838987430652174 0 0.023970549541210404 0.0008538499521978793 0 0.02368989005424306 0.00066395871439504353 0 0.023897790303652255 0.00070838987430652174 0 0.023775249025028807 0.00095720511768161243 0 0.023970549541210404 0.0008538499521978793 0 0.02398933591798361 0.0010140468554979565 0 0.023970549541210404 0.0008538499521978793 0 0.02398933591798361 0.0010140468554979565 0 0.024094220442367347 0.00092127954267116061 0 0.02398933591798361 0.0010140468554979565 0 0.024084416782038091 0.00094354151381100058 0 0.024094220442367347 0.00092127954267116061 0 0.02398933591798361 0.0010140468554979565 0 0.023907036844022369 0.0012074231442158673 0 0.024084416782038091 0.00094354151381100058 0 0.023775249025028807 0.00095720511768161243 0 0.02398933591798361 0.0010140468554979565 0 0.023907036844022369 0.0012074231442158673 0 0.024266241662497356 0.00082936540918111042 0 0.023907036844022369 0.0012074231442158673 0 0.024084416782038091 0.00094354151381100058 0 0.024250461148884524 0.00074704673312851418 0 0.024084416782038091 0.00094354151381100058 0 0.024094220442367347 0.00092127954267116061 0 0.024250461148884524 0.00074704673312851418 0 0.02414241500323426 0.00085776875521833889 0 0.024094220442367347 0.00092127954267116061 0 0.02414241500323426 0.00085776875521833889 0 0.024094220442367347 0.00092127954267116061 0 0.024072516286652853 0.00083425689246915274 0 0.024137878277920851 0.00069644733643970844 0 0.02414241500323426 0.00085776875521833889 0 0.024125801502795682 0.00084763378099502037 0 0.024125801502795682 0.00084763378099502037 0 0.024107149456183256 0.00080004219565188342 0 0.024147131226532541 0.00076376844537496083 0 0.02414241500323426 0.00085776875521833889 0 0.024125801502795682 0.00084763378099502037 0 0.024107149456183256 0.00080004219565188342 0 0.02414241500323426 0.00085776875521833889 0 0.024107149456183256 0.00080004219565188342 0 0.024072516286652853 0.00083425689246915274 0 0.023970549541210404 0.0008538499521978793 0 0.024094220442367347 0.00092127954267116061 0 0.024072516286652853 0.00083425689246915274 0 0.024107149456183256 0.00080004219565188342 0 0.024072516286652853 0.00083425689246915274 0 0.024025330089921752 0.00074232182153702753 0 0.024072516286652853 0.00083425689246915274 0 0.023999735017397623 0.00078881344794642428 0 0.024025330089921752 0.00074232182153702753 0 0.023970549541210404 0.0008538499521978793 0 0.024072516286652853 0.00083425689246915274 0 0.023999735017397623 0.00078881344794642428 0 0.023999735017397623 0.00078881344794642428 0 0.024025330089921752 0.00074232182153702753 0 0.023897790303652255 0.00070838987430652174 0 0.024107149456183256 0.00080004219565188342 0 0.024025330089921752 0.00074232182153702753 0 0.024036433321836966 0.00061901106363320129 0 0.024025330089921752 0.00074232182153702753 0 0.02395823728579673 0.00067564269972730893 0 0.024036433321836966 0.00061901106363320129 0 0.024025330089921752 0.00074232182153702753 0 0.02395823728579673 0.00067564269972730893 0 0.023897790303652255 0.00070838987430652174 0 0.02307830641583818 0.00022713257229174961 0 0.022550292549296573 0.00034450067640209907 0 0.02299759739213917 0.00040655744039580797 0 0.02395823728579673 0.00067564269972730893 0 0.024036433321836966 0.00061901106363320129 0 0.023851346962337136 0.00062729272820492388 0 0.02307830641583818 0.00022713257229174961 0 0.022417483983274984 -5.490328935942867e-05 0 0.022550292549296573 0.00034450067640209907 0 0.023532352789666592 0.00043116779913030147 0 0.023362772034055953 0.00034804631455738868 0 0.024107149456183256 0.00080004219565188342 0 0.024036433321836966 0.00061901106363320129 0 0.024147131226532541 0.00076376844537496083 0 0.022350595186187035 0.0009038179783082016 0 0.022550292549296573 0.00034450067640209907 0 0.022740440361825726 0.00071344217543025713 0 0.022550292549296573 0.00034450067640209907 0 0.022740440361825726 0.00071344217543025713 0 0.02299759739213917 0.00040655744039580797 0 0.02307830641583818 0.00022713257229174961 0 0.023295633880189254 0.00058376554133616327 0 0.023664679154172794 0.0005403168957564575 0 0.023523979199499469 0.00081759004018804103 0 0.023136888517464524 0.00078937178942822437 0 0.023295633880189254 0.00058376554133616327 0 0.02307830641583818 0.00022713257229174961 0 0.02299759739213917 0.00040655744039580797 0 0.023295633880189254 0.00058376554133616327 0 0.023019694981416122 0.00090489694808963206 0 0.022740440361825726 0.00071344217543025713 0 0.02299759739213917 0.00040655744039580797 0 0.023000994293147725 0.0010155264648272053 0 0.022994583855961977 0.00040744670585096042 0 0.023136888517464524 0.00078937178942822437 0 0.02299759739213917 0.00040655744039580797 0 0.023295633880189254 0.00058376554133616327 0 0.023532352789666592 0.00043116779913030147 0 0.023672076645246284 0.00052445613265118243 0 0.023523979199499469 0.00081759004018804103 0 0.023295633880189254 0.00058376554133616327 0 0.023664679154172794 0.0005403168957564575 0 0.023664679154172794 0.0005403168957564575 0 0.023764088916116106 0.00054456358699034172 0 0.023732427369052303 0.00059624127562179878 0 0.023523979199499469 0.00081759004018804103 0 0.023664679154172794 0.0005403168957564575 0 0.023764088916116106 0.00054456358699034172 0 0.0214419578584727 -0.00012866379511044284 0 0.022103934502459933 6.6878979144898982e-05 0 0.021773273161881924 9.0685877371794388e-05 0 0.022103934502459933 6.6878979144898982e-05 0 0.022205590402715567 0.00013557728453089687 0 0.021773273161881924 9.0685877371794388e-05 0 0.022205590402715567 0.00013557728453089687 0 0.021757754380560389 0.00028944619265559586 0 0.021773273161881924 9.0685877371794388e-05 0 0.022507056005803806 0.00033857628528857926 0 0.022435148856403339 0.00021031331307574231 0 0.022144894982004847 -1.2421191107484369e-05 0 0.022205590402715567 0.00013557728453089687 0 0.0227910039494203 0.00041006121875185927 0 0.023764088916116106 0.00054456358699034172 0 0.02368989005424306 0.00066395871439504353 0 0.023732427369052303 0.00059624127562179878 0 0.022507056005803806 0.00033857628528857926 0 0.023306708940641269 0.0006076621688689064 0 0.022205590402715567 0.00013557728453089687 0 0.022250745686626414 0.00044113394239560921 0 0.021757754380560389 0.00028944619265559586 0 0.022205590402715567 0.00013557728453089687 0 0.022250745686626414 0.00044113394239560921 0 0.0227910039494203 0.00041006121875185927 0 0.024036433321836966 0.00061901106363320129 0 0.023664679154172794 0.0005403168957564575 0 0.023851346962337136 0.00062729272820492388 0 0.02368989005424306 0.00066395871439504353 0 0.023897790303652255 0.00070838987430652174 0 0.023732427369052303 0.00059624127562179878 0 0.02395823728579673 0.00067564269972730893 0 0.023897790303652255 0.00070838987430652174 0 0.023851346962337136 0.00062729272820492388 0 0.023897790303652255 0.00070838987430652174 0 0.023851346962337136 0.00062729272820492388 0 0.023732427369052303 0.00059624127562179878 0 0.023664679154172794 0.0005403168957564575 0 0.023851346962337136 0.00062729272820492388 0 0.023732427369052303 0.00059624127562179878 0 0.020709418037518964 0.00034451685639532543 0 0.021299641499740344 0.00043444930500559397 0 0.021325670260984697 0.00011142508585575543 0 0.020709418037518964 0.00034451685639532543 0 0.021299641499740344 0.00043444930500559397 0 0.020977597655783456 0.00084406256786315561 0 0.021299641499740344 0.00043444930500559397 0 0.020977597655783456 0.00084406256786315561 0 0.021742261421837265 0.00066935917619733419 0 0.021757754380560389 0.00028944619265559586 0 0.021299641499740344 0.00043444930500559397 0 0.021742261421837265 0.00066935917619733419 0 0.022250745686626414 0.00044113394239560921 0 0.021757754380560389 0.00028944619265559586 0 0.021742261421837265 0.00066935917619733419 0 0.021757754380560389 0.00028944619265559586 0 0.021299641499740344 0.00043444930500559397 0 0.021325670260984697 0.00011142508585575543 0 0.021757754380560389 0.00028944619265559586 0 0.021325670260984697 0.00011142508585575543 0 0.021773273161881924 9.0685877371794388e-05 0 0.0214419578584727 -0.00012866379511044284 0 0.021325670260984697 0.00011142508585575543 0 0.021773273161881924 9.0685877371794388e-05 0 0.0214419578584727 -0.00012866379511044284 0 0.021325670260984697 0.00011142508585575543 0 0.020945011415547905 -5.2576853244510398e-05 0 0.020460874592763509 -5.1590630954143613e-05 0 0.020709418037518964 0.00034451685639532543 0 0.020945011415547905 -5.2576853244510398e-05 0 0.020709418037518964 0.00034451685639532543 0 0.021325670260984697 0.00011142508585575543 0 0.020945011415547905 -5.2576853244510398e-05 0 0.020460874592763509 -5.1590630954143613e-05 0 0.020709418037518964 0.00034451685639532543 0 0.0200325116782713 0.00028447491957198974 0 0.019755794287919081 -5.4248808646697522e-05 0 0.0200325116782713 0.00028447491957198974 0 0.019512314411257854 0.00028626499806110408 0 0.0200325116782713 0.00028447491957198974 0 0.019671947089746452 0.00052926101859264755 0 0.019512314411257854 0.00028626499806110408 0 0.0200325116782713 0.00028447491957198974 0 0.019671947089746452 0.00052926101859264755 0 0.020167120298256125 0.00079864191428190528 0 0.019671947089746452 0.00052926101859264755 0 0.020167120298256125 0.00079864191428190528 0 0.019601026571353049 0.0008103655933157731 0 0.020709418037518964 0.00034451685639532543 0 0.020167120298256125 0.00079864191428190528 0 0.020977597655783456 0.00084406256786315561 0 0.020709418037518964 0.00034451685639532543 0 0.0200325116782713 0.00028447491957198974 0 0.020167120298256125 0.00079864191428190528 0 0.020167120298256125 0.00079864191428190528 0 0.020692001603005553 0.0015280148306030016 0 0.020977597655783456 0.00084406256786315561 0 0.020167120298256125 0.00079864191428190528 0 0.019918865750604003 0.0013222341302497433 0 0.019601026571353049 0.0008103655933157731 0 0.020167120298256125 0.00079864191428190528 0 0.019918865750604003 0.0013222341302497433 0 0.020692001603005553 0.0015280148306030016 0 0.022213112819794021 0.00084853747377431797 0 0.022763930393026727 0.0010557625058665635 0 0.024488749087768588 0.00037122189964572627 0 0.024845746127095215 0.00057924669965150975 0 0.024650342753865136 0.00059312891408905147 0 0.024845746127095215 0.00057924669965150975 0 0.024811587111999538 0.00087213254741133877 0 0.024874495430669614 0.00062598483486453428 0 0.022763930393026727 0.0010557625058665635 0 0.023309870703217765 0.0012301302955087085 0 0.020692001603005553 0.0015280148306030016 0 0.020977597655783456 0.00084406256786315561 0 0.021833899131288782 0.0016408466307203137 0 0.022721360360503918 0.00081052157279675754 0 0.021742261421837265 0.00066935917619733419 0 0.021833899131288782 0.0016408466307203137 0 0.020977597655783456 0.00084406256786315561 0 0.021742261421837265 0.00066935917619733419 0 0.021833899131288782 0.0016408466307203137 0 0.024811587111999538 0.00087213254741133877 0 0.024783552136540182 0.00064694972493127144 0 0.024874495430669614 0.00062598483486453428 0 0.024585903940426958 0.00065886956978625645 0 0.024811587111999538 0.00087213254741133877 0 0.024783552136540182 0.00064694972493127144 0 0.024783552136540182 0.00064694972493127144 0 0.024874495430669614 0.00062598483486453428 0 0.024831106508194315 0.00055169128463264546 0 0.024585903940426958 0.00065886956978625645 0 0.024783552136540182 0.00064694972493127144 0 0.024712910650829846 0.00056068047984999788 0 0.024783552136540182 0.00064694972493127144 0 0.024712910650829846 0.00056068047984999788 0 0.024831106508194315 0.00055169128463264546 0 0.024845746127095215 0.00057924669965150975 0 0.024874495430669614 0.00062598483486453428 0 0.024810601438965768 0.00063178612361771737 0 0.024874495430669614 0.00062598483486453428 0 0.024895957658704386 0.00059112753588979347 0 0.024831106508194315 0.00055169128463264546 0 0.024874495430669614 0.00062598483486453428 0 0.024895957658704386 0.00059112753588979347 0 0.024810601438965768 0.00063178612361771737 0 0.024895957658704386 0.00059112753588979347 0 0.02484326014555131 0.00042236173477260041 0 0.024957030992422091 0.00034508656202105592 0 0.024895957658704386 0.00059112753588979347 0 0.02487630266236087 0.00069466625118898165 0 0.024810601438965768 0.00063178612361771737 0 0.024898332149560984 0.00066434647228596903 0 0.024946818780299369 0.00025545485929693299 0 0.024712910650829846 0.00056068047984999788 0 0.024752510849985695 0.00045692961782353275 0 0.024831106508194315 0.00055169128463264546 0 0.024895957658704386 0.00059112753588979347 0 0.024831106508194315 0.00055169128463264546 0 0.02484326014555131 0.00042236173477260041 0 0.024752510849985695 0.00045692961782353275 0 0.024831106508194315 0.00055169128463264546 0 0.02484326014555131 0.00042236173477260041 0 0.024802293286936138 0.00031875791697544124 0 0.024752510849985695 0.00045692961782353275 0 0.02484326014555131 0.00042236173477260041 0 0.024912391816542756 0.00017890292872150111 0 0.024946818780299369 0.00025545485929693299 0 0.02484326014555131 0.00042236173477260041 0 0.024832479138658194 0.00028451263526596988 0 0.024957030992422091 0.00034508656202105592 0 0.024802293286936138 0.00031875791697544124 0 0.02484326014555131 0.00042236173477260041 0 0.024832479138658194 0.00028451263526596988 0 0.024995518546089605 8.4240087855792011e-05 0 0.0250244490003383 8.55734566894513e-05 0 0.02500014050611872 2.6176225661505519e-08 0 0.02500442052780617 -5.1011331077751318e-06 0 0.025000002686436616 -1.2002838551418379e-09 0 0.025002027800326086 -4.7074674859246931e-06 0 0.024946818780299369 0.00025545485929693299 0 0.025000042925088683 -2.8663431346117947e-07 0 0.024999905522221907 7.1658701066679341e-08 0 0.024995518546089605 8.4240087855792011e-05 0 0.02500014050611872 2.6176225661505519e-08 0 0.025000017087277185 -8.2697589435456923e-09 0 0.025000706709176691 -1.6392613488433108e-05 0 0.02498909267244127 -7.5139109951222679e-06 0 0.025000017087277185 -8.2697589435456923e-09 0 0.025002027800326086 -4.7074674859246931e-06 0 0.025000706709176691 -1.6392613488433108e-05 0 0.025000002686436616 -1.2002838551418379e-09 0 0.025000017087277185 -8.2697589435456923e-09 0 0.025002027800326086 -4.7074674859246931e-06 0 0.02500442052780617 -5.1011331077751318e-06 0 0.025002027800326086 -4.7074674859246931e-06 0 0.025000706709176691 -1.6392613488433108e-05 0 0.024946818780299369 0.00025545485929693299 0 0.024811353566777366 0.00035380782562039701 0 0.024716220100758149 0.00071972763540183984 0 0.024810601438965768 0.00063178612361771737 0 0.024647759498454963 0.00055777844099375604 0 0.02487630266236087 0.00069466625118898165 0 0.024716220100758149 0.00071972763540183984 0 0.024810601438965768 0.00063178612361771737 0 0.024845746127095215 0.00057924669965150975 0 0.024650342753865136 0.00059312891408905147 0 0.024810601438965768 0.00063178612361771737 0 0.024650342753865136 0.00059312891408905147 0 0.024810601438965768 0.00063178612361771737 0 0.024382862665253687 0.00078787613265731576 0 0.024788483731396884 0.00064744452440347567 0 0.024475178200601237 0.00065671085858039799 0 0.024488749087768588 0.00037122189964572627 0 0.024650342753865136 0.00059312891408905147 0 0.024382862665253687 0.00078787613265731576 0 0.024382862665253687 0.00078787613265731576 0 0.023679555156514737 0.0007542001387139558 0 0.023808323406236169 0.00032014163603888348 0 0.024475178200601237 0.00065671085858039799 0 0.024160402264923171 0.00066434715010668611 0 0.024647759498454963 0.00055777844099375604 0 0.024385053478618322 0.0004924776961322114 0 0.024414979135909797 0.00067965643009118527 0 0.024385053478618322 0.0004924776961322114 0 0.024414979135909797 0.00067965643009118527 0 0.024016856714077755 0.00058528866510790863 0 0.024716220100758149 0.00071972763540183984 0 0.024647759498454963 0.00055777844099375604 0 0.024414979135909797 0.00067965643009118527 0 0.024811353566777366 0.00035380782562039701 0 0.024881192871116623 0.00034543708914001002 0 0.025000706709176691 -1.6392613488433108e-05 0 0.024961807035768571 -4.8312611557900879e-05 0 0.02498909267244127 -7.5139109951222679e-06 0 0.024961807035768571 -4.8312611557900879e-05 0 0.024934651721142224 4.4679698016027117e-06 0 0.024903368882836799 -3.7928994004112703e-05 0 0.024961807035768571 -4.8312611557900879e-05 0 0.02498909267244127 -7.5139109951222679e-06 0 0.024934651721142224 4.4679698016027117e-06 0 0.02498909267244127 -7.5139109951222679e-06 0 0.024999930362735238 3.3885938012766715e-08 0 0.024934651721142224 4.4679698016027117e-06 0 0.024999863617854109 -3.1457199513445315e-08 0 0.025013202948583241 9.3754870044667331e-06 0 0.025000017087277185 -8.2697589435456923e-09 0 0.02498909267244127 -7.5139109951222679e-06 0 0.024999930362735238 3.3885938012766715e-08 0 0.025000366045973332 -1.8620132570417624e-07 0 0.024998603715718468 4.3442952130023736e-07 0 0.024892939622374401 2.0168091987539148e-05 0 0.024998603715718468 4.3442952130023736e-07 0 0.024318680768784493 -1.7369182840813103e-05 0 0.023118039963808481 -6.7664465106243574e-07 0 0.024998603715718468 4.3442952130023736e-07 0 0.024892939622374401 2.0168091987539148e-05 0 0.024318680768784493 -1.7369182840813103e-05 0 0.025013202948583241 9.3754870044667331e-06 0 0.024029969230101665 -4.6415119990801449e-06 0 0.024934651721142224 4.4679698016027117e-06 0 0.024848333026104088 -2.9072257987185297e-05 0 0.024903368882836799 -3.7928994004112703e-05 0 0.023755032670223209 -3.6616704014808266e-05 0 0.024318680768784493 -1.7369182840813103e-05 0 0.023118039963808481 -6.7664465106243574e-07 0 0.024892939622374401 2.0168091987539148e-05 0 0.024403433988374378 -0.000289161954752612 0 0.024318680768784493 -1.7369182840813103e-05 0 0.024029969230101665 -4.6415119990801449e-06 0 0.024191306451655691 -4.2069504056766575e-05 0 0.024029969230101665 -4.6415119990801449e-06 0 0.023580342401919301 0.00015640485220938367 0 0.024029969230101665 -4.6415119990801449e-06 0 0.023115806848576812 -3.0559335101169345e-07 0 0.022923439113328167 -0.00015036298788291682 0 0.023113409407128235 3.401803034286916e-08 0 0.022754422283580305 7.4412062811598565e-05 0 0.023113409407128235 3.401803034286916e-08 0 0.022441694515673079 -3.0800133981646716e-08 0 0.022754422283580305 7.4412062811598565e-05 0 0.024881192871116623 0.00034543708914001002 0 0.023580342401919301 0.00015640485220938367 0 0.024961807035768571 -4.8312611557900879e-05 0 0.024903368882836799 -3.7928994004112703e-05 0 0.02486302883089031 -8.2551803126726733e-05 0 0.024848333026104088 -2.9072257987185297e-05 0 0.024903368882836799 -3.7928994004112703e-05 0 0.02486302883089031 -8.2551803126726733e-05 0 0.024385053478618322 0.0004924776961322114 0 0.024059608807403484 0.00044153933879345305 0 0.024016856714077755 0.00058528866510790863 0 0.023679555156514737 0.0007542001387139558 0 0.022924062746417149 0.00066629920002282033 0 0.023034895309915551 0.00031557682338557319 0 0.024160402264923171 0.00066434715010668611 0 0.022895103921895175 0.00021395377351547313 0 0.022895103921895175 0.00021395377351547313 0 0.023580342401919301 0.00015640485220938367 0 0.02243760431209306 2.1532513576781972e-08 0 0.021981364094865161 0.00015505477646786969 0 0.021553492258825035 -1.6889704580292263e-08 0 0.022438610800037142 -2.7229620350053407e-07 0 0.023580342401919301 0.00015640485220938367 0 0.02243760431209306 2.1532513576781972e-08 0 0.021797111489646047 -0.00020895227177317427 0 0.021981364094865161 0.00015505477646786969 0 0.021691954261282051 0.00010604259980449771 0 0.021797111489646047 -0.00020895227177317427 0 0.021981364094865161 0.00015505477646786969 0 0.022895103921895175 0.00021395377351547313 0 0.021865850733655892 0.00011908967464125134 0 0.022324434121991716 0.00019871655301260637 0 0.021981364094865161 0.00015505477646786969 0 0.022435377252135399 -0.00015825309306952698 0 0.021549452286326733 -1.6420743859717501e-06 0 0.020376576736940818 1.589872090669054e-05 0 0.019954648183396019 -0.00051216033553870902 0 0.021981364094865161 0.00015505477646786969 0 0.021553492258825035 -1.6889704580292263e-08 0 0.022435377252135399 -0.00015825309306952698 0 0.021551573417515589 -2.9454321266725025e-07 0 0.021077584898377123 0.00023884820447133366 0 0.021549452286326733 -1.6420743859717501e-06 0 0.020376576736940818 1.589872090669054e-05 0 0.020283020740155814 8.2895987211128059e-07 0 0.020376576736940818 1.589872090669054e-05 0 0.020283020740155814 8.2895987211128059e-07 0 0.019225528015007213 0.00042261115995255119 0 0.021077584898377123 0.00023884820447133366 0 0.01877185149054952 0.00054428799180548807 0 0.018961504333766213 0.0010818035554765475 0 0.019352523871852802 0.00075010172151885744 0 0.019225528015007213 0.00042261115995255119 0 0.020376576736940818 1.589872090669054e-05 0 0.019954648183396019 -0.00051216033553870902 0 0.019225528015007213 0.00042261115995255119 0 0.022895103921895175 0.00021395377351547313 0 0.021077584898377123 0.00023884820447133366 0 0.021077584898377123 0.00023884820447133366 0 0.021606086059944123 0.00077473358410875398 0 0.018961504333766213 0.0010818035554765475 0 0.019431910167299921 0.0011162094828905031 0 0.019352523871852802 0.00075010172151885744 0 0.023679555156514737 0.0007542001387139558 0 0.023034895309915551 0.00031557682338557319 0 0.023808323406236169 0.00032014163603888348 0 0.022213112819794021 0.00084853747377431797 0 0.021606086059944123 0.00077473358410875398 0 0.024488749087768588 0.00037122189964572627 0 0.024382862665253687 0.00078787613265731576 0 0.023808323406236169 0.00032014163603888348 0 0.019918865750604003 0.0013222341302497433 0 0.019431910167299921 0.0011162094828905031 0 0.019601026571353049 0.0008103655933157731 0 0.019601026571353049 0.0008103655933157731 0 0.019352523871852802 0.00075010172151885744 0 0.01926747790460032 0.00041214670572189559 0 0.019431910167299921 0.0011162094828905031 0 0.019601026571353049 0.0008103655933157731 0 0.019352523871852802 0.00075010172151885744 0 0.01926747790460032 0.00041214670572189559 0 0.019041668490342067 0.00029018937469368027 0 0.019225528015007213 0.00042261115995255119 0 0.019352523871852802 0.00075010172151885744 0 0.01926747790460032 0.00041214670572189559 0 0.019225528015007213 0.00042261115995255119 0 0.019671947089746452 0.00052926101859264755 0 0.019601026571353049 0.0008103655933157731 0 0.01926747790460032 0.00041214670572189559 0 0.018992753289196338 0.00018856125386428342 0 0.01926747790460032 0.00041214670572189559 0 0.019512314411257854 0.00028626499806110408 0 0.019671947089746452 0.00052926101859264755 0 0.01926747790460032 0.00041214670572189559 0 0.019512314411257854 0.00028626499806110408 0 0.018992753289196338 0.00018856125386428342 0 0.01926747790460032 0.00041214670572189559 0 0.019041668490342067 0.00029018937469368027 0 0.019041668490342067 0.00029018937469368027 0 0.019014203092458985 4.7582365869994982e-07 0 0.020283020740155814 8.2895987211128059e-07 0 0.018445200776207663 0.00016815838584742192 0 0.019041668490342067 0.00029018937469368027 0 0.019014203092458985 4.7582365869994982e-07 0 0.019041668490342067 0.00029018937469368027 0 0.020283020740155814 8.2895987211128059e-07 0 0.019225528015007213 0.00042261115995255119 0 0.021483936688674984 0.00036627084333499377 0 0.021495061227348761 0.0003681493281311779 0 0.021518455466279163 0.00035560972011498414 0 0.021483936688674984 0.00036627084333499377 0 0.021495061227348761 0.0003681493281311779 0 0.021489812312588494 0.00034793199727599356 0 0.021643862396735755 0.00039441264864342903 0 0.021829941114980069 0.00055080057219698852 0 0.021495061227348761 0.0003681493281311779 0 0.021518130045188717 0.00033020588453102305 0 0.021555985055999937 0.00033319240379629382 0 0.021495061227348761 0.0003681493281311779 0 0.021489812312588494 0.00034793199727599356 0 0.021518130045188717 0.00033020588453102305 0 0.021518130045188717 0.00033020588453102305 0 0.021555985055999937 0.00033319240379629382 0 0.021518386569677913 0.00029616277934448222 0 0.021518130045188717 0.00033020588453102305 0 0.021489462405333549 0.00031326408708919821 0 0.021518386569677913 0.00029616277934448222 0 0.021489812312588494 0.00034793199727599356 0 0.021518130045188717 0.00033020588453102305 0 0.021489462405333549 0.00031326408708919821 0 0.021489812312588494 0.00034793199727599356 0 0.021489462405333549 0.00031326408708919821 0 0.021462493442528676 0.00033390833217258225 0 0.021483936688674984 0.00036627084333499377 0 0.021489812312588494 0.00034793199727599356 0 0.021462493442528676 0.00033390833217258225 0 0.021462493442528676 0.00033390833217258225 0 0.021418671155243013 0.00033177050825614106 0 0.021433465396920429 0.00028473190164181333 0 0.021418671155243013 0.00033177050825614106 0 0.021367107214014195 0.00032732374331030461 0 0.021348821905434145 0.00028475529693580026 0 0.021483936688674984 0.00036627084333499377 0 0.021462493442528676 0.00033390833217258225 0 0.021418671155243013 0.00033177050825614106 0 0.021367107214014195 0.00032732374331030461 0 0.021218024034200155 0.00028368460510338269 0 0.021342015586061622 0.00031895169753373519 0 0.021418671155243013 0.00033177050825614106 0 0.021367107214014195 0.00032732374331030461 0 0.021473164478606872 0.00035595826140014287 0 0.021367107214014195 0.00032732374331030461 0 0.021473164478606872 0.00035595826140014287 0 0.021342015586061622 0.00031895169753373519 0 0.021483936688674984 0.00036627084333499377 0 0.021418671155243013 0.00033177050825614106 0 0.021473164478606872 0.00035595826140014287 0 0.021483936688674984 0.00036627084333499377 0 0.021473164478606872 0.00035595826140014287 0 0.021590120589990776 0.00036557810522092353 0 0.021483936688674984 0.00036627084333499377 0 0.021590120589990776 0.00036557810522092353 0 0.021518455466279163 0.00035560972011498414 0 0.021473164478606872 0.00035595826140014287 0 0.021590120589990776 0.00036557810522092353 0 0.021559024620998374 0.00036389799696331427 0 0.021590120589990776 0.00036557810522092353 0 0.021740602267990992 0.00036241429771316204 0 0.021690949578463695 0.0003777851157948551 0 0.021590120589990776 0.00036557810522092353 0 0.021559024620998374 0.00036389799696331427 0 0.021690949578463695 0.0003777851157948551 0 0.021721344504027264 0.00036640156878534476 0 0.021664220561132586 0.00038798283230435606 0 0.021590120589990776 0.00036557810522092353 0 0.021740602267990992 0.00036241429771316204 0 0.021518455466279163 0.00035560972011498414 0 0.021740602267990992 0.00036241429771316204 0 0.02180436981300321 0.0003973235790192144 0 0.021792575377628305 0.00037321157017952043 0 0.022040428354093845 0.00036584943143380574 0 0.022068213150709046 0.00026086939841232012 0 0.022111555071595658 0.00022869660761708536 0 0.021920979427596129 0.00038583364585422468 0 0.02195198466671229 0.0003088329073930383 0 0.02180436981300321 0.0003973235790192144 0 0.021805230959190271 0.00041417147830468244 0 0.021792575377628305 0.00037321157017952043 0 0.021643862396735755 0.00039441264864342903 0 0.021664220561132586 0.00038798283230435606 0 0.021822514372446266 0.00045857013885659646 0 0.02180436981300321 0.0003973235790192144 0 0.021805230959190271 0.00041417147830468244 0 0.021920979427596129 0.00038583364585422468 0 0.021851841729020941 0.0004701648880914022 0 0.021822514372446266 0.00045857013885659646 0 0.021805230959190271 0.00041417147830468244 0 0.021840811129782919 0.00048091668561361066 0 0.022040428354093845 0.00036584943143380574 0 0.022068213150709046 0.00026086939841232012 0 0.021925296714490464 0.00023279210094730231 0 0.021902301162900963 0.00035985511147310062 0 0.021797232281201912 0.00039778442255349608 0 0.021925296714490464 0.00023279210094730231 0 0.022040428354093845 0.00036584943143380574 0 0.021902301162900963 0.00035985511147310062 0 0.021925296714490464 0.00023279210094730231 0 0.022303056439765042 0.00024235170752215187 0 0.022208632429399831 0.00020989198812140455 0 0.022925955828980039 0.00013003688989155198 0 0.02281484669743716 0.00023702501073598778 0 0.022503443833765045 0.00016192348599737574 0 0.021696077108698513 0.00033751711650310161 0 0.021797232281201912 0.00039778442255349608 0 0.021925296714490464 0.00023279210094730231 0 0.021797232281201912 0.00039778442255349608 0 0.021822654543303944 0.00048805450202921423 0 0.021687146378514165 0.00053420769782570562 0 0.021696077108698513 0.00033751711650310161 0 0.021797232281201912 0.00039778442255349608 0 0.021687146378514165 0.00053420769782570562 0 0.022040428354093845 0.00036584943143380574 0 0.021902301162900963 0.00035985511147310062 0 0.021876640554109053 0.0004204118757113495 0 0.021797232281201912 0.00039778442255349608 0 0.021876640554109053 0.0004204118757113495 0 0.021822654543303944 0.00048805450202921423 0 0.021876640554109053 0.0004204118757113495 0 0.021840811129782919 0.00048091668561361066 0 0.021822654543303944 0.00048805450202921423 0 0.022040428354093845 0.00036584943143380574 0 0.021876640554109053 0.0004204118757113495 0 0.021840811129782919 0.00048091668561361066 0 0.021902301162900963 0.00035985511147310062 0 0.021797232281201912 0.00039778442255349608 0 0.021876640554109053 0.0004204118757113495 0 0.023229312788335808 0.00029034661159600743 0 0.023233266828698879 0.00023115383663949846 0 0.023206725039781623 0.00024921450132556693 0 0.022925955828980039 0.00013003688989155198 0 0.023229312788335808 0.00029034661159600743 0 0.02281484669743716 0.00023702501073598778 0 0.022925955828980039 0.00013003688989155198 0 0.023229312788335808 0.00029034661159600743 0 0.023233266828698879 0.00023115383663949846 0 0.022303056439765042 0.00024235170752215187 0 0.022348003709985083 0.00037039772345430152 0 0.021696077108698513 0.00033751711650310161 0 0.021483377276367555 0.00049524793328481758 0 0.021687146378514165 0.00053420769782570562 0 0.021483377276367555 0.00049524793328481758 0 0.02158227526084721 0.00062333115962254909 0 0.021428728204165859 0.00072199003352473663 0 0.021483377276367555 0.00049524793328481758 0 0.02158227526084721 0.00062333115962254909 0 0.021687146378514165 0.00053420769782570562 0 0.02158227526084721 0.00062333115962254909 0 0.021687146378514165 0.00053420769782570562 0 0.021673106711886155 0.00063365811885307348 0 0.02158227526084721 0.00062333115962254909 0 0.021640546808902622 0.00070666103150863579 0 0.021673106711886155 0.00063365811885307348 0 0.021640546808902622 0.00070666103150863579 0 0.021554251389005564 0.00074440285098962774 0 0.021637536374759726 0.00079471496960464079 0 0.02158227526084721 0.00062333115962254909 0 0.021640546808902622 0.00070666103150863579 0 0.021554251389005564 0.00074440285098962774 0 0.02158227526084721 0.00062333115962254909 0 0.021554251389005564 0.00074440285098962774 0 0.021428728204165859 0.00072199003352473663 0 0.021828818852437874 0.00050712254986968216 0 0.021829941114980069 0.00055080057219698852 0 0.021822514372446266 0.00045857013885659646 0 0.021840811129782919 0.00048091668561361066 0 0.021842290244336336 0.00047153173048804497 0 0.021822654543303944 0.00048805450202921423 0 0.021803429196429924 0.00066006578095370182 0 0.021854114400541854 0.00070967267603681632 0 0.021840811129782919 0.00048091668561361066 0 0.021822654543303944 0.00048805450202921423 0 0.021842290244336336 0.00047153173048804497 0 0.021822654543303944 0.00048805450202921423 0 0.021747532458499256 0.00061441221283904353 0 0.021803429196429924 0.00066006578095370182 0 0.021822654543303944 0.00048805450202921423 0 0.021687146378514165 0.00053420769782570562 0 0.021747532458499256 0.00061441221283904353 0 0.021687146378514165 0.00053420769782570562 0 0.021673106711886155 0.00063365811885307348 0 0.021747532458499256 0.00061441221283904353 0 0.021747532458499256 0.00061441221283904353 0 0.021764362084347927 0.00068220382322069987 0 0.02171658004931408 0.0006860002006394601 0 0.021747532458499256 0.00061441221283904353 0 0.021764362084347927 0.00068220382322069987 0 0.021803429196429924 0.00066006578095370182 0 0.021673106711886155 0.00063365811885307348 0 0.021747532458499256 0.00061441221283904353 0 0.02171658004931408 0.0006860002006394601 0 0.021640546808902622 0.00070666103150863579 0 0.021673106711886155 0.00063365811885307348 0 0.02171658004931408 0.0006860002006394601 0 0.021640546808902622 0.00070666103150863579 0 0.02171658004931408 0.0006860002006394601 0 0.021698910216341613 0.00075349973290436874 0 0.021640546808902622 0.00070666103150863579 0 0.021698910216341613 0.00075349973290436874 0 0.021637536374759726 0.00079471496960464079 0 0.02171658004931408 0.0006860002006394601 0 0.021698910216341613 0.00075349973290436874 0 0.021756458448672272 0.00073179621304554285 0 0.021764362084347927 0.00068220382322069987 0 0.021756458448672272 0.00073179621304554285 0 0.021797703426981119 0.00071647850182224282 0 0.021764362084347927 0.00068220382322069987 0 0.02171658004931408 0.0006860002006394601 0 0.021756458448672272 0.00073179621304554285 0 0.021698910216341613 0.00075349973290436874 0 0.021756458448672272 0.00073179621304554285 0 0.021751228290147782 0.00077795424826478674 0 0.021830550489622798 0.00072583969641056944 0 0.021797703426981119 0.00071647850182224282 0 0.021801548513138411 0.00077534440194216181 0 0.021756458448672272 0.00073179621304554285 0 0.021797703426981119 0.00071647850182224282 0 0.021801548513138411 0.00077534440194216181 0 0.021821284476552166 0.00070480543400086343 0 0.021830550489622798 0.00072583969641056944 0 0.021797703426981119 0.00071647850182224282 0 0.021821284476552166 0.00070480543400086343 0 0.021830550489622798 0.00072583969641056944 0 0.021854114400541854 0.00070967267603681632 0 0.021812845594025927 0.00058410241822614054 0 0.021829941114980069 0.00055080057219698852 0 0.021821284476552166 0.00070480543400086343 0 0.021797703426981119 0.00071647850182224282 0 0.021803429196429924 0.00066006578095370182 0 0.021764362084347927 0.00068220382322069987 0 0.021797703426981119 0.00071647850182224282 0 0.021803429196429924 0.00066006578095370182 0 0.021821284476552166 0.00070480543400086343 0 0.021803429196429924 0.00066006578095370182 0 0.021854114400541854 0.00070967267603681632 0 0.021830550489622798 0.00072583969641056944 0 0.021846836625718083 0.00070990656812619307 0 0.021889389570175836 0.00090523422115609429 0 0.021801548513138411 0.00077534440194216181 0 0.021777451688823737 0.00081415697592364324 0 0.021889389570175836 0.00090523422115609429 0 0.021777451688823737 0.00081415697592364324 0 0.021761132936292272 0.00085300263591280663 0 0.021889389570175836 0.00090523422115609429 0 0.021555985055999937 0.00033319240379629382 0 0.021536475251981067 0.00023669027800970441 0 0.021518386569677913 0.00029616277934448222 0 0.021830550489622798 0.00072583969641056944 0 0.021801548513138411 0.00077534440194216181 0 0.021889389570175836 0.00090523422115609429 0 0.021829941114980069 0.00055080057219698852 0 0.021081609025748901 0.00053155746100985398 0 0.021756458448672272 0.00073179621304554285 0 0.021801548513138411 0.00077534440194216181 0 0.021751228290147782 0.00077795424826478674 0 0.021698910216341613 0.00075349973290436874 0 0.021751228290147782 0.00077795424826478674 0 0.021719707956672541 0.00081392076228389842 0 0.021751228290147782 0.00077795424826478674 0 0.021719707956672541 0.00081392076228389842 0 0.021777451688823737 0.00081415697592364324 0 0.021801548513138411 0.00077534440194216181 0 0.021751228290147782 0.00077795424826478674 0 0.021777451688823737 0.00081415697592364324 0 0.021698910216341613 0.00075349973290436874 0 0.021719707956672541 0.00081392076228389842 0 0.021637536374759726 0.00079471496960464079 0 0.021719707956672541 0.00081392076228389842 0 0.021712783660859873 0.00088769053651824889 0 0.021637536374759726 0.00079471496960464079 0 0.021719707956672541 0.00081392076228389842 0 0.021761132936292272 0.00085300263591280663 0 0.021712783660859873 0.00088769053651824889 0 0.021719707956672541 0.00081392076228389842 0 0.021777451688823737 0.00081415697592364324 0 0.021761132936292272 0.00085300263591280663 0 0.020792091691667836 0.00071666063070627663 0 0.020722692738205997 0.00078126619322267394 0 0.020676031737096201 0.00068259238531191431 0 0.020792091691667836 0.00071666063070627663 0 0.020676031737096201 0.00068259238531191431 0 0.020706416882204034 0.00060309282855401691 0 0.020676031737096201 0.00068259238531191431 0 0.020604969195316871 0.00060828211542975758 0 0.020523646152469172 0.00072275890827927264 0 0.021761132936292272 0.00085300263591280663 0 0.021712783660859873 0.00088769053651824889 0 0.021889389570175836 0.00090523422115609429 0 0.020722692738205997 0.00078126619322267394 0 0.020676031737096201 0.00068259238531191431 0 0.020523646152469172 0.00072275890827927264 0 0.021250838241376861 0.00086599864192067068 0 0.021081609025748901 0.00053155746100985398 0 0.021428728204165859 0.00072199003352473663 0 0.021507125255753431 0.00086071486387385835 0 0.021299542236177811 0.00079419102824479114 0 0.021254396591634962 0.00082752871225039658 0 0.021298525599013719 0.00080506045325926792 0 0.021554251389005564 0.00074440285098962774 0 0.021428728204165859 0.00072199003352473663 0 0.021507125255753431 0.00086071486387385835 0 0.021250838241376861 0.00086599864192067068 0 0.021254396591634962 0.00082752871225039658 0 0.021712783660859873 0.00088769053651824889 0 0.021507125255753431 0.00086071486387385835 0 0.021637536374759726 0.00079471496960464079 0 0.021554251389005564 0.00074440285098962774 0 0.021507125255753431 0.00086071486387385835 0 0.021637536374759726 0.00079471496960464079 0 0.020792091691667836 0.00071666063070627663 0 0.021018572438711601 0.00081329909083311107 0 0.021000457944379932 0.00060053703959303951 0 0.020792091691667836 0.00071666063070627663 0 0.020722692738205997 0.00078126619322267394 0 0.021018572438711601 0.00081329909083311107 0 0.021018572438711601 0.00081329909083311107 0 0.021000457944379932 0.00060053703959303951 0 0.021191844193046719 0.00066706675245555187 0 0.021000457944379932 0.00060053703959303951 0 0.021252272533565597 0.0005264044896515043 0 0.021191844193046719 0.00066706675245555187 0 0.021000457944379932 0.00060053703959303951 0 0.021046529936289266 0.00039097985504269508 0 0.021252272533565597 0.0005264044896515043 0 0.021000457944379932 0.00060053703959303951 0 0.02094365944903567 0.00047888360418258161 0 0.021046529936289266 0.00039097985504269508 0 0.020792091691667836 0.00071666063070627663 0 0.021000457944379932 0.00060053703959303951 0 0.020817081014832206 0.00048822721127273318 0 0.021000457944379932 0.00060053703959303951 0 0.02094365944903567 0.00047888360418258161 0 0.020817081014832206 0.00048822721127273318 0 0.02020603272347898 0.00024113338310911459 0 0.020834465200211504 0.0005264666960979208 0 0.020828228394855708 0.0002673187463363264 0 0.020817081014832206 0.00048822721127273318 0 0.020909019589794645 0.00040381458750144258 0 0.02020603272347898 0.00024113338310911459 0 0.020371161862029627 0.00031021736637227009 0 0.020828228394855708 0.0002673187463363264 0 0.020909019589794645 0.00040381458750144258 0 0.021046529936289266 0.00039097985504269508 0 0.02094365944903567 0.00047888360418258161 0 0.020817081014832206 0.00048822721127273318 0 0.020909019589794645 0.00040381458750144258 0 0.02094365944903567 0.00047888360418258161 0 0.020909019589794645 0.00040381458750144258 0 0.021046529936289266 0.00039097985504269508 0 0.019731899005752007 0.00025215694849971189 0 0.020018565060953678 0.00018078469703066113 0 0.019886385787790607 -5.9139087400429563e-05 0 0.020604969195316871 0.00060828211542975758 0 0.020565506186014933 0.00056194460178857057 0 0.020498669268090318 0.00057379048575078976 0 0.020604969195316871 0.00060828211542975758 0 0.020498669268090318 0.00057379048575078976 0 0.020523646152469172 0.00072275890827927264 0 0.020604969195316871 0.00060828211542975758 0 0.020591237351451856 0.00055907037012869272 0 0.020565506186014933 0.00056194460178857057 0 0.020676031737096201 0.00068259238531191431 0 0.020604969195316871 0.00060828211542975758 0 0.020706416882204034 0.00060309282855401691 0 0.020792091691667836 0.00071666063070627663 0 0.020778560408109888 0.00053809667283889772 0 0.020706416882204034 0.00060309282855401691 0 0.020786874908763419 0.00069918405212886811 0 0.020834465200211504 0.0005264666960979208 0 0.020778560408109888 0.00053809667283889772 0 0.020706416882204034 0.00060309282855401691 0 0.02068428176775141 0.00046563690084097225 0 0.020597582157622352 0.0006088317472544005 0 0.02065456922621085 0.00047982303267433919 0 0.020604969195316871 0.00060828211542975758 0 0.020706416882204034 0.00060309282855401691 0 0.02068428176775141 0.00046563690084097225 0 0.020781978872823535 0.0003521054172899821 0 0.020778560408109888 0.00053809667283889772 0 0.02068428176775141 0.00046563690084097225 0 0.020098568543149592 0.00037432270454415231 0 0.02065456922621085 0.00047982303267433919 0 0.020751206949775523 0.00033605361052623488 0 0.020781978872823535 0.0003521054172899821 0 0.02068428176775141 0.00046563690084097225 0 0.020601060741198725 0.00052156969027022482 0 0.020591237351451856 0.00055907037012869272 0 0.020568083456756196 0.00053421287335358059 0 0.020591237351451856 0.00055907037012869272 0 0.020568083456756196 0.00053421287335358059 0 0.020565506186014933 0.00056194460178857057 0 0.020565506186014933 0.00056194460178857057 0 0.020535199877012824 0.00053493859074958108 0 0.020498669268090318 0.00057379048575078976 0 0.020568083456756196 0.00053421287335358059 0 0.020565506186014933 0.00056194460178857057 0 0.020535199877012824 0.00053493859074958108 0 0.020486408376793355 0.00051414582705946923 0 0.020535199877012824 0.00053493859074958108 0 0.020498669268090318 0.00057379048575078976 0 0.020503903727074918 0.00052616613150666938 0 0.02037784659535629 0.00046521511200510582 0 0.020486408376793355 0.00051414582705946923 0 0.020419564911222109 0.00040701852686068912 0 0.020533501612031067 0.00046640302759392319 0 0.020521777915145364 0.00035375095176388299 0 0.020419564911222109 0.00040701852686068912 0 0.020480429242340302 0.00028218759070692433 0 0.020521777915145364 0.00035375095176388299 0 0.020419564911222109 0.00040701852686068912 0 0.020533501612031067 0.00046640302759392319 0 0.02037784659535629 0.00046521511200510582 0 0.021081609025748901 0.00053155746100985398 0 0.021081609025748901 0.00053155746100985398 0 0.020937679991131036 0.00022162394266561953 0 0.020419564911222109 0.00040701852686068912 0 0.020384017788080491 0.0002738456210877215 0 0.020480429242340302 0.00028218759070692433 0 0.021536475251981067 0.00023669027800970441 0 0.021455349714679234 0.00020843445494584357 0 0.021487749944048534 0.00026684618815342345 0 0.021455349714679234 0.00020843445494584357 0 0.021433465396920429 0.00028473190164181333 0 0.021313720020061312 0.00018512460961881479 0 0.021455349714679234 0.00020843445494584357 0 0.021433465396920429 0.00028473190164181333 0 0.021487749944048534 0.00026684618815342345 0 0.021489462405333549 0.00031326408708919821 0 0.021433465396920429 0.00028473190164181333 0 0.021487749944048534 0.00026684618815342345 0 0.021489462405333549 0.00031326408708919821 0 0.021462493442528676 0.00033390833217258225 0 0.021433465396920429 0.00028473190164181333 0 0.021536475251981067 0.00023669027800970441 0 0.021518386569677913 0.00029616277934448222 0 0.021487749944048534 0.00026684618815342345 0 0.021489462405333549 0.00031326408708919821 0 0.021518386569677913 0.00029616277934448222 0 0.021487749944048534 0.00026684618815342345 0 0.021218024034200155 0.00028368460510338269 0 0.021348821905434145 0.00028475529693580026 0 0.021313720020061312 0.00018512460961881479 0 0.021367107214014195 0.00032732374331030461 0 0.021218024034200155 0.00028368460510338269 0 0.021348821905434145 0.00028475529693580026 0 0.021433465396920429 0.00028473190164181333 0 0.021348821905434145 0.00028475529693580026 0 0.021313720020061312 0.00018512460961881479 0 0.021418671155243013 0.00033177050825614106 0 0.021433465396920429 0.00028473190164181333 0 0.021348821905434145 0.00028475529693580026 0 0.020937679991131036 0.00022162394266561953 0 0.020968881759958001 0.0002222640033629653 0 0.020521777915145364 0.00035375095176388299 0 0.020480429242340302 0.00028218759070692433 0 0.020594554577562776 0.00024603769387856398 0 0.020968881759958001 0.0002222640033629653 0 0.020981029047086746 0.00021784094429624942 0 0.021218024034200155 0.00028368460510338269 0 0.021313720020061312 0.00018512460961881479 0 0.02097521450421317 0.00021717674720392934 0 0.020594554577562776 0.00024603769387856398 0 0.02066747863610803 0.00040900905720228013 0 0.02097521450421317 0.00021717674720392934 0 0.020521777915145364 0.00035375095176388299 0 0.020594554577562776 0.00024603769387856398 0 0.02066747863610803 0.00040900905720228013 0 0.020521777915145364 0.00035375095176388299 0 0.02066747863610803 0.00040900905720228013 0 0.020533501612031067 0.00046640302759392319 0 0.02053871491526945 0.00051574283874065454 0 0.020533501612031067 0.00046640302759392319 0 0.02059605719104805 0.00052420585690675966 0 0.02066747863610803 0.00040900905720228013 0 0.020533501612031067 0.00046640302759392319 0 0.02059605719104805 0.00052420585690675966 0 0.02066747863610803 0.00040900905720228013 0 0.02059605719104805 0.00052420585690675966 0 0.020703182605947751 0.0005020250047565321 0 0.020703182605947751 0.0005020250047565321 0 0.020889587743225822 0.00036372537978414426 0 0.020836053623339557 0.00056886358859562804 0 0.020502975640446577 0.00062125130893149797 0 0.02059605719104805 0.00052420585690675966 0 0.020703182605947751 0.0005020250047565321 0 0.020502975640446577 0.00062125130893149797 0 0.020703182605947751 0.0005020250047565321 0 0.020836053623339557 0.00056886358859562804 0 0.02066747863610803 0.00040900905720228013 0 0.020889587743225822 0.00036372537978414426 0 0.02097521450421317 0.00021717674720392934 0 0.02066747863610803 0.00040900905720228013 0 0.020703182605947751 0.0005020250047565321 0 0.020889587743225822 0.00036372537978414426 0 0.020889587743225822 0.00036372537978414426 0 0.02097521450421317 0.00021717674720392934 0 0.021035797145550515 0.00025471642384526855 0 0.020889587743225822 0.00036372537978414426 0 0.02110912792885113 0.00031626620132010219 0 0.021035797145550515 0.00025471642384526855 0 0.020467144110704671 0.00067134642779609561 0 0.02028569253540095 0.00083164419780097426 0 0.019703402566882279 0.0011680726283836858 0 0.019827396893444024 0.0010085533721885798 0 0.01972839893760131 0.0011766099430322034 0 0.020889587743225822 0.00036372537978414426 0 0.02110912792885113 0.00031626620132010219 0 0.020836053623339557 0.00056886358859562804 0 0.019000150626702579 0.0010751796643598405 0 0.018734902247707779 0.0011702529993396463 0 0.018734363107029181 0.0012970749358162986 0 0.019000150626702579 0.0010751796643598405 0 0.018734363107029181 0.0012970749358162986 0 0.018756023885980341 0.0014589258410390427 0 0.018749193407871918 0.0010123272947100449 0 0.019000150626702579 0.0010751796643598405 0 0.018734902247707779 0.0011702529993396463 0 0.019376697012792852 0.0010663336238555146 0 0.019312712770725486 0.0012383310452075513 0 0.019703402566882279 0.0011680726283836858 0 0.019827396893444024 0.0010085533721885798 0 0.019998865146354957 0.00094562245374716497 0 0.018734902247707779 0.0011702529993396463 0 0.018570138650407506 0.0011413230404333588 0 0.018625575489512564 0.0012573730540220394 0 0.018749193407871918 0.0010123272947100449 0 0.018734902247707779 0.0011702529993396463 0 0.018570138650407506 0.0011413230404333588 0 0.018734902247707779 0.0011702529993396463 0 0.018734363107029181 0.0012970749358162986 0 0.018625575489512564 0.0012573730540220394 0 0.018734363107029181 0.0012970749358162986 0 0.018625575489512564 0.0012573730540220394 0 0.01861577589288628 0.0013717841112377408 0 0.018202067694468096 0.00097461467398317022 0 0.01846292007129019 0.00097451727231111706 0 0.018372373009336827 0.0011390980977982969 0 0.01846292007129019 0.00097451727231111706 0 0.018749193407871918 0.0010123272947100449 0 0.018570138650407506 0.0011413230404333588 0 0.01846292007129019 0.00097451727231111706 0 0.018372373009336827 0.0011390980977982969 0 0.018570138650407506 0.0011413230404333588 0 0.018570138650407506 0.0011413230404333588 0 0.018625575489512564 0.0012573730540220394 0 0.018482032108256788 0.0012816033354768048 0 0.018372373009336827 0.0011390980977982969 0 0.018570138650407506 0.0011413230404333588 0 0.018482032108256788 0.0012816033354768048 0 0.018625575489512564 0.0012573730540220394 0 0.018482032108256788 0.0012816033354768048 0 0.01861577589288628 0.0013717841112377408 0 0.018372373009336827 0.0011390980977982969 0 0.018482032108256788 0.0012816033354768048 0 0.018327581090841771 0.0012725822470048677 0 0.018482032108256788 0.0012816033354768048 0 0.018327581090841771 0.0012725822470048677 0 0.018387688714663647 0.0013973069417759023 0 0.018482032108256788 0.0012816033354768048 0 0.018387688714663647 0.0013973069417759023 0 0.01851203280972653 0.001409386310954919 0 0.018387688714663647 0.0013973069417759023 0 0.01851203280972653 0.001409386310954919 0 0.01844124879645407 0.001506551666096064 0 0.01851203280972653 0.001409386310954919 0 0.018599203043215325 0.0014469983205555724 0 0.018552613279960918 0.0015123478153710309 0 0.018482032108256788 0.0012816033354768048 0 0.01851203280972653 0.001409386310954919 0 0.01861577589288628 0.0013717841112377408 0 0.018599203043215325 0.0014469983205555724 0 0.018640961601573101 0.0014948447840239056 0 0.018681633178515494 0.0014303396962496273 0 0.01861577589288628 0.0013717841112377408 0 0.018599203043215325 0.0014469983205555724 0 0.018681633178515494 0.0014303396962496273 0 0.01851203280972653 0.001409386310954919 0 0.01861577589288628 0.0013717841112377408 0 0.018599203043215325 0.0014469983205555724 0 0.018599203043215325 0.0014469983205555724 0 0.018640961601573101 0.0014948447840239056 0 0.018552613279960918 0.0015123478153710309 0 0.018640961601573101 0.0014948447840239056 0 0.018621637674692 0.001576012636152756 0 0.018676923205471697 0.0015270166646022031 0 0.018640961601573101 0.0014948447840239056 0 0.018621637674692 0.001576012636152756 0 0.018552613279960918 0.0015123478153710309 0 0.018621637674692 0.001576012636152756 0 0.018552613279960918 0.0015123478153710309 0 0.018513101410614675 0.0015968414961769189 0 0.01851203280972653 0.001409386310954919 0 0.018552613279960918 0.0015123478153710309 0 0.01844124879645407 0.001506551666096064 0 0.018552613279960918 0.0015123478153710309 0 0.01844124879645407 0.001506551666096064 0 0.018513101410614675 0.0015968414961769189 0 0.01844124879645407 0.001506551666096064 0 0.018392107273152294 0.0016036497521551164 0 0.018513101410614675 0.0015968414961769189 0 0.01844124879645407 0.001506551666096064 0 0.018392107273152294 0.0016036497521551164 0 0.018282435674786206 0.0015219256796424967 0 0.018387688714663647 0.0013973069417759023 0 0.01844124879645407 0.001506551666096064 0 0.018282435674786206 0.0015219256796424967 0 0.018734363107029181 0.0012970749358162986 0 0.018681633178515494 0.0014303396962496273 0 0.018756023885980341 0.0014589258410390427 0 0.018734363107029181 0.0012970749358162986 0 0.01861577589288628 0.0013717841112377408 0 0.018681633178515494 0.0014303396962496273 0 0.018756023885980341 0.0014589258410390427 0 0.018676923205471697 0.0015270166646022031 0 0.018685430300450289 0.0016786587808952946 0 0.018640961601573101 0.0014948447840239056 0 0.018681633178515494 0.0014303396962496273 0 0.018676923205471697 0.0015270166646022031 0 0.018681633178515494 0.0014303396962496273 0 0.018756023885980341 0.0014589258410390427 0 0.018676923205471697 0.0015270166646022031 0 0.019827396893444024 0.0010085533721885798 0 0.019998865146354957 0.00094562245374716497 0 0.019902804347784069 0.0010743179519394691 0 0.019312712770725486 0.0012383310452075513 0 0.018785616156160017 0.0018915005117742393 0 0.019998865146354957 0.00094562245374716497 0 0.019902804347784069 0.0010743179519394691 0 0.018714404545400787 0.0018674117206419513 0 0.019827396893444024 0.0010085533721885798 0 0.019902804347784069 0.0010743179519394691 0 0.020203918538494035 0.00074692912577631082 0 0.019886696269285842 0.0010157311008740101 0 0.01972635267025754 0.0012814322326474893 0 0.019902804347784069 0.0010743179519394691 0 0.018714404545400787 0.0018674117206419513 0 0.018716663655569746 0.0020308529319454016 0 0.018756023885980341 0.0014589258410390427 0 0.018685430300450289 0.0016786587808952946 0 0.018714404545400787 0.0018674117206419513 0 0.020467144110704671 0.00067134642779609561 0 0.02068727609751897 0.00050364595735093653 0 0.019902804347784069 0.0010743179519394691 0 0.020203918538494035 0.00074692912577631082 0 0.020633718051265144 0.00064701780975962616 0 0.018392107273152294 0.0016036497521551164 0 0.018464602675997789 0.0017099787855236347 0 0.018272414363323421 0.0016937216429131197 0 0.018513101410614675 0.0015968414961769189 0 0.018464602675997789 0.0017099787855236347 0 0.018592412136634064 0.001675318417189116 0 0.018392107273152294 0.0016036497521551164 0 0.018513101410614675 0.0015968414961769189 0 0.018464602675997789 0.0017099787855236347 0 0.018464602675997789 0.0017099787855236347 0 0.018592412136634064 0.001675318417189116 0 0.018588046618790887 0.0017617855667070019 0 0.018621637674692 0.001576012636152756 0 0.018676923205471697 0.0015270166646022031 0 0.018685430300450289 0.0016786587808952946 0 0.018592412136634064 0.001675318417189116 0 0.018588046618790887 0.0017617855667070019 0 0.018639865487199501 0.001728736580959133 0 0.018621637674692 0.001576012636152756 0 0.018513101410614675 0.0015968414961769189 0 0.018592412136634064 0.001675318417189116 0 0.018621637674692 0.001576012636152756 0 0.018592412136634064 0.001675318417189116 0 0.018685430300450289 0.0016786587808952946 0 0.018592412136634064 0.001675318417189116 0 0.018685430300450289 0.0016786587808952946 0 0.018639865487199501 0.001728736580959133 0 0.018685430300450289 0.0016786587808952946 0 0.018659948561327459 0.0017821068800822912 0 0.018714404545400787 0.0018674117206419513 0 0.018685430300450289 0.0016786587808952946 0 0.018659948561327459 0.0017821068800822912 0 0.018639865487199501 0.001728736580959133 0 0.018659948561327459 0.0017821068800822912 0 0.018588097662870368 0.0018464092653257399 0 0.018588046618790887 0.0017617855667070019 0 0.018659948561327459 0.0017821068800822912 0 0.018588097662870368 0.0018464092653257399 0 0.018714404545400787 0.0018674117206419513 0 0.018659948561327459 0.0017821068800822912 0 0.018588046618790887 0.0017617855667070019 0 0.018639865487199501 0.001728736580959133 0 0.018464602675997789 0.0017099787855236347 0 0.018588046618790887 0.0017617855667070019 0 0.01849845624406227 0.0018066310884311703 0 0.018588097662870368 0.0018464092653257399 0 0.01849845624406227 0.0018066310884311703 0 0.018468828421034988 0.0019036321373453288 0 0.018588097662870368 0.0018464092653257399 0 0.018588046618790887 0.0017617855667070019 0 0.01849845624406227 0.0018066310884311703 0 0.01849845624406227 0.0018066310884311703 0 0.018385047970365061 0.0018201044411909942 0 0.018468828421034988 0.0019036321373453288 0 0.018385047970365061 0.0018201044411909942 0 0.018468828421034988 0.0019036321373453288 0 0.01835577287940815 0.0019276282434884373 0 0.018464602675997789 0.0017099787855236347 0 0.01849845624406227 0.0018066310884311703 0 0.018385047970365061 0.0018201044411909942 0 0.018716663655569746 0.0020308529319454016 0 0.018521271405136208 0.002127116526839536 0 0.018443927569442676 0.002350971536570586 0 0.01842991684337526 0.0020422017349626554 0 0.018468828421034988 0.0019036321373453288 0 0.01835577287940815 0.0019276282434884373 0 0.018588097662870368 0.0018464092653257399 0 0.018468828421034988 0.0019036321373453288 0 0.018564660686286271 0.0019763422795961243 0 0.01842991684337526 0.0020422017349626554 0 0.018468828421034988 0.0019036321373453288 0 0.018564660686286271 0.0019763422795961243 0 0.018564660686286271 0.0019763422795961243 0 0.018716663655569746 0.0020308529319454016 0 0.018521271405136208 0.002127116526839536 0 0.018588097662870368 0.0018464092653257399 0 0.018564660686286271 0.0019763422795961243 0 0.018714404545400787 0.0018674117206419513 0 0.018564660686286271 0.0019763422795961243 0 0.018714404545400787 0.0018674117206419513 0 0.018716663655569746 0.0020308529319454016 0 0.01842991684337526 0.0020422017349626554 0 0.018521271405136208 0.002127116526839536 0 0.018422049048644022 0.0021788209856855 0 0.01842991684337526 0.0020422017349626554 0 0.018342659504518431 0.0021141129593839408 0 0.018422049048644022 0.0021788209856855 0 0.01842991684337526 0.0020422017349626554 0 0.018564660686286271 0.0019763422795961243 0 0.018521271405136208 0.002127116526839536 0 0.021152229389251577 0.00020970668565380713 0 0.021154786651824235 0.00028393082101542725 0 0.02101037434967741 0.0003640207498617815 0 0.02068727609751897 0.00050364595735093653 0 0.020938800831260714 0.00038731313324068484 0 0.020203918538494035 0.00074692912577631082 0 0.020633718051265144 0.00064701780975962616 0 0.02101037434967741 0.0003640207498617815 0 0.021152229389251577 0.00020970668565380713 0 0.021154786651824235 0.00028393082101542725 0 0.021167879856577289 0.00024346061991032341 0 0.021154786651824235 0.00028393082101542725 0 0.021167879856577289 0.00024346061991032341 0 0.021214585570598826 0.00029445869864408106 0 0.021167879856577289 0.00024346061991032341 0 0.021228246661618676 0.00027917257344369282 0 0.021113998689545593 0.00023776333590951022 0 0.021167879856577289 0.00024346061991032341 0 0.021228246661618676 0.00027917257344369282 0 0.021214585570598826 0.00029445869864408106 0 0.021218024034200155 0.00028368460510338269 0 0.021228246661618676 0.00027917257344369282 0 0.021113998689545593 0.00023776333590951022 0 0.021218024034200155 0.00028368460510338269 0 0.021113998689545593 0.00023776333590951022 0 0.02097521450421317 0.00021717674720392934 0 0.021113998689545593 0.00023776333590951022 0 0.02097521450421317 0.00021717674720392934 0 0.021035797145550515 0.00025471642384526855 0 0.02110912792885113 0.00031626620132010219 0 0.021035797145550515 0.00025471642384526855 0 0.021115131862672158 0.00023796711013625573 0 0.02110912792885113 0.00031626620132010219 0 0.021152229389251577 0.00020970668565380713 0 0.021115131862672158 0.00023796711013625573 0 0.021113998689545593 0.00023776333590951022 0 0.021035797145550515 0.00025471642384526855 0 0.021115131862672158 0.00023796711013625573 0 0.021152229389251577 0.00020970668565380713 0 0.021167879856577289 0.00024346061991032341 0 0.021115131862672158 0.00023796711013625573 0 0.021167879856577289 0.00024346061991032341 0 0.021113998689545593 0.00023776333590951022 0 0.021115131862672158 0.00023796711013625573 0 0.017487187355476615 0.0019497559610607727 0 0.017974048258075526 0.0015369897170256852 0 0.017818997736561624 0.001429630968867003 0 0.016724054565361642 0.0020341698261522388 0 0.018299984943544307 0.001407556560564689 0 0.017618031752234836 0.0014158135266027806 0 0.017487187355476615 0.0019497559610607727 0 0.017818997736561624 0.001429630968867003 0 0.017974048258075526 0.0015369897170256852 0 0.017818997736561624 0.001429630968867003 0 0.017989077255029861 0.0013671138552785586 0 0.015530213438058058 0.0010703200606188728 0 0.015897059360619956 0.0015080765441460172 0 0.014447783735255071 0.0012166030400473033 0 0.014783402855213396 0.0017800153833967612 0 0.014987575554590479 0.0015456639736391481 0 0.017713531822336957 0.00090282759238758347 0 0.017818997736561624 0.001429630968867003 0 0.017989077255029861 0.0013671138552785586 0 0.015530213438058058 0.0010703200606188728 0 0.016389185532734964 0.0015835663398193949 0 0.017713531822336957 0.00090282759238758347 0 0.017618031752234836 0.0014158135266027806 0 0.017818997736561624 0.001429630968867003 0 0.017448221959469573 0.001060651695769313 0 0.017678587018629642 0.0012819713594807583 0 0.017704459700360567 0.0010266544048018187 0 0.017974048258075526 0.0015369897170256852 0 0.018156050730364894 0.0016882898156724891 0 0.018018574337948352 0.0017308504591394989 0 0.017974048258075526 0.0015369897170256852 0 0.017989077255029861 0.0013671138552785586 0 0.018156050730364894 0.0016882898156724891 0 0.014783402855213396 0.0017800153833967612 0 0.014987575554590479 0.0015456639736391481 0 0.01515084534738078 0.0023597807859619437 0 0.017448221959469573 0.001060651695769313 0 0.017678587018629642 0.0012819713594807583 0 0.017596259292665038 0.0016221451968904932 0 0.016109940248965077 0.0013064201280715108 0 0.017187763948678561 0.0019368312223442567 0 0.016389185532734964 0.0015835663398193949 0 0.017187763948678561 0.0019368312223442567 0 0.017813289411302381 0.0014560490954451789 0 0.017678587018629642 0.0012819713594807583 0 0.017596259292665038 0.0016221451968904932 0 0.017813289411302381 0.0014560490954451789 0 0.01792685581935265 0.0016784112376376039 0 0.017596259292665038 0.0016221451968904932 0 0.017972196149557661 0.0014626511062428586 0 0.018121565927651538 0.0015851410823126283 0 0.01792685581935265 0.0016784112376376039 0 0.017813289411302381 0.0014560490954451789 0 0.017972196149557661 0.0014626511062428586 0 0.01792685581935265 0.0016784112376376039 0 0.017972196149557661 0.0014626511062428586 0 0.017889605390686809 0.0012324601419425765 0 0.018154261139401447 0.0013513902593851827 0 0.017813289411302381 0.0014560490954451789 0 0.017972196149557661 0.0014626511062428586 0 0.017889605390686809 0.0012324601419425765 0 0.017813289411302381 0.0014560490954451789 0 0.017678587018629642 0.0012819713594807583 0 0.017889605390686809 0.0012324601419425765 0 0.017678587018629642 0.0012819713594807583 0 0.017704459700360567 0.0010266544048018187 0 0.017889605390686809 0.0012324601419425765 0 0.017704459700360567 0.0010266544048018187 0 0.017955625709001135 0.00099087505462189447 0 0.017889605390686809 0.0012324601419425765 0 0.017955625709001135 0.00099087505462189447 0 0.017889605390686809 0.0012324601419425765 0 0.018045981173123518 0.0011479809127033559 0 0.018045981173123518 0.0011479809127033559 0 0.018207405173648647 0.0011821421805947485 0 0.018154261139401447 0.0013513902593851827 0 0.017889605390686809 0.0012324601419425765 0 0.018045981173123518 0.0011479809127033559 0 0.018154261139401447 0.0013513902593851827 0 0.018202067694468096 0.00097461467398317022 0 0.017955625709001135 0.00099087505462189447 0 0.018045981173123518 0.0011479809127033559 0 0.018202067694468096 0.00097461467398317022 0 0.018045981173123518 0.0011479809127033559 0 0.018207405173648647 0.0011821421805947485 0 0.018202067694468096 0.00097461467398317022 0 0.018372373009336827 0.0011390980977982969 0 0.018207405173648647 0.0011821421805947485 0 0.018327581090841771 0.0012725822470048677 0 0.018207405173648647 0.0011821421805947485 0 0.018154261139401447 0.0013513902593851827 0 0.018372373009336827 0.0011390980977982969 0 0.018327581090841771 0.0012725822470048677 0 0.018207405173648647 0.0011821421805947485 0 0.018327581090841771 0.0012725822470048677 0 0.018387688714663647 0.0013973069417759023 0 0.018154261139401447 0.0013513902593851827 0 0.018387688714663647 0.0013973069417759023 0 0.018154261139401447 0.0013513902593851827 0 0.018282435674786206 0.0015219256796424967 0 0.018154261139401447 0.0013513902593851827 0 0.018121565927651538 0.0015851410823126283 0 0.018282435674786206 0.0015219256796424967 0 0.017972196149557661 0.0014626511062428586 0 0.018154261139401447 0.0013513902593851827 0 0.018121565927651538 0.0015851410823126283 0 0.018121565927651538 0.0015851410823126283 0 0.018282435674786206 0.0015219256796424967 0 0.018272414363323421 0.0016937216429131197 0 0.018464602675997789 0.0017099787855236347 0 0.018385047970365061 0.0018201044411909942 0 0.018272414363323421 0.0016937216429131197 0 0.018392107273152294 0.0016036497521551164 0 0.018282435674786206 0.0015219256796424967 0 0.018272414363323421 0.0016937216429131197 0 0.018121565927651538 0.0015851410823126283 0 0.018272414363323421 0.0016937216429131197 0 0.01813533957098843 0.0017757611655455402 0 0.018121565927651538 0.0015851410823126283 0 0.01813533957098843 0.0017757611655455402 0 0.01792685581935265 0.0016784112376376039 0 0.01813533957098843 0.0017757611655455402 0 0.018242687789157587 0.001876966171139405 0 0.018146705664320781 0.0019529647753493175 0 0.018272414363323421 0.0016937216429131197 0 0.01813533957098843 0.0017757611655455402 0 0.018242687789157587 0.001876966171139405 0 0.01813533957098843 0.0017757611655455402 0 0.018146705664320781 0.0019529647753493175 0 0.018032649946880832 0.0018683541819552178 0 0.018385047970365061 0.0018201044411909942 0 0.018272414363323421 0.0016937216429131197 0 0.018242687789157587 0.001876966171139405 0 0.018385047970365061 0.0018201044411909942 0 0.018242687789157587 0.001876966171139405 0 0.01835577287940815 0.0019276282434884373 0 0.018242687789157587 0.001876966171139405 0 0.01835577287940815 0.0019276282434884373 0 0.018286676394479444 0.0020081142405169827 0 0.01842991684337526 0.0020422017349626554 0 0.01835577287940815 0.0019276282434884373 0 0.018286676394479444 0.0020081142405169827 0 0.01842991684337526 0.0020422017349626554 0 0.018286676394479444 0.0020081142405169827 0 0.018342659504518431 0.0021141129593839408 0 0.018342659504518431 0.0021141129593839408 0 0.018210480028164847 0.002103524673858295 0 0.018332080475664175 0.002238229961037193 0 0.018286676394479444 0.0020081142405169827 0 0.018342659504518431 0.0021141129593839408 0 0.018210480028164847 0.002103524673858295 0 0.018210480028164847 0.002103524673858295 0 0.018078785629639719 0.0020430476723782886 0 0.018150782791017606 0.0022832781846509362 0 0.018286676394479444 0.0020081142405169827 0 0.018210480028164847 0.002103524673858295 0 0.018146705664320781 0.0019529647753493175 0 0.018146705664320781 0.0019529647753493175 0 0.018078785629639719 0.0020430476723782886 0 0.018032649946880832 0.0018683541819552178 0 0.018210480028164847 0.002103524673858295 0 0.018146705664320781 0.0019529647753493175 0 0.018078785629639719 0.0020430476723782886 0 0.018242687789157587 0.001876966171139405 0 0.018286676394479444 0.0020081142405169827 0 0.018146705664320781 0.0019529647753493175 0 0.018078785629639719 0.0020430476723782886 0 0.017863028366478385 0.0019798671464004661 0 0.018150782791017606 0.0022832781846509362 0 0.018315659685283505 0.002222433540691438 0 0.018272059354564062 0.0022517530383864386 0 0.01836302020789506 0.0023294831850199354 0 0.018078785629639719 0.0020430476723782886 0 0.017863028366478385 0.0019798671464004661 0 0.018032649946880832 0.0018683541819552178 0 0.018152425937178127 0.0021221157060805117 0 0.018242989235996654 0.0022873319014582814 0 0.017863028366478385 0.0019798671464004661 0 0.01792685581935265 0.0016784112376376039 0 0.017596259292665038 0.0016221451968904932 0 0.017863028366478385 0.0019798671464004661 0 0.018032649946880832 0.0018683541819552178 0 0.01792685581935265 0.0016784112376376039 0 0.01813533957098843 0.0017757611655455402 0 0.018032649946880832 0.0018683541819552178 0 0.01792685581935265 0.0016784112376376039 0 0.018156050730364894 0.0016882898156724891 0 0.018071441791536878 0.0018325270541080412 0 0.018196551427603999 0.0019132960240007138 0 0.018315659685283505 0.002222433540691438 0 0.018224985443135392 0.0020828600458209956 0 0.018272059354564062 0.0022517530383864386 0 0.017187763948678561 0.0019368312223442567 0 0.018325716904378602 0.0020847614405424173 0 0.018152425937178127 0.0021221157060805117 0 0.017187763948678561 0.0019368312223442567 0 0.018156050730364894 0.0016882898156724891 0 0.018071441791536878 0.0018325270541080412 0 0.018018574337948352 0.0017308504591394989 0 0.018196551427603999 0.0019132960240007138 0 0.018073547414895107 0.0019343326067500675 0 0.018111254452832716 0.0020362284059196522 0 0.018071441791536878 0.0018325270541080412 0 0.018196551427603999 0.0019132960240007138 0 0.018073547414895107 0.0019343326067500675 0 0.018071441791536878 0.0018325270541080412 0 0.017977257370131179 0.0019031859839423598 0 0.017979518279857182 0.0018161865203345689 0 0.018071441791536878 0.0018325270541080412 0 0.018073547414895107 0.0019343326067500675 0 0.017977257370131179 0.0019031859839423598 0 0.018073547414895107 0.0019343326067500675 0 0.017977257370131179 0.0019031859839423598 0 0.01801327099341242 0.0019975919340060109 0 0.017977257370131179 0.0019031859839423598 0 0.017928833858509942 0.0020215003624525149 0 0.01801327099341242 0.0019975919340060109 0 0.017878905564057357 0.0019223659262740352 0 0.017977257370131179 0.0019031859839423598 0 0.017928833858509942 0.0020215003624525149 0 0.017977257370131179 0.0019031859839423598 0 0.017912411595473614 0.0018267499920176283 0 0.017979518279857182 0.0018161865203345689 0 0.017878905564057357 0.0019223659262740352 0 0.017977257370131179 0.0019031859839423598 0 0.017912411595473614 0.0018267499920176283 0 0.017827833295434393 0.0017452354473885441 0 0.017912411595473614 0.0018267499920176283 0 0.017942388745931247 0.0017354133501099132 0 0.017974048258075526 0.0015369897170256852 0 0.018018574337948352 0.0017308504591394989 0 0.017942388745931247 0.0017354133501099132 0 0.017827833295434393 0.0017452354473885441 0 0.017974048258075526 0.0015369897170256852 0 0.017942388745931247 0.0017354133501099132 0 0.017912411595473614 0.0018267499920176283 0 0.017979518279857182 0.0018161865203345689 0 0.017942388745931247 0.0017354133501099132 0 0.018071441791536878 0.0018325270541080412 0 0.017979518279857182 0.0018161865203345689 0 0.018018574337948352 0.0017308504591394989 0 0.017979518279857182 0.0018161865203345689 0 0.018018574337948352 0.0017308504591394989 0 0.017942388745931247 0.0017354133501099132 0 0.01799430893415466 0.0021448452071711993 0 0.018151172961028045 0.0022637114434796829 0 0.018033337928242434 0.0023392624687842392 0 0.017920520470407882 0.0022956407481520519 0 0.01799430893415466 0.0021448452071711993 0 0.018033337928242434 0.0023392624687842392 0 0.01799430893415466 0.0021448452071711993 0 0.018130052473109257 0.0021443600248068307 0 0.018151172961028045 0.0022637114434796829 0 0.017862114345320243 0.0020504351603797643 0 0.01799430893415466 0.0021448452071711993 0 0.017928833858509942 0.0020215003624525149 0 0.01799430893415466 0.0021448452071711993 0 0.017928833858509942 0.0020215003624525149 0 0.01801327099341242 0.0019975919340060109 0 0.01799430893415466 0.0021448452071711993 0 0.01801327099341242 0.0019975919340060109 0 0.018111254452832716 0.0020362284059196522 0 0.018073547414895107 0.0019343326067500675 0 0.01801327099341242 0.0019975919340060109 0 0.018111254452832716 0.0020362284059196522 0 0.01799430893415466 0.0021448452071711993 0 0.018111254452832716 0.0020362284059196522 0 0.018130052473109257 0.0021443600248068307 0 0.018325716904378602 0.0020847614405424173 0 0.01828044349791242 0.0022474267708737158 0 0.018196551427603999 0.0019132960240007138 0 0.018111254452832716 0.0020362284059196522 0 0.018260150700434827 0.0021370300073582189 0 0.018111254452832716 0.0020362284059196522 0 0.018130052473109257 0.0021443600248068307 0 0.018260150700434827 0.0021370300073582189 0 0.018130052473109257 0.0021443600248068307 0 0.018151172961028045 0.0022637114434796829 0 0.018260150700434827 0.0021370300073582189 0 0.018151172961028045 0.0022637114434796829 0 0.018260150700434827 0.0021370300073582189 0 0.018341529391434977 0.0023737746400167847 0 0.018349928513901003 0.0023748051822357744 0 0.018314409754093972 0.002359161761146106 0 0.018341529391434977 0.0023737746400167847 0 0.01828044349791242 0.0022474267708737158 0 0.018333727486769775 0.0023688734145131734 0 0.018349928513901003 0.0023748051822357744 0 0.018314409754093972 0.002359161761146106 0 0.01836302020789506 0.0023294831850199354 0 0.018272059354564062 0.0022517530383864386 0 0.018314409754093972 0.002359161761146106 0 0.01836302020789506 0.0023294831850199354 0 0.018150782791017606 0.0022832781846509362 0 0.018325562639483494 0.0023206526551848156 0 0.01835277093549198 0.0023937911947049281 0 0.018150782791017606 0.0022832781846509362 0 0.018332080475664175 0.002238229961037193 0 0.018325562639483494 0.0023206526551848156 0 0.018210480028164847 0.002103524673858295 0 0.018150782791017606 0.0022832781846509362 0 0.018332080475664175 0.002238229961037193 0 0.018342659504518431 0.0021141129593839408 0 0.018332080475664175 0.002238229961037193 0 0.018422049048644022 0.0021788209856855 0 0.018332080475664175 0.002238229961037193 0 0.018325562639483494 0.0023206526551848156 0 0.018443927569442676 0.002350971536570586 0 0.018242989235996654 0.0022873319014582814 0 0.018337455529248276 0.0023866973607287803 0 0.018349928513901003 0.0023748051822357744 0 0.01836302020789506 0.0023294831850199354 0 0.01835277093549198 0.0023937911947049281 0 0.018325562639483494 0.0023206526551848156 0 0.01835277093549198 0.0023937911947049281 0 0.018443927569442676 0.002350971536570586 0 0.018349928513901003 0.0023748051822357744 0 0.01835277093549198 0.0023937911947049281 0 0.018370736270610775 0.0023864961283542895 0 0.01835277093549198 0.0023937911947049281 0 0.018337095171996387 0.0024085913513208911 0 0.018370736270610775 0.0023864961283542895 0 0.018337095171996387 0.0024085913513208911 0 0.018376644107838572 0.0023771525383961514 0 0.018370736270610775 0.0023864961283542895 0 0.018337095171996387 0.0024085913513208911 0 0.018376644107838572 0.0023771525383961514 0 0.018373556376358097 0.0023055676827737921 0 0.018376644107838572 0.0023771525383961514 0 0.018373556376358097 0.0023055676827737921 0 0.01842635198767913 0.0023960521324995127 0 0.019804301833633662 0.0013449514167105262 0 0.019643155893764554 0.0014093436138578441 0 0.021235603793211766 0.00034100193150747815 0 0.021271805628072623 0.00042139164109043634 0 0.021179072626069613 0.0004920845276744219 0 0.018337095171996387 0.0024085913513208911 0 0.018373556376358097 0.0023055676827737921 0 0.018315456927232517 0.002155483798582531 0 0.021271805628072623 0.00042139164109043634 0 0.021277728984478286 0.00050314288701008988 0 0.021179072626069613 0.0004920845276744219 0 0.018373556376358097 0.0023055676827737921 0 0.018516642695983302 0.0021798864959751258 0 0.018315456927232517 0.002155483798582531 0 0.018373556376358097 0.0023055676827737921 0 0.018516642695983302 0.0021798864959751258 0 0.01842635198767913 0.0023960521324995127 0 0.018516642695983302 0.0021798864959751258 0 0.01842635198767913 0.0023960521324995127 0 0.018644810458517357 0.0022985337156661064 0 0.018376644107838572 0.0023771525383961514 0 0.01842635198767913 0.0023960521324995127 0 0.018370736270610775 0.0023864961283542895 0 0.01842635198767913 0.0023960521324995127 0 0.018370736270610775 0.0023864961283542895 0 0.018341529391434977 0.0023737746400167847 0 0.018349928513901003 0.0023748051822357744 0 0.018370736270610775 0.0023864961283542895 0 0.018341529391434977 0.0023737746400167847 0 0.01851739676693067 0.0023954381335690202 0 0.018296587788645961 0.0024906052071344089 0 0.018151172961028045 0.0022637114434796829 0 0.018341529391434977 0.0023737746400167847 0 0.01813102694195657 0.0024643427424400673 0 0.01842635198767913 0.0023960521324995127 0 0.018341529391434977 0.0023737746400167847 0 0.01813102694195657 0.0024643427424400673 0 0.01842635198767913 0.0023960521324995127 0 0.018889466225261282 0.00242520400505453 0 0.018644810458517357 0.0022985337156661064 0 0.018889466225261282 0.00242520400505453 0 0.018644810458517357 0.0022985337156661064 0 0.018761106236158169 0.0022096923804581906 0 0.018516642695983302 0.0021798864959751258 0 0.018644810458517357 0.0022985337156661064 0 0.018761106236158169 0.0022096923804581906 0 0.018889466225261282 0.00242520400505453 0 0.018761106236158169 0.0022096923804581906 0 0.019012332886745593 0.0021753070270066643 0 0.019342181275274054 0.0024178457982977426 0 0.018889466225261282 0.00242520400505453 0 0.019012332886745593 0.0021753070270066643 0 0.019522486725390122 0.0019653272704870978 0 0.020577666548662853 0.0014337992596690854 0 0.018151172961028045 0.0022637114434796829 0 0.01813102694195657 0.0024643427424400673 0 0.018033337928242434 0.0023392624687842392 0 0.017848425373018794 0.0024597319012201525 0 0.01813102694195657 0.0024643427424400673 0 0.018033337928242434 0.0023392624687842392 0 0.019522486725390122 0.0019653272704870978 0 0.018296587788645961 0.0024906052071344089 0 0.021325926675809171 0.00032672826515737097 0 0.021421288493337132 0.00033936076714511217 0 0.021304113532170675 0.00031553128952185281 0 0.021325926675809171 0.00032672826515737097 0 0.021421288493337132 0.00033936076714511217 0 0.02145384331671445 0.00035017483950514387 0 0.021325926675809171 0.00032672826515737097 0 0.021304113532170675 0.00031553128952185281 0 0.021250983551033744 0.00031752296892665531 0 0.021473164478606872 0.00035595826140014287 0 0.021421288493337132 0.00033936076714511217 0 0.021342015586061622 0.00031895169753373519 0 0.021421288493337132 0.00033936076714511217 0 0.021342015586061622 0.00031895169753373519 0 0.021304113532170675 0.00031553128952185281 0 0.021218024034200155 0.00028368460510338269 0 0.021228246661618676 0.00027917257344369282 0 0.021342015586061622 0.00031895169753373519 0 0.021228246661618676 0.00027917257344369282 0 0.021342015586061622 0.00031895169753373519 0 0.021304113532170675 0.00031553128952185281 0 0.021228246661618676 0.00027917257344369282 0 0.021304113532170675 0.00031553128952185281 0 0.021214585570598826 0.00029445869864408106 0 0.021304113532170675 0.00031553128952185281 0 0.021214585570598826 0.00029445869864408106 0 0.021250983551033744 0.00031752296892665531 0 0.021154786651824235 0.00028393082101542725 0 0.021214585570598826 0.00029445869864408106 0 0.021174085102616255 0.00032306869274064727 0 0.021154786651824235 0.00028393082101542725 0 0.021174085102616255 0.00032306869274064727 0 0.02101037434967741 0.0003640207498617815 0 0.021174085102616255 0.00032306869274064727 0 0.02101037434967741 0.0003640207498617815 0 0.021200364253341476 0.00031305697739234683 0 0.021174085102616255 0.00032306869274064727 0 0.021250983551033744 0.00031752296892665531 0 0.021200364253341476 0.00031305697739234683 0 0.021214585570598826 0.00029445869864408106 0 0.021174085102616255 0.00032306869274064727 0 0.021250983551033744 0.00031752296892665531 0 0.020633718051265144 0.00064701780975962616 0 0.02101037434967741 0.0003640207498617815 0 0.021227686268672705 0.00026313827871142194 0 0.018521271405136208 0.002127116526839536 0 0.018422049048644022 0.0021788209856855 0 0.018443927569442676 0.002350971536570586 0 0.01972635267025754 0.0012814322326474893 0 0.019816272487590065 0.001301810315180855 0 0.018332080475664175 0.002238229961037193 0 0.018422049048644022 0.0021788209856855 0 0.018443927569442676 0.002350971536570586 0 0.02101037434967741 0.0003640207498617815 0 0.021227686268672705 0.00026313827871142194 0 0.021200364253341476 0.00031305697739234683 0 0.019804301833633662 0.0013449514167105262 0 0.019816272487590065 0.001301810315180855 0 0.021235603793211766 0.00034100193150747815 0 0.021227686268672705 0.00026313827871142194 0 0.021282190570190429 0.00031493222892185855 0 0.021227686268672705 0.00026313827871142194 0 0.021200364253341476 0.00031305697739234683 0 0.021282190570190429 0.00031493222892185855 0 0.01835277093549198 0.0023937911947049281 0 0.018337095171996387 0.0024085913513208911 0 0.018443927569442676 0.002350971536570586 0 0.021325926675809171 0.00032672826515737097 0 0.021250983551033744 0.00031752296892665531 0 0.021200364253341476 0.00031305697739234683 0 0.021325926675809171 0.00032672826515737097 0 0.021200364253341476 0.00031305697739234683 0 0.021282190570190429 0.00031493222892185855 0 0.021325926675809171 0.00032672826515737097 0 0.021282190570190429 0.00031493222892185855 0 0.021399523921346818 0.00035262714411058528 0 0.021282190570190429 0.00031493222892185855 0 0.021399523921346818 0.00035262714411058528 0 0.021308104935745 0.0003638150990082632 0 0.021235603793211766 0.00034100193150747815 0 0.021282190570190429 0.00031493222892185855 0 0.021308104935745 0.0003638150990082632 0 0.021235603793211766 0.00034100193150747815 0 0.021308104935745 0.0003638150990082632 0 0.021271805628072623 0.00042139164109043634 0 0.021308104935745 0.0003638150990082632 0 0.021271805628072623 0.00042139164109043634 0 0.021364163683006098 0.00042664197081301592 0 0.021271805628072623 0.00042139164109043634 0 0.021364163683006098 0.00042664197081301592 0 0.021277728984478286 0.00050314288701008988 0 0.021399523921346818 0.00035262714411058528 0 0.021364163683006098 0.00042664197081301592 0 0.02164807392703029 0.00042170976215677572 0 0.021399523921346818 0.00035262714411058528 0 0.021308104935745 0.0003638150990082632 0 0.021364163683006098 0.00042664197081301592 0 0.02145384331671445 0.00035017483950514387 0 0.021559024620998374 0.00036389799696331427 0 0.02164807392703029 0.00042170976215677572 0 0.021399523921346818 0.00035262714411058528 0 0.02145384331671445 0.00035017483950514387 0 0.02164807392703029 0.00042170976215677572 0 0.021325926675809171 0.00032672826515737097 0 0.021399523921346818 0.00035262714411058528 0 0.02145384331671445 0.00035017483950514387 0 0.021421288493337132 0.00033936076714511217 0 0.02145384331671445 0.00035017483950514387 0 0.021559024620998374 0.00036389799696331427 0 0.021473164478606872 0.00035595826140014287 0 0.021421288493337132 0.00033936076714511217 0 0.021559024620998374 0.00036389799696331427 0 0.021559024620998374 0.00036389799696331427 0 0.021690949578463695 0.0003777851157948551 0 0.02164807392703029 0.00042170976215677572 0 0.021690949578463695 0.0003777851157948551 0 0.021870761501437564 0.00032560538925142002 0 0.02164807392703029 0.00042170976215677572 0 0.021870761501437564 0.00032560538925142002 0 0.02164807392703029 0.00042170976215677572 0 0.021969355991720722 0.00029605413349881484 0 0.02173687106964213 0.00036276859592845477 0 0.021543759304477741 0.00061345002574881679 0 0.02164807392703029 0.00042170976215677572 0 0.021375729442165634 0.00056888988430991278 0 0.021552131620553104 0.00073749065680907451 0 0.021364163683006098 0.00042664197081301592 0 0.02164807392703029 0.00042170976215677572 0 0.021375729442165634 0.00056888988430991278 0 0.021375729442165634 0.00056888988430991278 0 0.021277728984478286 0.00050314288701008988 0 0.021220704282779956 0.00059698797333765385 0 0.021364163683006098 0.00042664197081301592 0 0.021375729442165634 0.00056888988430991278 0 0.021277728984478286 0.00050314288701008988 0 0.021375729442165634 0.00056888988430991278 0 0.021342714820732842 0.0007133724076635753 0 0.021220704282779956 0.00059698797333765385 0 0.021375729442165634 0.00056888988430991278 0 0.021342714820732842 0.0007133724076635753 0 0.021552131620553104 0.00073749065680907451 0 0.021552131620553104 0.00073749065680907451 0 0.021342213306709167 0.00087949058969215895 0 0.021492780199527363 0.00098326448705778838 0 0.021543759304477741 0.00061345002574881679 0 0.023178555437910146 0.00030992102422278144 0 0.021342714820732842 0.0007133724076635753 0 0.021342213306709167 0.00087949058969215895 0 0.02119616891152178 0.0007694861975961455 0 0.021342714820732842 0.0007133724076635753 0 0.021552131620553104 0.00073749065680907451 0 0.021342213306709167 0.00087949058969215895 0 0.024743521273468443 -0.00014455288669181244 0 0.024759477921234226 -9.1462488471577449e-05 0 0.024670621617683981 -0.00010715400981813866 0 0.024743521273468443 -0.00014455288669181244 0 0.024759477921234226 -9.1462488471577449e-05 0 0.024809091284403999 -0.00010057669647342161 0 0.02310122337270256 0.00040175797203734713 0 0.023178555437910146 0.00030992102422278144 0 0.022072582225815599 0.00023828987949995792 0 0.022067650398515725 0.00023076057124174059 0 0.022130742098680007 0.00021347743456958496 0 0.022067650398515725 0.00023076057124174059 0 0.022263785710208293 0.00015880431048800319 0 0.022119906840912328 0.0002543544319606634 0 0.021870761501437564 0.00032560538925142002 0 0.022067650398515725 0.00023076057124174059 0 0.022119906840912328 0.0002543544319606634 0 0.021870761501437564 0.00032560538925142002 0 0.021969355991720722 0.00029605413349881484 0 0.022067650398515725 0.00023076057124174059 0 0.021969355991720722 0.00029605413349881484 0 0.022072582225815599 0.00023828987949995792 0 0.022067650398515725 0.00023076057124174059 0 0.021840958975033145 0.00063791696511860622 0 0.021843034214503242 0.00061991544324465795 0 0.021849501370368767 0.00062193936052433181 0 0.021840958975033145 0.00063791696511860622 0 0.021833642298400679 0.00062585920363891052 0 0.021843034214503242 0.00061991544324465795 0 0.02183933668846496 0.00066463073624628555 0 0.021822294970355816 0.00066579275365599277 0 0.021840958975033145 0.00063791696511860622 0 0.021822294970355816 0.00066579275365599277 0 0.021840958975033145 0.00063791696511860622 0 0.021815994158744675 0.00064564419514978068 0 0.020577666548662853 0.0014337992596690854 0 0.020176480413590058 0.0013017903700616141 0 0.018516642695983302 0.0021798864959751258 0 0.018761106236158169 0.0022096923804581906 0 0.018704327748706298 0.0019651129037449302 0 0.018761106236158169 0.0022096923804581906 0 0.019012332886745593 0.0021753070270066643 0 0.018704327748706298 0.0019651129037449302 0 0.021840958975033145 0.00063791696511860622 0 0.021815994158744675 0.00064564419514978068 0 0.021833642298400679 0.00062585920363891052 0 0.021815994158744675 0.00064564419514978068 0 0.021833642298400679 0.00062585920363891052 0 0.021825553306397721 0.00062351473266620964 0 0.021815994158744675 0.00064564419514978068 0 0.021825553306397721 0.00062351473266620964 0 0.021806203545495222 0.00062977150166992955 0 0.020176480413590058 0.0013017903700616141 0 0.020587785812278932 0.00093264949242685474 0 0.018704327748706298 0.0019651129037449302 0 0.018435031962271666 0.0017484393526635651 0 0.018491716693174034 0.0020146957250700205 0 0.018516642695983302 0.0021798864959751258 0 0.018704327748706298 0.0019651129037449302 0 0.018491716693174034 0.0020146957250700205 0 0.018516642695983302 0.0021798864959751258 0 0.018491716693174034 0.0020146957250700205 0 0.018315456927232517 0.002155483798582531 0 0.020587785812278932 0.00093264949242685474 0 0.019643155893764554 0.0014093436138578441 0 0.018435031962271666 0.0017484393526635651 0 0.018491716693174034 0.0020146957250700205 0 0.018315456927232517 0.002155483798582531 0 0.021112003962240722 0.00071047299961181072 0 0.021179072626069613 0.0004920845276744219 0 0.021220704282779956 0.00059698797333765385 0 0.021277728984478286 0.00050314288701008988 0 0.021179072626069613 0.0004920845276744219 0 0.021220704282779956 0.00059698797333765385 0 0.021100131029560161 0.00080553856438998523 0 0.022424043016933244 0.00043372715882665524 0 0.021112003962240722 0.00071047299961181072 0 0.021220704282779956 0.00059698797333765385 0 0.021189425093961087 0.00076596221432292456 0 0.021342714820732842 0.0007133724076635753 0 0.021220704282779956 0.00059698797333765385 0 0.02119616891152178 0.0007694861975961455 0 0.020587785812278932 0.00093264949242685474 0 0.022424043016933244 0.00043372715882665524 0 0.022424043016933244 0.00043372715882665524 0 0.023321904692489813 0.00019129199067372785 0 0.021909810804945327 0.00046458009185590111 0 0.021948608398620235 0.00048933676893615774 0 0.021894227032797597 0.00052938177557118908 0 0.021948608398620235 0.00048933676893615774 0 0.021934898060349962 0.00057951631833917834 0 0.021894227032797597 0.00052938177557118908 0 0.024743521273468443 -0.00014455288669181244 0 0.024669607789037887 -0.00018556016512917211 0 0.024670621617683981 -0.00010715400981813866 0 0.02310122337270256 0.00040175797203734713 0 0.022424043016933244 0.00043372715882665524 0 0.024759477921234226 -9.1462488471577449e-05 0 0.024670621617683981 -0.00010715400981813866 0 0.024737626111982682 -4.7389385771166906e-05 0 0.021852623416463372 0.00063720099624334236 0 0.021879592924922444 0.00044904224651835497 0 0.021934898060349962 0.00057951631833917834 0 0.021871615831237222 0.00060203097444580696 0 0.021920631484144169 0.00066235750785963903 0 0.021871615831237222 0.00060203097444580696 0 0.021841123534181481 0.00060842806175885698 0 0.021826842368081901 0.00061082669553839996 0 0.021934898060349962 0.00057951631833917834 0 0.021871615831237222 0.00060203097444580696 0 0.021894227032797597 0.00052938177557118908 0 0.021871615831237222 0.00060203097444580696 0 0.021841123534181481 0.00060842806175885698 0 0.021849785823930209 0.00060573876601196803 0 0.021825553306397721 0.00062351473266620964 0 0.021806203545495222 0.00062977150166992955 0 0.021826842368081901 0.00061082669553839996 0 0.020587785812278932 0.00093264949242685474 0 0.021879592924922444 0.00044904224651835497 0 0.021825553306397721 0.00062351473266620964 0 0.021841123534181481 0.00060842806175885698 0 0.021826842368081901 0.00061082669553839996 0 0.021825553306397721 0.00062351473266620964 0 0.021841123534181481 0.00060842806175885698 0 0.021836812769346268 0.00061564527399726374 0 0.021833642298400679 0.00062585920363891052 0 0.021825553306397721 0.00062351473266620964 0 0.021836812769346268 0.00061564527399726374 0 0.021833642298400679 0.00062585920363891052 0 0.021841472844058653 0.00061413906021593097 0 0.021843034214503242 0.00061991544324465795 0 0.021833642298400679 0.00062585920363891052 0 0.021836812769346268 0.00061564527399726374 0 0.021841472844058653 0.00061413906021593097 0 0.021841472844058653 0.00061413906021593097 0 0.021843570095378378 0.00060917162367636699 0 0.021846147102233524 0.00060829153160386884 0 0.021836812769346268 0.00061564527399726374 0 0.021841472844058653 0.00061413906021593097 0 0.021843570095378378 0.00060917162367636699 0 0.021841123534181481 0.00060842806175885698 0 0.021836812769346268 0.00061564527399726374 0 0.021843570095378378 0.00060917162367636699 0 0.021841123534181481 0.00060842806175885698 0 0.021843570095378378 0.00060917162367636699 0 0.021849785823930209 0.00060573876601196803 0 0.021843570095378378 0.00060917162367636699 0 0.021849785823930209 0.00060573876601196803 0 0.021846147102233524 0.00060829153160386884 0 0.021849785823930209 0.00060573876601196803 0 0.02184888790359946 0.00061317574868406742 0 0.021846147102233524 0.00060829153160386884 0 0.02184888790359946 0.00061317574868406742 0 0.021846147102233524 0.00060829153160386884 0 0.02185001304631282 0.00060687776099404179 0 0.023315719210653837 0.00016208195201068381 0 0.022755657789032106 0.00025237932769482218 0 0.021871615831237222 0.00060203097444580696 0 0.021849785823930209 0.00060573876601196803 0 0.02184888790359946 0.00061317574868406742 0 0.023746584413462949 0.00025023520460105021 0 0.022755657789032106 0.00025237932769482218 0 0.02486985785514189 -0.00022135624399595498 0 0.024541683261571596 -0.00022286241966840647 0 0.024382900832093737 -0.00055970010034683381 0 0.024192346591209203 4.0294699292654182e-05 0 0.024541683261571596 -0.00022286241966840647 0 0.024382900832093737 -0.00055970010034683381 0 0.021936071631859871 0.00061711896094839664 0 0.021949398496703795 0.00062108203285091948 0 0.021946984361732619 0.00061370828062704691 0 0.02186034452578562 0.00061108583230450291 0 0.021847629788472 0.00061060482710921168 0 0.021849501370368767 0.00062193936052433181 0 0.02186034452578562 0.00061108583230450291 0 0.021851338551729181 0.00060425234339769364 0 0.021847629788472 0.00061060482710921168 0 0.021841472844058653 0.00061413906021593097 0 0.021846147102233524 0.00060829153160386884 0 0.021847629788472 0.00061060482710921168 0 0.022755657789032106 0.00025237932769482218 0 0.02235758501480262 0.00065000484079800493 0 0.021846147102233524 0.00060829153160386884 0 0.02185001304631282 0.00060687776099404179 0 0.021847629788472 0.00061060482710921168 0 0.021841472844058653 0.00061413906021593097 0 0.021847629788472 0.00061060482710921168 0 0.021843034214503242 0.00061991544324465795 0 0.021847629788472 0.00061060482710921168 0 0.021843034214503242 0.00061991544324465795 0 0.021849501370368767 0.00062193936052433181 0 0.024999569859095898 4.6207355243785675e-05 0 0.024980825369378991 4.012533314696743e-05 0 0.024994050731611143 2.9241928889926915e-05 0 0.024673854045631331 -5.5164099068094523e-05 0 0.024787244706531108 -1.2630945258487272e-06 0 0.02472790188208614 -7.0221650373698382e-05 0 0.024603277639084476 8.9289376189435605e-05 0 0.024914799860051899 2.6703422784662655e-05 0 0.024787244706531108 -1.2630945258487272e-06 0 0.02472790188208614 -7.0221650373698382e-05 0 0.024772411124343894 -8.7396397317058392e-05 0 0.024694977589490293 -0.00010760278300555645 0 0.024772411124343894 -8.7396397317058392e-05 0 0.024819158330107047 -0.00015154533744094617 0 0.024192346591209203 4.0294699292654182e-05 0 0.024541683261571596 -0.00022286241966840647 0 0.024819158330107047 -0.00015154533744094617 0 0.023746584413462949 0.00025023520460105021 0 0.025087514685873943 -0.00023903126166624342 0 0.024694977589490293 -0.00010760278300555645 0 0.024673854045631331 -5.5164099068094523e-05 0 0.02472790188208614 -7.0221650373698382e-05 0 0.024694977589490293 -0.00010760278300555645 0 0.02472790188208614 -7.0221650373698382e-05 0 0.024772411124343894 -8.7396397317058392e-05 0 0.024772411124343894 -8.7396397317058392e-05 0 0.024842228446220947 -8.0252336021512607e-05 0 0.024819158330107047 -0.00015154533744094617 0 0.02486985785514189 -0.00022135624399595498 0 0.024541683261571596 -0.00022286241966840647 0 0.024819158330107047 -0.00015154533744094617 0 0.02486985785514189 -0.00022135624399595498 0 0.024819158330107047 -0.00015154533744094617 0 0.024892014135066861 -0.00011790859592875572 0 0.024842228446220947 -8.0252336021512607e-05 0 0.024892014135066861 -0.00011790859592875572 0 0.024917608918045481 -6.3138941885051606e-05 0 0.024842228446220947 -8.0252336021512607e-05 0 0.024819158330107047 -0.00015154533744094617 0 0.024892014135066861 -0.00011790859592875572 0 0.024787244706531108 -1.2630945258487272e-06 0 0.024894789357340356 -2.0949683405729609e-05 0 0.024941832684325444 2.9129347077230747e-05 0 0.024914799860051899 2.6703422784662655e-05 0 0.024920673972525183 2.4711700080445056e-05 0 0.024842228446220947 -8.0252336021512607e-05 0 0.024894789357340356 -2.0949683405729609e-05 0 0.024917608918045481 -6.3138941885051606e-05 0 0.024787244706531108 -1.2630945258487272e-06 0 0.024772411124343894 -8.7396397317058392e-05 0 0.024842228446220947 -8.0252336021512607e-05 0 0.024787244706531108 -1.2630945258487272e-06 0 0.024842228446220947 -8.0252336021512607e-05 0 0.024894789357340356 -2.0949683405729609e-05 0 0.024957425688612651 1.5012219017788363e-05 0 0.024954224535457297 6.6975629894331832e-06 0 0.024963941448435646 1.6524356436822033e-05 0 0.024894789357340356 -2.0949683405729609e-05 0 0.024973652609482651 -3.5736509738298574e-06 0 0.024941832684325444 2.9129347077230747e-05 0 0.024957425688612651 1.5012219017788363e-05 0 0.024963941448435646 1.6524356436822033e-05 0 0.02496203093759693 1.9274458040070583e-05 0 0.024947804479920236 -7.9370955839374956e-05 0 0.023984914474632416 0.00024197749441497737 0 0.024973652609482651 -3.5736509738298574e-06 0 0.024917608918045481 -6.3138941885051606e-05 0 0.024999653350849464 -9.3196632683420567e-05 0 0.024894789357340356 -2.0949683405729609e-05 0 0.024973652609482651 -3.5736509738298574e-06 0 0.024917608918045481 -6.3138941885051606e-05 0 0.024892014135066861 -0.00011790859592875572 0 0.024917608918045481 -6.3138941885051606e-05 0 0.024999653350849464 -9.3196632683420567e-05 0 0.021871615831237222 0.00060203097444580696 0 0.02184888790359946 0.00061317574868406742 0 0.021920631484144169 0.00066235750785963903 0 0.02486985785514189 -0.00022135624399595498 0 0.024892014135066861 -0.00011790859592875572 0 0.024999653350849464 -9.3196632683420567e-05 0 0.023315719210653837 0.00016208195201068381 0 0.023984914474632416 0.00024197749441497737 0 0.024664722506327272 -2.7467798002842334e-05 0 0.024737626111982682 -4.7389385771166906e-05 0 0.024777062415377787 4.8555696221956619e-06 0 0.024670621617683981 -0.00010715400981813866 0 0.024664722506327272 -2.7467798002842334e-05 0 0.024737626111982682 -4.7389385771166906e-05 0 0.023321904692489813 0.00019129199067372785 0 0.023984914474632416 0.00024197749441497737 0 0.024954224535457297 6.6975629894331832e-06 0 0.024963941448435646 1.6524356436822033e-05 0 0.024973920741398866 1.9271166383365174e-05 0 0.023984914474632416 0.00024197749441497737 0 0.025024870265828825 1.2126609122061398e-05 0 0.024963941448435646 1.6524356436822033e-05 0 0.024967252868231118 1.5960123667247978e-05 0 0.024973920741398866 1.9271166383365174e-05 0 0.024967252868231118 1.5960123667247978e-05 0 0.02495699201181651 1.8778648381851639e-05 0 0.024979930572930676 8.1132991730381548e-06 0 0.024963941448435646 1.6524356436822033e-05 0 0.024967252868231118 1.5960123667247978e-05 0 0.02496203093759693 1.9274458040070583e-05 0 0.024967252868231118 1.5960123667247978e-05 0 0.024960158476095774 2.162804359287683e-05 0 0.02496203093759693 1.9274458040070583e-05 0 0.024967252868231118 1.5960123667247978e-05 0 0.02495699201181651 1.8778648381851639e-05 0 0.024960158476095774 2.162804359287683e-05 0 0.024995167201019911 1.1574560297395932e-06 0 0.025001790747243957 1.7120947876057477e-06 0 0.024979930572930676 8.1132991730381548e-06 0 0.024979946663548226 9.5333223323082056e-06 0 0.024979668477506357 8.6902722321377044e-06 0 0.024995167201019911 1.1574560297395932e-06 0 0.025000009694931456 3.3771993190532911e-09 0 0.024999954389474385 -6.911772535370427e-09 0 0.024995167201019911 1.1574560297395932e-06 0 0.025000009694931456 3.3771993190532911e-09 0 0.025001790747243957 1.7120947876057477e-06 0 0.02495699201181651 1.8778648381851639e-05 0 0.024967263880875799 1.9033840712221226e-05 0 0.024999897747236436 3.0414626177392774e-09 0 0.02495699201181651 1.8778648381851639e-05 0 0.024967263880875799 1.9033840712221226e-05 0 0.024960158476095774 2.162804359287683e-05 0 0.024979946663548226 9.5333223323082056e-06 0 0.02499999510255662 3.0742520969266539e-09 0 0.025000009694931456 3.3771993190532911e-09 0 0.025001790747243957 1.7120947876057477e-06 0 0.024999996715735408 -1.4862741357726347e-09 0 0.024967263880875799 1.9033840712221226e-05 0 0.024959487063837087 2.6042451339456476e-05 0 0.024970675121501775 1.7357879053762873e-05 0 0.024959487063837087 2.6042451339456476e-05 0 0.024941832684325444 2.9129347077230747e-05 0 0.024970675121501775 1.7357879053762873e-05 0 0.024967263880875799 1.9033840712221226e-05 0 0.024959487063837087 2.6042451339456476e-05 0 0.024960158476095774 2.162804359287683e-05 0 0.024959487063837087 2.6042451339456476e-05 0 0.024960158476095774 2.162804359287683e-05 0 0.02496203093759693 1.9274458040070583e-05 0 0.024947804479920236 -7.9370955839374956e-05 0 0.024953118673105568 4.4496113010177478e-05 0 0.024957425688612651 1.5012219017788363e-05 0 0.024959487063837087 2.6042451339456476e-05 0 0.02496203093759693 1.9274458040070583e-05 0 0.024973652609482651 -3.5736509738298574e-06 0 0.024959487063837087 2.6042451339456476e-05 0 0.024941832684325444 2.9129347077230747e-05 0 0.024941832684325444 2.9129347077230747e-05 0 0.024970675121501775 1.7357879053762873e-05 0 0.024988370516132025 1.5013424275753551e-05 0 0.024980825369378991 4.012533314696743e-05 0 0.024941832684325444 2.9129347077230747e-05 0 0.024988370516132025 1.5013424275753551e-05 0 0.024970675121501775 1.7357879053762873e-05 0 0.024999897747236436 3.0414626177392774e-09 0 0.024988370516132025 1.5013424275753551e-05 0 0.024967263880875799 1.9033840712221226e-05 0 0.024970675121501775 1.7357879053762873e-05 0 0.024999897747236436 3.0414626177392774e-09 0 0.025005895576033894 1.6902423438364049e-05 0 0.025000015129306611 2.703823558095927e-09 0 0.024988370516132025 1.5013424275753551e-05 0 0.024999897747236436 3.0414626177392774e-09 0 0.025000015129306611 2.703823558095927e-09 0 0.024988370516132025 1.5013424275753551e-05 0 0.025005895576033894 1.6902423438364049e-05 0 0.024988370516132025 1.5013424275753551e-05 0 0.024994050731611143 2.9241928889926915e-05 0 0.024980825369378991 4.012533314696743e-05 0 0.024988370516132025 1.5013424275753551e-05 0 0.024994050731611143 2.9241928889926915e-05 0 0.024808304986938777 -2.3182766153385732e-05 0 0.024750561766245856 -3.7812402544183991e-05 0 0.024780880575989577 1.0785349421466158e-05 0 0.024808304986938777 -2.3182766153385732e-05 0 0.024780880575989577 1.0785349421466158e-05 0 0.024836064028789146 -1.6921428585257476e-05 0 0.024808304986938777 -2.3182766153385732e-05 0 0.024874752860105983 -1.4904672403493094e-05 0 0.024781162496150286 -7.5820614344185796e-05 0 0.024808304986938777 -2.3182766153385732e-05 0 0.024750561766245856 -3.7812402544183991e-05 0 0.024781162496150286 -7.5820614344185796e-05 0 0.024750561766245856 -3.7812402544183991e-05 0 0.024711775575982083 -6.9568130457964061e-05 0 0.024655340178204463 -3.4756199782925287e-05 0 0.023513119580060953 9.5430270557387366e-05 0 0.02337212108501167 7.2659951278587976e-05 0 0.024750561766245856 -3.7812402544183991e-05 0 0.024781162496150286 -7.5820614344185796e-05 0 0.024711775575982083 -6.9568130457964061e-05 0 0.024750561766245856 -3.7812402544183991e-05 0 0.024780880575989577 1.0785349421466158e-05 0 0.024655340178204463 -3.4756199782925287e-05 0 0.022130742098680007 0.00021347743456958496 0 0.022332005954839869 0.00021228369632884554 0 0.022263785710208293 0.00015880431048800319 0 0.022067650398515725 0.00023076057124174059 0 0.022130742098680007 0.00021347743456958496 0 0.022263785710208293 0.00015880431048800319 0 0.023178555437910146 0.00030992102422278144 0 0.023513119580060953 9.5430270557387366e-05 0 0.023178555437910146 0.00030992102422278144 0 0.025083980717323515 -0.00026198450261110263 0 0.024795569741281987 1.3196770234055303e-05 0 0.024780880575989577 1.0785349421466158e-05 0 0.024816122523154589 -2.1503245297955038e-05 0 0.024780880575989577 1.0785349421466158e-05 0 0.024816122523154589 -2.1503245297955038e-05 0 0.024836064028789146 -1.6921428585257476e-05 0 0.024759477921234226 -9.1462488471577449e-05 0 0.024809091284403999 -0.00010057669647342161 0 0.024816122523154589 -2.1503245297955038e-05 0 0.024759477921234226 -9.1462488471577449e-05 0 0.024737626111982682 -4.7389385771166906e-05 0 0.024816122523154589 -2.1503245297955038e-05 0 0.024737626111982682 -4.7389385771166906e-05 0 0.024816122523154589 -2.1503245297955038e-05 0 0.024777062415377787 4.8555696221956619e-06 0 0.024816122523154589 -2.1503245297955038e-05 0 0.024777062415377787 4.8555696221956619e-06 0 0.024836064028789146 -1.6921428585257476e-05 0 0.024777062415377787 4.8555696221956619e-06 0 0.024836064028789146 -1.6921428585257476e-05 0 0.024874752860105983 -1.4904672403493094e-05 0 0.024808304986938777 -2.3182766153385732e-05 0 0.024836064028789146 -1.6921428585257476e-05 0 0.024874752860105983 -1.4904672403493094e-05 0 0.025024870265828825 1.2126609122061398e-05 0 0.024867476732289527 -5.5343125231285638e-06 0 0.024933025081944667 6.8980037381614814e-06 0 0.024979930572930676 8.1132991730381548e-06 0 0.024973146675813924 2.9106433329188264e-06 0 0.024874752860105983 -1.4904672403493094e-05 0 0.024933025081944667 6.8980037381614814e-06 0 0.024988566892178998 -1.4581810672423116e-05 0 0.024777062415377787 4.8555696221956619e-06 0 0.024874752860105983 -1.4904672403493094e-05 0 0.024933025081944667 6.8980037381614814e-06 0 0.024933025081944667 6.8980037381614814e-06 0 0.024973146675813924 2.9106433329188264e-06 0 0.024976247845649058 5.8731991401047337e-06 0 0.024967252868231118 1.5960123667247978e-05 0 0.024973920741398866 1.9271166383365174e-05 0 0.024979930572930676 8.1132991730381548e-06 0 0.024973920741398866 1.9271166383365174e-05 0 0.024933025081944667 6.8980037381614814e-06 0 0.024979930572930676 8.1132991730381548e-06 0 0.024995167201019911 1.1574560297395932e-06 0 0.024979930572930676 8.1132991730381548e-06 0 0.024999954389474385 -6.911772535370427e-09 0 0.024979930572930676 8.1132991730381548e-06 0 0.024999954389474385 -6.911772535370427e-09 0 0.024973146675813924 2.9106433329188264e-06 0 0.024999954389474385 -6.911772535370427e-09 0 0.024973146675813924 2.9106433329188264e-06 0 0.024999950048894184 1.6497589172242636e-08 0 0.024999950048894184 1.6497589172242636e-08 0 0.024976247845649058 5.8731991401047337e-06 0 0.024994393824497422 1.9161729234388449e-06 0 0.024973146675813924 2.9106433329188264e-06 0 0.024999950048894184 1.6497589172242636e-08 0 0.024976247845649058 5.8731991401047337e-06 0 0.024933025081944667 6.8980037381614814e-06 0 0.024976247845649058 5.8731991401047337e-06 0 0.024988566892178998 -1.4581810672423116e-05 0 0.024880229444781479 -2.2825869040443472e-05 0 0.02487002630647777 -4.2989602741413012e-05 0 0.024976247845649058 5.8731991401047337e-06 0 0.024988566892178998 -1.4581810672423116e-05 0 0.024994393824497422 1.9161729234388449e-06 0 0.024781162496150286 -7.5820614344185796e-05 0 0.024711775575982083 -6.9568130457964061e-05 0 0.024684512902911224 -0.00010119213641563594 0 0.02487002630647777 -4.2989602741413012e-05 0 0.024896105005595089 -5.0085585344714592e-05 0 0.024988566892178998 -1.4581810672423116e-05 0 0.024994393824497422 1.9161729234388449e-06 0 0.025000791513428947 -5.7214575838934285e-06 0 0.024711775575982083 -6.9568130457964061e-05 0 0.024677388102106519 -0.00011046279741602846 0 0.024655340178204463 -3.4756199782925287e-05 0 0.024746182381507015 -0.0001230808782232924 0 0.024896105005595089 -5.0085585344714592e-05 0 0.024999331155881484 -1.70669425982555e-07 0 0.024994393824497422 1.9161729234388449e-06 0 0.025000791513428947 -5.7214575838934285e-06 0 0.024999950048894184 1.6497589172242636e-08 0 0.024994393824497422 1.9161729234388449e-06 0 0.025000006603555017 -1.3219603918621229e-09 0 0.024999331155881484 -1.70669425982555e-07 0 0.024994393824497422 1.9161729234388449e-06 0 0.025000006603555017 -1.3219603918621229e-09 0 0.025000006603555017 -1.3219603918621229e-09 0 0.025000679656091439 -5.5864379784657072e-08 0 0.024999997980896541 6.5168138878646055e-10 0 0.024999331155881484 -1.70669425982555e-07 0 0.025000006603555017 -1.3219603918621229e-09 0 0.025000679656091439 -5.5864379784657072e-08 0 0.025005827124308599 2.2978305160204234e-05 0 0.025002260581687249 2.7725444356730112e-05 0 0.025002263840375183 2.5640317384562908e-05 0 0.025005827124308599 2.2978305160204234e-05 0 0.025000163562340062 1.2084496197403607e-07 0 0.025002260581687249 2.7725444356730112e-05 0 0.025014842684425852 2.3374115006955467e-05 0 0.024999989210759001 -7.0515715630429706e-09 0 0.024503273124955018 -0.00013746128573039696 0 0.024677388102106519 -0.00011046279741602846 0 0.024655340178204463 -3.4756199782925287e-05 0 0.024437100220095362 0.00012102974429515482 0 0.02337212108501167 7.2659951278587976e-05 0 0.024437100220095362 0.00012102974429515482 0 0.024896105005595089 -5.0085585344714592e-05 0 0.025005827124308599 2.2978305160204234e-05 0 0.025002263840375183 2.5640317384562908e-05 0 0.02500485607403367 2.2799915083118001e-05 0 0.024999331155881484 -1.70669425982555e-07 0 0.025000679656091439 -5.5864379784657072e-08 0 0.025000791513428947 -5.7214575838934285e-06 0 0.025014842684425852 2.3374115006955467e-05 0 0.024896105005595089 -5.0085585344714592e-05 0 0.024685709284050568 0.00022095093025267004 0 0.024999765141110422 -7.0485078525823684e-08 0 0.024855239447998657 9.8426947847815992e-05 0 0.024999765141110422 -7.0485078525823684e-08 0 0.024999473321916717 5.8414436643725497e-07 0 0.024855239447998657 9.8426947847815992e-05 0 0.025002260581687249 2.7725444356730112e-05 0 0.024995909713586301 5.7060411860837684e-05 0 0.024999765141110422 -7.0485078525823684e-08 0 0.025000163562340062 1.2084496197403607e-07 0 0.025002260581687249 2.7725444356730112e-05 0 0.024999765141110422 -7.0485078525823684e-08 0 0.025363128775627998 0.00034049290850884109 0 0.024685709284050568 0.00022095093025267004 0 0.024995909713586301 5.7060411860837684e-05 0 0.024685709284050568 0.00022095093025267004 0 0.024995909713586301 5.7060411860837684e-05 0 0.024999765141110422 -7.0485078525823684e-08 0 0.024437100220095362 0.00012102974429515482 0 0.025207365156272265 0.00018317301413607685 0 0.025002260581687249 2.7725444356730112e-05 0 0.025002263840375183 2.5640317384562908e-05 0 0.024995909713586301 5.7060411860837684e-05 0 0.023119764422586751 0.00057504591061182753 0 0.023992329871277324 0.00017948562062426206 0 0.02335416028138226 0.00010080401518974885 0 0.024437100220095362 0.00012102974429515482 0 0.024544947982518533 0.00034209486844920576 0 0.023119764422586751 0.00057504591061182753 0 0.024685709284050568 0.00022095093025267004 0 0.023992329871277324 0.00017948562062426206 0 0.023976206292624484 0.00017748337082101941 0 0.024360329843570654 -0.00023992635888073015 0 0.024685709284050568 0.00022095093025267004 0 0.023992329871277324 0.00017948562062426206 0 0.024778187430155998 5.7324740126890373e-05 0 0.023992329871277324 0.00017948562062426206 0 0.024778187430155998 5.7324740126890373e-05 0 0.024842751054220583 -0.00030984165350044098 0 0.024685709284050568 0.00022095093025267004 0 0.024778187430155998 5.7324740126890373e-05 0 0.024855239447998657 9.8426947847815992e-05 0 0.023992329871277324 0.00017948562062426206 0 0.023800557618708622 -2.590266764542094e-05 0 0.023865298020499113 -9.4784744372631519e-05 0 0.023800557618708622 -2.590266764542094e-05 0 0.023783164054732478 -0.00022847363607755625 0 0.023865298020499113 -9.4784744372631519e-05 0 0.023800557618708622 -2.590266764542094e-05 0 0.02335416028138226 0.00010080401518974885 0 0.023554558367297671 -0.00039801662822776306 0 0.023992329871277324 0.00017948562062426206 0 0.023800557618708622 -2.590266764542094e-05 0 0.02335416028138226 0.00010080401518974885 0 0.023800557618708622 -2.590266764542094e-05 0 0.023554558367297671 -0.00039801662822776306 0 0.023783164054732478 -0.00022847363607755625 0 0.023783164054732478 -0.00022847363607755625 0 0.023832986186123426 -0.00023422810629651503 0 0.023865298020499113 -9.4784744372631519e-05 0 0.022332005954839869 0.00021228369632884554 0 0.022605672251645587 8.9048623359910306e-06 0 0.022263785710208293 0.00015880431048800319 0 0.023119764422586751 0.00057504591061182753 0 0.022332005954839869 0.00021228369632884554 0 0.022605672251645587 8.9048623359910306e-06 0 0.023119764422586751 0.00057504591061182753 0 0.02335416028138226 0.00010080401518974885 0 0.022605672251645587 8.9048623359910306e-06 0 0.02335416028138226 0.00010080401518974885 0 0.023554558367297671 -0.00039801662822776306 0 0.022605672251645587 8.9048623359910306e-06 0 0.022848204187585514 -5.2567349496674636e-05 0 0.022612280153457519 2.3813136621552454e-05 0 0.022161846915072451 0.00024866602071620412 0 0.022605672251645587 8.9048623359910306e-06 0 0.022308552113263536 0.00020962866510662343 0 0.022605672251645587 8.9048623359910306e-06 0 0.022308552113263536 0.00020962866510662343 0 0.022263785710208293 0.00015880431048800319 0 0.022308552113263536 0.00020962866510662343 0 0.022263785710208293 0.00015880431048800319 0 0.022119906840912328 0.0002543544319606634 0 0.022119906840912328 0.0002543544319606634 0 0.022131516036647165 0.00035221238353557387 0 0.021961537590401422 0.00030638006036925346 0 0.022308552113263536 0.00020962866510662343 0 0.022119906840912328 0.0002543544319606634 0 0.022131516036647165 0.00035221238353557387 0 0.022161846915072451 0.00024866602071620412 0 0.022308552113263536 0.00020962866510662343 0 0.022131516036647165 0.00035221238353557387 0 0.022848204187585514 -5.2567349496674636e-05 0 0.023038380723746664 6.2232442302824042e-05 0 0.022161846915072451 0.00024866602071620412 0 0.022243451440018137 0.00041171154014435913 0 0.022131516036647165 0.00035221238353557387 0 0.023554558367297671 -0.00039801662822776306 0 0.023783164054732478 -0.00022847363607755625 0 0.023834254578397378 -0.0002776537086290421 0 0.023783164054732478 -0.00022847363607755625 0 0.023834254578397378 -0.0002776537086290421 0 0.023832986186123426 -0.00023422810629651503 0 0.022243451440018137 0.00041171154014435913 0 0.022271333367727453 0.00036294171773664386 0 0.022131516036647165 0.00035221238353557387 0 0.022243451440018137 0.00041171154014435913 0 0.022271333367727453 0.00036294171773664386 0 0.022543227483172362 0.00043995671667881148 0 0.022271333367727453 0.00036294171773664386 0 0.022131516036647165 0.00035221238353557387 0 0.022152737575586681 0.00025111174016991873 0 0.022131516036647165 0.00035221238353557387 0 0.022152737575586681 0.00025111174016991873 0 0.021961537590401422 0.00030638006036925346 0 0.022152737575586681 0.00025111174016991873 0 0.022111555071595658 0.00022869660761708536 0 0.021961537590401422 0.00030638006036925346 0 0.022271333367727453 0.00036294171773664386 0 0.022152737575586681 0.00025111174016991873 0 0.022391755124213653 0.00030780878257090247 0 0.022152737575586681 0.00025111174016991873 0 0.022503443833765045 0.00016192348599737574 0 0.022391755124213653 0.00030780878257090247 0 0.022152737575586681 0.00025111174016991873 0 0.022068213150709046 0.00026086939841232012 0 0.021925296714490464 0.00023279210094730231 0 0.022144654631155211 0.00025149400365710853 0 0.022208632429399831 0.00020989198812140455 0 0.022152737575586681 0.00025111174016991873 0 0.022068213150709046 0.00026086939841232012 0 0.022111555071595658 0.00022869660761708536 0 0.021740602267990992 0.00036241429771316204 0 0.021792575377628305 0.00037321157017952043 0 0.021961537590401422 0.00030638006036925346 0 0.02195198466671229 0.0003088329073930383 0 0.021954368565054633 0.0003097278389320255 0 0.021740602267990992 0.00036241429771316204 0 0.021690949578463695 0.0003777851157948551 0 0.021870761501437564 0.00032560538925142002 0 0.021740602267990992 0.00036241429771316204 0 0.021870761501437564 0.00032560538925142002 0 0.021961537590401422 0.00030638006036925346 0 0.021870761501437564 0.00032560538925142002 0 0.022119906840912328 0.0002543544319606634 0 0.021961537590401422 0.00030638006036925346 0 0.023542999390644793 0.0002026734135156455 0 0.023635676572903899 4.9375783176976322e-05 0 0.023480336383716938 0.00025214273257754248 0 0.023602973508841329 4.0390864062288243e-05 0 0.023660773235187126 -0.00018042116651666965 0 0.023480336383716938 0.00025214273257754248 0 0.023448354414010376 0.00021986669447307587 0 0.023594938514935677 0.00017126381381869885 0 0.023480336383716938 0.00025214273257754248 0 0.023559603018464766 0.00027627570326297323 0 0.023575772765220947 0.00014860560914608587 0 0.023480336383716938 0.00025214273257754248 0 0.023575772765220947 0.00014860560914608587 0 0.023602973508841329 4.0390864062288243e-05 0 0.023480336383716938 0.00025214273257754248 0 0.023448354414010376 0.00021986669447307587 0 0.02331384209822622 0.00027880025400830739 0 0.023448354414010376 0.00021986669447307587 0 0.02331384209822622 0.00027880025400830739 0 0.023388495268365894 0.00012749513030884581 0 0.023229312788335808 0.00029034661159600743 0 0.023480336383716938 0.00025214273257754248 0 0.02331384209822622 0.00027880025400830739 0 0.023229312788335808 0.00029034661159600743 0 0.02331384209822622 0.00027880025400830739 0 0.023220194249931936 0.00027882263989750886 0 0.023229312788335808 0.00029034661159600743 0 0.023480336383716938 0.00025214273257754248 0 0.023559603018464766 0.00027627570326297323 0 0.023247667683389237 0.00028600871448702307 0 0.023229373378866113 0.00030531267650123325 0 0.023229312788335808 0.00029034661159600743 0 0.02289712057051321 0.00037551681617307308 0 0.02281484669743716 0.00023702501073598778 0 0.02289712057051321 0.00037551681617307308 0 0.02281484669743716 0.00023702501073598778 0 0.022624897035969017 0.0003063820545356895 0 0.02281484669743716 0.00023702501073598778 0 0.022624897035969017 0.0003063820545356895 0 0.022503443833765045 0.00016192348599737574 0 0.022624897035969017 0.0003063820545356895 0 0.022503443833765045 0.00016192348599737574 0 0.022391755124213653 0.00030780878257090247 0 0.022271333367727453 0.00036294171773664386 0 0.022391755124213653 0.00030780878257090247 0 0.022543227483172362 0.00043995671667881148 0 0.022624897035969017 0.0003063820545356895 0 0.022391755124213653 0.00030780878257090247 0 0.022543227483172362 0.00043995671667881148 0 0.023575772765220947 0.00014860560914608587 0 0.023602973508841329 4.0390864062288243e-05 0 0.023827822424673344 -5.535432926734894e-05 0 0.023229373378866113 0.00030531267650123325 0 0.023182502710173671 0.00019028810752995783 0 0.023559603018464766 0.00027627570326297323 0 0.023575772765220947 0.00014860560914608587 0 0.023827822424673344 -5.535432926734894e-05 0 0.02289712057051321 0.00037551681617307308 0 0.022624897035969017 0.0003063820545356895 0 0.022543227483172362 0.00043995671667881148 0 0.023719313962615732 -9.3589225675223369e-05 0 0.023827822424673344 -5.535432926734894e-05 0 0.023757052927493586 -0.00019140391578912602 0 0.023602973508841329 4.0390864062288243e-05 0 0.023719313962615732 -9.3589225675223369e-05 0 0.023660773235187126 -0.00018042116651666965 0 0.023602973508841329 4.0390864062288243e-05 0 0.023719313962615732 -9.3589225675223369e-05 0 0.023827822424673344 -5.535432926734894e-05 0 0.023719313962615732 -9.3589225675223369e-05 0 0.023660773235187126 -0.00018042116651666965 0 0.023757052927493586 -0.00019140391578912602 0 0.023834254578397378 -0.0002776537086290421 0 0.023827822424673344 -5.535432926734894e-05 0 0.023815734075994969 -0.00023060633745381384 0 0.023038380723746664 6.2232442302824042e-05 0 0.023182502710173671 0.00019028810752995783 0 0.023827822424673344 -5.535432926734894e-05 0 0.023815734075994969 -0.00023060633745381384 0 0.023757052927493586 -0.00019140391578912602 0 0.023834254578397378 -0.0002776537086290421 0 0.023815734075994969 -0.00023060633745381384 0 0.023832986186123426 -0.00023422810629651503 0 0.023815734075994969 -0.00023060633745381384 0 0.023757052927493586 -0.00019140391578912602 0 0.023835876868578496 -0.0002465687681334522 0 0.023635676572903899 4.9375783176976322e-05 0 0.024473073764207331 -3.6400868612544159e-05 0 0.023851207520098328 0.00022913264681484789 0 0.024036303497024389 0.00043724100376746534 0 0.023919536508885647 0.00049447427716016565 0 0.023660773235187126 -0.00018042116651666965 0 0.023757052927493586 -0.00019140391578912602 0 0.023835876868578496 -0.0002465687681334522 0 0.023802675598839928 0.00016090753779948521 0 0.023851207520098328 0.00022913264681484789 0 0.023919536508885647 0.00049447427716016565 0 0.024800028178829415 0.00024050590074404694 0 0.024504151384737709 0.00030075965385545367 0 0.024688467757408 0.00017321517315878514 0 0.024399482135209063 0.00035899378242917565 0 0.024521988342749247 0.00028010440070134064 0 0.024036303497024389 0.00043724100376746534 0 0.024237590999451688 0.00027281759186345323 0 0.024504151384737709 0.00030075965385545367 0 0.023851207520098328 0.00022913264681484789 0 0.024036303497024389 0.00043724100376746534 0 0.024237590999451688 0.00027281759186345323 0 0.023851207520098328 0.00022913264681484789 0 0.023594938514935677 0.00017126381381869885 0 0.023388495268365894 0.00012749513030884581 0 0.023802675598839928 0.00016090753779948521 0 0.023851207520098328 0.00022913264681484789 0 0.023594938514935677 0.00017126381381869885 0 0.023480336383716938 0.00025214273257754248 0 0.023802675598839928 0.00016090753779948521 0 0.023594938514935677 0.00017126381381869885 0 0.023851207520098328 0.00022913264681484789 0 0.024237590999451688 0.00027281759186345323 0 0.024536341444423675 0.00020771891366221058 0 0.023831281437722961 0.00023878143291751751 0 0.023941628565537651 0.00018869241608544999 0 0.024536341444423675 0.00020771891366221058 0 0.024504151384737709 0.00030075965385545367 0 0.024466030045922096 0.00023857987349362459 0 0.023448354414010376 0.00021986669447307587 0 0.023594938514935677 0.00017126381381869885 0 0.023388495268365894 0.00012749513030884581 0 0.024237590999451688 0.00027281759186345323 0 0.024536341444423675 0.00020771891366221058 0 0.024504151384737709 0.00030075965385545367 0 0.024504151384737709 0.00030075965385545367 0 0.024550390226605205 0.0002098694067865982 0 0.024466030045922096 0.00023857987349362459 0 0.024504151384737709 0.00030075965385545367 0 0.024550390226605205 0.0002098694067865982 0 0.024688467757408 0.00017321517315878514 0 0.024662457476585669 0.00012979040153639489 0 0.024688467757408 0.00017321517315878514 0 0.024822968476210072 8.6133730526849554e-05 0 0.024550390226605205 0.0002098694067865982 0 0.024662457476585669 0.00012979040153639489 0 0.024688467757408 0.00017321517315878514 0 0.024800028178829415 0.00024050590074404694 0 0.024688467757408 0.00017321517315878514 0 0.024834616794338168 0.00014131685353994573 0 0.024688467757408 0.00017321517315878514 0 0.024834616794338168 0.00014131685353994573 0 0.024822968476210072 8.6133730526849554e-05 0 0.024800028178829415 0.00024050590074404694 0 0.024834616794338168 0.00014131685353994573 0 0.024933296880701759 0.00015969489548054377 0 0.024834616794338168 0.00014131685353994573 0 0.024822968476210072 8.6133730526849554e-05 0 0.024908874379588289 8.5725988242300028e-05 0 0.024822968476210072 8.6133730526849554e-05 0 0.024908874379588289 8.5725988242300028e-05 0 0.024931408863835654 3.6535220345714976e-05 0 0.024662457476585669 0.00012979040153639489 0 0.024822968476210072 8.6133730526849554e-05 0 0.024788824789380385 7.2056434286402307e-05 0 0.023815734075994969 -0.00023060633745381384 0 0.023832986186123426 -0.00023422810629651503 0 0.023835876868578496 -0.0002465687681334522 0 0.023832986186123426 -0.00023422810629651503 0 0.023835876868578496 -0.0002465687681334522 0 0.023865298020499113 -9.4784744372631519e-05 0 0.024399482135209063 0.00035899378242917565 0 0.024473073764207331 -3.6400868612544159e-05 0 0.024834616794338168 0.00014131685353994573 0 0.024933296880701759 0.00015969489548054377 0 0.024908874379588289 8.5725988242300028e-05 0 0.024473073764207331 -3.6400868612544159e-05 0 0.025093963405231172 -5.9197086019881284e-05 0 0.024933296880701759 0.00015969489548054377 0 0.024908874379588289 8.5725988242300028e-05 0 0.024985771630562679 3.0580114741625661e-05 0 0.025184085222787013 -0.00053739983035615301 0 0.024842751054220583 -0.00030984165350044098 0 0.025038280627485917 -4.6359820146729746e-05 0 0.024473073764207331 -3.6400868612544159e-05 0 0.024360329843570654 -0.00023992635888073015 0 0.024778187430155998 5.7324740126890373e-05 0 0.025038280627485917 -4.6359820146729746e-05 0 0.024855239447998657 9.8426947847815992e-05 0 0.024778187430155998 5.7324740126890373e-05 0 0.024842751054220583 -0.00030984165350044098 0 0.025038280627485917 -4.6359820146729746e-05 0 0.024908874379588289 8.5725988242300028e-05 0 0.024985771630562679 3.0580114741625661e-05 0 0.024931408863835654 3.6535220345714976e-05 0 0.024985771630562679 3.0580114741625661e-05 0 0.024931408863835654 3.6535220345714976e-05 0 0.024977663531737918 8.3923001586289906e-06 0 0.024985771630562679 3.0580114741625661e-05 0 0.024977663531737918 8.3923001586289906e-06 0 0.025000012407465588 -1.0336494774193923e-08 0 0.024977663531737918 8.3923001586289906e-06 0 0.025000012407465588 -1.0336494774193923e-08 0 0.024999927640086343 1.4310041259684567e-08 0 0.025038280627485917 -4.6359820146729746e-05 0 0.024999473321916717 5.8414436643725497e-07 0 0.024855239447998657 9.8426947847815992e-05 0 0.025093963405231172 -5.9197086019881284e-05 0 0.024999937592916199 9.7676151970341819e-08 0 0.024788824789380385 7.2056434286402307e-05 0 0.02487028478443724 3.4873572977731996e-05 0 0.024919242611618146 2.1420805193888834e-05 0 0.024822968476210072 8.6133730526849554e-05 0 0.024788824789380385 7.2056434286402307e-05 0 0.024919242611618146 2.1420805193888834e-05 0 0.024931408863835654 3.6535220345714976e-05 0 0.024977663531737918 8.3923001586289906e-06 0 0.024919242611618146 2.1420805193888834e-05 0 0.024822968476210072 8.6133730526849554e-05 0 0.024931408863835654 3.6535220345714976e-05 0 0.024919242611618146 2.1420805193888834e-05 0 0.024977663531737918 8.3923001586289906e-06 0 0.024919242611618146 2.1420805193888834e-05 0 0.024999927640086343 1.4310041259684567e-08 0 0.024919242611618146 2.1420805193888834e-05 0 0.024999927640086343 1.4310041259684567e-08 0 0.024950832746281237 6.8211387719499321e-06 0 0.02487028478443724 3.4873572977731996e-05 0 0.024919242611618146 2.1420805193888834e-05 0 0.024950832746281237 6.8211387719499321e-06 0 0.024999927640086343 1.4310041259684567e-08 0 0.024950832746281237 6.8211387719499321e-06 0 0.024999689154124656 -5.3472240645419711e-08 0 0.02487028478443724 3.4873572977731996e-05 0 0.024950832746281237 6.8211387719499321e-06 0 0.024926707331473494 1.3394352598096007e-05 0 0.024950832746281237 6.8211387719499321e-06 0 0.024999689154124656 -5.3472240645419711e-08 0 0.024926707331473494 1.3394352598096007e-05 0 0.024999689154124656 -5.3472240645419711e-08 0 0.02499314294650103 -3.9306924879536607e-06 0 0.025000065098504744 8.0695429885582777e-09 0 0.024999689154124656 -5.3472240645419711e-08 0 0.02499314294650103 -3.9306924879536607e-06 0 0.024926707331473494 1.3394352598096007e-05 0 0.02499314294650103 -3.9306924879536607e-06 0 0.024843852960282267 1.6197902430639179e-05 0 0.02475390096835807 -6.1879038403265685e-06 0 0.02499314294650103 -3.9306924879536607e-06 0 0.024909739704833827 1.2284718768793138e-05 0 0.024926707331473494 1.3394352598096007e-05 0 0.02499314294650103 -3.9306924879536607e-06 0 0.024909739704833827 1.2284718768793138e-05 0 0.024843852960282267 1.6197902430639179e-05 0 0.024864479437348458 2.4968073988566923e-05 0 0.024826405223763927 4.7638888093899968e-05 0 0.024794117245922665 4.2491061449813469e-05 0 0.024909739704833827 1.2284718768793138e-05 0 0.024843852960282267 1.6197902430639179e-05 0 0.024864479437348458 2.4968073988566923e-05 0 0.024843852960282267 1.6197902430639179e-05 0 0.024864479437348458 2.4968073988566923e-05 0 0.024794117245922665 4.2491061449813469e-05 0 0.02487028478443724 3.4873572977731996e-05 0 0.024926707331473494 1.3394352598096007e-05 0 0.024826405223763927 4.7638888093899968e-05 0 0.024864479437348458 2.4968073988566923e-05 0 0.024926707331473494 1.3394352598096007e-05 0 0.024826405223763927 4.7638888093899968e-05 0 0.024909739704833827 1.2284718768793138e-05 0 0.024864479437348458 2.4968073988566923e-05 0 0.024926707331473494 1.3394352598096007e-05 0 0.02487028478443724 3.4873572977731996e-05 0 0.024826405223763927 4.7638888093899968e-05 0 0.024783554517392184 6.8773382957067005e-05 0 0.024826405223763927 4.7638888093899968e-05 0 0.024748610030981118 7.5059082967557169e-05 0 0.024794117245922665 4.2491061449813469e-05 0 0.024826405223763927 4.7638888093899968e-05 0 0.024783554517392184 6.8773382957067005e-05 0 0.024748610030981118 7.5059082967557169e-05 0 0.024783554517392184 6.8773382957067005e-05 0 0.024748610030981118 7.5059082967557169e-05 0 0.024682874638630652 0.00011125373870234784 0 0.024788824789380385 7.2056434286402307e-05 0 0.02487028478443724 3.4873572977731996e-05 0 0.024783554517392184 6.8773382957067005e-05 0 0.02469080623644105 9.2858558712598618e-05 0 0.024748610030981118 7.5059082967557169e-05 0 0.024724704767627011 5.6521003476726715e-05 0 0.02469080623644105 9.2858558712598618e-05 0 0.024748610030981118 7.5059082967557169e-05 0 0.024682874638630652 0.00011125373870234784 0 0.024748610030981118 7.5059082967557169e-05 0 0.024724704767627011 5.6521003476726715e-05 0 0.024794117245922665 4.2491061449813469e-05 0 0.02469080623644105 9.2858558712598618e-05 0 0.024724704767627011 5.6521003476726715e-05 0 0.024661190157219678 5.2658308017725552e-05 0 0.024724704767627011 5.6521003476726715e-05 0 0.024694080182331359 2.0579144394595555e-05 0 0.024661190157219678 5.2658308017725552e-05 0 0.024694080182331359 2.0579144394595555e-05 0 0.02475390096835807 -6.1879038403265685e-06 0 0.024660196160993096 -4.0553642086404441e-05 0 0.02499314294650103 -3.9306924879536607e-06 0 0.025000065098504744 8.0695429885582777e-09 0 0.025000052251754768 -5.0070715534927239e-07 0 0.024966515215743272 -9.1389124700966003e-06 0 0.024859428219001695 -1.5290795613796258e-05 0 0.02499314294650103 -3.9306924879536607e-06 0 0.02475390096835807 -6.1879038403265685e-06 0 0.024660196160993096 -4.0553642086404441e-05 0 0.024724704767627011 5.6521003476726715e-05 0 0.024694080182331359 2.0579144394595555e-05 0 0.024753940773574325 2.4205284645330885e-05 0 0.024694080182331359 2.0579144394595555e-05 0 0.024753940773574325 2.4205284645330885e-05 0 0.02475390096835807 -6.1879038403265685e-06 0 0.024724704767627011 5.6521003476726715e-05 0 0.024794117245922665 4.2491061449813469e-05 0 0.024753940773574325 2.4205284645330885e-05 0 0.024843852960282267 1.6197902430639179e-05 0 0.024794117245922665 4.2491061449813469e-05 0 0.024753940773574325 2.4205284645330885e-05 0 0.024843852960282267 1.6197902430639179e-05 0 0.024753940773574325 2.4205284645330885e-05 0 0.02475390096835807 -6.1879038403265685e-06 0 0.025000065098504744 8.0695429885582777e-09 0 0.025000052251754768 -5.0070715534927239e-07 0 0.024999961617412872 -4.4117286588608617e-09 0 0.024660196160993096 -4.0553642086404441e-05 0 0.024605424839325929 1.7009618783187181e-05 0 0.02456134412428089 9.3708188758116821e-06 0 0.024660196160993096 -4.0553642086404441e-05 0 0.024605424839325929 1.7009618783187181e-05 0 0.024653657765608329 1.3870394381420626e-05 0 0.024605424839325929 1.7009618783187181e-05 0 0.024653657765608329 1.3870394381420626e-05 0 0.024661190157219678 5.2658308017725552e-05 0 0.024694080182331359 2.0579144394595555e-05 0 0.024653657765608329 1.3870394381420626e-05 0 0.024661190157219678 5.2658308017725552e-05 0 0.024694080182331359 2.0579144394595555e-05 0 0.024660196160993096 -4.0553642086404441e-05 0 0.024653657765608329 1.3870394381420626e-05 0 0.024859428219001695 -1.5290795613796258e-05 0 0.024651544463197766 -1.2238065639817485e-05 0 0.024660196160993096 -4.0553642086404441e-05 0 0.02456134412428089 9.3708188758116821e-06 0 0.024520859238089755 5.0765014498959678e-06 0 0.025000052251754768 -5.0070715534927239e-07 0 0.024999961617412872 -4.4117286588608617e-09 0 0.024998452640862354 3.4561266490106874e-07 0 0.024999805682290436 -6.4073109456541262e-08 0 0.024651544463197766 -1.2238065639817485e-05 0 0.024003788270176882 -0.00023429895318821838 0 0.024125433050120337 -0.00011305038493903465 0 0.023974441692348539 -6.2619435335711684e-05 0 0.02456134412428089 9.3708188758116821e-06 0 0.024520859238089755 5.0765014498959678e-06 0 0.024614563983401536 8.7606806238462251e-05 0 0.024605424839325929 1.7009618783187181e-05 0 0.02456134412428089 9.3708188758116821e-06 0 0.024614563983401536 8.7606806238462251e-05 0 0.024651544463197766 -1.2238065639817485e-05 0 0.024302579730543533 -5.4814497536431888e-05 0 0.02469080623644105 9.2858558712598618e-05 0 0.024661190157219678 5.2658308017725552e-05 0 0.024614563983401536 8.7606806238462251e-05 0 0.024605424839325929 1.7009618783187181e-05 0 0.024661190157219678 5.2658308017725552e-05 0 0.024614563983401536 8.7606806238462251e-05 0 0.024125433050120337 -0.00011305038493903465 0 0.024094772548849182 7.99424067399263e-05 0 0.024259649231665063 -8.3916098614664538e-06 0 0.02469080623644105 9.2858558712598618e-05 0 0.024614563983401536 8.7606806238462251e-05 0 0.024664521169757606 0.00012516168856882432 0 0.024302579730543533 -5.4814497536431888e-05 0 0.02447486799019952 7.7742773296452983e-05 0 0.024094772548849182 7.99424067399263e-05 0 0.023974441692348539 -6.2619435335711684e-05 0 0.02394747859775578 0.00012749039090312564 0 0.024125433050120337 -0.00011305038493903465 0 0.024094772548849182 7.99424067399263e-05 0 0.023974441692348539 -6.2619435335711684e-05 0 0.024094772548849182 7.99424067399263e-05 0 0.02394747859775578 0.00012749039090312564 0 0.024017192383719545 0.0002258754557709976 0 0.024094772548849182 7.99424067399263e-05 0 0.024242132363286116 0.00014847682938642521 0 0.024108198392538107 0.00023549550762098003 0 0.024094772548849182 7.99424067399263e-05 0 0.024242132363286116 0.00014847682938642521 0 0.024259649231665063 -8.3916098614664538e-06 0 0.024509318779509216 0.00014208405000153961 0 0.02447486799019952 7.7742773296452983e-05 0 0.024503925837377993 0.0001481065116650656 0 0.024682874638630652 0.00011125373870234784 0 0.024664521169757606 0.00012516168856882432 0 0.024242132363286116 0.00014847682938642521 0 0.024503925837377993 0.0001481065116650656 0 0.024259649231665063 -8.3916098614664538e-06 0 0.024662457476585669 0.00012979040153639489 0 0.024503925837377993 0.0001481065116650656 0 0.024682874638630652 0.00011125373870234784 0 0.024550390226605205 0.0002098694067865982 0 0.024662457476585669 0.00012979040153639489 0 0.024503925837377993 0.0001481065116650656 0 0.024788824789380385 7.2056434286402307e-05 0 0.024783554517392184 6.8773382957067005e-05 0 0.024682874638630652 0.00011125373870234784 0 0.024662457476585669 0.00012979040153639489 0 0.024788824789380385 7.2056434286402307e-05 0 0.024682874638630652 0.00011125373870234784 0 0.02469080623644105 9.2858558712598618e-05 0 0.024682874638630652 0.00011125373870234784 0 0.024664521169757606 0.00012516168856882432 0 0.0249334564397036 -1.2740140787997281e-05 0 0.024918146009807799 -1.1415452058861856e-05 0 0.024877183988182332 -4.1021036328510301e-05 0 0.024918146009807799 -1.1415452058861856e-05 0 0.024849869654834426 -7.3648698060451982e-05 0 0.024877183988182332 -4.1021036328510301e-05 0 0.0249334564397036 -1.2740140787997281e-05 0 0.024999940118299625 -2.2922818076719438e-08 0 0.024918146009807799 -1.1415452058861856e-05 0 0.024999940118299625 -2.2922818076719438e-08 0 0.024999729778568923 8.2138572454807791e-08 0 0.024918146009807799 -1.1415452058861856e-05 0 0.024999729778568923 8.2138572454807791e-08 0 0.024918146009807799 -1.1415452058861856e-05 0 0.024858853400455145 4.3719452567222405e-05 0 0.024918146009807799 -1.1415452058861856e-05 0 0.024858853400455145 4.3719452567222405e-05 0 0.02480435218311661 -8.1299307106178943e-05 0 0.024918146009807799 -1.1415452058861856e-05 0 0.02480435218311661 -8.1299307106178943e-05 0 0.024849869654834426 -7.3648698060451982e-05 0 0.024681235024036623 -3.6361063822935658e-05 0 0.02450374157928709 -0.00013034607447647318 0 0.02480435218311661 -8.1299307106178943e-05 0 0.024681235024036623 -3.6361063822935658e-05 0 0.024858853400455145 4.3719452567222405e-05 0 0.02480435218311661 -8.1299307106178943e-05 0 0.024681235024036623 -3.6361063822935658e-05 0 0.024858853400455145 4.3719452567222405e-05 0 0.024562188551900385 2.0283928832245894e-05 0 0.024999729778568923 8.2138572454807791e-08 0 0.024858853400455145 4.3719452567222405e-05 0 0.024999951479208797 -6.6293762425154485e-08 0 0.024399276080819581 0.00012960253072073636 0 0.024858853400455145 4.3719452567222405e-05 0 0.024562188551900385 2.0283928832245894e-05 0 0.025060629240434281 6.3614831103169851e-05 0 0.024858853400455145 4.3719452567222405e-05 0 0.024999951479208797 -6.6293762425154485e-08 0 0.024651544463197766 -1.2238065639817485e-05 0 0.024883984256823335 7.1457421429593985e-05 0 0.024651544463197766 -1.2238065639817485e-05 0 0.025000100233703245 1.760174622290108e-07 0 0.024999997248479722 -1.2548973454408357e-10 0 0.024998563657750703 -2.0703511117912159e-07 0 0.02499999997768634 1.7326069870856517e-11 0 0.024399276080819581 0.00012960253072073636 0 0.024562188551900385 2.0283928832245894e-05 0 0.024522404820014398 -6.3054142398874874e-05 0 0.024399276080819581 0.00012960253072073636 0 0.024522404820014398 -6.3054142398874874e-05 0 0.024498762949129425 -0.00012563799225960928 0 0.024651544463197766 -1.2238065639817485e-05 0 0.024182417563854388 -8.9509759600841441e-05 0 0.024681235024036623 -3.6361063822935658e-05 0 0.024562188551900385 2.0283928832245894e-05 0 0.024522404820014398 -6.3054142398874874e-05 0 0.024681235024036623 -3.6361063822935658e-05 0 0.024522404820014398 -6.3054142398874874e-05 0 0.02450374157928709 -0.00013034607447647318 0 0.024522404820014398 -6.3054142398874874e-05 0 0.024498762949129425 -0.00012563799225960928 0 0.02450374157928709 -0.00013034607447647318 0 0.024498762949129425 -0.00012563799225960928 0 0.02450374157928709 -0.00013034607447647318 0 0.024313393367245716 9.1749112301906928e-05 0 0.024182417563854388 -8.9509759600841441e-05 0 0.024133227692408922 9.4250894616374159e-05 0 0.024313393367245716 9.1749112301906928e-05 0 0.023994119494654628 5.9997987564197575e-05 0 0.023986461015922424 0.00023094735397504397 0 0.02450374157928709 -0.00013034607447647318 0 0.024784446309575794 -0.00017255441810886031 0 0.02480435218311661 -8.1299307106178943e-05 0 0.02450374157928709 -0.00013034607447647318 0 0.024313393367245716 9.1749112301906928e-05 0 0.023994119494654628 5.9997987564197575e-05 0 0.024476904562177795 -0.00011108089562597277 0 0.024385051137332355 -4.5113968124436114e-05 0 0.02480435218311661 -8.1299307106178943e-05 0 0.024849869654834426 -7.3648698060451982e-05 0 0.024808110028935088 -0.00013395725710173211 0 0.024784446309575794 -0.00017255441810886031 0 0.02480435218311661 -8.1299307106178943e-05 0 0.024808110028935088 -0.00013395725710173211 0 0.024385051137332355 -4.5113968124436114e-05 0 0.024277819052586812 7.9547921470083467e-05 0 0.024784446309575794 -0.00017255441810886031 0 0.024808110028935088 -0.00013395725710173211 0 0.024786468504145721 -0.00010419556230486477 0 0.024808110028935088 -0.00013395725710173211 0 0.024737868153434796 -0.00012676907237457041 0 0.024786468504145721 -0.00010419556230486477 0 0.024808110028935088 -0.00013395725710173211 0 0.024737868153434796 -0.00012676907237457041 0 0.024813375581823002 -9.601853416257298e-05 0 0.024849869654834426 -7.3648698060451982e-05 0 0.024813375581823002 -9.601853416257298e-05 0 0.024877183988182332 -4.1021036328510301e-05 0 0.024849869654834426 -7.3648698060451982e-05 0 0.024808110028935088 -0.00013395725710173211 0 0.024813375581823002 -9.601853416257298e-05 0 0.023771546678139473 0.00025148577549998375 0 0.023755035012532191 0.00042733512398768697 0 0.023629081491586136 0.00041919809233018903 0 0.024786468504145721 -0.00010419556230486477 0 0.024579277692672048 -4.1262581579093294e-05 0 0.024579397822546683 0.00019599753032442188 0 0.024277819052586812 7.9547921470083467e-05 0 0.024093676937824972 0.0002970346846540386 0 0.024737868153434796 -0.00012676907237457041 0 0.024786468504145721 -0.00010419556230486477 0 0.024638841452559426 -0.00011526088292037377 0 0.024786468504145721 -0.00010419556230486477 0 0.024638841452559426 -0.00011526088292037377 0 0.024579277692672048 -4.1262581579093294e-05 0 0.023994119494654628 5.9997987564197575e-05 0 0.023771546678139473 0.00025148577549998375 0 0.023986461015922424 0.00023094735397504397 0 0.023771546678139473 0.00025148577549998375 0 0.023896723700658359 0.00034033191858192345 0 0.023986461015922424 0.00023094735397504397 0 0.023771546678139473 0.00025148577549998375 0 0.023896723700658359 0.00034033191858192345 0 0.023755035012532191 0.00042733512398768697 0 0.023896723700658359 0.00034033191858192345 0 0.024006880097446219 0.00029898153222482636 0 0.023934571852929805 0.00037370757020397158 0 0.023896723700658359 0.00034033191858192345 0 0.023986461015922424 0.00023094735397504397 0 0.024006880097446219 0.00029898153222482636 0 0.024006880097446219 0.00029898153222482636 0 0.024017192383719545 0.0002258754557709976 0 0.023974454604763544 0.00033248822683979492 0 0.024313393367245716 9.1749112301906928e-05 0 0.023986461015922424 0.00023094735397504397 0 0.024006880097446219 0.00029898153222482636 0 0.02394747859775578 0.00012749039090312564 0 0.024006880097446219 0.00029898153222482636 0 0.024017192383719545 0.0002258754557709976 0 0.024133227692408922 9.4250894616374159e-05 0 0.024033148565708456 0.00026722371477685774 0 0.024006880097446219 0.00029898153222482636 0 0.023934571852929805 0.00037370757020397158 0 0.023974454604763544 0.00033248822683979492 0 0.023934571852929805 0.00037370757020397158 0 0.023920605303097378 0.00040547062312843514 0 0.023974454604763544 0.00033248822683979492 0 0.023934571852929805 0.00037370757020397158 0 0.023920605303097378 0.00040547062312843514 0 0.023903958541203783 0.00045352937756370262 0 0.023920605303097378 0.00040547062312843514 0 0.023903958541203783 0.00045352937756370262 0 0.023873637886825512 0.00042928853875734614 0 0.023903958541203783 0.00045352937756370262 0 0.023873637886825512 0.00042928853875734614 0 0.023889795916078826 0.00031227544481259386 0 0.023903958541203783 0.00045352937756370262 0 0.023849910417507558 0.00042726098878024149 0 0.023755297983806822 0.00052045665415708395 0 0.023896723700658359 0.00034033191858192345 0 0.023934571852929805 0.00037370757020397158 0 0.023849910417507558 0.00042726098878024149 0 0.023934571852929805 0.00037370757020397158 0 0.023903958541203783 0.00045352937756370262 0 0.023849910417507558 0.00042726098878024149 0 0.023849910417507558 0.00042726098878024149 0 0.023755035012532191 0.00042733512398768697 0 0.023755297983806822 0.00052045665415708395 0 0.023896723700658359 0.00034033191858192345 0 0.023849910417507558 0.00042726098878024149 0 0.023755035012532191 0.00042733512398768697 0 0.023755035012532191 0.00042733512398768697 0 0.023755297983806822 0.00052045665415708395 0 0.02365613932991064 0.00050953870238168702 0 0.023755297983806822 0.00052045665415708395 0 0.023635405630608754 0.00055283552188626554 0 0.023556363369600545 0.00062145062193422413 0 0.023755297983806822 0.00052045665415708395 0 0.023635405630608754 0.00055283552188626554 0 0.02365613932991064 0.00050953870238168702 0 0.023635405630608754 0.00055283552188626554 0 0.02365613932991064 0.00050953870238168702 0 0.02359014880297463 0.00056546664243123726 0 0.023755035012532191 0.00042733512398768697 0 0.02365613932991064 0.00050953870238168702 0 0.023629081491586136 0.00041919809233018903 0 0.024236844246854058 0.00028361766014204141 0 0.024466030045922096 0.00023857987349362459 0 0.024262872595887091 0.00044531662866966138 0 0.024536341444423675 0.00020771891366221058 0 0.024466030045922096 0.00023857987349362459 0 0.024262872595887091 0.00044531662866966138 0 0.024503925837377993 0.0001481065116650656 0 0.024236844246854058 0.00028361766014204141 0 0.024466030045922096 0.00023857987349362459 0 0.024550390226605205 0.0002098694067865982 0 0.024503925837377993 0.0001481065116650656 0 0.024466030045922096 0.00023857987349362459 0 0.024242132363286116 0.00014847682938642521 0 0.024503925837377993 0.0001481065116650656 0 0.024236844246854058 0.00028361766014204141 0 0.024242132363286116 0.00014847682938642521 0 0.024236844246854058 0.00028361766014204141 0 0.024108198392538107 0.00023549550762098003 0 0.024108198392538107 0.00023549550762098003 0 0.024017192383719545 0.0002258754557709976 0 0.023974454604763544 0.00033248822683979492 0 0.024094772548849182 7.99424067399263e-05 0 0.024108198392538107 0.00023549550762098003 0 0.024017192383719545 0.0002258754557709976 0 0.024108198392538107 0.00023549550762098003 0 0.023974454604763544 0.00033248822683979492 0 0.023928862161320404 0.00039585915583693464 0 0.024236844246854058 0.00028361766014204141 0 0.024108198392538107 0.00023549550762098003 0 0.023928862161320404 0.00039585915583693464 0 0.023928862161320404 0.00039585915583693464 0 0.023701193649379663 0.00044329946366445153 0 0.024262872595887091 0.00044531662866966138 0 0.023920605303097378 0.00040547062312843514 0 0.023974454604763544 0.00033248822683979492 0 0.023928862161320404 0.00039585915583693464 0 0.023920605303097378 0.00040547062312843514 0 0.023928862161320404 0.00039585915583693464 0 0.023873637886825512 0.00042928853875734614 0 0.023928862161320404 0.00039585915583693464 0 0.023873637886825512 0.00042928853875734614 0 0.023701193649379663 0.00044329946366445153 0 0.023873637886825512 0.00042928853875734614 0 0.023701193649379663 0.00044329946366445153 0 0.023889795916078826 0.00031227544481259386 0 0.023215548412856082 0.00036007901004096125 0 0.023220194249931936 0.00027882263989750886 0 0.023238632122190791 0.00016592336882838025 0 0.023701193649379663 0.00044329946366445153 0 0.023215548412856082 0.00036007901004096125 0 0.023238632122190791 0.00016592336882838025 0 0.023725263822448987 0.00042859386560020469 0 0.023757928249881738 0.00038414083123617965 0 0.024236844246854058 0.00028361766014204141 0 0.023928862161320404 0.00039585915583693464 0 0.024262872595887091 0.00044531662866966138 0 0.02331384209822622 0.00027880025400830739 0 0.023388495268365894 0.00012749513030884581 0 0.023215548412856082 0.00036007901004096125 0 0.023941628565537651 0.00018869241608544999 0 0.023757928249881738 0.00038414083123617965 0 0.02331384209822622 0.00027880025400830739 0 0.023215548412856082 0.00036007901004096125 0 0.023220194249931936 0.00027882263989750886 0 0.023229312788335808 0.00029034661159600743 0 0.023220194249931936 0.00027882263989750886 0 0.023206725039781623 0.00024921450132556693 0 0.02309457400049476 0.00032375639043863094 0 0.023206725039781623 0.00024921450132556693 0 0.023238632122190791 0.00016592336882838025 0 0.023220194249931936 0.00027882263989750886 0 0.023206725039781623 0.00024921450132556693 0 0.023238632122190791 0.00016592336882838025 0 0.02309457400049476 0.00032375639043863094 0 0.023206725039781623 0.00024921450132556693 0 0.023145866924180716 0.00052279021192726564 0 0.023233266828698879 0.00023115383663949846 0 0.023206725039781623 0.00024921450132556693 0 0.023145866924180716 0.00052279021192726564 0 0.022348003709985083 0.00037039772345430152 0 0.022233458313644889 0.00059657047668076869 0 0.021483377276367555 0.00049524793328481758 0 0.021428728204165859 0.00072199003352473663 0 0.021331993155988563 0.00067788668475757285 0 0.02309457400049476 0.00032375639043863094 0 0.023145866924180716 0.00052279021192726564 0 0.022740933121734419 0.00044831197100629123 0 0.022233458313644889 0.00059657047668076869 0 0.021991065096884314 0.00077764574471861012 0 0.021331993155988563 0.00067788668475757285 0 0.021355573568935426 0.0008129046162124085 0 0.021299542236177811 0.00079419102824479114 0 0.021428728204165859 0.00072199003352473663 0 0.021331993155988563 0.00067788668475757285 0 0.021299542236177811 0.00079419102824479114 0 0.022603871004229184 0.00079343578921391134 0 0.022079500483526998 0.00064054291256726201 0 0.02179554095567281 0.00076145422876739983 0 0.022603871004229184 0.00079343578921391134 0 0.022405470738080527 0.00058324329029719047 0 0.022079500483526998 0.00064054291256726201 0 0.022603871004229184 0.00079343578921391134 0 0.022405470738080527 0.00058324329029719047 0 0.022740933121734419 0.00044831197100629123 0 0.023145866924180716 0.00052279021192726564 0 0.022603871004229184 0.00079343578921391134 0 0.022740933121734419 0.00044831197100629123 0 0.022405470738080527 0.00058324329029719047 0 0.022740933121734419 0.00044831197100629123 0 0.022229956622715361 0.00051181801413017884 0 0.022405470738080527 0.00058324329029719047 0 0.022229956622715361 0.00051181801413017884 0 0.022079500483526998 0.00064054291256726201 0 0.022740933121734419 0.00044831197100629123 0 0.022447129624847156 0.00020908706030856172 0 0.022229956622715361 0.00051181801413017884 0 0.02309457400049476 0.00032375639043863094 0 0.022740933121734419 0.00044831197100629123 0 0.023238632122190791 0.00016592336882838025 0 0.023701193649379663 0.00044329946366445153 0 0.023238632122190791 0.00016592336882838025 0 0.023889795916078826 0.00031227544481259386 0 0.022740933121734419 0.00044831197100629123 0 0.023238632122190791 0.00016592336882838025 0 0.022447129624847156 0.00020908706030856172 0 0.023220341262293866 0.00018161260432437615 0 0.023161265434698045 0.00027359708295321259 0 0.023903958541203783 0.00045352937756370262 0 0.023889795916078826 0.00031227544481259386 0 0.023885677891760299 0.00051548330731685313 0 0.023161265434698045 0.00027359708295321259 0 0.023031404085686515 0.0005091730348959824 0 0.023903958541203783 0.00045352937756370262 0 0.023755297983806822 0.00052045665415708395 0 0.023885677891760299 0.00051548330731685313 0 0.022152517588550424 0.00050510395207178027 0 0.022154020229298899 0.00056748864898209061 0 0.02237773625448854 0.00079969270715234977 0 0.022152517588550424 0.00050510395207178027 0 0.022154020229298899 0.00056748864898209061 0 0.022229956622715361 0.00051181801413017884 0 0.022447129624847156 0.00020908706030856172 0 0.022152517588550424 0.00050510395207178027 0 0.022229956622715361 0.00051181801413017884 0 0.023556363369600545 0.00062145062193422413 0 0.023738500536617392 0.00067414637168763502 0 0.023276831218458211 0.00076771026769641951 0 0.023755297983806822 0.00052045665415708395 0 0.023556363369600545 0.00062145062193422413 0 0.023738500536617392 0.00067414637168763502 0 0.023635405630608754 0.00055283552188626554 0 0.023556363369600545 0.00062145062193422413 0 0.02359014880297463 0.00056546664243123726 0 0.023755297983806822 0.00052045665415708395 0 0.023885677891760299 0.00051548330731685313 0 0.023738500536617392 0.00067414637168763502 0 0.023031404085686515 0.0005091730348959824 0 0.023069755125527936 0.00072003045572005379 0 0.022154020229298899 0.00056748864898209061 0 0.02237773625448854 0.00079969270715234977 0 0.022301122940323211 0.00049598797109616228 0 0.02237773625448854 0.00079969270715234977 0 0.022788918762223068 0.000577570966599003 0 0.023276831218458211 0.00076771026769641951 0 0.02237773625448854 0.00079969270715234977 0 0.022788918762223068 0.000577570966599003 0 0.022301122940323211 0.00049598797109616228 0 0.023069755125527936 0.00072003045572005379 0 0.023261630598872766 0.00076220872841170119 0 0.022788918762223068 0.000577570966599003 0 0.02266144900265224 0.00037486757708349891 0 0.022301122940323211 0.00049598797109616228 0 0.022301122940323211 0.00049598797109616228 0 0.02213799226504477 0.00051490503440124744 0 0.022223255475958235 0.00042221599970339887 0 0.02213799226504477 0.00051490503440124744 0 0.021947222252987061 0.00058731568471304596 0 0.022223255475958235 0.00042221599970339887 0 0.022301122940323211 0.00049598797109616228 0 0.02213799226504477 0.00051490503440124744 0 0.022085911454476012 0.00056514242630302254 0 0.02266144900265224 0.00037486757708349891 0 0.022301122940323211 0.00049598797109616228 0 0.022223255475958235 0.00042221599970339887 0 0.021832263757069204 0.00041542503299029162 0 0.021836811117318371 0.00041655654961235904 0 0.021823376601504827 0.00042309825884845375 0 0.02225744907798631 0.00041073708380729763 0 0.022043445924186392 0.00043546486191433319 0 0.022229956622715361 0.00051181801413017884 0 0.022085911454476012 0.00056514242630302254 0 0.022079500483526998 0.00064054291256726201 0 0.022154020229298899 0.00056748864898209061 0 0.022229956622715361 0.00051181801413017884 0 0.022085911454476012 0.00056514242630302254 0 0.022154020229298899 0.00056748864898209061 0 0.022301122940323211 0.00049598797109616228 0 0.022085911454476012 0.00056514242630302254 0 0.02213799226504477 0.00051490503440124744 0 0.022085911454476012 0.00056514242630302254 0 0.021947222252987061 0.00058731568471304596 0 0.022085911454476012 0.00056514242630302254 0 0.022079500483526998 0.00064054291256726201 0 0.021947222252987061 0.00058731568471304596 0 0.022079500483526998 0.00064054291256726201 0 0.02179554095567281 0.00076145422876739983 0 0.021947222252987061 0.00058731568471304596 0 0.02179554095567281 0.00076145422876739983 0 0.021947222252987061 0.00058731568471304596 0 0.021805768482460203 0.00060872869554237088 0 0.021947222252987061 0.00058731568471304596 0 0.021805768482460203 0.00060872869554237088 0 0.021883502006355776 0.00047703666334185764 0 0.021805768482460203 0.00060872869554237088 0 0.021638034223344173 0.00049745310791910857 0 0.021750223207098882 0.00044084610197586975 0 0.021805768482460203 0.00060872869554237088 0 0.021883502006355776 0.00047703666334185764 0 0.021750223207098882 0.00044084610197586975 0 0.021521620472367952 0.00056206271127631454 0 0.021805768482460203 0.00060872869554237088 0 0.021638034223344173 0.00049745310791910857 0 0.02179554095567281 0.00076145422876739983 0 0.021521620472367952 0.00056206271127631454 0 0.021805768482460203 0.00060872869554237088 0 0.021836811117318371 0.00041655654961235904 0 0.021831714160355131 0.00043395489669827028 0 0.021818344138804527 0.00042191215317323043 0 0.021836811117318371 0.00041655654961235904 0 0.021818344138804527 0.00042191215317323043 0 0.021823376601504827 0.00042309825884845375 0 0.021947222252987061 0.00058731568471304596 0 0.022223255475958235 0.00042221599970339887 0 0.021883502006355776 0.00047703666334185764 0 0.022043445924186392 0.00043546486191433319 0 0.021920129329317594 0.00047140058141881193 0 0.021836811117318371 0.00041655654961235904 0 0.021883502006355776 0.00047703666334185764 0 0.021831714160355131 0.00043395489669827028 0 0.021883502006355776 0.00047703666334185764 0 0.021831714160355131 0.00043395489669827028 0 0.021816427976424052 0.000400030298230246 0 0.021831714160355131 0.00043395489669827028 0 0.021816427976424052 0.000400030298230246 0 0.021819883392662415 0.00041631876434924833 0 0.021831714160355131 0.00043395489669827028 0 0.021819883392662415 0.00041631876434924833 0 0.021818344138804527 0.00042191215317323043 0 0.021816427976424052 0.000400030298230246 0 0.021780801972281542 0.00037780705930640264 0 0.021806291114121315 0.0003000804337287834 0 0.021883502006355776 0.00047703666334185764 0 0.021780801972281542 0.00037780705930640264 0 0.021750223207098882 0.00044084610197586975 0 0.021883502006355776 0.00047703666334185764 0 0.021816427976424052 0.000400030298230246 0 0.021780801972281542 0.00037780705930640264 0 0.021780801972281542 0.00037780705930640264 0 0.021702610625971223 0.00026681940278175267 0 0.02164439935581805 0.00031400459257592013 0 0.021702610625971223 0.00026681940278175267 0 0.021806291114121315 0.0003000804337287834 0 0.021668437033332974 0.00012371380786912561 0 0.021702610625971223 0.00026681940278175267 0 0.021574193464583391 0.00016229503225480133 0 0.021668437033332974 0.00012371380786912561 0 0.021780801972281542 0.00037780705930640264 0 0.021702610625971223 0.00026681940278175267 0 0.021806291114121315 0.0003000804337287834 0 0.021806291114121315 0.0003000804337287834 0 0.021799149071296344 0.0003394690617257627 0 0.021789194447163037 0.0003199705411713447 0 0.021816427976424052 0.000400030298230246 0 0.021806291114121315 0.0003000804337287834 0 0.021799149071296344 0.0003394690617257627 0 0.021537957698980793 0.00035993144648898654 0 0.021385445858318242 0.00039476322251976419 0 0.021638034223344173 0.00049745310791910857 0 0.021521620472367952 0.00056206271127631454 0 0.021385445858318242 0.00039476322251976419 0 0.021638034223344173 0.00049745310791910857 0 0.021537957698980793 0.00035993144648898654 0 0.021638034223344173 0.00049745310791910857 0 0.021750223207098882 0.00044084610197586975 0 0.021780801972281542 0.00037780705930640264 0 0.021750223207098882 0.00044084610197586975 0 0.02164439935581805 0.00031400459257592013 0 0.021537957698980793 0.00035993144648898654 0 0.021750223207098882 0.00044084610197586975 0 0.02164439935581805 0.00031400459257592013 0 0.021537957698980793 0.00035993144648898654 0 0.02164439935581805 0.00031400459257592013 0 0.021459051787841358 0.0002066106817487579 0 0.021702610625971223 0.00026681940278175267 0 0.02164439935581805 0.00031400459257592013 0 0.021574193464583391 0.00016229503225480133 0 0.02164439935581805 0.00031400459257592013 0 0.021574193464583391 0.00016229503225480133 0 0.021459051787841358 0.0002066106817487579 0 0.021459051787841358 0.0002066106817487579 0 0.021314641037334114 0.00023657844158005956 0 0.021257745049074368 8.9330568850163168e-05 0 0.021537957698980793 0.00035993144648898654 0 0.021459051787841358 0.0002066106817487579 0 0.021314641037334114 0.00023657844158005956 0 0.021537957698980793 0.00035993144648898654 0 0.021385445858318242 0.00039476322251976419 0 0.021314641037334114 0.00023657844158005956 0 0.021314641037334114 0.00023657844158005956 0 0.021065442995265981 0.00020284528592588312 0 0.021257745049074368 8.9330568850163168e-05 0 0.021065442995265981 0.00020284528592588312 0 0.021147037329317546 0.00045740289061998052 0 0.02080800072992272 0.00032151578026779203 0 0.021385445858318242 0.00039476322251976419 0 0.021314641037334114 0.00023657844158005956 0 0.021065442995265981 0.00020284528592588312 0 0.021385445858318242 0.00039476322251976419 0 0.021065442995265981 0.00020284528592588312 0 0.021147037329317546 0.00045740289061998052 0 0.021521620472367952 0.00056206271127631454 0 0.021385445858318242 0.00039476322251976419 0 0.021147037329317546 0.00045740289061998052 0 0.020686674728296932 0.00065835228078216202 0 0.02080800072992272 0.00032151578026779203 0 0.020405481836063302 0.00025621781636801447 0 0.021147037329317546 0.00045740289061998052 0 0.020686674728296932 0.00065835228078216202 0 0.02080800072992272 0.00032151578026779203 0 0.02080800072992272 0.00032151578026779203 0 0.020683777972223039 0.00011423076496412149 0 0.020405481836063302 0.00025621781636801447 0 0.021065442995265981 0.00020284528592588312 0 0.02080800072992272 0.00032151578026779203 0 0.020683777972223039 0.00011423076496412149 0 0.021065442995265981 0.00020284528592588312 0 0.020683777972223039 0.00011423076496412149 0 0.020849480221687342 1.7738993605176633e-05 0 0.020683777972223039 0.00011423076496412149 0 0.020405481836063302 0.00025621781636801447 0 0.020408446131280188 -5.9954594306495417e-05 0 0.020405481836063302 0.00025621781636801447 0 0.020018565060953678 0.00018078469703066113 0 0.020138937786469208 0.00047493513001670021 0 0.019731899005752007 0.00025215694849971189 0 0.020018565060953678 0.00018078469703066113 0 0.020138937786469208 0.00047493513001670021 0 0.020371161862029627 0.00031021736637227009 0 0.020697255390331234 0.00049855663781137277 0 0.020405481836063302 0.00025621781636801447 0 0.020018565060953678 0.00018078469703066113 0 0.020170447119656088 2.4391616358818507e-05 0 0.021374592323444377 0.000640438098982963 0 0.021252272533565597 0.0005264044896515043 0 0.021191844193046719 0.00066706675245555187 0 0.020686674728296932 0.00065835228078216202 0 0.020405481836063302 0.00025621781636801447 0 0.020138937786469208 0.00047493513001670021 0 0.021031548066637425 0.00062926424347159481 0 0.020697255390331234 0.00049855663781137277 0 0.021374592323444377 0.000640438098982963 0 0.021299542236177811 0.00079419102824479114 0 0.02136643329228197 0.00073623608686004252 0 0.021018572438711601 0.00081329909083311107 0 0.021191844193046719 0.00066706675245555187 0 0.021299542236177811 0.00079419102824479114 0 0.021374592323444377 0.000640438098982963 0 0.021191844193046719 0.00066706675245555187 0 0.021299542236177811 0.00079419102824479114 0 0.021355573568935426 0.0008129046162124085 0 0.021299542236177811 0.00079419102824479114 0 0.02136643329228197 0.00073623608686004252 0 0.021355573568935426 0.0008129046162124085 0 0.02136643329228197 0.00073623608686004252 0 0.02143585655285922 0.0006786537976057386 0 0.021355573568935426 0.0008129046162124085 0 0.02179554095567281 0.00076145422876739983 0 0.02143585655285922 0.0006786537976057386 0 0.021991065096884314 0.00077764574471861012 0 0.021839914165080365 0.00076304534966054895 0 0.02179554095567281 0.00076145422876739983 0 0.021521620472367952 0.00056206271127631454 0 0.02143585655285922 0.0006786537976057386 0 0.021521620472367952 0.00056206271127631454 0 0.021147037329317546 0.00045740289061998052 0 0.02143585655285922 0.0006786537976057386 0 0.021147037329317546 0.00045740289061998052 0 0.020686674728296932 0.00065835228078216202 0 0.02143585655285922 0.0006786537976057386 0 0.021031548066637425 0.00062926424347159481 0 0.021376778928919465 0.0006912872147445589 0 0.021374592323444377 0.000640438098982963 0 0.02136643329228197 0.00073623608686004252 0 0.02143585655285922 0.0006786537976057386 0 0.020368979500610767 0.00068735161215562187 0 0.020372339515083181 0.00068920604385524272 0 0.020353564236182155 0.00069003495327100647 0 0.020368979500610767 0.00068735161215562187 0 0.020357453553148587 0.00068769307495100153 0 0.02034518831551773 0.00068798166561617529 0 0.020607507794670341 0.0010252416210171423 0 0.019591020355982664 0.00069426952174519833 0 0.021047712005464344 0.0012333252685403928 0 0.021193254836235902 0.00083898496820217227 0 0.02079519665405153 0.00094541395037793052 0 0.020607507794670341 0.0010252416210171423 0 0.021308354851229026 0.00087992512263173359 0 0.020607507794670341 0.0010252416210171423 0 0.020614177226279718 0.00080278144238354096 0 0.020368979500610767 0.00068735161215562187 0 0.020385872559822209 0.00069007201549717116 0 0.020408529579811936 0.00068791639816211223 0 0.020368979500610767 0.00068735161215562187 0 0.020372339515083181 0.00068920604385524272 0 0.020408529579811936 0.00068791639816211223 0 0.020385872559822209 0.00069007201549717116 0 0.02037293205938346 0.00069831450044791294 0 0.020413150402351574 0.00068801719128979615 0 0.020385872559822209 0.00069007201549717116 0 0.020408529579811936 0.00068791639816211223 0 0.020413150402351574 0.00068801719128979615 0 0.02037293205938346 0.00069831450044791294 0 0.020413150402351574 0.00068801719128979615 0 0.020365400620148032 0.00070557391034042005 0 0.02037293205938346 0.00069831450044791294 0 0.020366698557488027 0.00069331918524507001 0 0.020365400620148032 0.00070557391034042005 0 0.02037293205938346 0.00069831450044791294 0 0.020366698557488027 0.00069331918524507001 0 0.020337129695868452 0.00067964547444634873 0 0.020385872559822209 0.00069007201549717116 0 0.02037293205938346 0.00069831450044791294 0 0.020357453553148587 0.00068769307495100153 0 0.02037293205938346 0.00069831450044791294 0 0.020357453553148587 0.00068769307495100153 0 0.020337129695868452 0.00067964547444634873 0 0.020368979500610767 0.00068735161215562187 0 0.020385872559822209 0.00069007201549717116 0 0.020357453553148587 0.00068769307495100153 0 0.020357453553148587 0.00068769307495100153 0 0.020337129695868452 0.00067964547444634873 0 0.020340554616185436 0.00068043664736387234 0 0.020337129695868452 0.00067964547444634873 0 0.020340554616185436 0.00068043664736387234 0 0.020330605982021015 0.00066655346644285067 0 0.020357453553148587 0.00068769307495100153 0 0.020340554616185436 0.00068043664736387234 0 0.02034518831551773 0.00068798166561617529 0 0.019285515185119135 0.00087521065406577308 0 0.017144959543661534 0.00047557490061739597 0 0.020366698557488027 0.00069331918524507001 0 0.020337129695868452 0.00067964547444634873 0 0.02034604134127653 0.00062699788411812562 0 0.01503245475158462 -0.00028468762634123321 0 0.015010342165610754 -0.00034528584169050817 0 0.014952863727782123 -0.00033760185501307199 0 0.015025306648854396 -0.00039731074971221061 0 0.015003175814486933 -0.00036533362696162299 0 0.014966709391646845 -0.00037660138552481233 0 0.015025306648854396 -0.00039731074971221061 0 0.015010342165610754 -0.00034528584169050817 0 0.015003175814486933 -0.00036533362696162299 0 0.017144959543661534 0.00047557490061739597 0 0.016245328466770816 -0.00040285753479990999 0 0.015010342165610754 -0.00034528584169050817 0 0.015003175814486933 -0.00036533362696162299 0 0.015007022921482639 -0.00036178953506607467 0 0.015003175814486933 -0.00036533362696162299 0 0.014966709391646845 -0.00037660138552481233 0 0.015007022921482639 -0.00036178953506607467 0 0.01503245475158462 -0.00028468762634123321 0 0.014952863727782123 -0.00033760185501307199 0 0.014869411690741208 -0.00027435377358557263 0 0.020337129695868452 0.00067964547444634873 0 0.02034604134127653 0.00062699788411812562 0 0.020257819245144009 0.00060366722390076393 0 0.017144959543661534 0.00047557490061739597 0 0.018243022562396315 0.00017478089793482345 0 0.020721091825126561 0.0010549615819371323 0 0.018243022562396315 0.00017478089793482345 0 0.020340554616185436 0.00068043664736387234 0 0.020330605982021015 0.00066655346644285067 0 0.020330812143561149 0.00067455003593078992 0 0.018243022562396315 0.00017478089793482345 0 0.017935542805537302 0.00015609436534513865 0 0.017540120870137191 0.00022370576722773427 0 0.017026363570903893 0.00014745041735896703 0 0.017207329122829695 -0.00037328208000511013 0 0.017935542805537302 0.00015609436534513865 0 0.019591020355982664 0.00069426952174519833 0 0.018453716951010606 0.00022907612328384766 0 0.01829389282877739 0.00069461371485822292 0 0.018102281114951744 0.00036516013683882787 0 0.020313622915482561 0.00065917241468746923 0 0.020330812143561149 0.00067455003593078992 0 0.020316326749965904 0.00068224048305890318 0 0.020330605982021015 0.00066655346644285067 0 0.020313622915482561 0.00065917241468746923 0 0.020330812143561149 0.00067455003593078992 0 0.020368979500610767 0.00068735161215562187 0 0.020353564236182155 0.00069003495327100647 0 0.02034518831551773 0.00068798166561617529 0 0.020330812143561149 0.00067455003593078992 0 0.020316326749965904 0.00068224048305890318 0 0.02034518831551773 0.00068798166561617529 0 0.020340554616185436 0.00068043664736387234 0 0.020330812143561149 0.00067455003593078992 0 0.02034518831551773 0.00068798166561617529 0 0.019591020355982664 0.00069426952174519833 0 0.020338109501745423 0.00083727426582260703 0 0.019832978367846844 0.001220423592347265 0 0.020019177456778385 0.00068421017379000104 0 0.019474797784239523 0.00081359363928453464 0 0.020019177456778385 0.00068421017379000104 0 0.019692311404048972 0.00057760455080676273 0 0.019474797784239523 0.00081359363928453464 0 0.01829389282877739 0.00069461371485822292 0 0.018102281114951744 0.00036516013683882787 0 0.017727779035821435 0.00040705745230497294 0 0.017935542805537302 0.00015609436534513865 0 0.016252707974305818 -1.1619261044392659e-05 0 0.020019177456778385 0.00068421017379000104 0 0.019692311404048972 0.00057760455080676273 0 0.019598505852140909 0.00046536869659367567 0 0.018453716951010606 0.00022907612328384766 0 0.018102281114951744 0.00036516013683882787 0 0.017800387559756856 0.00013354190575573833 0 0.019591020355982664 0.00069426952174519833 0 0.018629664371860213 0.00042587204597515396 0 0.018102281114951744 0.00036516013683882787 0 0.017800387559756856 0.00013354190575573833 0 0.017727779035821435 0.00040705745230497294 0 0.017800387559756856 0.00013354190575573833 0 0.017727779035821435 0.00040705745230497294 0 0.017173740763965419 0.00012209253827409432 0 0.018629664371860213 0.00042587204597515396 0 0.017904893242111891 0.00017496824189441442 0 0.019598505852140909 0.00046536869659367567 0 0.019128052623735577 0.00022474184333031916 0 0.019181827458718055 0.00054071647217870044 0 0.019111511434322794 0.00090114727293342742 0 0.018195997787835958 -0.00014989875285744539 0 0.018523147601890739 -0.00010187057107336828 0 0.020249581526936709 0.00064190190441119844 0 0.01849487299196274 0.00035449677508134491 0 0.021820579228262294 0.00036950932349574361 0 0.021801512809862419 0.00035953673238864776 0 0.021787753756710521 0.00034256021825883982 0 0.018992254014945625 0.00013647439357969464 0 0.019111511434322794 0.00090114727293342742 0 0.018523147601890739 -0.00010187057107336828 0 0.017904893242111891 0.00017496824189441442 0 0.020249581526936709 0.00064190190441119844 0 0.021820579228262294 0.00036950932349574361 0 0.02181365962015936 0.00037768624099046339 0 0.021808286864305269 0.00037215849426537189 0 0.021820579228262294 0.00036950932349574361 0 0.021801512809862419 0.00035953673238864776 0 0.021808286864305269 0.00037215849426537189 0 0.021835439702776533 0.00031804004658205853 0 0.021728170304341134 0.00058497142902248583 0 0.021820579228262294 0.00036950932349574361 0 0.02181365962015936 0.00037768624099046339 0 0.021830081653228507 0.00043103527987096638 0 0.02181365962015936 0.00037768624099046339 0 0.021816584340042879 0.00038701324247065387 0 0.021830737359682006 0.00040873180112660886 0 0.020249581526936709 0.00064190190441119844 0 0.021300345464260659 0.00080425415499194399 0 0.02181365962015936 0.00037768624099046339 0 0.021816584340042879 0.00038701324247065387 0 0.021808286864305269 0.00037215849426537189 0 0.019598505852140909 0.00046536869659367567 0 0.019181827458718055 0.00054071647217870044 0 0.019450756314799755 0.00084193201567653547 0 0.020231224885375796 0.00089684404920270251 0 0.021300345464260659 0.00080425415499194399 0 0.019692311404048972 0.00057760455080676273 0 0.019598505852140909 0.00046536869659367567 0 0.019450756314799755 0.00084193201567653547 0 0.020584066037078689 0.00066386679043361921 0 0.020686030481321074 0.00077993294186473854 0 0.020617147206232034 0.00085430979959774634 0 0.019593992906130349 0.00074690650401901878 0 0.020231224885375796 0.00089684404920270251 0 0.020249581526936709 0.00064190190441119844 0 0.020231224885375796 0.00089684404920270251 0 0.021799149071296344 0.0003394690617257627 0 0.021790738000758276 0.00034426804119686499 0 0.021803544114380308 0.00036432212831457743 0 0.021799149071296344 0.0003394690617257627 0 0.021803544114380308 0.00036432212831457743 0 0.021809734553084027 0.00037579940530274255 0 0.021799149071296344 0.0003394690617257627 0 0.021790738000758276 0.00034426804119686499 0 0.021777202857952652 0.00032790988738314703 0 0.021803544114380308 0.00036432212831457743 0 0.021795698735781664 0.00035169862492752998 0 0.021801512809862419 0.00035953673238864776 0 0.021790738000758276 0.00034426804119686499 0 0.021795698735781664 0.00035169862492752998 0 0.021787753756710521 0.00034256021825883982 0 0.021790738000758276 0.00034426804119686499 0 0.021803544114380308 0.00036432212831457743 0 0.021795698735781664 0.00035169862492752998 0 0.021795698735781664 0.00035169862492752998 0 0.021801512809862419 0.00035953673238864776 0 0.021787753756710521 0.00034256021825883982 0 0.021803544114380308 0.00036432212831457743 0 0.021801512809862419 0.00035953673238864776 0 0.021808286864305269 0.00037215849426537189 0 0.021816584340042879 0.00038701324247065387 0 0.021808286864305269 0.00037215849426537189 0 0.021811700051607239 0.00038006818276176753 0 0.021803544114380308 0.00036432212831457743 0 0.021808286864305269 0.00037215849426537189 0 0.021811700051607239 0.00038006818276176753 0 0.021816584340042879 0.00038701324247065387 0 0.021811700051607239 0.00038006818276176753 0 0.021817779425652328 0.00039460094179883011 0 0.021811700051607239 0.00038006818276176753 0 0.02181325553524734 0.00038845683582317588 0 0.021817779425652328 0.00039460094179883011 0 0.021803544114380308 0.00036432212831457743 0 0.021811700051607239 0.00038006818276176753 0 0.02181325553524734 0.00038845683582317588 0 0.021816427976424052 0.000400030298230246 0 0.021799149071296344 0.0003394690617257627 0 0.021809734553084027 0.00037579940530274255 0 0.021803544114380308 0.00036432212831457743 0 0.02181325553524734 0.00038845683582317588 0 0.021809734553084027 0.00037579940530274255 0 0.02181325553524734 0.00038845683582317588 0 0.021809734553084027 0.00037579940530274255 0 0.021815507643226841 0.00039943475962581358 0 0.021816427976424052 0.000400030298230246 0 0.021809734553084027 0.00037579940530274255 0 0.021815507643226841 0.00039943475962581358 0 0.02181325553524734 0.00038845683582317588 0 0.021815507643226841 0.00039943475962581358 0 0.021817464584425822 0.00041031791598814048 0 0.021815507643226841 0.00039943475962581358 0 0.021819883392662415 0.00041631876434924833 0 0.021817464584425822 0.00041031791598814048 0 0.021819883392662415 0.00041631876434924833 0 0.021817464584425822 0.00041031791598814048 0 0.021818344138804527 0.00042191215317323043 0 0.021816427976424052 0.000400030298230246 0 0.021815507643226841 0.00039943475962581358 0 0.021819883392662415 0.00041631876434924833 0 0.02181325553524734 0.00038845683582317588 0 0.021817464584425822 0.00041031791598814048 0 0.021817779425652328 0.00039460094179883011 0 0.021817464584425822 0.00041031791598814048 0 0.021817779425652328 0.00039460094179883011 0 0.021821967339176431 0.00040948535018561847 0 0.021817779425652328 0.00039460094179883011 0 0.021821967339176431 0.00040948535018561847 0 0.021830737359682006 0.00040873180112660886 0 0.021821967339176431 0.00040948535018561847 0 0.021822569480351068 0.000421642645546885 0 0.021830737359682006 0.00040873180112660886 0 0.021803177339084292 0.00044485510008204646 0 0.021728170304341134 0.00058497142902248583 0 0.021822569480351068 0.000421642645546885 0 0.021815904638875578 0.00042354532190472136 0 0.021811127530358479 0.00043329383884418846 0 0.021817464584425822 0.00041031791598814048 0 0.021822569480351068 0.000421642645546885 0 0.021815904638875578 0.00042354532190472136 0 0.021817464584425822 0.00041031791598814048 0 0.021821967339176431 0.00040948535018561847 0 0.021822569480351068 0.000421642645546885 0 0.021817464584425822 0.00041031791598814048 0 0.021815904638875578 0.00042354532190472136 0 0.021818344138804527 0.00042191215317323043 0 0.021815904638875578 0.00042354532190472136 0 0.021818344138804527 0.00042191215317323043 0 0.021823376601504827 0.00042309825884845375 0 0.021107032532546473 0.001075555388293954 0 0.021249857212155089 0.0012353243769926403 0 0.021240980523622294 0.0010738657644789866 0 0.020607507794670341 0.0010252416210171423 0 0.020231224885375796 0.00089684404920270251 0 0.021249857212155089 0.0012353243769926403 0 0.021240980523622294 0.0010738657644789866 0 0.021319596093042112 0.0011657154531811542 0 0.021816584340042879 0.00038701324247065387 0 0.021817779425652328 0.00039460094179883011 0 0.021830737359682006 0.00040873180112660886 0 0.021504727515553063 0.0010523047051048265 0 0.021571835005660005 0.00098483109219109463 0 0.021473079987339962 0.00086426899298601748 0 0.02181365962015936 0.00037768624099046339 0 0.021830081653228507 0.00043103527987096638 0 0.021802941958809493 0.00045866408280770027 0 0.021300345464260659 0.00080425415499194399 0 0.021728170304341134 0.00058497142902248583 0 0.021758512992436006 0.00049848115826621388 0 0.021708624220492887 0.00055126242668017422 0 0.021709197650905798 0.00046760550298580855 0 0.021571835005660005 0.00098483109219109463 0 0.021473079987339962 0.00086426899298601748 0 0.021579799603439139 0.00081949466383155996 0 0.021728170304341134 0.00058497142902248583 0 0.021639887051352891 0.00067963648449105042 0 0.021240980523622294 0.0010738657644789866 0 0.021319596093042112 0.0011657154531811542 0 0.021305922923821524 0.00095963111408344914 0 0.021300345464260659 0.00080425415499194399 0 0.021406722573804594 0.00097708669358632363 0 0.021107032532546473 0.001075555388293954 0 0.021305922923821524 0.00095963111408344914 0 0.021193254836235902 0.00083898496820217227 0 0.021107032532546473 0.001075555388293954 0 0.021240980523622294 0.0010738657644789866 0 0.021305922923821524 0.00095963111408344914 0 0.021406722573804594 0.00097708669358632363 0 0.021355896906306376 0.00062322112310867904 0 0.021305922923821524 0.00095963111408344914 0 0.021193254836235902 0.00083898496820217227 0 0.021311800329274856 0.00067894714638256346 0 0.021473079987339962 0.00086426899298601748 0 0.021515509222531308 0.00073244152922220655 0 0.021410948027837405 0.0006233337703619975 0 0.021473079987339962 0.00086426899298601748 0 0.021579799603439139 0.00081949466383155996 0 0.021515509222531308 0.00073244152922220655 0 0.021639887051352891 0.00067963648449105042 0 0.021650445803997199 0.00048739491557292785 0 0.021709197650905798 0.00046760550298580855 0 0.02170179382386183 0.00039929500862610203 0 0.021754362130246379 0.00044033671596974925 0 0.021579799603439139 0.00081949466383155996 0 0.021515509222531308 0.00073244152922220655 0 0.021603231442898645 0.00060961363150132623 0 0.021603231442898645 0.00060961363150132623 0 0.021410948027837405 0.0006233337703619975 0 0.021493442104550627 0.00046276592273460191 0 0.021515509222531308 0.00073244152922220655 0 0.021603231442898645 0.00060961363150132623 0 0.021410948027837405 0.0006233337703619975 0 0.021311800329274856 0.00067894714638256346 0 0.021153205075569028 0.00051097129547391827 0 0.021148320295463412 0.0006880648207038682 0 0.021193254836235902 0.00083898496820217227 0 0.021311800329274856 0.00067894714638256346 0 0.021148320295463412 0.0006880648207038682 0 0.021832263757069204 0.00041542503299029162 0 0.021811127530358479 0.00043329383884418846 0 0.02180469890173415 0.000400622849607633 0 0.021832263757069204 0.00041542503299029162 0 0.021823376601504827 0.00042309825884845375 0 0.021811127530358479 0.00043329383884418846 0 0.021815904638875578 0.00042354532190472136 0 0.021823376601504827 0.00042309825884845375 0 0.021811127530358479 0.00043329383884418846 0 0.021811127530358479 0.00043329383884418846 0 0.021754362130246379 0.00044033671596974925 0 0.021766513954241583 0.00040480435591925656 0 0.021758512992436006 0.00049848115826621388 0 0.021811127530358479 0.00043329383884418846 0 0.021754362130246379 0.00044033671596974925 0 0.021803177339084292 0.00044485510008204646 0 0.021804426558718941 0.00044200420255419739 0 0.021758512992436006 0.00049848115826621388 0 0.021709197650905798 0.00046760550298580855 0 0.021754362130246379 0.00044033671596974925 0 0.02170179382386183 0.00039929500862610203 0 0.021754362130246379 0.00044033671596974925 0 0.021766513954241583 0.00040480435591925656 0 0.02170179382386183 0.00039929500862610203 0 0.021731350933065566 0.00037705808062211201 0 0.021766513954241583 0.00040480435591925656 0 0.021731350933065566 0.00037705808062211201 0 0.02177404906459441 0.00037843159301108407 0 0.021766513954241583 0.00040480435591925656 0 0.02177404906459441 0.00037843159301108407 0 0.021766513954241583 0.00040480435591925656 0 0.02180469890173415 0.000400622849607633 0 0.022788918762223068 0.000577570966599003 0 0.02266144900265224 0.00037486757708349891 0 0.023297156647924186 0.00063596284256064908 0 0.021832263757069204 0.00041542503299029162 0 0.02180469890173415 0.000400622849607633 0 0.02181480456080848 0.00035465711816335413 0 0.02225744907798631 0.00041073708380729763 0 0.022588606720720911 0.00052602472486612951 0 0.021811127530358479 0.00043329383884418846 0 0.021766513954241583 0.00040480435591925656 0 0.02180469890173415 0.000400622849607633 0 0.02177404906459441 0.00037843159301108407 0 0.02180469890173415 0.000400622849607633 0 0.02181480456080848 0.00035465711816335413 0 0.022788918762223068 0.000577570966599003 0 0.023297156647924186 0.00063596284256064908 0 0.023276831218458211 0.00076771026769641951 0 0.023297156647924186 0.00063596284256064908 0 0.023276831218458211 0.00076771026769641951 0 0.023394078010484768 0.00071008393741498269 0 0.023297156647924186 0.00063596284256064908 0 0.023426793129290309 0.00068611667126117226 0 0.023394078010484768 0.00071008393741498269 0 0.02181480456080848 0.00035465711816335413 0 0.021753600163808621 0.00023962766691234868 0 0.021757832908513301 0.00021745611200554195 0 0.022588606720720911 0.00052602472486612951 0 0.022322726719618574 0.00042196448248754377 0 0.023297156647924186 0.00063596284256064908 0 0.023486325652427458 0.00068320198912050624 0 0.023426793129290309 0.00068611667126117226 0 0.02181480456080848 0.00035465711816335413 0 0.021745395718977576 0.00033910365041407947 0 0.021753600163808621 0.00023962766691234868 0 0.02177404906459441 0.00037843159301108407 0 0.02181480456080848 0.00035465711816335413 0 0.021745395718977576 0.00033910365041407947 0 0.021731350933065566 0.00037705808062211201 0 0.02177404906459441 0.00037843159301108407 0 0.021745395718977576 0.00033910365041407947 0 0.021731350933065566 0.00037705808062211201 0 0.021745395718977576 0.00033910365041407947 0 0.021643322747391679 0.00030909966540284081 0 0.021745395718977576 0.00033910365041407947 0 0.021718024859586238 0.00029827869579271562 0 0.021643322747391679 0.00030909966540284081 0 0.021745395718977576 0.00033910365041407947 0 0.021718024859586238 0.00029827869579271562 0 0.021753600163808621 0.00023962766691234868 0 0.021718024859586238 0.00029827869579271562 0 0.021753600163808621 0.00023962766691234868 0 0.021720312787291498 0.00021110471802495033 0 0.022267060677827157 0.0003615010220301607 0 0.022322726719618574 0.00042196448248754377 0 0.021753600163808621 0.00023962766691234868 0 0.021769289414388816 0.00019292112022118994 0 0.021720312787291498 0.00021110471802495033 0 0.021769289414388816 0.00019292112022118994 0 0.021720312787291498 0.00021110471802495033 0 0.021744710348193613 0.00012577095330619756 0 0.021796281242563782 0.00019719518233629602 0 0.021744710348193613 0.00012577095330619756 0 0.02175195946221881 -5.8707691379282335e-05 0 0.022322726719618574 0.00042196448248754377 0 0.022050802378569965 0.00017261553181067881 0 0.023486325652427458 0.00068320198912050624 0 0.023482109881301144 0.0006717105379423331 0 0.023537980536802651 0.00064798443829678146 0 0.023482109881301144 0.0006717105379423331 0 0.023537980536802651 0.00064798443829678146 0 0.023480279180841068 0.00066320487386354915 0 0.023537980536802651 0.00064798443829678146 0 0.02353188490402415 0.00062907088671251756 0 0.023480279180841068 0.00066320487386354915 0 0.023480279180841068 0.00066320487386354915 0 0.023426793129290309 0.00068611667126117226 0 0.023394078010484768 0.00071008393741498269 0 0.023486325652427458 0.00068320198912050624 0 0.023482109881301144 0.0006717105379423331 0 0.023426793129290309 0.00068611667126117226 0 0.023482109881301144 0.0006717105379423331 0 0.023480279180841068 0.00066320487386354915 0 0.023426793129290309 0.00068611667126117226 0 0.023276831218458211 0.00076771026769641951 0 0.023394078010484768 0.00071008393741498269 0 0.023424449868842772 0.00068186889282433527 0 0.023394078010484768 0.00071008393741498269 0 0.023505891297565765 0.00062288192600663773 0 0.023424449868842772 0.00068186889282433527 0 0.023480279180841068 0.00066320487386354915 0 0.023394078010484768 0.00071008393741498269 0 0.023505891297565765 0.00062288192600663773 0 0.02353188490402415 0.00062907088671251756 0 0.023480279180841068 0.00066320487386354915 0 0.023505891297565765 0.00062288192600663773 0 0.023556363369600545 0.00062145062193422413 0 0.023505891297565765 0.00062288192600663773 0 0.02359014880297463 0.00056546664243123726 0 0.023556363369600545 0.00062145062193422413 0 0.023505891297565765 0.00062288192600663773 0 0.023424449868842772 0.00068186889282433527 0 0.023556363369600545 0.00062145062193422413 0 0.023276831218458211 0.00076771026769641951 0 0.023424449868842772 0.00068186889282433527 0 0.021410948027837405 0.0006233337703619975 0 0.021493442104550627 0.00046276592273460191 0 0.021311512749389794 0.00028564503812553822 0 0.021311800329274856 0.00067894714638256346 0 0.021311512749389794 0.00028564503812553822 0 0.021153205075569028 0.00051097129547391827 0 0.021355896906306376 0.00062322112310867904 0 0.021314703430582817 0.00031043313755516039 0 0.021650445803997199 0.00048739491557292785 0 0.021645955626600127 0.00032289438316084328 0 0.02170179382386183 0.00039929500862610203 0 0.021731350933065566 0.00037705808062211201 0 0.021643322747391679 0.00030909966540284081 0 0.021603231442898645 0.00060961363150132623 0 0.021493442104550627 0.00046276592273460191 0 0.021643322747391679 0.00030909966540284081 0 0.021493442104550627 0.00046276592273460191 0 0.021643322747391679 0.00030909966540284081 0 0.021311512749389794 0.00028564503812553822 0 0.021718024859586238 0.00029827869579271562 0 0.021643322747391679 0.00030909966540284081 0 0.021667852522008771 0.00021796173496020407 0 0.021643322747391679 0.00030909966540284081 0 0.021542928125108707 0.00012605523351112168 0 0.021311512749389794 0.00028564503812553822 0 0.021718024859586238 0.00029827869579271562 0 0.021720312787291498 0.00021110471802495033 0 0.021667852522008771 0.00021796173496020407 0 0.021643322747391679 0.00030909966540284081 0 0.021667852522008771 0.00021796173496020407 0 0.021542928125108707 0.00012605523351112168 0 0.021720312787291498 0.00021110471802495033 0 0.021667852522008771 0.00021796173496020407 0 0.021654443024417189 0.00012782433526794634 0 0.021667852522008771 0.00021796173496020407 0 0.021654443024417189 0.00012782433526794634 0 0.021542928125108707 0.00012605523351112168 0 0.021720312787291498 0.00021110471802495033 0 0.021744710348193613 0.00012577095330619756 0 0.021654443024417189 0.00012782433526794634 0 0.021654443024417189 0.00012782433526794634 0 0.021542928125108707 0.00012605523351112168 0 0.021648424500599849 4.224099974404308e-05 0 0.021744710348193613 0.00012577095330619756 0 0.021654443024417189 0.00012782433526794634 0 0.021648424500599849 4.224099974404308e-05 0 0.021311512749389794 0.00028564503812553822 0 0.021151906769259064 -0.00011169146166033341 0 0.021381271628725156 -3.027084714129794e-05 0 0.021542928125108707 0.00012605523351112168 0 0.021311512749389794 0.00028564503812553822 0 0.021381271628725156 -3.027084714129794e-05 0 0.021311512749389794 0.00028564503812553822 0 0.021024576584890174 0.00030624881080543561 0 0.021151906769259064 -0.00011169146166033341 0 0.020801166202293844 0.00016730045466019388 0 0.021024576584890174 0.00030624881080543561 0 0.021151906769259064 -0.00011169146166033341 0 0.020757908768786089 0.00047423937174820437 0 0.021024576584890174 0.00030624881080543561 0 0.020966170012287674 0.00057704081538116159 0 0.020801166202293844 0.00016730045466019388 0 0.020757908768786089 0.00047423937174820437 0 0.021024576584890174 0.00030624881080543561 0 0.021311512749389794 0.00028564503812553822 0 0.021024576584890174 0.00030624881080543561 0 0.021153205075569028 0.00051097129547391827 0 0.021024576584890174 0.00030624881080543561 0 0.021153205075569028 0.00051097129547391827 0 0.020966170012287674 0.00057704081538116159 0 0.021153205075569028 0.00051097129547391827 0 0.021148320295463412 0.0006880648207038682 0 0.020966170012287674 0.00057704081538116159 0 0.021193254836235902 0.00083898496820217227 0 0.021148320295463412 0.0006880648207038682 0 0.020984009540808379 0.00074532939203296987 0 0.021148320295463412 0.0006880648207038682 0 0.020984009540808379 0.00074532939203296987 0 0.020966170012287674 0.00057704081538116159 0 0.020757908768786089 0.00047423937174820437 0 0.020966170012287674 0.00057704081538116159 0 0.020805761328845696 0.00067647775545396033 0 0.020805761328845696 0.00067647775545396033 0 0.02079519665405153 0.00094541395037793052 0 0.020510695005918376 0.00063566881090411549 0 0.020984009540808379 0.00074532939203296987 0 0.020966170012287674 0.00057704081538116159 0 0.020805761328845696 0.00067647775545396033 0 0.020984009540808379 0.00074532939203296987 0 0.020805761328845696 0.00067647775545396033 0 0.02079519665405153 0.00094541395037793052 0 0.021193254836235902 0.00083898496820217227 0 0.020984009540808379 0.00074532939203296987 0 0.02079519665405153 0.00094541395037793052 0 0.020410937061107574 0.00065990599710010747 0 0.020413150402351574 0.00068801719128979615 0 0.020510695005918376 0.00063566881090411549 0 0.020410937061107574 0.00065990599710010747 0 0.020413150402351574 0.00068801719128979615 0 0.020365400620148032 0.00070557391034042005 0 0.020614177226279718 0.00080278144238354096 0 0.02050263114068223 0.00064641413896483508 0 0.020408529579811936 0.00068791639816211223 0 0.020413150402351574 0.00068801719128979615 0 0.020510695005918376 0.00063566881090411549 0 0.020757908768786089 0.00047423937174820437 0 0.020805761328845696 0.00067647775545396033 0 0.020510695005918376 0.00063566881090411549 0 0.020410937061107574 0.00065990599710010747 0 0.020393852682255111 0.00057295737452238101 0 0.020323780755883009 0.00065240855720565937 0 0.020410937061107574 0.00065990599710010747 0 0.020510695005918376 0.00063566881090411549 0 0.020393852682255111 0.00057295737452238101 0 0.020510695005918376 0.00063566881090411549 0 0.020393852682255111 0.00057295737452238101 0 0.020526062944622867 0.00045474067151391633 0 0.020393852682255111 0.00057295737452238101 0 0.020526062944622867 0.00045474067151391633 0 0.020434315649031313 0.00025994399479672026 0 0.020801166202293844 0.00016730045466019388 0 0.020757908768786089 0.00047423937174820437 0 0.020526062944622867 0.00045474067151391633 0 0.020757908768786089 0.00047423937174820437 0 0.020510695005918376 0.00063566881090411549 0 0.020526062944622867 0.00045474067151391633 0 0.020908882032188426 0.00021487640052477865 0 0.020561253487739819 0.00043912817010558728 0 0.02102317449785495 0.00026638658157996287 0 0.020685485998337787 0.00023680646776650142 0 0.020787549033939017 -8.1245420789296743e-05 0 0.02102317449785495 0.00026638658157996287 0 0.020526062944622867 0.00045474067151391633 0 0.020685485998337787 0.00023680646776650142 0 0.020685485998337787 0.00023680646776650142 0 0.020434315649031313 0.00025994399479672026 0 0.020787549033939017 -8.1245420789296743e-05 0 0.020526062944622867 0.00045474067151391633 0 0.020685485998337787 0.00023680646776650142 0 0.020434315649031313 0.00025994399479672026 0 0.023535732193439397 0.0016421946707836535 0 0.023582934306527983 0.0013148863663568096 0 0.023916327140502656 0.0013367620050700841 0 0.023582934306527983 0.0013148863663568096 0 0.023444350876249975 0.0010321036405416312 0 0.023923585618912693 0.0010179891696026348 0 0.022220884496489991 0.00092807058540106348 0 0.022312953034295535 0.00064290536074410964 0 0.023582934306527983 0.0013148863663568096 0 0.023923585618912693 0.0010179891696026348 0 0.023916327140502656 0.0013367620050700841 0 0.02102317449785495 0.00026638658157996287 0 0.021160761459109976 -8.577742074258742e-05 0 0.021581868289434918 -7.0518166686185272e-05 0 0.02102317449785495 0.00026638658157996287 0 0.020787549033939017 -8.1245420789296743e-05 0 0.021160761459109976 -8.577742074258742e-05 0 0.020787549033939017 -8.1245420789296743e-05 0 0.021160761459109976 -8.577742074258742e-05 0 0.021262052011717179 -0.00047018671052053568 0 0.021160761459109976 -8.577742074258742e-05 0 0.021581868289434918 -7.0518166686185272e-05 0 0.021262052011717179 -0.00047018671052053568 0 0.020908882032188426 0.00021487640052477865 0 0.021394847096402665 -9.8994290842440959e-05 0 0.021581868289434918 -7.0518166686185272e-05 0 0.021683695886594075 -0.00046290669513375537 0 0.021262052011717179 -0.00047018671052053568 0 0.022312953034295535 0.00064290536074410964 0 0.022770998726067502 0.00027033506365707534 0 0.023923585618912693 0.0010179891696026348 0 0.023916327140502656 0.0013367620050700841 0 0.024269262545978706 0.0010173088720128161 0 0.024269262545978706 0.0010173088720128161 0 0.024284706216485191 0.00065656860549126374 0 0.023994726111484264 0.00073034727854311154 0 0.023923585618912693 0.0010179891696026348 0 0.024269262545978706 0.0010173088720128161 0 0.023994726111484264 0.00073034727854311154 0 0.021683695886594075 -0.00046290669513375537 0 0.021262052011717179 -0.00047018671052053568 0 0.021759643920586182 -0.000858904513459949 0 0.024269262545978706 0.0010173088720128161 0 0.024284706216485191 0.00065656860549126374 0 0.024574482711182961 0.00070991823015499611 0 0.022770998726067502 0.00027033506365707534 0 0.023162164891948347 -6.8752724867150768e-05 0 0.024528483326075452 0.00045530042515678153 0 0.024284706216485191 0.00065656860549126374 0 0.024574482711182961 0.00070991823015499611 0 0.024528483326075452 0.00045530042515678153 0 0.024284706216485191 0.00065656860549126374 0 0.024297333089800161 0.00038771115376754487 0 0.024284706216485191 0.00065656860549126374 0 0.023981883871693851 0.00043902421789088377 0 0.023994726111484264 0.00073034727854311154 0 0.024284706216485191 0.00065656860549126374 0 0.023981883871693851 0.00043902421789088377 0 0.024297333089800161 0.00038771115376754487 0 0.023981883871693851 0.00043902421789088377 0 0.023713070506707821 0.00074451108995124318 0 0.023994726111484264 0.00073034727854311154 0 0.023981883871693851 0.00043902421789088377 0 0.023540410718893814 0.0005254432641477705 0 0.023713070506707821 0.00074451108995124318 0 0.023444350876249975 0.0010321036405416312 0 0.023923585618912693 0.0010179891696026348 0 0.023713070506707821 0.00074451108995124318 0 0.023540410718893814 0.0005254432641477705 0 0.023713070506707821 0.00074451108995124318 0 0.023357647509031083 0.0007517346794456691 0 0.023444350876249975 0.0010321036405416312 0 0.023713070506707821 0.00074451108995124318 0 0.023357647509031083 0.0007517346794456691 0 0.023923585618912693 0.0010179891696026348 0 0.023713070506707821 0.00074451108995124318 0 0.023994726111484264 0.00073034727854311154 0 0.02376456724799415 0.00056517676497076341 0 0.024093676937824972 0.0002970346846540386 0 0.023631622425174494 0.00053728052379040353 0 0.023705764185724693 0.00059744981451556817 0 0.023629081491586136 0.00041919809233018903 0 0.02365613932991064 0.00050953870238168702 0 0.023631622425174494 0.00053728052379040353 0 0.023629081491586136 0.00041919809233018903 0 0.024071008966456073 0.0003231258165909496 0 0.023705764185724693 0.00059744981451556817 0 0.024579397822546683 0.00019599753032442188 0 0.02365613932991064 0.00050953870238168702 0 0.023631622425174494 0.00053728052379040353 0 0.02359014880297463 0.00056546664243123726 0 0.023505891297565765 0.00062288192600663773 0 0.02359014880297463 0.00056546664243123726 0 0.023591857921121936 0.00058953810901895567 0 0.02353188490402415 0.00062907088671251756 0 0.023505891297565765 0.00062288192600663773 0 0.023591857921121936 0.00058953810901895567 0 0.023631622425174494 0.00053728052379040353 0 0.023591857921121936 0.00058953810901895567 0 0.023705764185724693 0.00059744981451556817 0 0.023631622425174494 0.00053728052379040353 0 0.02359014880297463 0.00056546664243123726 0 0.023591857921121936 0.00058953810901895567 0 0.023486325652427458 0.00068320198912050624 0 0.023537980536802651 0.00064798443829678146 0 0.023674736948217423 0.00054849695581232934 0 0.022322726719618574 0.00042196448248754377 0 0.022775969633569374 0.00018902147546821468 0 0.023655627120282734 0.000598475401705891 0 0.023582781675189891 0.00062382253710190105 0 0.023674736948217423 0.00054849695581232934 0 0.021796281242563782 0.00019719518233629602 0 0.02175195946221881 -5.8707691379282335e-05 0 0.021841673315367998 -0.00022503744590472144 0 0.023537980536802651 0.00064798443829678146 0 0.023582781675189891 0.00062382253710190105 0 0.023674736948217423 0.00054849695581232934 0 0.023705764185724693 0.00059744981451556817 0 0.023655627120282734 0.000598475401705891 0 0.023674736948217423 0.00054849695581232934 0 0.023591857921121936 0.00058953810901895567 0 0.023705764185724693 0.00059744981451556817 0 0.023655627120282734 0.000598475401705891 0 0.023591857921121936 0.00058953810901895567 0 0.023655627120282734 0.000598475401705891 0 0.023582781675189891 0.00062382253710190105 0 0.023537980536802651 0.00064798443829678146 0 0.02353188490402415 0.00062907088671251756 0 0.023582781675189891 0.00062382253710190105 0 0.02353188490402415 0.00062907088671251756 0 0.023591857921121936 0.00058953810901895567 0 0.023582781675189891 0.00062382253710190105 0 0.02175195946221881 -5.8707691379282335e-05 0 0.021841673315367998 -0.00022503744590472144 0 0.021655909109269844 -0.00026624032301336367 0 0.021841673315367998 -0.00022503744590472144 0 0.021655909109269844 -0.00026624032301336367 0 0.021878324630503966 -0.00065564060175174791 0 0.024071008966456073 0.0003231258165909496 0 0.023869656730069608 0.00044167258333250984 0 0.0240074657005208 -1.2761391956753623e-05 0 0.022775969633569374 0.00018902147546821468 0 0.023140549515497329 -0.00040274250797620004 0 0.023674736948217423 0.00054849695581232934 0 0.023869656730069608 0.00044167258333250984 0 0.0240074657005208 -1.2761391956753623e-05 0 0.024071008966456073 0.0003231258165909496 0 0.023705764185724693 0.00059744981451556817 0 0.023869656730069608 0.00044167258333250984 0 0.023705764185724693 0.00059744981451556817 0 0.023674736948217423 0.00054849695581232934 0 0.023869656730069608 0.00044167258333250984 0 0.021505511904956375 -0.00038004666594009982 0 0.021655909109269844 -0.00026624032301336367 0 0.021573947388605918 -9.8187641466080476e-05 0 0.021505511904956375 -0.00038004666594009982 0 0.021655909109269844 -0.00026624032301336367 0 0.021878324630503966 -0.00065564060175174791 0 0.02175195946221881 -5.8707691379282335e-05 0 0.021655909109269844 -0.00026624032301336367 0 0.021573947388605918 -9.8187641466080476e-05 0 0.021505511904956375 -0.00038004666594009982 0 0.021573947388605918 -9.8187641466080476e-05 0 0.021381271628725156 -3.027084714129794e-05 0 0.021744710348193613 0.00012577095330619756 0 0.02175195946221881 -5.8707691379282335e-05 0 0.021648424500599849 4.224099974404308e-05 0 0.02175195946221881 -5.8707691379282335e-05 0 0.021648424500599849 4.224099974404308e-05 0 0.021573947388605918 -9.8187641466080476e-05 0 0.021542928125108707 0.00012605523351112168 0 0.021573947388605918 -9.8187641466080476e-05 0 0.021381271628725156 -3.027084714129794e-05 0 0.021542928125108707 0.00012605523351112168 0 0.021648424500599849 4.224099974404308e-05 0 0.021573947388605918 -9.8187641466080476e-05 0 0.021151906769259064 -0.00011169146166033341 0 0.021505511904956375 -0.00038004666594009982 0 0.021381271628725156 -3.027084714129794e-05 0 0.021581868289434918 -7.0518166686185272e-05 0 0.021683695886594075 -0.00046290669513375537 0 0.022131013388872526 -0.00045197351887184555 0 0.021394847096402665 -9.8994290842440959e-05 0 0.021673493748745117 -0.00042836155552860672 0 0.021683695886594075 -0.00046290669513375537 0 0.022131013388872526 -0.00045197351887184555 0 0.021759643920586182 -0.000858904513459949 0 0.022131013388872526 -0.00045197351887184555 0 0.021759643920586182 -0.000858904513459949 0 0.022246767815609327 -0.00086445710539757067 0 0.024528483326075452 0.00045530042515678153 0 0.024574482711182961 0.00070991823015499611 0 0.024819603422917284 0.00041414505191221269 0 0.023162164891948347 -6.8752724867150768e-05 0 0.023514300005708661 -0.0004283517392493321 0 0.021759643920586182 -0.000858904513459949 0 0.022244734130688733 -0.0012361645564192216 0 0.022246767815609327 -0.00086445710539757067 0 0.022455105486702927 -0.0010414755537417513 0 0.022244734130688733 -0.0012361645564192216 0 0.022674646679738258 -0.0012254726219806716 0 0.022455105486702927 -0.0010414755537417513 0 0.022244734130688733 -0.0012361645564192216 0 0.022246767815609327 -0.00086445710539757067 0 0.021673493748745117 -0.00042836155552860672 0 0.023140549515497329 -0.00040274250797620004 0 0.022131013388872526 -0.00045197351887184555 0 0.022246767815609327 -0.00086445710539757067 0 0.022654130379919878 -0.00083554556961304243 0 0.022455105486702927 -0.0010414755537417513 0 0.022246767815609327 -0.00086445710539757067 0 0.022654130379919878 -0.00083554556961304243 0 0.024071008966456073 0.0003231258165909496 0 0.0240074657005208 -1.2761391956753623e-05 0 0.024354125489680682 4.7638314341540909e-05 0 0.023140549515497329 -0.00040274250797620004 0 0.024418671468680587 -0.00039591054698623514 0 0.0240074657005208 -1.2761391956753623e-05 0 0.024466034146803723 -0.00013554345455611108 0 0.024354125489680682 4.7638314341540909e-05 0 0.022455105486702927 -0.0010414755537417513 0 0.022654130379919878 -0.00083554556961304243 0 0.022674646679738258 -0.0012254726219806716 0 0.023140549515497329 -0.00040274250797620004 0 0.0236599815995607 -0.00072439269219530793 0 0.024578301721293359 -0.0002327402055726012 0 0.024624957098711119 -9.4471235483611557e-05 0 0.024466034146803723 -0.00013554345455611108 0 0.024624957098711119 -9.4471235483611557e-05 0 0.024466034146803723 -0.00013554345455611108 0 0.0245835766717038 -0.0001155698044003622 0 0.024624957098711119 -9.4471235483611557e-05 0 0.0245835766717038 -0.0001155698044003622 0 0.024666420838709784 -0.00011191196790111312 0 0.024466034146803723 -0.00013554345455611108 0 0.0245835766717038 -0.0001155698044003622 0 0.024638841452559426 -0.00011526088292037377 0 0.0245835766717038 -0.0001155698044003622 0 0.024638841452559426 -0.00011526088292037377 0 0.024666420838709784 -0.00011191196790111312 0 0.024466034146803723 -0.00013554345455611108 0 0.024638841452559426 -0.00011526088292037377 0 0.024579277692672048 -4.1262581579093294e-05 0 0.024579277692672048 -4.1262581579093294e-05 0 0.024354125489680682 4.7638314341540909e-05 0 0.024579397822546683 0.00019599753032442188 0 0.024466034146803723 -0.00013554345455611108 0 0.024579277692672048 -4.1262581579093294e-05 0 0.024354125489680682 4.7638314341540909e-05 0 0.024071008966456073 0.0003231258165909496 0 0.024354125489680682 4.7638314341540909e-05 0 0.024579397822546683 0.00019599753032442188 0 0.024872106492759925 -1.6745082642794009e-05 0 0.024800411820254786 -7.5479697993309432e-05 0 0.024877183988182332 -4.1021036328510301e-05 0 0.024813375581823002 -9.601853416257298e-05 0 0.024800411820254786 -7.5479697993309432e-05 0 0.024877183988182332 -4.1021036328510301e-05 0 0.024800411820254786 -7.5479697993309432e-05 0 0.02478508034705839 -7.8446927162043728e-05 0 0.024825947023378283 -4.6133502729938476e-05 0 0.024872106492759925 -1.6745082642794009e-05 0 0.024800411820254786 -7.5479697993309432e-05 0 0.024825947023378283 -4.6133502729938476e-05 0 0.024737868153434796 -0.00012676907237457041 0 0.024800411820254786 -7.5479697993309432e-05 0 0.024744870828105069 -9.9355677811793468e-05 0 0.024737868153434796 -0.00012676907237457041 0 0.024813375581823002 -9.601853416257298e-05 0 0.024800411820254786 -7.5479697993309432e-05 0 0.024737868153434796 -0.00012676907237457041 0 0.024666420838709784 -0.00011191196790111312 0 0.024744870828105069 -9.9355677811793468e-05 0 0.024737868153434796 -0.00012676907237457041 0 0.024638841452559426 -0.00011526088292037377 0 0.024666420838709784 -0.00011191196790111312 0 0.024666420838709784 -0.00011191196790111312 0 0.024744870828105069 -9.9355677811793468e-05 0 0.024739655343200738 -9.784024247068494e-05 0 0.024800411820254786 -7.5479697993309432e-05 0 0.024744870828105069 -9.9355677811793468e-05 0 0.02478508034705839 -7.8446927162043728e-05 0 0.024744870828105069 -9.9355677811793468e-05 0 0.024777003965140387 -8.9720196672107068e-05 0 0.024739655343200738 -9.784024247068494e-05 0 0.024744870828105069 -9.9355677811793468e-05 0 0.02478508034705839 -7.8446927162043728e-05 0 0.024777003965140387 -8.9720196672107068e-05 0 0.0236599815995607 -0.00072439269219530793 0 0.023944923717978236 -0.0005555116337119763 0 0.024777003965140387 -8.9720196672107068e-05 0 0.024805787770222548 -9.0632977540214136e-05 0 0.024739655343200738 -9.784024247068494e-05 0 0.024777003965140387 -8.9720196672107068e-05 0 0.024805787770222548 -9.0632977540214136e-05 0 0.024825947023378283 -4.6133502729938476e-05 0 0.022244734130688733 -0.0012361645564192216 0 0.022674646679738258 -0.0012254726219806716 0 0.022703957215583635 -0.0016021586429634149 0 0.024624957098711119 -9.4471235483611557e-05 0 0.024781255579875355 -9.3755676122061075e-05 0 0.024739655343200738 -9.784024247068494e-05 0 0.024805787770222548 -9.0632977540214136e-05 0 0.024781255579875355 -9.3755676122061075e-05 0 0.024739655343200738 -9.784024247068494e-05 0 0.024008979819032952 -0.00056100869922478343 0 0.023944923717978236 -0.0005555116337119763 0 0.024624957098711119 -9.4471235483611557e-05 0 0.024666420838709784 -0.00011191196790111312 0 0.024739655343200738 -9.784024247068494e-05 0 0.024961811402869381 0.00014360219820404768 0 0.024895932392935183 0.00010267958744160552 0 0.024861950150889694 0.000207165579250873 0 0.024961811402869381 0.00014360219820404768 0 0.024895932392935183 0.00010267958744160552 0 0.024903300388132148 1.3681284123640961e-05 0 0.024895932392935183 0.00010267958744160552 0 0.02490239578209608 4.5738090525077236e-05 0 0.024877406734470572 8.0272189827421421e-05 0 0.024895932392935183 0.00010267958744160552 0 0.024903300388132148 1.3681284123640961e-05 0 0.02490239578209608 4.5738090525077236e-05 0 0.023944923717978236 -0.0005555116337119763 0 0.024407997439357995 1.3648984542673613e-05 0 0.024872106492759925 -1.6745082642794009e-05 0 0.024825947023378283 -4.6133502729938476e-05 0 0.024903300388132148 1.3681284123640961e-05 0 0.024805787770222548 -9.0632977540214136e-05 0 0.024817971075036454 -0.00011074634936194635 0 0.024903300388132148 1.3681284123640961e-05 0 0.024805787770222548 -9.0632977540214136e-05 0 0.024825947023378283 -4.6133502729938476e-05 0 0.024903300388132148 1.3681284123640961e-05 0 0.02478508034705839 -7.8446927162043728e-05 0 0.024777003965140387 -8.9720196672107068e-05 0 0.024825947023378283 -4.6133502729938476e-05 0 0.024872106492759925 -1.6745082642794009e-05 0 0.024912093490933294 1.5073369405728269e-05 0 0.024924742356313204 -5.3980556853587632e-07 0 0.024872106492759925 -1.6745082642794009e-05 0 0.024903300388132148 1.3681284123640961e-05 0 0.024912093490933294 1.5073369405728269e-05 0 0.024912093490933294 1.5073369405728269e-05 0 0.024894007907074831 4.0206258700363358e-05 0 0.024914642488412856 9.6225113029844068e-06 0 0.024912093490933294 1.5073369405728269e-05 0 0.02490239578209608 4.5738090525077236e-05 0 0.024894007907074831 4.0206258700363358e-05 0 0.02490239578209608 4.5738090525077236e-05 0 0.024894007907074831 4.0206258700363358e-05 0 0.024877406734470572 8.0272189827421421e-05 0 0.024903300388132148 1.3681284123640961e-05 0 0.024912093490933294 1.5073369405728269e-05 0 0.02490239578209608 4.5738090525077236e-05 0 0.024894007907074831 4.0206258700363358e-05 0 0.024838195508418166 7.6313197056319734e-05 0 0.024880477797709397 2.2307509779126845e-05 0 0.024894007907074831 4.0206258700363358e-05 0 0.024838195508418166 7.6313197056319734e-05 0 0.024877406734470572 8.0272189827421421e-05 0 0.024838195508418166 7.6313197056319734e-05 0 0.024832955618248997 3.3494775456159682e-05 0 0.024880477797709397 2.2307509779126845e-05 0 0.024838195508418166 7.6313197056319734e-05 0 0.024732273105025279 7.1295524683937818e-05 0 0.024832955618248997 3.3494775456159682e-05 0 0.024838195508418166 7.6313197056319734e-05 0 0.024842789401438595 0.00014476791958176167 0 0.024745058853639697 0.00016346296567143324 0 0.024895932392935183 0.00010267958744160552 0 0.024842789401438595 0.00014476791958176167 0 0.024877406734470572 8.0272189827421421e-05 0 0.024838195508418166 7.6313197056319734e-05 0 0.024842789401438595 0.00014476791958176167 0 0.024877406734470572 8.0272189827421421e-05 0 0.023514300005708661 -0.0004283517392493321 0 0.023944923717978236 -0.0005555116337119763 0 0.024842789401438595 0.00014476791958176167 0 0.024861950150889694 0.000207165579250873 0 0.024788561979270537 0.00023923225839097675 0 0.024895932392935183 0.00010267958744160552 0 0.024842789401438595 0.00014476791958176167 0 0.024861950150889694 0.000207165579250873 0 0.024819603422917284 0.00041414505191221269 0 0.024961811402869381 0.00014360219820404768 0 0.024861950150889694 0.000207165579250873 0 0.024819603422917284 0.00041414505191221269 0 0.024861950150889694 0.000207165579250873 0 0.024788561979270537 0.00023923225839097675 0 0.024819603422917284 0.00041414505191221269 0 0.024788561979270537 0.00023923225839097675 0 0.02465456316586654 0.00028138842282679363 0 0.024842789401438595 0.00014476791958176167 0 0.024788561979270537 0.00023923225839097675 0 0.024745058853639697 0.00016346296567143324 0 0.024788561979270537 0.00023923225839097675 0 0.02465456316586654 0.00028138842282679363 0 0.024745058853639697 0.00016346296567143324 0 0.02465456316586654 0.00028138842282679363 0 0.024745058853639697 0.00016346296567143324 0 0.024533452686090484 0.00016083639958960352 0 0.024528483326075452 0.00045530042515678153 0 0.024819603422917284 0.00041414505191221269 0 0.02465456316586654 0.00028138842282679363 0 0.024528483326075452 0.00045530042515678153 0 0.02465456316586654 0.00028138842282679363 0 0.024483862714671706 0.00029841887939719802 0 0.024745058853639697 0.00016346296567143324 0 0.024732273105025279 7.1295524683937818e-05 0 0.024533452686090484 0.00016083639958960352 0 0.024838195508418166 7.6313197056319734e-05 0 0.024745058853639697 0.00016346296567143324 0 0.024732273105025279 7.1295524683937818e-05 0 0.024732273105025279 7.1295524683937818e-05 0 0.024533452686090484 0.00016083639958960352 0 0.024582394978277584 4.8364642060581005e-05 0 0.024732273105025279 7.1295524683937818e-05 0 0.02471195830474128 -4.7236590539357992e-06 0 0.024582394978277584 4.8364642060581005e-05 0 0.02471195830474128 -4.7236590539357992e-06 0 0.024582394978277584 4.8364642060581005e-05 0 0.024591681541712217 -3.3786559991458997e-05 0 0.024732273105025279 7.1295524683937818e-05 0 0.024795746514970296 1.0778566467018005e-05 0 0.024832955618248997 3.3494775456159682e-05 0 0.024732273105025279 7.1295524683937818e-05 0 0.02471195830474128 -4.7236590539357992e-06 0 0.024795746514970296 1.0778566467018005e-05 0 0.02471195830474128 -4.7236590539357992e-06 0 0.024795746514970296 1.0778566467018005e-05 0 0.024815140970777968 -3.0331836745474956e-05 0 0.024815140970777968 -3.0331836745474956e-05 0 0.024723615036801393 -0.00010067343900525518 0 0.024863458496610532 -5.3877012661978223e-05 0 0.02471195830474128 -4.7236590539357992e-06 0 0.024815140970777968 -3.0331836745474956e-05 0 0.024723615036801393 -0.00010067343900525518 0 0.02471195830474128 -4.7236590539357992e-06 0 0.024723615036801393 -0.00010067343900525518 0 0.024591681541712217 -3.3786559991458997e-05 0 0.024999848140901847 -1.1603020132074875e-07 0 0.0249654140572063 -4.8616268405721439e-05 0 0.025006429703466296 -2.0032311851373825e-06 0 0.024926981924964405 -6.8956266682543204e-05 0 0.024792444731945404 -0.00010106151890301606 0 0.024723615036801393 -0.00010067343900525518 0 0.0249654140572063 -4.8616268405721439e-05 0 0.024566075795901421 -0.00024138585134992225 0 0.024723615036801393 -0.00010067343900525518 0 0.024863458496610532 -5.3877012661978223e-05 0 0.0249654140572063 -4.8616268405721439e-05 0 0.024863458496610532 -5.3877012661978223e-05 0 0.024913561734141536 -3.7462237314954331e-05 0 0.0249654140572063 -4.8616268405721439e-05 0 0.024913561734141536 -3.7462237314954331e-05 0 0.0249654140572063 -4.8616268405721439e-05 0 0.024963667977540727 -2.8924381011976417e-05 0 0.024999848140901847 -1.1603020132074875e-07 0 0.024963667977540727 -2.8924381011976417e-05 0 0.024999891231905859 -1.5571714262854666e-08 0 0.024999848140901847 -1.1603020132074875e-07 0 0.0249654140572063 -4.8616268405721439e-05 0 0.024963667977540727 -2.8924381011976417e-05 0 0.024913561734141536 -3.7462237314954331e-05 0 0.024963667977540727 -2.8924381011976417e-05 0 0.024935089749986344 -2.1322010215442597e-05 0 0.024913561734141536 -3.7462237314954331e-05 0 0.024935089749986344 -2.1322010215442597e-05 0 0.024907596762266317 -5.3042410221858644e-06 0 0.024913561734141536 -3.7462237314954331e-05 0 0.024907596762266317 -5.3042410221858644e-06 0 0.024865690641422061 -7.39041041273022e-06 0 0.024935089749986344 -2.1322010215442597e-05 0 0.024907596762266317 -5.3042410221858644e-06 0 0.024929418351137947 -6.6069220955690973e-06 0 0.024815140970777968 -3.0331836745474956e-05 0 0.024913561734141536 -3.7462237314954331e-05 0 0.024865690641422061 -7.39041041273022e-06 0 0.024815140970777968 -3.0331836745474956e-05 0 0.024863458496610532 -5.3877012661978223e-05 0 0.024913561734141536 -3.7462237314954331e-05 0 0.024795746514970296 1.0778566467018005e-05 0 0.024815140970777968 -3.0331836745474956e-05 0 0.024865690641422061 -7.39041041273022e-06 0 0.024795746514970296 1.0778566467018005e-05 0 0.024865690641422061 -7.39041041273022e-06 0 0.024832955618248997 3.3494775456159682e-05 0 0.024865690641422061 -7.39041041273022e-06 0 0.024832955618248997 3.3494775456159682e-05 0 0.024880477797709397 2.2307509779126845e-05 0 0.024894007907074831 4.0206258700363358e-05 0 0.024880477797709397 2.2307509779126845e-05 0 0.024914642488412856 9.6225113029844068e-06 0 0.024907596762266317 -5.3042410221858644e-06 0 0.024880477797709397 2.2307509779126845e-05 0 0.024914642488412856 9.6225113029844068e-06 0 0.024907596762266317 -5.3042410221858644e-06 0 0.024865690641422061 -7.39041041273022e-06 0 0.024880477797709397 2.2307509779126845e-05 0 0.024872106492759925 -1.6745082642794009e-05 0 0.024924742356313204 -5.3980556853587632e-07 0 0.024937063178897215 -1.0263559686578158e-05 0 0.024912093490933294 1.5073369405728269e-05 0 0.024914642488412856 9.6225113029844068e-06 0 0.024924742356313204 -5.3980556853587632e-07 0 0.024914642488412856 9.6225113029844068e-06 0 0.024924742356313204 -5.3980556853587632e-07 0 0.024929418351137947 -6.6069220955690973e-06 0 0.024907596762266317 -5.3042410221858644e-06 0 0.024914642488412856 9.6225113029844068e-06 0 0.024929418351137947 -6.6069220955690973e-06 0 0.024924742356313204 -5.3980556853587632e-07 0 0.024951843689771457 -1.324013339341053e-05 0 0.024937063178897215 -1.0263559686578158e-05 0 0.024924742356313204 -5.3980556853587632e-07 0 0.024929418351137947 -6.6069220955690973e-06 0 0.024951843689771457 -1.324013339341053e-05 0 0.024935089749986344 -2.1322010215442597e-05 0 0.024929418351137947 -6.6069220955690973e-06 0 0.024951843689771457 -1.324013339341053e-05 0 0.024963667977540727 -2.8924381011976417e-05 0 0.024935089749986344 -2.1322010215442597e-05 0 0.024951843689771457 -1.324013339341053e-05 0 0.024951843689771457 -1.324013339341053e-05 0 0.024999891231905859 -1.5571714262854666e-08 0 0.024937063178897215 -1.0263559686578158e-05 0 0.024963667977540727 -2.8924381011976417e-05 0 0.024951843689771457 -1.324013339341053e-05 0 0.024999891231905859 -1.5571714262854666e-08 0 0.024999940118299625 -2.2922818076719438e-08 0 0.024999891231905859 -1.5571714262854666e-08 0 0.024937063178897215 -1.0263559686578158e-05 0 0.0249334564397036 -1.2740140787997281e-05 0 0.024999940118299625 -2.2922818076719438e-08 0 0.024937063178897215 -1.0263559686578158e-05 0 0.0249334564397036 -1.2740140787997281e-05 0 0.024937063178897215 -1.0263559686578158e-05 0 0.024877183988182332 -4.1021036328510301e-05 0 0.024872106492759925 -1.6745082642794009e-05 0 0.024937063178897215 -1.0263559686578158e-05 0 0.024877183988182332 -4.1021036328510301e-05 0 0.023782809826225756 0.00018304062391566767 0 0.02398361987250314 -0.00016710593052277111 0 0.024019752901482127 0.0001831066092547182 0 0.023802920728019469 0.00024060746507475699 0 0.024034859137793751 -1.0431761832765416e-06 0 0.023753048845135186 -0.00025852843335002237 0 0.023773530799205963 9.8761514272051537e-05 0 0.023990350620723102 -0.00029680579997052095 0 0.024019752901482127 0.0001831066092547182 0 0.024204303033012048 0.00010144339631345614 0 0.024034859137793751 -1.0431761832765416e-06 0 0.023753048845135186 -0.00025852843335002237 0 0.023628333884786485 -6.9996067110489988e-05 0 0.023773530799205963 9.8761514272051537e-05 0 0.023753048845135186 -0.00025852843335002237 0 0.023616740972724867 -0.00029525782715087052 0 0.023628333884786485 -6.9996067110489988e-05 0 0.02373547011398898 -0.00031301790759742139 0 0.023811950053667156 -0.00032112853548387708 0 0.023811950053667156 -0.00032112853548387708 0 0.02345088689079251 -3.5834514161400165e-05 0 0.023616740972724867 -0.00029525782715087052 0 0.023628333884786485 -6.9996067110489988e-05 0 0.023445815335482973 -3.3657852738817153e-05 0 0.023628333884786485 -6.9996067110489988e-05 0 0.023531213228341154 0.00014771876936792229 0 0.023445815335482973 -3.3657852738817153e-05 0 0.023562779463776266 0.00050622244885413232 0 0.023782809826225756 0.00018304062391566767 0 0.023981883871693851 0.00043902421789088377 0 0.023540410718893814 0.0005254432641477705 0 0.023802920728019469 0.00024060746507475699 0 0.023540410718893814 0.0005254432641477705 0 0.023773530799205963 9.8761514272051537e-05 0 0.023531213228341154 0.00014771876936792229 0 0.023628333884786485 -6.9996067110489988e-05 0 0.023773530799205963 9.8761514272051537e-05 0 0.023531213228341154 0.00014771876936792229 0 0.023981883871693851 0.00043902421789088377 0 0.024019752901482127 0.0001831066092547182 0 0.024172630301246913 0.00025997694851120651 0 0.023981883871693851 0.00043902421789088377 0 0.024019752901482127 0.0001831066092547182 0 0.023802920728019469 0.00024060746507475699 0 0.023981883871693851 0.00043902421789088377 0 0.024297333089800161 0.00038771115376754487 0 0.024172630301246913 0.00025997694851120651 0 0.024297333089800161 0.00038771115376754487 0 0.024172630301246913 0.00025997694851120651 0 0.02435208411764193 0.00020237467668828907 0 0.024528483326075452 0.00045530042515678153 0 0.024297333089800161 0.00038771115376754487 0 0.024483862714671706 0.00029841887939719802 0 0.024483862714671706 0.00029841887939719802 0 0.024533452686090484 0.00016083639958960352 0 0.02435208411764193 0.00020237467668828907 0 0.024297333089800161 0.00038771115376754487 0 0.024483862714671706 0.00029841887939719802 0 0.02435208411764193 0.00020237467668828907 0 0.02465456316586654 0.00028138842282679363 0 0.024483862714671706 0.00029841887939719802 0 0.024533452686090484 0.00016083639958960352 0 0.024533452686090484 0.00016083639958960352 0 0.02435208411764193 0.00020237467668828907 0 0.02442844218536815 2.0285227557793043e-05 0 0.024533452686090484 0.00016083639958960352 0 0.024582394978277584 4.8364642060581005e-05 0 0.02442844218536815 2.0285227557793043e-05 0 0.02435208411764193 0.00020237467668828907 0 0.024204303033012048 0.00010144339631345614 0 0.02442844218536815 2.0285227557793043e-05 0 0.024019752901482127 0.0001831066092547182 0 0.024172630301246913 0.00025997694851120651 0 0.024204303033012048 0.00010144339631345614 0 0.024172630301246913 0.00025997694851120651 0 0.02435208411764193 0.00020237467668828907 0 0.024204303033012048 0.00010144339631345614 0 0.024204303033012048 0.00010144339631345614 0 0.024257680374488177 -4.8121919292215453e-05 0 0.02442844218536815 2.0285227557793043e-05 0 0.024204303033012048 0.00010144339631345614 0 0.024257680374488177 -4.8121919292215453e-05 0 0.024034859137793751 -1.0431761832765416e-06 0 0.024257680374488177 -4.8121919292215453e-05 0 0.024217995665943768 -0.00024295496481392518 0 0.024034859137793751 -1.0431761832765416e-06 0 0.024257680374488177 -4.8121919292215453e-05 0 0.02442844218536815 2.0285227557793043e-05 0 0.024397167550478459 -0.00013906734663417301 0 0.024257680374488177 -4.8121919292215453e-05 0 0.024397167550478459 -0.00013906734663417301 0 0.024217995665943768 -0.00024295496481392518 0 0.024582394978277584 4.8364642060581005e-05 0 0.024591681541712217 -3.3786559991458997e-05 0 0.02442844218536815 2.0285227557793043e-05 0 0.024591681541712217 -3.3786559991458997e-05 0 0.02442844218536815 2.0285227557793043e-05 0 0.024531304946843448 -0.0001233313609463449 0 0.02442844218536815 2.0285227557793043e-05 0 0.024397167550478459 -0.00013906734663417301 0 0.024531304946843448 -0.0001233313609463449 0 0.024723615036801393 -0.00010067343900525518 0 0.024591681541712217 -3.3786559991458997e-05 0 0.024531304946843448 -0.0001233313609463449 0 0.025000063649160277 2.7745974023131511e-08 0 0.025006429703466296 -2.0032311851373825e-06 0 0.024998930272213272 -4.5217213565605631e-07 0 0.024999848140901847 -1.1603020132074875e-07 0 0.025000063649160277 2.7745974023131511e-08 0 0.025006429703466296 -2.0032311851373825e-06 0 0.024397167550478459 -0.00013906734663417301 0 0.024566075795901421 -0.00024138585134992225 0 0.024217995665943768 -0.00024295496481392518 0 0.024723615036801393 -0.00010067343900525518 0 0.024531304946843448 -0.0001233313609463449 0 0.024566075795901421 -0.00024138585134992225 0 0.024397167550478459 -0.00013906734663417301 0 0.024531304946843448 -0.0001233313609463449 0 0.024566075795901421 -0.00024138585134992225 0 0.024792444731945404 -0.00010106151890301606 0 0.024539908707304652 -0.0002507513194071745 0 0.025000063649160277 2.7745974023131511e-08 0 0.024998930272213272 -4.5217213565605631e-07 0 0.02499995312463834 -1.8081501883688569e-08 0 0.025006429703466296 -2.0032311851373825e-06 0 0.024995515019452543 2.0231253570071288e-06 0 0.024998930272213272 -4.5217213565605631e-07 0 0.024997688261003438 -9.5020524903183796e-07 0 0.024998930272213272 -4.5217213565605631e-07 0 0.02499995312463834 -1.8081501883688569e-08 0 0.024539908707304652 -0.0002507513194071745 0 0.024775931874885207 -0.00012074382371657869 0 0.024539908707304652 -0.0002507513194071745 0 0.024548136581743703 -0.00019967715569744918 0 0.024997688261003438 -9.5020524903183796e-07 0 0.02499995312463834 -1.8081501883688569e-08 0 0.024995160486388435 -1.02299681171244e-06 0 0.024999964304539157 -7.1591319702193928e-08 0 0.024548136581743703 -0.00019967715569744918 0 0.024201354289573564 -0.00067274815815245427 0 0.023856798440405207 -0.00043361001169569592 0 0.023990350620723102 -0.00029680579997052095 0 0.024201354289573564 -0.00067274815815245427 0 0.023847099223562922 -0.00063146742012626497 0 0.023856798440405207 -0.00043361001169569592 0 0.024539908707304652 -0.0002507513194071745 0 0.02398361987250314 -0.00016710593052277111 0 0.023753048845135186 -0.00025852843335002237 0 0.023856798440405207 -0.00043361001169569592 0 0.023990350620723102 -0.00029680579997052095 0 0.02423449429753716 -0.0001177434230978837 0 0.024356027745754516 -0.00031174826945791961 0 0.024035029606834696 -0.0002717314111787525 0 0.023811950053667156 -0.00032112853548387708 0 0.024548136581743703 -0.00019967715569744918 0 0.023630058855417538 -0.00028932721725600288 0 0.023847099223562922 -0.00063146742012626497 0 0.023856798440405207 -0.00043361001169569592 0 0.023753048845135186 -0.00025852843335002237 0 0.023630058855417538 -0.00028932721725600288 0 0.023856798440405207 -0.00043361001169569592 0 0.024548136581743703 -0.00019967715569744918 0 0.024632544437789561 -0.00010641420896085887 0 0.025000007529658426 1.7748326951177776e-09 0 0.024998756618830924 5.2673458273034289e-07 0 0.024999979673856216 -3.208261696671426e-09 0 0.024998756618830924 5.2673458273034289e-07 0 0.024999979673856216 -3.208261696671426e-09 0 0.02499167574260432 1.9697435804700199e-06 0 0.024999998993175936 3.8244802304776954e-10 0 0.024999991390451098 -1.2141427330009214e-09 0 0.024996947518024986 -1.4216302369290962e-07 0 0.025000196094717663 -8.0863829232689245e-08 0 0.024632544437789561 -0.00010641420896085887 0 0.024999991390451098 -1.2141427330009214e-09 0 0.024996947518024986 -1.4216302369290962e-07 0 0.024993896625835024 -3.3308535838099899e-07 0 0.024632544437789561 -0.00010641420896085887 0 0.024101425111374964 3.7431537180176976e-05 0 0.023510771493193409 -8.6877508705652365e-05 0 0.024101425111374964 3.7431537180176976e-05 0 0.024138895987963038 1.1668039315362951e-05 0 0.024192796895198234 -5.0879983803413509e-05 0 0.023992248877866156 -2.2873372862526718e-05 0 0.023510771493193409 -8.6877508705652365e-05 0 0.024632544437789561 -0.00010641420896085887 0 0.02423449429753716 -0.0001177434230978837 0 0.023959558203150471 -0.0001851273178525218 0 0.024035029606834696 -0.0002717314111787525 0 0.023811950053667156 -0.00032112853548387708 0 0.023510771493193409 -8.6877508705652365e-05 0 0.023657943532065587 -0.00038833816932505404 0 0.023465764153093996 -7.741108947635068e-05 0 0.023220479132903881 -0.00020381242686067679 0 0.023657943532065587 -0.00038833816932505404 0 0.023049241716125806 -0.00054533202465220567 0 0.023220479132903881 -0.00020381242686067679 0 0.023220479132903881 -0.00020381242686067679 0 0.023024029075700374 4.6616698755734171e-05 0 0.023244017184652108 -3.337028182263176e-07 0 0.023465764153093996 -7.741108947635068e-05 0 0.023220479132903881 -0.00020381242686067679 0 0.023244017184652108 -3.337028182263176e-07 0 0.023510771493193409 -8.6877508705652365e-05 0 0.022999120067039087 -8.3070631768979066e-05 0 0.023049241716125806 -0.00054533202465220567 0 0.023220479132903881 -0.00020381242686067679 0 0.022926431565857382 -0.00013645000808960942 0 0.023049241716125806 -0.00054533202465220567 0 0.022926431565857382 -0.00013645000808960942 0 0.022646443641936454 -0.0001008848966250127 0 0.022926431565857382 -0.00013645000808960942 0 0.022720646968736522 -7.1060227209627226e-05 0 0.022646443641936454 -0.0001008848966250127 0 0.022926431565857382 -0.00013645000808960942 0 0.022882941925269309 5.0014321709936034e-05 0 0.022720646968736522 -7.1060227209627226e-05 0 0.023220479132903881 -0.00020381242686067679 0 0.022926431565857382 -0.00013645000808960942 0 0.023024029075700374 4.6616698755734171e-05 0 0.021433893185881583 0.00022887962532733448 0 0.022705762037425265 0.0001069610789565473 0 0.023024029075700374 4.6616698755734171e-05 0 0.0229264109394887 0.00018540739848325622 0 0.02306152179111947 0.00025396653650013425 0 0.022882941925269309 5.0014321709936034e-05 0 0.022822766333998878 0.0003009352166254989 0 0.022720646968736522 -7.1060227209627226e-05 0 0.022926431565857382 -0.00013645000808960942 0 0.023024029075700374 4.6616698755734171e-05 0 0.022882941925269309 5.0014321709936034e-05 0 0.023024029075700374 4.6616698755734171e-05 0 0.022882941925269309 5.0014321709936034e-05 0 0.0229264109394887 0.00018540739848325622 0 0.022882941925269309 5.0014321709936034e-05 0 0.0229264109394887 0.00018540739848325622 0 0.022822766333998878 0.0003009352166254989 0 0.0229264109394887 0.00018540739848325622 0 0.022861090423409794 0.00029763965044876504 0 0.02306152179111947 0.00025396653650013425 0 0.0229264109394887 0.00018540739848325622 0 0.022861090423409794 0.00029763965044876504 0 0.022822766333998878 0.0003009352166254989 0 0.021565301206400215 0.00022348948438764593 0 0.021433893185881583 0.00022887962532733448 0 0.023024029075700374 4.6616698755734171e-05 0 0.02306152179111947 0.00025396653650013425 0 0.023267757888480047 0.00023173665047658334 0 0.023540410718893814 0.0005254432641477705 0 0.023531213228341154 0.00014771876936792229 0 0.023267757888480047 0.00023173665047658334 0 0.023531213228341154 0.00014771876936792229 0 0.023445815335482973 -3.3657852738817153e-05 0 0.023267757888480047 0.00023173665047658334 0 0.02345088689079251 -3.5834514161400165e-05 0 0.023299215363018495 0.00018954347760791825 0 0.023465764153093996 -7.741108947635068e-05 0 0.023267757888480047 0.00023173665047658334 0 0.023244017184652108 -3.337028182263176e-07 0 0.023024029075700374 4.6616698755734171e-05 0 0.023267757888480047 0.00023173665047658334 0 0.023244017184652108 -3.337028182263176e-07 0 0.023156981659612982 4.5422695934119834e-05 0 0.023131805001372942 2.1258207610065589e-05 0 0.023140752352865317 6.4493677768678943e-05 0 0.023156981659612982 4.5422695934119834e-05 0 0.023164505531467604 6.7991311788984449e-05 0 0.023189969146556154 5.1697509065032102e-05 0 0.023156981659612982 4.5422695934119834e-05 0 0.023131805001372942 2.1258207610065589e-05 0 0.02316802446590947 1.1651023642705538e-05 0 0.021433893185881583 0.00022887962532733448 0 0.021429285188028457 0.00027812161755132837 0 0.023131805001372942 2.1258207610065589e-05 0 0.023112739125492377 6.9990810042545125e-05 0 0.023140752352865317 6.4493677768678943e-05 0 0.021429285188028457 0.00027812161755132837 0 0.022999120067039087 -8.3070631768979066e-05 0 0.022804253626665126 0.00039981662427396081 0 0.022720646968736522 -7.1060227209627226e-05 0 0.022646443641936454 -0.0001008848966250127 0 0.022804253626665126 0.00039981662427396081 0 0.022154091094538218 0.00044876365469651133 0 0.022646443641936454 -0.0001008848966250127 0 0.023112739125492377 6.9990810042545125e-05 0 0.023140752352865317 6.4493677768678943e-05 0 0.023147822855083065 9.9948025299483292e-05 0 0.023112739125492377 6.9990810042545125e-05 0 0.023147822855083065 9.9948025299483292e-05 0 0.023126459629870904 0.00011621664524778681 0 0.023140752352865317 6.4493677768678943e-05 0 0.023164505531467604 6.7991311788984449e-05 0 0.023147822855083065 9.9948025299483292e-05 0 0.023156981659612982 4.5422695934119834e-05 0 0.023140752352865317 6.4493677768678943e-05 0 0.023164505531467604 6.7991311788984449e-05 0 0.023164505531467604 6.7991311788984449e-05 0 0.023147822855083065 9.9948025299483292e-05 0 0.023185642254545554 9.1669231203998607e-05 0 0.024101425111374964 3.7431537180176976e-05 0 0.023351983565936426 0.00010694527454332473 0 0.024101425111374964 3.7431537180176976e-05 0 0.024423425811902474 -5.2391745212928564e-05 0 0.023147822855083065 9.9948025299483292e-05 0 0.023182278295687968 0.00012377671178522606 0 0.023185642254545554 9.1669231203998607e-05 0 0.024177559087784472 1.6426401562400351e-05 0 0.023783330322337311 -8.1266239764721821e-05 0 0.023731938501672861 7.309190194013084e-05 0 0.023147822855083065 9.9948025299483292e-05 0 0.023126459629870904 0.00011621664524778681 0 0.023182278295687968 0.00012377671178522606 0 0.023095802454961161 0.00010390422360168537 0 0.023112739125492377 6.9990810042545125e-05 0 0.023126459629870904 0.00011621664524778681 0 0.024999991390451098 -1.2141427330009214e-09 0 0.024993896625835024 -3.3308535838099899e-07 0 0.02499999176445148 4.8149786958452737e-11 0 0.024993896625835024 -3.3308535838099899e-07 0 0.02499999176445148 4.8149786958452737e-11 0 0.024996476108658745 -6.6864004543605811e-07 0 0.024423425811902474 -5.2391745212928564e-05 0 0.024491957593281894 4.6677341264355378e-05 0 0.02499999176445148 4.8149786958452737e-11 0 0.024996476108658745 -6.6864004543605811e-07 0 0.024999369848229407 1.9061440251215896e-08 0 0.02499999176445148 4.8149786958452737e-11 0 0.024999994956407853 -7.7802197868740881e-10 0 0.024999369848229407 1.9061440251215896e-08 0 0.024996476108658745 -6.6864004543605811e-07 0 0.024999369848229407 1.9061440251215896e-08 0 0.024997849530983055 -9.6019884581946454e-08 0 0.023783330322337311 -8.1266239764721821e-05 0 0.023394516014981014 -0.00017208940983987579 0 0.023548155586175991 -1.6169672005196339e-05 0 0.024999994956407853 -7.7802197868740881e-10 0 0.024999369848229407 1.9061440251215896e-08 0 0.024998827130870201 5.4095067867010344e-07 0 0.024710198744707017 -7.6484228153096047e-05 0 0.024491957593281894 4.6677341264355378e-05 0 0.024970471641962498 9.9428303887076846e-06 0 0.024976478653582854 2.7086039143453247e-07 0 0.024980715644899364 4.3157708962707479e-06 0 0.023394516014981014 -0.00017208940983987579 0 0.023284775174467844 0.00011505087637790395 0 0.023548155586175991 -1.6169672005196339e-05 0 0.023339196427880023 0.00011020898409072166 0 0.023351983565936426 0.00010694527454332473 0 0.023394516014981014 -0.00017208940983987579 0 0.023284775174467844 0.00011505087637790395 0 0.023271836327415776 0.00011142728199911434 0 0.023284775174467844 0.00011505087637790395 0 0.0232205969697011 0.00010345992972057029 0 0.023246657815214608 9.7660591017491129e-05 0 0.024491957593281894 4.6677341264355378e-05 0 0.024139029863216852 2.6964056888266411e-05 0 0.023284775174467844 0.00011505087637790395 0 0.023271836327415776 0.00011142728199911434 0 0.02326541555171777 8.7934152934828472e-05 0 0.023284775174467844 0.00011505087637790395 0 0.023731938501672861 7.309190194013084e-05 0 0.023548155586175991 -1.6169672005196339e-05 0 0.023284775174467844 0.00011505087637790395 0 0.0232205969697011 0.00010345992972057029 0 0.023182278295687968 0.00012377671178522606 0 0.0232205969697011 0.00010345992972057029 0 0.023182278295687968 0.00012377671178522606 0 0.023185642254545554 9.1669231203998607e-05 0 0.023783330322337311 -8.1266239764721821e-05 0 0.023731938501672861 7.309190194013084e-05 0 0.023548155586175991 -1.6169672005196339e-05 0 0.024991804021317149 2.7487083340045231e-06 0 0.024994452450635869 2.5832357583452729e-08 0 0.024987124750213741 -5.4735829086258123e-07 0 0.024991804021317149 2.7487083340045231e-06 0 0.024994452450635869 2.5832357583452729e-08 0 0.024992632299729048 2.7611282654803275e-06 0 0.024994452450635869 2.5832357583452729e-08 0 0.024998912862252694 1.4188453761396954e-06 0 0.024992632299729048 2.7611282654803275e-06 0 0.024994452450635869 2.5832357583452729e-08 0 0.024999991170554663 9.52458833601602e-09 0 0.024998912862252694 1.4188453761396954e-06 0 0.024999994956407853 -7.7802197868740881e-10 0 0.024998827130870201 5.4095067867010344e-07 0 0.024998912862252694 1.4188453761396954e-06 0 0.024999994956407853 -7.7802197868740881e-10 0 0.024999991170554663 9.52458833601602e-09 0 0.024998912862252694 1.4188453761396954e-06 0 0.024970471641962498 9.9428303887076846e-06 0 0.024998912862252694 1.4188453761396954e-06 0 0.024987879912511002 3.7016628719660878e-06 0 0.024491957593281894 4.6677341264355378e-05 0 0.02519598778789436 1.5354195376310869e-05 0 0.024970471641962498 9.9428303887076846e-06 0 0.024987879912511002 3.7016628719660878e-06 0 0.024980715644899364 4.3157708962707479e-06 0 0.024998912862252694 1.4188453761396954e-06 0 0.024992632299729048 2.7611282654803275e-06 0 0.024987879912511002 3.7016628719660878e-06 0 0.024992632299729048 2.7611282654803275e-06 0 0.024987879912511002 3.7016628719660878e-06 0 0.024986258119764841 3.3990705265733742e-06 0 0.024987879912511002 3.7016628719660878e-06 0 0.024980715644899364 4.3157708962707479e-06 0 0.024986258119764841 3.3990705265733742e-06 0 0.024976478653582854 2.7086039143453247e-07 0 0.024988118459319524 4.1812114292690801e-06 0 0.024974268424891286 -5.585125917162732e-06 0 0.024976478653582854 2.7086039143453247e-07 0 0.024986258119764841 3.3990705265733742e-06 0 0.024988118459319524 4.1812114292690801e-06 0 0.024976478653582854 2.7086039143453247e-07 0 0.024980715644899364 4.3157708962707479e-06 0 0.024986258119764841 3.3990705265733742e-06 0 0.024992632299729048 2.7611282654803275e-06 0 0.024986258119764841 3.3990705265733742e-06 0 0.024988118459319524 4.1812114292690801e-06 0 0.024991804021317149 2.7487083340045231e-06 0 0.024992632299729048 2.7611282654803275e-06 0 0.024988118459319524 4.1812114292690801e-06 0 0.024988118459319524 4.1812114292690801e-06 0 0.024992546669401372 8.538089400118002e-06 0 0.024989883178307647 4.5307198683315111e-06 0 0.024991804021317149 2.7487083340045231e-06 0 0.024988118459319524 4.1812114292690801e-06 0 0.024989883178307647 4.5307198683315111e-06 0 0.02444976255132331 -0.00011319499762111715 0 0.024425551560057233 -0.00021492062859922951 0 0.024235529320394487 -0.00023187509081572211 0 0.024898843524281903 -3.2188216417022457e-05 0 0.023733447738504044 1.4845062544930464e-06 0 0.024425551560057233 -0.00021492062859922951 0 0.024235529320394487 -0.00023187509081572211 0 0.024349260772629965 -0.00029166816703177911 0 0.024988118459319524 4.1812114292690801e-06 0 0.024992546669401372 8.538089400118002e-06 0 0.024974268424891286 -5.585125917162732e-06 0 0.024139029863216852 2.6964056888266411e-05 0 0.023733447738504044 1.4845062544930464e-06 0 0.023271836327415776 0.00011142728199911434 0 0.023303840887458276 6.8496471612787793e-05 0 0.02326541555171777 8.7934152934828472e-05 0 0.022184546803508148 0.00052259375487896426 0 0.022055054732706175 0.00025621155109117731 0 0.022412063314202132 9.064483689569964e-06 0 0.022184546803508148 0.00052259375487896426 0 0.022055054732706175 0.00025621155109117731 0 0.02176978374059493 0.0003065682498675242 0 0.023733447738504044 1.4845062544930464e-06 0 0.02209364201949059 5.0029526843932045e-05 0 0.022055054732706175 0.00025621155109117731 0 0.021885653361083474 4.7254351714486561e-05 0 0.022412063314202132 9.064483689569964e-06 0 0.024235529320394487 -0.00023187509081572211 0 0.024349260772629965 -0.00029166816703177911 0 0.024322707323787177 -0.00039020343437412601 0 0.024349260772629965 -0.00029166816703177911 0 0.024411011763894406 -0.00031894694795631747 0 0.024322707323787177 -0.00039020343437412601 0 0.024425551560057233 -0.00021492062859922951 0 0.024349260772629965 -0.00029166816703177911 0 0.024411011763894406 -0.00031894694795631747 0 0.023185642254545554 9.1669231203998607e-05 0 0.023224116081374941 7.9568944166049293e-05 0 0.023189969146556154 5.1697509065032102e-05 0 0.023164505531467604 6.7991311788984449e-05 0 0.023185642254545554 9.1669231203998607e-05 0 0.023189969146556154 5.1697509065032102e-05 0 0.0232205969697011 0.00010345992972057029 0 0.023185642254545554 9.1669231203998607e-05 0 0.023224116081374941 7.9568944166049293e-05 0 0.023224116081374941 7.9568944166049293e-05 0 0.023246657815214608 9.7660591017491129e-05 0 0.02326541555171777 8.7934152934828472e-05 0 0.0232205969697011 0.00010345992972057029 0 0.023224116081374941 7.9568944166049293e-05 0 0.023246657815214608 9.7660591017491129e-05 0 0.023303840887458276 6.8496471612787793e-05 0 0.02326541555171777 8.7934152934828472e-05 0 0.023238171144604861 3.5193185045524436e-05 0 0.023224116081374941 7.9568944166049293e-05 0 0.02326541555171777 8.7934152934828472e-05 0 0.023238171144604861 3.5193185045524436e-05 0 0.023284775174467844 0.00011505087637790395 0 0.023246657815214608 9.7660591017491129e-05 0 0.02326541555171777 8.7934152934828472e-05 0 0.02176978374059493 0.0003065682498675242 0 0.021356408338495475 8.6531132287595133e-05 0 0.021885653361083474 4.7254351714486561e-05 0 0.023733447738504044 1.4845062544930464e-06 0 0.022495792674800178 0.00016927279330567553 0 0.022055054732706175 0.00025621155109117731 0 0.02176978374059493 0.0003065682498675242 0 0.021885653361083474 4.7254351714486561e-05 0 0.022495792674800178 0.00016927279330567553 0 0.021327275183874277 0.00033218571191273751 0 0.023238171144604861 3.5193185045524436e-05 0 0.023189969146556154 5.1697509065032102e-05 0 0.02316802446590947 1.1651023642705538e-05 0 0.023224116081374941 7.9568944166049293e-05 0 0.023238171144604861 3.5193185045524436e-05 0 0.023189969146556154 5.1697509065032102e-05 0 0.023156981659612982 4.5422695934119834e-05 0 0.023189969146556154 5.1697509065032102e-05 0 0.02316802446590947 1.1651023642705538e-05 0 0.019455466311092504 0.00063235916625961088 0 0.019501074540997528 0.00058376667967585053 0 0.019599488376929604 0.00063873493818515658 0 0.019455466311092504 0.00063235916625961088 0 0.019501074540997528 0.00058376667967585053 0 0.019434265990169428 0.00055718227588054912 0 0.021327275183874277 0.00033218571191273751 0 0.02035417762452758 0.00038633133212531451 0 0.019501074540997528 0.00058376667967585053 0 0.019484763675274356 0.00053261383920395527 0 0.019434265990169428 0.00055718227588054912 0 0.019501074540997528 0.00058376667967585053 0 0.019535812620913202 0.00056194702854268593 0 0.019484763675274356 0.00053261383920395527 0 0.019599488376929604 0.00063873493818515658 0 0.019535812620913202 0.00056194702854268593 0 0.019596145205776787 0.00053307865522451601 0 0.019599488376929604 0.00063873493818515658 0 0.019596145205776787 0.00053307865522451601 0 0.019662585282236893 0.00054962777503553728 0 0.019501074540997528 0.00058376667967585053 0 0.019599488376929604 0.00063873493818515658 0 0.019535812620913202 0.00056194702854268593 0 0.019533313406638293 0.00051677158239077348 0 0.019596145205776787 0.00053307865522451601 0 0.019563927660169223 0.00047886119916645055 0 0.019535812620913202 0.00056194702854268593 0 0.019533313406638293 0.00051677158239077348 0 0.019596145205776787 0.00053307865522451601 0 0.019596145205776787 0.00053307865522451601 0 0.019607848970871634 0.00048357036120192309 0 0.019653046281297746 0.00049836070359405118 0 0.019596145205776787 0.00053307865522451601 0 0.019563927660169223 0.00047886119916645055 0 0.019607848970871634 0.00048357036120192309 0 0.019563927660169223 0.00047886119916645055 0 0.019607848970871634 0.00048357036120192309 0 0.019618749184983762 0.00043824412680945455 0 0.019563927660169223 0.00047886119916645055 0 0.019491702426030953 0.00047918364723742506 0 0.019521430816987484 0.00044625477424869075 0 0.019533313406638293 0.00051677158239077348 0 0.019563927660169223 0.00047886119916645055 0 0.019491702426030953 0.00047918364723742506 0 0.019491702426030953 0.00047918364723742506 0 0.019435184373533285 0.00049094650082369157 0 0.019484763675274356 0.00053261383920395527 0 0.019491702426030953 0.00047918364723742506 0 0.019435184373533285 0.00049094650082369157 0 0.01945496519285007 0.00043347633298059061 0 0.019435184373533285 0.00049094650082369157 0 0.019484763675274356 0.00053261383920395527 0 0.019434265990169428 0.00055718227588054912 0 0.019533313406638293 0.00051677158239077348 0 0.019491702426030953 0.00047918364723742506 0 0.019484763675274356 0.00053261383920395527 0 0.019535812620913202 0.00056194702854268593 0 0.019533313406638293 0.00051677158239077348 0 0.019484763675274356 0.00053261383920395527 0 0.021022707845608276 8.3572612000341198e-05 0 0.020917848809124506 -1.0221532246643241e-05 0 0.020905121494543329 0.00013407525070262667 0 0.020900131683869033 0.00024329331402447955 0 0.022471080322420147 9.3124931080681411e-05 0 0.024411011763894406 -0.00031894694795631747 0 0.024322707323787177 -0.00039020343437412601 0 0.024407172948770164 -0.00038317328589647354 0 0.02209364201949059 5.0029526843932045e-05 0 0.022471080322420147 9.3124931080681411e-05 0 0.021661993191115021 0.00021971784011033595 0 0.021759401473707751 4.8686347959285645e-06 0 0.021984215129075342 0.00019693013810832808 0 0.019796015362408135 0.00063770358139187322 0 0.019831247112187186 0.00056290183585623002 0 0.019759346930632912 0.0005527369794614197 0 0.02209364201949059 5.0029526843932045e-05 0 0.020900131683869033 0.00024329331402447955 0 0.02035417762452758 0.00038633133212531451 0 0.02209364201949059 5.0029526843932045e-05 0 0.019599488376929604 0.00063873493818515658 0 0.019796015362408135 0.00063770358139187322 0 0.019713654089717706 0.00058195356643403224 0 0.019713654089717706 0.00058195356643403224 0 0.019662585282236893 0.00054962777503553728 0 0.019720475698171213 0.00051637210195331642 0 0.019713654089717706 0.00058195356643403224 0 0.019759346930632912 0.0005527369794614197 0 0.019720475698171213 0.00051637210195331642 0 0.019796015362408135 0.00063770358139187322 0 0.019713654089717706 0.00058195356643403224 0 0.019759346930632912 0.0005527369794614197 0 0.019599488376929604 0.00063873493818515658 0 0.019713654089717706 0.00058195356643403224 0 0.019662585282236893 0.00054962777503553728 0 0.019596145205776787 0.00053307865522451601 0 0.019662585282236893 0.00054962777503553728 0 0.019653046281297746 0.00049836070359405118 0 0.019662585282236893 0.00054962777503553728 0 0.019653046281297746 0.00049836070359405118 0 0.019720475698171213 0.00051637210195331642 0 0.019858151855048693 0.00041532405062632264 0 0.01958755984073313 0.00047399669789643001 0 0.019609746583838114 0.00052387951758196035 0 0.019682784597783637 0.00062429842030639355 0 0.019556166359119925 0.00050051329900248592 0 0.019653046281297746 0.00049836070359405118 0 0.019742907812820048 0.00050559846153250937 0 0.019618749184983762 0.00043824412680945455 0 0.019607848970871634 0.00048357036120192309 0 0.019653046281297746 0.00049836070359405118 0 0.019618749184983762 0.00043824412680945455 0 0.019609746583838114 0.00052387951758196035 0 0.019682784597783637 0.00062429842030639355 0 0.019727676037872229 0.0005341722199455729 0 0.019653046281297746 0.00049836070359405118 0 0.019742907812820048 0.00050559846153250937 0 0.019720475698171213 0.00051637210195331642 0 0.019858151855048693 0.00041532405062632264 0 0.019813543692244313 0.00043903145852196166 0 0.019759346930632912 0.0005527369794614197 0 0.019748820510130199 0.00050225027995648593 0 0.019720475698171213 0.00051637210195331642 0 0.020900131683869033 0.00024329331402447955 0 0.019858151855048693 0.00041532405062632264 0 0.020357411650708011 0.00038359167578105109 0 0.020328515138908904 0.00036060030687072337 0 0.020376598219074383 0.00034004417512930815 0 0.019831247112187186 0.00056290183585623002 0 0.019759346930632912 0.0005527369794614197 0 0.019748820510130199 0.00050225027995648593 0 0.019682784597783637 0.00062429842030639355 0 0.019812068876411668 0.00057275752254912422 0 0.019727676037872229 0.0005341722199455729 0 0.019858151855048693 0.00041532405062632264 0 0.020260602298203544 0.00039873795515910283 0 0.021022707845608276 8.3572612000341198e-05 0 0.020940237755707573 0.00025299157320745545 0 0.020905121494543329 0.00013407525070262667 0 0.020900131683869033 0.00024329331402447955 0 0.020260602298203544 0.00039873795515910283 0 0.019609746583838114 0.00052387951758196035 0 0.019727676037872229 0.0005341722199455729 0 0.019772946645631836 0.00044828424912270464 0 0.019790354664488276 0.00051491941177689196 0 0.019772946645631836 0.00044828424912270464 0 0.019847936533511572 0.00050818261290907899 0 0.019812068876411668 0.00057275752254912422 0 0.019790354664488276 0.00051491941177689196 0 0.019847936533511572 0.00050818261290907899 0 0.019812068876411668 0.00057275752254912422 0 0.019790354664488276 0.00051491941177689196 0 0.019727676037872229 0.0005341722199455729 0 0.019790354664488276 0.00051491941177689196 0 0.019727676037872229 0.0005341722199455729 0 0.019772946645631836 0.00044828424912270464 0 0.019613440052242109 0.00052177321897984902 0 0.01971461520811664 0.00043177324718782662 0 0.019609746583838114 0.00052387951758196035 0 0.019596313247901617 0.00044397794073662366 0 0.019665571819765644 0.0004052583324911026 0 0.019596313247901617 0.00044397794073662366 0 0.019591281220282877 0.0003882363062858853 0 0.019665571819765644 0.0004052583324911026 0 0.019609746583838114 0.00052387951758196035 0 0.019556166359119925 0.00050051329900248592 0 0.019596313247901617 0.00044397794073662366 0 0.019556166359119925 0.00050051329900248592 0 0.019596313247901617 0.00044397794073662366 0 0.019549138218612372 0.00041308925665653468 0 0.019596313247901617 0.00044397794073662366 0 0.019591281220282877 0.0003882363062858853 0 0.019549138218612372 0.00041308925665653468 0 0.019591281220282877 0.0003882363062858853 0 0.019665571819765644 0.0004052583324911026 0 0.019616616136259517 0.00033092325145536581 0 0.019591281220282877 0.0003882363062858853 0 0.019524095029292279 0.00034814571274112161 0 0.019616616136259517 0.00033092325145536581 0 0.019591281220282877 0.0003882363062858853 0 0.019549138218612372 0.00041308925665653468 0 0.019524095029292279 0.00034814571274112161 0 0.019665571819765644 0.0004052583324911026 0 0.019730011213538602 0.00034207693674888042 0 0.019616616136259517 0.00033092325145536581 0 0.01945496519285007 0.00043347633298059061 0 0.019416179926873348 0.00036267073449682929 0 0.019373370583392936 0.00043300970788496922 0 0.01945496519285007 0.00043347633298059061 0 0.019497431381928564 0.00040392054405588655 0 0.019416179926873348 0.00036267073449682929 0 0.01945496519285007 0.00043347633298059061 0 0.019521430816987484 0.00044625477424869075 0 0.019497431381928564 0.00040392054405588655 0 0.019491702426030953 0.00047918364723742506 0 0.01945496519285007 0.00043347633298059061 0 0.019521430816987484 0.00044625477424869075 0 0.019618749184983762 0.00043824412680945455 0 0.019521430816987484 0.00044625477424869075 0 0.019497431381928564 0.00040392054405588655 0 0.019563927660169223 0.00047886119916645055 0 0.019618749184983762 0.00043824412680945455 0 0.019521430816987484 0.00044625477424869075 0 0.01958755984073313 0.00047399669789643001 0 0.019513294840156258 0.0004135980169187368 0 0.019556166359119925 0.00050051329900248592 0 0.019549138218612372 0.00041308925665653468 0 0.019497431381928564 0.00040392054405588655 0 0.019549138218612372 0.00041308925665653468 0 0.019497431381928564 0.00040392054405588655 0 0.019524095029292279 0.00034814571274112161 0 0.019524095029292279 0.00034814571274112161 0 0.019416179926873348 0.00036267073449682929 0 0.019446134121019115 0.00028114940511167518 0 0.019497431381928564 0.00040392054405588655 0 0.019524095029292279 0.00034814571274112161 0 0.019416179926873348 0.00036267073449682929 0 0.019416179926873348 0.00036267073449682929 0 0.019373370583392936 0.00043300970788496922 0 0.0192852996376318 0.00035864910425693203 0 0.019416179926873348 0.00036267073449682929 0 0.0192852996376318 0.00035864910425693203 0 0.019274249599516326 0.00026943116010522919 0 0.019435184373533285 0.00049094650082369157 0 0.01945496519285007 0.00043347633298059061 0 0.019373370583392936 0.00043300970788496922 0 0.019373370583392936 0.00043300970788496922 0 0.0192852996376318 0.00035864910425693203 0 0.019325537235490856 0.00049250655585010615 0 0.0192852996376318 0.00035864910425693203 0 0.019255363097988445 0.00047460196001713703 0 0.019325537235490856 0.00049250655585010615 0 0.023535732193439397 0.0016421946707836535 0 0.023582934306527983 0.0013148863663568096 0 0.023079444715248892 0.0014070112901128922 0 0.023582934306527983 0.0013148863663568096 0 0.023444350876249975 0.0010321036405416312 0 0.023079444715248892 0.0014070112901128922 0 0.023444350876249975 0.0010321036405416312 0 0.023079444715248892 0.0014070112901128922 0 0.022980686187093622 0.00088263782121420723 0 0.021305618072375562 0.0009498950807308933 0 0.021042838746317485 0.00070057144147544657 0 0.0192852996376318 0.00035864910425693203 0 0.01921877015454965 0.00033914370362791968 0 0.019255363097988445 0.00047460196001713703 0 0.019309819066634225 0.00060699733476341227 0 0.019255363097988445 0.00047460196001713703 0 0.019325537235490856 0.00049250655585010615 0 0.022980686187093622 0.00088263782121420723 0 0.023357647509031083 0.0007517346794456691 0 0.023122864444045401 0.00054545136176387381 0 0.023444350876249975 0.0010321036405416312 0 0.022980686187093622 0.00088263782121420723 0 0.023357647509031083 0.0007517346794456691 0 0.023540410718893814 0.0005254432641477705 0 0.023357647509031083 0.0007517346794456691 0 0.023122864444045401 0.00054545136176387381 0 0.023540410718893814 0.0005254432641477705 0 0.023267757888480047 0.00023173665047658334 0 0.023122864444045401 0.00054545136176387381 0 0.02306152179111947 0.00025396653650013425 0 0.023267757888480047 0.00023173665047658334 0 0.023122864444045401 0.00054545136176387381 0 0.022827946709938242 0.00030052980381171094 0 0.022980686187093622 0.00088263782121420723 0 0.023122864444045401 0.00054545136176387381 0 0.021433893185881583 0.00022887962532733448 0 0.021042838746317485 0.00070057144147544657 0 0.022861090423409794 0.00029763965044876504 0 0.02306152179111947 0.00025396653650013425 0 0.023122864444045401 0.00054545136176387381 0 0.022861090423409794 0.00029763965044876504 0 0.022827946709938242 0.00030052980381171094 0 0.023122864444045401 0.00054545136176387381 0 0.019309819066634225 0.00060699733476341227 0 0.019404887815944925 0.00060312240430768346 0 0.01937026102043525 0.00055362430829078609 0 0.019309819066634225 0.00060699733476341227 0 0.01937026102043525 0.00055362430829078609 0 0.019325537235490856 0.00049250655585010615 0 0.019404887815944925 0.00060312240430768346 0 0.01937026102043525 0.00055362430829078609 0 0.019430558359718023 0.00057534551656933494 0 0.021429285188028457 0.00027812161755132837 0 0.020029996453462665 0.00050968702631470485 0 0.021327275183874277 0.00033218571191273751 0 0.020029996453462665 0.00050968702631470485 0 0.019455466311092504 0.00063235916625961088 0 0.019403382522443637 0.00060126136329753351 0 0.019434265990169428 0.00055718227588054912 0 0.020849034265543038 0.00040803257094346738 0 0.020987119296269008 0.00040010510180909701 0 0.020897052481990374 0.00035106749102416847 0 0.021429285188028457 0.00027812161755132837 0 0.021327275183874277 0.00033218571191273751 0 0.019408459411014573 0.00058226053047542902 0 0.019434265990169428 0.00055718227588054912 0 0.019389757416017193 0.00051956737312366063 0 0.020029996453462665 0.00050968702631470485 0 0.019550407222740158 0.00070720156271128595 0 0.01937026102043525 0.00055362430829078609 0 0.019408459411014573 0.00058226053047542902 0 0.019389757416017193 0.00051956737312366063 0 0.019373345681566755 0.00042371271819676375 0 0.020029996453462665 0.00050968702631470485 0 0.019373370583392936 0.00043300970788496922 0 0.019389757416017193 0.00051956737312366063 0 0.019325537235490856 0.00049250655585010615 0 0.019435184373533285 0.00049094650082369157 0 0.019373370583392936 0.00043300970788496922 0 0.019389757416017193 0.00051956737312366063 0 0.019435184373533285 0.00049094650082369157 0 0.019434265990169428 0.00055718227588054912 0 0.019389757416017193 0.00051956737312366063 0 0.01937026102043525 0.00055362430829078609 0 0.019389757416017193 0.00051956737312366063 0 0.019325537235490856 0.00049250655585010615 0 0.022406198181078776 3.1620656425230448e-05 0 0.024997817021246756 1.0388224060303054e-08 0 0.021226364272907871 2.6503602071663393e-07 0 0.022406198181078776 3.1620656425230448e-05 0 0.02217566073708168 2.614949706138136e-05 0 0.021820874182667333 -5.0290541135402873e-05 0 0.022406198181078776 3.1620656425230448e-05 0 0.023294782370992702 0.00019357146931078161 0 0.02217566073708168 2.614949706138136e-05 0 0.022406198181078776 3.1620656425230448e-05 0 0.023294782370992702 0.00019357146931078161 0 0.024997817021246756 1.0388224060303054e-08 0 0.024997817021246756 1.0388224060303054e-08 0 0.024397849708364353 -2.4829651471407581e-05 0 0.024999227635352426 -1.8007169087067709e-07 0 0.023294782370992702 0.00019357146931078161 0 0.024997817021246756 1.0388224060303054e-08 0 0.024397849708364353 -2.4829651471407581e-05 0 0.024397849708364353 -2.4829651471407581e-05 0 0.024760083455040442 0.00017333515723740717 0 0.024573284736991902 0.00038043156851156473 0 0.024397849708364353 -2.4829651471407581e-05 0 0.024907679673032753 2.6779196108197453e-05 0 0.024760083455040442 0.00017333515723740717 0 0.024999227635352426 -1.8007169087067709e-07 0 0.024907679673032753 2.6779196108197453e-05 0 0.025000373577636629 8.5337681456064999e-08 0 0.023294782370992702 0.00019357146931078161 0 0.024397849708364353 -2.4829651471407581e-05 0 0.024573284736991902 0.00038043156851156473 0 0.024397849708364353 -2.4829651471407581e-05 0 0.024999227635352426 -1.8007169087067709e-07 0 0.024907679673032753 2.6779196108197453e-05 0 0.024907679673032753 2.6779196108197453e-05 0 0.024904452947030045 0.00013224535650022346 0 0.024979952680039757 9.0984040948683512e-05 0 0.024907679673032753 2.6779196108197453e-05 0 0.024760083455040442 0.00017333515723740717 0 0.024904452947030045 0.00013224535650022346 0 0.024760083455040442 0.00017333515723740717 0 0.024904452947030045 0.00013224535650022346 0 0.024963969946852717 0.00024811735342478386 0 0.021897839682025688 0.00048021531486732181 0 0.021881968126247757 0.00047614398492386892 0 0.021882121016768608 0.00048103998999962828 0 0.021897839682025688 0.00048021531486732181 0 0.021669120132985741 0.00021955625204754943 0 0.021443877717690567 0.00033414098323954639 0 0.021898319894565102 0.00047246405798404635 0 0.021607666770217592 0.00036703848636196587 0 0.024760083455040442 0.00017333515723740717 0 0.024573284736991902 0.00038043156851156473 0 0.024963969946852717 0.00024811735342478386 0 0.023303801372728267 0.00042145630629528944 0 0.023306574106007866 0.00038381152469412361 0 0.021897839682025688 0.00048021531486732181 0 0.021975190015754858 0.00058864754729748411 0 0.021859079226103729 0.00044361950236729302 0 0.021897839682025688 0.00048021531486732181 0 0.021859079226103729 0.00044361950236729302 0 0.021882121016768608 0.00048103998999962828 0 0.021897839682025688 0.00048021531486732181 0 0.021919793179488379 0.00018852081627491091 0 0.021669120132985741 0.00021955625204754943 0 0.023294782370992702 0.00019357146931078161 0 0.021975190015754858 0.00058864754729748411 0 0.022110075882523509 0.00024533897137506621 0 0.02328903573757889 0.0002763682674954251 0 0.023303801372728267 0.00042145630629528944 0 0.023294782370992702 0.00019357146931078161 0 0.022110075882523509 0.00024533897137506621 0 0.02217566073708168 2.614949706138136e-05 0 0.021897839682025688 0.00048021531486732181 0 0.022110075882523509 0.00024533897137506621 0 0.021919793179488379 0.00018852081627491091 0 0.021897839682025688 0.00048021531486732181 0 0.021975190015754858 0.00058864754729748411 0 0.022110075882523509 0.00024533897137506621 0 0.022110075882523509 0.00024533897137506621 0 0.021919793179488379 0.00018852081627491091 0 0.02217566073708168 2.614949706138136e-05 0 0.021919793179488379 0.00018852081627491091 0 0.02217566073708168 2.614949706138136e-05 0 0.021747545803036526 4.8472393293618836e-05 0 0.02217566073708168 2.614949706138136e-05 0 0.021747545803036526 4.8472393293618836e-05 0 0.021830918538006408 -2.8828384397775233e-05 0 0.021669120132985741 0.00021955625204754943 0 0.021443877717690567 0.00033414098323954639 0 0.021484736182937687 -4.5281983496953428e-05 0 0.021747545803036526 4.8472393293618836e-05 0 0.021669120132985741 0.00021955625204754943 0 0.021484736182937687 -4.5281983496953428e-05 0 0.021919793179488379 0.00018852081627491091 0 0.021747545803036526 4.8472393293618836e-05 0 0.021669120132985741 0.00021955625204754943 0 0.021607666770217592 0.00036703848636196587 0 0.021553291784814067 0.00011550075257037642 0 0.021690760081513393 0.00029218354649008295 0 0.021610371249546307 0.00021025622037203797 0 0.021598972051518148 0.00032300429704945556 0 0.021690760081513393 0.00029218354649008295 0 0.021733701099136866 0.0002354988143902509 0 0.021752443963214789 0.0003267873358794899 0 0.022812670290686735 0.00022948252112423085 0 0.021826278563590422 0.00028343267849713447 0 0.021690760081513393 0.00029218354649008295 0 0.021733701099136866 0.0002354988143902509 0 0.021610371249546307 0.00021025622037203797 0 0.022812670290686735 0.00022948252112423085 0 0.024207978892702289 -4.8256940918988496e-05 0 0.024781700637880565 -0.00025832724644241783 0 0.024806292920605662 -0.0001496645832836785 0 0.024719403013515707 -0.0002056594783454791 0 0.022317717322136443 0.00067094681051589708 0 0.022236641640744341 0.000362354601138806 0 0.021875265049737809 0.00058139807236340997 0 0.022236641640744341 0.000362354601138806 0 0.021875265049737809 0.00058139807236340997 0 0.021882121016768608 0.00048103998999962828 0 0.024207978892702289 -4.8256940918988496e-05 0 0.023306574106007866 0.00038381152469412361 0 0.022812670290686735 0.00022948252112423085 0 0.021607666770217592 0.00036703848636196587 0 0.022236641640744341 0.000362354601138806 0 0.021859079226103729 0.00044361950236729302 0 0.021882121016768608 0.00048103998999962828 0 0.021607666770217592 0.00036703848636196587 0 0.021669386755440671 0.00044276653651763965 0 0.024963969946852717 0.00024811735342478386 0 0.025026189572918398 0.00014720421622846003 0 0.024979952680039757 9.0984040948683512e-05 0 0.025090228974167513 0.00018572153315616919 0 0.024963969946852717 0.00024811735342478386 0 0.025026189572918398 0.00014720421622846003 0 0.024904452947030045 0.00013224535650022346 0 0.024963969946852717 0.00024811735342478386 0 0.024979952680039757 9.0984040948683512e-05 0 0.025026189572918398 0.00014720421622846003 0 0.024979952680039757 9.0984040948683512e-05 0 0.02505211332529661 8.0088856250306995e-05 0 0.024979952680039757 9.0984040948683512e-05 0 0.025000373577636629 8.5337681456064999e-08 0 0.02505211332529661 8.0088856250306995e-05 0 0.024907679673032753 2.6779196108197453e-05 0 0.024979952680039757 9.0984040948683512e-05 0 0.025000373577636629 8.5337681456064999e-08 0 0.025000037726624985 1.8373986354192202e-08 0 0.025013853244546778 -1.2979061271660497e-05 0 0.02498463688714516 3.078495522957311e-06 0 0.025000037726624985 1.8373986354192202e-08 0 0.02498463688714516 3.078495522957311e-06 0 0.024999923636009724 -6.8607548221968522e-09 0 0.025000008520518351 -2.132796427264942e-08 0 0.025024930737601904 8.2753147579993824e-05 0 0.024207978892702289 -4.8256940918988496e-05 0 0.025024930737601904 8.2753147579993824e-05 0 0.024207978892702289 -4.8256940918988496e-05 0 0.024923068459562631 -0.00013122572182104595 0 0.02502397176955802 -8.3417430820343123e-05 0 0.02499125798953206 -3.5955514141737963e-05 0 0.024939829729353914 -0.00011682191508347601 0 0.025090228974167513 0.00018572153315616919 0 0.025026189572918398 0.00014720421622846003 0 0.02505211332529661 8.0088856250306995e-05 0 0.02499125798953206 -3.5955514141737963e-05 0 0.025013853244546778 -1.2979061271660497e-05 0 0.02498463688714516 3.078495522957311e-06 0 0.02502397176955802 -8.3417430820343123e-05 0 0.02499125798953206 -3.5955514141737963e-05 0 0.025013853244546778 -1.2979061271660497e-05 0 0.024939829729353914 -0.00011682191508347601 0 0.024942494826298813 1.011110092290601e-05 0 0.024628395500381661 -9.7857398993376622e-05 0 0.02499125798953206 -3.5955514141737963e-05 0 0.024939829729353914 -0.00011682191508347601 0 0.024942494826298813 1.011110092290601e-05 0 0.024923068459562631 -0.00013122572182104595 0 0.024618597121848596 -0.00010036184846910304 0 0.02499125798953206 -3.5955514141737963e-05 0 0.024942494826298813 1.011110092290601e-05 0 0.02498463688714516 3.078495522957311e-06 0 0.024942494826298813 1.011110092290601e-05 0 0.02498463688714516 3.078495522957311e-06 0 0.024975728336740735 3.9570933186578932e-07 0 0.02498463688714516 3.078495522957311e-06 0 0.024975728336740735 3.9570933186578932e-07 0 0.024999923636009724 -6.8607548221968522e-09 0 0.024994452450635869 2.5832357583452729e-08 0 0.024999991170554663 9.52458833601602e-09 0 0.024999923636009724 -6.8607548221968522e-09 0 0.024994452450635869 2.5832357583452729e-08 0 0.024999923636009724 -6.8607548221968522e-09 0 0.024987124750213741 -5.4735829086258123e-07 0 0.024975728336740735 3.9570933186578932e-07 0 0.024987124750213741 -5.4735829086258123e-07 0 0.024979472778391121 3.0376290882106829e-06 0 0.024975728336740735 3.9570933186578932e-07 0 0.024999923636009724 -6.8607548221968522e-09 0 0.024987124750213741 -5.4735829086258123e-07 0 0.024992546669401372 8.538089400118002e-06 0 0.024942494826298813 1.011110092290601e-05 0 0.024979472778391121 3.0376290882106829e-06 0 0.024989883178307647 4.5307198683315111e-06 0 0.024987124750213741 -5.4735829086258123e-07 0 0.024979472778391121 3.0376290882106829e-06 0 0.024991804021317149 2.7487083340045231e-06 0 0.024989883178307647 4.5307198683315111e-06 0 0.024987124750213741 -5.4735829086258123e-07 0 0.024898843524281903 -3.2188216417022457e-05 0 0.024849985566582435 -1.2240500059274316e-05 0 0.02444976255132331 -0.00011319499762111715 0 0.024942494826298813 1.011110092290601e-05 0 0.024628395500381661 -9.7857398993376622e-05 0 0.024942494826298813 1.011110092290601e-05 0 0.024975728336740735 3.9570933186578932e-07 0 0.024979472778391121 3.0376290882106829e-06 0 0.024992546669401372 8.538089400118002e-06 0 0.024989883178307647 4.5307198683315111e-06 0 0.024979472778391121 3.0376290882106829e-06 0 0.024517917308897172 -0.00026117828506227596 0 0.024286420831316793 -0.000282787940297127 0 0.024425551560057233 -0.00021492062859922951 0 0.02456238887914439 -0.00018988485330345708 0 0.024633508997024843 -0.00031991770978251355 0 0.02444976255132331 -0.00011319499762111715 0 0.024628395500381661 -9.7857398993376622e-05 0 0.02456238887914439 -0.00018988485330345708 0 0.02444976255132331 -0.00011319499762111715 0 0.024425551560057233 -0.00021492062859922951 0 0.02456238887914439 -0.00018988485330345708 0 0.02456238887914439 -0.00018988485330345708 0 0.024652170800908885 -0.00018665310908342562 0 0.024633508997024843 -0.00031991770978251355 0 0.024628395500381661 -9.7857398993376622e-05 0 0.02456238887914439 -0.00018988485330345708 0 0.024652170800908885 -0.00018665310908342562 0 0.024806292920605662 -0.0001496645832836785 0 0.024707693465445484 -0.00013705057719369735 0 0.024719403013515707 -0.0002056594783454791 0 0.024707693465445484 -0.00013705057719369735 0 0.024652170800908885 -0.00018665310908342562 0 0.024719403013515707 -0.0002056594783454791 0 0.024781700637880565 -0.00025832724644241783 0 0.024719403013515707 -0.0002056594783454791 0 0.024633508997024843 -0.00031991770978251355 0 0.024707693465445484 -0.00013705057719369735 0 0.024628395500381661 -9.7857398993376622e-05 0 0.024652170800908885 -0.00018665310908342562 0 0.024652170800908885 -0.00018665310908342562 0 0.024719403013515707 -0.0002056594783454791 0 0.024633508997024843 -0.00031991770978251355 0 0.022812670290686735 0.00022948252112423085 0 0.024286420831316793 -0.000282787940297127 0 0.022553979936065484 -0.00019753729698886746 0 0.023267846281985066 -1.2811381835799775e-05 0 0.023495984891589404 -3.4240544789729494e-07 0 0.022553979936065484 -0.00019753729698886746 0 0.023267846281985066 -1.2811381835799775e-05 0 0.02273244181937626 0.00053573872465941474 0 0.023378786571580504 8.2087550577163059e-05 0 0.023267846281985066 -1.2811381835799775e-05 0 0.023495984891589404 -3.4240544789729494e-07 0 0.023402948368272267 -4.832383836098259e-05 0 0.023386288743456961 -4.5938473410778101e-05 0 0.023402948368272267 -4.832383836098259e-05 0 0.021826278563590422 0.00028343267849713447 0 0.023378249725323767 8.2993576277284393e-05 0 0.023267846281985066 -1.2811381835799775e-05 0 0.02273244181937626 0.00053573872465941474 0 0.024473594204900077 -0.00031279728785299206 0 0.024462856947228172 -0.00030441023257865877 0 0.024407172948770164 -0.00038317328589647354 0 0.024425551560057233 -0.00021492062859922951 0 0.024411011763894406 -0.00031894694795631747 0 0.024507213349732198 -0.00029797562109803853 0 0.023402948368272267 -4.832383836098259e-05 0 0.022471080322420147 9.3124931080681411e-05 0 0.024411011763894406 -0.00031894694795631747 0 0.024462856947228172 -0.00030441023257865877 0 0.024407172948770164 -0.00038317328589647354 0 0.02447221354960568 -0.00029785088744967636 0 0.024286420831316793 -0.000282787940297127 0 0.023402948368272267 -4.832383836098259e-05 0 0.024286420831316793 -0.000282787940297127 0 0.020917848809124506 -1.0221532246643241e-05 0 0.020578617661443067 1.4675488208537527e-05 0 0.020778087168199833 0.0001254468029618109 0 0.020917848809124506 -1.0221532246643241e-05 0 0.020778087168199833 0.0001254468029618109 0 0.020905121494543329 0.00013407525070262667 0 0.022471080322420147 9.3124931080681411e-05 0 0.021085759626625251 0.00016044834343426407 0 0.020578617661443067 1.4675488208537527e-05 0 0.020680175399278512 0.00015609434734977558 0 0.020778087168199833 0.0001254468029618109 0 0.022294220964912445 -0.00017760152786563786 0 0.02270622532798753 0.00018085927383589776 0 0.021916528801595565 0.00024038306466762596 0 0.022294220964912445 -0.00017760152786563786 0 0.021916528801595565 0.00024038306466762596 0 0.021884722260930391 0.00010839007279616086 0 0.021085759626625251 0.00016044834343426407 0 0.021826278563590422 0.00028343267849713447 0 0.020578617661443067 1.4675488208537527e-05 0 0.020680175399278512 0.00015609434734977558 0 0.020624674255945698 0.00024876585877508394 0 0.021085759626625251 0.00016044834343426407 0 0.020539559416001496 0.00014987316927448239 0 0.020680175399278512 0.00015609434734977558 0 0.020726517807036878 0.00021985762164417646 0 0.020778087168199833 0.0001254468029618109 0 0.02056766904237959 2.7709245713073513e-05 0 0.020624674255945698 0.00024876585877508394 0 0.020507045553040823 0.00016364612774857573 0 0.020624674255945698 0.00024876585877508394 0 0.020726517807036878 0.00021985762164417646 0 0.020706315168257175 0.00035020419459888503 0 0.020680175399278512 0.00015609434734977558 0 0.020624674255945698 0.00024876585877508394 0 0.020726517807036878 0.00021985762164417646 0 0.020726517807036878 0.00021985762164417646 0 0.020811169778656595 0.00021652407283565672 0 0.020706315168257175 0.00035020419459888503 0 0.020940237755707573 0.00025299157320745545 0 0.020811169778656595 0.00021652407283565672 0 0.020706315168257175 0.00035020419459888503 0 0.020726517807036878 0.00021985762164417646 0 0.020811169778656595 0.00021652407283565672 0 0.020778087168199833 0.0001254468029618109 0 0.020811169778656595 0.00021652407283565672 0 0.020778087168199833 0.0001254468029618109 0 0.020905121494543329 0.00013407525070262667 0 0.020940237755707573 0.00025299157320745545 0 0.020811169778656595 0.00021652407283565672 0 0.020905121494543329 0.00013407525070262667 0 0.020260602298203544 0.00039873795515910283 0 0.020347533712931982 0.00043639007871314612 0 0.020260602298203544 0.00039873795515910283 0 0.019889606686487725 0.00061772594225109872 0 0.019772946645631836 0.00044828424912270464 0 0.019847936533511572 0.00050818261290907899 0 0.019905429487355512 0.0004594423773117378 0 0.019817786105441503 0.00057602058387130808 0 0.019847936533511572 0.00050818261290907899 0 0.0199445591222621 0.00053261906321285218 0 0.019847936533511572 0.00050818261290907899 0 0.019905429487355512 0.0004594423773117378 0 0.0199445591222621 0.00053261906321285218 0 0.01971461520811664 0.00043177324718782662 0 0.019809325945597915 0.0003556843035219369 0 0.019772946645631836 0.00044828424912270464 0 0.019905429487355512 0.0004594423773117378 0 0.019886969951862728 0.00037003927921278772 0 0.019905429487355512 0.0004594423773117378 0 0.019997959681801136 0.00041568358941086969 0 0.019886969951862728 0.00037003927921278772 0 0.019905429487355512 0.0004594423773117378 0 0.019997959681801136 0.00041568358941086969 0 0.019981076011923754 0.00047731369962281166 0 0.019997959681801136 0.00041568358941086969 0 0.019981076011923754 0.00047731369962281166 0 0.02007859031762254 0.00050130732764007229 0 0.019981076011923754 0.00047731369962281166 0 0.0199445591222621 0.00053261906321285218 0 0.02007859031762254 0.00050130732764007229 0 0.020624674255945698 0.00024876585877508394 0 0.020706315168257175 0.00035020419459888503 0 0.02051493228213784 0.00030103388038669321 0 0.020706315168257175 0.00035020419459888503 0 0.02051493228213784 0.00030103388038669321 0 0.020469765488432729 0.00043190708659061335 0 0.020347533712931982 0.00043639007871314612 0 0.020273774997244601 0.00046166957400085358 0 0.019905429487355512 0.0004594423773117378 0 0.019981076011923754 0.00047731369962281166 0 0.0199445591222621 0.00053261906321285218 0 0.02051493228213784 0.00030103388038669321 0 0.020405523332501271 0.0003210028180646988 0 0.020469765488432729 0.00043190708659061335 0 0.02051493228213784 0.00030103388038669321 0 0.020405523332501271 0.0003210028180646988 0 0.020436758544976719 0.00022821852474728296 0 0.020405523332501271 0.0003210028180646988 0 0.020469765488432729 0.00043190708659061335 0 0.020328919586678817 0.00039351987961220219 0 0.02007859031762254 0.00050130732764007229 0 0.020251247984814362 0.00044453879700572706 0 0.020102977350166376 0.00038135179897579355 0 0.019997959681801136 0.00041568358941086969 0 0.02007859031762254 0.00050130732764007229 0 0.020102977350166376 0.00038135179897579355 0 0.020251247984814362 0.00044453879700572706 0 0.02024160465658691 0.00043151171645049017 0 0.020282674404647576 0.00039011474672807906 0 0.020273774997244601 0.00046166957400085358 0 0.020261766635544042 0.00044840024250261792 0 0.020469765488432729 0.00043190708659061335 0 0.020251247984814362 0.00044453879700572706 0 0.020328919586678817 0.00039351987961220219 0 0.020251247984814362 0.00044453879700572706 0 0.020328919586678817 0.00039351987961220219 0 0.02024160465658691 0.00043151171645049017 0 0.020328919586678817 0.00039351987961220219 0 0.020315570579741035 0.0003238703982715624 0 0.02024160465658691 0.00043151171645049017 0 0.020315570579741035 0.0003238703982715624 0 0.020240110186009033 0.00020488934130261045 0 0.02024160465658691 0.00043151171645049017 0 0.020405523332501271 0.0003210028180646988 0 0.020328919586678817 0.00039351987961220219 0 0.020315570579741035 0.0003238703982715624 0 0.020405523332501271 0.0003210028180646988 0 0.020315570579741035 0.0003238703982715624 0 0.020356610430510923 0.00023874957262861506 0 0.020240110186009033 0.00020488934130261045 0 0.020401347502855851 0.0001743229515619168 0 0.020469607951620773 3.6283693938419841e-05 0 0.020315570579741035 0.0003238703982715624 0 0.020240110186009033 0.00020488934130261045 0 0.020356610430510923 0.00023874957262861506 0 0.021087323389035587 0.00015850526775148174 0 0.021106680098444529 0.00032140106936755176 0 0.020240110186009033 0.00020488934130261045 0 0.020356610430510923 0.00023874957262861506 0 0.020401347502855851 0.0001743229515619168 0 0.020356610430510923 0.00023874957262861506 0 0.020436758544976719 0.00022821852474728296 0 0.020401347502855851 0.0001743229515619168 0 0.020405523332501271 0.0003210028180646988 0 0.020356610430510923 0.00023874957262861506 0 0.020436758544976719 0.00022821852474728296 0 0.020624674255945698 0.00024876585877508394 0 0.02051493228213784 0.00030103388038669321 0 0.020507045553040823 0.00016364612774857573 0 0.02051493228213784 0.00030103388038669321 0 0.020436758544976719 0.00022821852474728296 0 0.020507045553040823 0.00016364612774857573 0 0.020436758544976719 0.00022821852474728296 0 0.020507045553040823 0.00016364612774857573 0 0.020401347502855851 0.0001743229515619168 0 0.020507045553040823 0.00016364612774857573 0 0.020401347502855851 0.0001743229515619168 0 0.020469607951620773 3.6283693938419841e-05 0 0.02056766904237959 2.7709245713073513e-05 0 0.020507045553040823 0.00016364612774857573 0 0.020469607951620773 3.6283693938419841e-05 0 0.021106680098444529 0.00032140106936755176 0 0.021826278563590422 0.00028343267849713447 0 0.021690760081513393 0.00029218354649008295 0 0.021752443963214789 0.0003267873358794899 0 0.021702170021246584 0.00033276845868486531 0 0.021499278684696334 0.00035958678404088832 0 0.021234108040522878 0.00037956927944502518 0 0.021464585105855527 0.00021720515973589424 0 0.021707775274959127 0.00035656312309231722 0 0.021752443963214789 0.0003267873358794899 0 0.021702170021246584 0.00033276845868486531 0 0.021085759626625251 0.00016044834343426407 0 0.021106680098444529 0.00032140106936755176 0 0.021707775274959127 0.00035656312309231722 0 0.021702170021246584 0.00033276845868486531 0 0.021654989416365178 0.00033161941051363921 0 0.021690760081513393 0.00029218354649008295 0 0.021702170021246584 0.00033276845868486531 0 0.021654989416365178 0.00033161941051363921 0 0.021585520471093217 0.00043567623487810554 0 0.021598972051518148 0.00032300429704945556 0 0.021654989416365178 0.00033161941051363921 0 0.021690760081513393 0.00029218354649008295 0 0.021598972051518148 0.00032300429704945556 0 0.021654989416365178 0.00033161941051363921 0 0.021585520471093217 0.00043567623487810554 0 0.021707775274959127 0.00035656312309231722 0 0.021654989416365178 0.00033161941051363921 0 0.021087323389035587 0.00015850526775148174 0 0.021553291784814067 0.00011550075257037642 0 0.021747545803036526 4.8472393293618836e-05 0 0.021484736182937687 -4.5281983496953428e-05 0 0.021557770861467075 -9.6313136957130449e-05 0 0.021339171488005595 -0.00014019940097866849 0 0.021484736182937687 -4.5281983496953428e-05 0 0.021557770861467075 -9.6313136957130449e-05 0 0.021747545803036526 4.8472393293618836e-05 0 0.021557770861467075 -9.6313136957130449e-05 0 0.021830918538006408 -2.8828384397775233e-05 0 0.02217566073708168 2.614949706138136e-05 0 0.021830918538006408 -2.8828384397775233e-05 0 0.021820874182667333 -5.0290541135402873e-05 0 0.021557770861467075 -9.6313136957130449e-05 0 0.021830918538006408 -2.8828384397775233e-05 0 0.021820874182667333 -5.0290541135402873e-05 0 0.021557770861467075 -9.6313136957130449e-05 0 0.021820874182667333 -5.0290541135402873e-05 0 0.021463789418782041 -0.00010257507923326073 0 0.021820874182667333 -5.0290541135402873e-05 0 0.021463789418782041 -0.00010257507923326073 0 0.021457695293060006 -8.1916971163044846e-05 0 0.021463789418782041 -0.00010257507923326073 0 0.021457695293060006 -8.1916971163044846e-05 0 0.021287539216802032 -0.00013433117111078219 0 0.021557770861467075 -9.6313136957130449e-05 0 0.021463789418782041 -0.00010257507923326073 0 0.021232755017203675 -0.000122780553991533 0 0.021463789418782041 -0.00010257507923326073 0 0.021287539216802032 -0.00013433117111078219 0 0.021232755017203675 -0.000122780553991533 0 0.021339171488005595 -0.00014019940097866849 0 0.021557770861467075 -9.6313136957130449e-05 0 0.021232755017203675 -0.000122780553991533 0 0.021087323389035587 0.00015850526775148174 0 0.021285048145447967 -6.7808076461685113e-05 0 0.021232755017203675 -0.000122780553991533 0 0.021082469411594265 -0.00020863506313022328 0 0.020919171948282772 -0.00028973566431617185 0 0.021161352619017054 -5.9599088099245336e-05 0 0.021232755017203675 -0.000122780553991533 0 0.020919171948282772 -0.00028973566431617185 0 0.021087323389035587 0.00015850526775148174 0 0.020551557990774977 3.2915844678039474e-05 0 0.021287539216802032 -0.00013433117111078219 0 0.021232755017203675 -0.000122780553991533 0 0.021082469411594265 -0.00020863506313022328 0 0.021082469411594265 -0.00020863506313022328 0 0.020938617205324292 -0.00026301277744798259 0 0.021083639999039297 -0.00020781343199697988 0 0.021082469411594265 -0.00020863506313022328 0 0.020938617205324292 -0.00026301277744798259 0 0.020919171948282772 -0.00028973566431617185 0 0.020551557990774977 3.2915844678039474e-05 0 0.020475175231520863 3.8263078430341468e-05 0 0.020919171948282772 -0.00028973566431617185 0 0.020741565807658374 -0.00032077042788540881 0 0.020645568452285098 -0.00031733130296209385 0 0.020938617205324292 -0.00026301277744798259 0 0.020741565807658374 -0.00032077042788540881 0 0.021083639999039297 -0.00020781343199697988 0 0.020938617205324292 -0.00026301277744798259 0 0.020919171948282772 -0.00028973566431617185 0 0.020741565807658374 -0.00032077042788540881 0 0.020741565807658374 -0.00032077042788540881 0 0.021054308093807757 -0.00034534534237352525 0 0.020436384325751025 -0.00032602992044107604 0 0.020741565807658374 -0.00032077042788540881 0 0.021083639999039297 -0.00020781343199697988 0 0.021054308093807757 -0.00034534534237352525 0 0.021083639999039297 -0.00020781343199697988 0 0.021290811397798898 -0.00015554434498092553 0 0.021054308093807757 -0.00034534534237352525 0 0.021457695293060006 -8.1916971163044846e-05 0 0.021287539216802032 -0.00013433117111078219 0 0.021083639999039297 -0.00020781343199697988 0 0.021287539216802032 -0.00013433117111078219 0 0.021082469411594265 -0.00020863506313022328 0 0.021083639999039297 -0.00020781343199697988 0 0.021457695293060006 -8.1916971163044846e-05 0 0.021083639999039297 -0.00020781343199697988 0 0.021290811397798898 -0.00015554434498092553 0 0.020139301265441285 -0.00032181269133907902 0 0.020629716425460132 -7.103957879255812e-05 0 0.021290811397798898 -0.00015554434498092553 0 0.021054308093807757 -0.00034534534237352525 0 0.021589684942770675 -1.1040068791845605e-05 0 0.021457695293060006 -8.1916971163044846e-05 0 0.021290811397798898 -0.00015554434498092553 0 0.021589684942770675 -1.1040068791845605e-05 0 0.019146132077683287 -0.00043457023297145437 0 0.019756111432285981 -2.2791868696889456e-07 0 0.018290572794439089 -1.3822103570350787e-06 0 0.019146132077683287 -0.00043457023297145437 0 0.019756111432285981 -2.2791868696889456e-07 0 0.019716192077825174 3.0617621475067665e-05 0 0.020629716425460132 -7.103957879255812e-05 0 0.021222002722906735 -1.8355421844521044e-07 0 0.019756111432285981 -2.2791868696889456e-07 0 0.019716192077825174 3.0617621475067665e-05 0 0.021221332162620513 4.662662184513009e-07 0 0.021589684942770675 -1.1040068791845605e-05 0 0.021723939044388133 -1.237511867317841e-05 0 0.021226364272907871 2.6503602071663393e-07 0 0.021457695293060006 -8.1916971163044846e-05 0 0.021589684942770675 -1.1040068791845605e-05 0 0.021723939044388133 -1.237511867317841e-05 0 0.021820874182667333 -5.0290541135402873e-05 0 0.021457695293060006 -8.1916971163044846e-05 0 0.021723939044388133 -1.237511867317841e-05 0 0.022406198181078776 3.1620656425230448e-05 0 0.021820874182667333 -5.0290541135402873e-05 0 0.021723939044388133 -1.237511867317841e-05 0 0.022406198181078776 3.1620656425230448e-05 0 0.021723939044388133 -1.237511867317841e-05 0 0.021226364272907871 2.6503602071663393e-07 0 0.015934982730316391 -4.4361286125717945e-05 0 0.016823342202843181 -1.8422886115472629e-08 0 0.01561071830967975 3.4708514039523835e-08 0 0.015934982730316391 -4.4361286125717945e-05 0 0.015913772347243331 0.00016586945825463874 0 0.01561071830967975 3.4708514039523835e-08 0 0.016791558071995661 0.00075843570583116772 0 0.016607915726993907 0.00064230500471138289 0 0.017476353421688174 0.0014663567202684766 0 0.018424727483688418 0.0019028517043350392 0 0.017955571525512054 0.002513282494339034 0 0.017476353421688174 0.0014663567202684766 0 0.018424727483688418 0.0019028517043350392 0 0.018648728492092131 0.0013854850603022058 0 0.017476353421688174 0.0014663567202684766 0 0.018648728492092131 0.0013854850603022058 0 0.018528435096054178 0.00046546310148776101 0 0.018648728492092131 0.0013854850603022058 0 0.019130152296808471 0.00090051430895471797 0 0.019641615424386815 0.0014412583866724165 0 0.018424727483688418 0.0019028517043350392 0 0.019641615424386815 0.0014412583866724165 0 0.018276229217228629 0.0026673968210773813 0 0.018424727483688418 0.0019028517043350392 0 0.018648728492092131 0.0013854850603022058 0 0.019641615424386815 0.0014412583866724165 0 0.019130152296808471 0.00090051430895471797 0 0.018528435096054178 0.00046546310148776101 0 0.019618677952698081 0.00033666250896041005 0 0.018648728492092131 0.0013854850603022058 0 0.019130152296808471 0.00090051430895471797 0 0.018528435096054178 0.00046546310148776101 0 0.018528435096054178 0.00046546310148776101 0 0.016827289056963866 2.6075631562103293e-06 0 0.018722928424674257 -0.00010657166488752457 0 0.017476353421688174 0.0014663567202684766 0 0.018528435096054178 0.00046546310148776101 0 0.016827289056963866 2.6075631562103293e-06 0 0.016791558071995661 0.00075843570583116772 0 0.016824307938183531 1.6935357589476805e-09 0 0.016827289056963866 2.6075631562103293e-06 0 0.018290572794439089 -1.3822103570350787e-06 0 0.018722928424674257 -0.00010657166488752457 0 0.019146132077683287 -0.00043457023297145437 0 0.018290572794439089 -1.3822103570350787e-06 0 0.018722928424674257 -0.00010657166488752457 0 0.019146132077683287 -0.00043457023297145437 0 0.018722928424674257 -0.00010657166488752457 0 0.019960855002274628 -0.00020551545090028323 0 0.018528435096054178 0.00046546310148776101 0 0.018722928424674257 -0.00010657166488752457 0 0.019618677952698081 0.00033666250896041005 0 0.018722928424674257 -0.00010657166488752457 0 0.019960855002274628 -0.00020551545090028323 0 0.019618677952698081 0.00033666250896041005 0 0.019960855002274628 -0.00020551545090028323 0 0.020245510453886405 -3.2810298364161573e-06 0 0.019618677952698081 0.00033666250896041005 0 0.020245510453886405 -3.2810298364161573e-06 0 0.020109323613115751 0.00043105576925428821 0 0.019618677952698081 0.00033666250896041005 0 0.020139301265441285 -0.00032181269133907902 0 0.020035003590096238 -0.00016412612858533111 0 0.021054308093807757 -0.00034534534237352525 0 0.019960855002274628 -0.00020551545090028323 0 0.020436384325751025 -0.00032602992044107604 0 0.019960855002274628 -0.00020551545090028323 0 0.020436384325751025 -0.00032602992044107604 0 0.020245510453886405 -3.2810298364161573e-06 0 0.020741565807658374 -0.00032077042788540881 0 0.020645568452285098 -0.00031733130296209385 0 0.020436384325751025 -0.00032602992044107604 0 0.020645568452285098 -0.00031733130296209385 0 0.020436384325751025 -0.00032602992044107604 0 0.020245510453886405 -3.2810298364161573e-06 0 0.020645568452285098 -0.00031733130296209385 0 0.020245510453886405 -3.2810298364161573e-06 0 0.0204089880549813 0.00029247369743374272 0 0.020475175231520863 3.8263078430341468e-05 0 0.020418734435798294 0.00025030978526008872 0 0.020282674404647576 0.00039011474672807906 0 0.0204089880549813 0.00029247369743374272 0 0.020272359575434978 0.00032161259144584709 0 0.020245510453886405 -3.2810298364161573e-06 0 0.0204089880549813 0.00029247369743374272 0 0.020109323613115751 0.00043105576925428821 0 0.0204089880549813 0.00029247369743374272 0 0.020465886589788526 0.00042991478264912329 0 0.020109323613115751 0.00043105576925428821 0 0.020465886589788526 0.00042991478264912329 0 0.020109323613115751 0.00043105576925428821 0 0.019641615424386815 0.0014412583866724165 0 0.019977300221374162 0.00012427477936396527 0 0.019955253815352111 6.5886262378139789e-05 0 0.019968081230077199 0.00010776535924106712 0 0.020153269162354163 0.00030065326902300023 0 0.019993281181918496 0.00082513349464597807 0 0.019130152296808471 0.00090051430895471797 0 0.019618677952698081 0.00033666250896041005 0 0.019641615424386815 0.0014412583866724165 0 0.020109323613115751 0.00043105576925428821 0 0.019618677952698081 0.00033666250896041005 0 0.019641615424386815 0.0014412583866724165 0 0.019955253815352111 6.5886262378139789e-05 0 0.019955215128901548 7.8556113087101937e-05 0 0.019953165855589993 6.6058884026110775e-05 0 0.019955253815352111 6.5886262378139789e-05 0 0.019955215128901548 7.8556113087101937e-05 0 0.019968081230077199 0.00010776535924106712 0 0.019955215128901548 7.8556113087101937e-05 0 0.019955188642720775 0.00010946011894915909 0 0.019913796967500477 5.220520151991615e-05 0 0.019955188642720775 0.00010946011894915909 0 0.019872875501366235 8.3977580540119123e-05 0 0.019913796967500477 5.220520151991615e-05 0 0.019955215128901548 7.8556113087101937e-05 0 0.019968081230077199 0.00010776535924106712 0 0.019955188642720775 0.00010946011894915909 0 0.019955188642720775 0.00010946011894915909 0 0.019872875501366235 8.3977580540119123e-05 0 0.019989239014024319 0.00017615139066353184 0 0.019872875501366235 8.3977580540119123e-05 0 0.019989239014024319 0.00017615139066353184 0 0.019827071527719349 0.00017537678478087102 0 0.019977300221374162 0.00012427477936396527 0 0.019995481488695906 0.00014995000888647146 0 0.020094239006660089 0.00024663000646211173 0 0.019955188642720775 0.00010946011894915909 0 0.019989239014024319 0.00017615139066353184 0 0.019995481488695906 0.00014995000888647146 0 0.019968081230077199 0.00010776535924106712 0 0.019955188642720775 0.00010946011894915909 0 0.019995481488695906 0.00014995000888647146 0 0.019977300221374162 0.00012427477936396527 0 0.019968081230077199 0.00010776535924106712 0 0.019995481488695906 0.00014995000888647146 0 0.019989239014024319 0.00017615139066353184 0 0.019995481488695906 0.00014995000888647146 0 0.020094239006660089 0.00024663000646211173 0 0.020153269162354163 0.00030065326902300023 0 0.020106829305996936 0.00026710800811992553 0 0.0204089880549813 0.00029247369743374272 0 0.020465886589788526 0.00042991478264912329 0 0.020094239006660089 0.00024663000646211173 0 0.0204089880549813 0.00029247369743374272 0 0.020272359575434978 0.00032161259144584709 0 0.020094239006660089 0.00024663000646211173 0 0.020251247984814362 0.00044453879700572706 0 0.02021050562816645 0.00037467402029478633 0 0.020102977350166376 0.00038135179897579355 0 0.020282674404647576 0.00039011474672807906 0 0.020272359575434978 0.00032161259144584709 0 0.02021050562816645 0.00037467402029478633 0 0.020272359575434978 0.00032161259144584709 0 0.02021050562816645 0.00037467402029478633 0 0.020094239006660089 0.00024663000646211173 0 0.020251247984814362 0.00044453879700572706 0 0.020282674404647576 0.00039011474672807906 0 0.02021050562816645 0.00037467402029478633 0 0.019997959681801136 0.00041568358941086969 0 0.020102977350166376 0.00038135179897579355 0 0.019992884662879091 0.00026761241838414696 0 0.02021050562816645 0.00037467402029478633 0 0.020102977350166376 0.00038135179897579355 0 0.020094239006660089 0.00024663000646211173 0 0.020102977350166376 0.00038135179897579355 0 0.020094239006660089 0.00024663000646211173 0 0.019992884662879091 0.00026761241838414696 0 0.019989239014024319 0.00017615139066353184 0 0.020094239006660089 0.00024663000646211173 0 0.019992884662879091 0.00026761241838414696 0 0.019989239014024319 0.00017615139066353184 0 0.019824953806424007 0.00028291717092483336 0 0.019827071527719349 0.00017537678478087102 0 0.019990458812339976 0.00018059043523395497 0 0.019910271262976589 0.00026947026974831088 0 0.019824953806424007 0.00028291717092483336 0 0.019710549174579088 0.00021969069106683885 0 0.019827071527719349 0.00017537678478087102 0 0.019910271262976589 0.00026947026974831088 0 0.019809325945597915 0.0003556843035219369 0 0.019997959681801136 0.00041568358941086969 0 0.019992884662879091 0.00026761241838414696 0 0.019886969951862728 0.00037003927921278772 0 0.019824953806424007 0.00028291717092483336 0 0.019730011213538602 0.00034207693674888042 0 0.019710549174579088 0.00021969069106683885 0 0.019730011213538602 0.00034207693674888042 0 0.019710549174579088 0.00021969069106683885 0 0.019635222554271213 0.00025306342286499398 0 0.019710549174579088 0.00021969069106683885 0 0.019668907542645438 0.00015159412428219211 0 0.019742368644072736 0.00011588875724363986 0 0.019872875501366235 8.3977580540119123e-05 0 0.019827071527719349 0.00017537678478087102 0 0.019742368644072736 0.00011588875724363986 0 0.019710549174579088 0.00021969069106683885 0 0.019827071527719349 0.00017537678478087102 0 0.019742368644072736 0.00011588875724363986 0 0.019872875501366235 8.3977580540119123e-05 0 0.019742368644072736 0.00011588875724363986 0 0.019788073161438546 1.5232143817954454e-05 0 0.019742368644072736 0.00011588875724363986 0 0.019687714606916967 4.6263315129570016e-05 0 0.019788073161438546 1.5232143817954454e-05 0 0.019742368644072736 0.00011588875724363986 0 0.019687714606916967 4.6263315129570016e-05 0 0.019626712794875805 0.00010309070213506876 0 0.019668907542645438 0.00015159412428219211 0 0.019742368644072736 0.00011588875724363986 0 0.019626712794875805 0.00010309070213506876 0 0.019687714606916967 4.6263315129570016e-05 0 0.019788073161438546 1.5232143817954454e-05 0 0.019670380922533166 -3.9550069926342961e-05 0 0.019788073161438546 1.5232143817954454e-05 0 0.01975582324778638 -6.7538000633473704e-05 0 0.019819444453048063 -4.2105914596032566e-05 0 0.018488141510995617 0.00047637491337817838 0 0.019033956777735454 0.00016601292439061261 0 0.018874982975495561 0.00067682093091136792 0 0.019788073161438546 1.5232143817954454e-05 0 0.01975582324778638 -6.7538000633473704e-05 0 0.019670380922533166 -3.9550069926342961e-05 0 0.019607828977768037 7.8028591911947603e-05 0 0.019260537232236603 0.00012695793745269679 0 0.015246806884398108 0.00024168382885800396 0 0.01532006038029861 0.00040529605454338552 0 0.018874982975495561 0.00067682093091136792 0 0.018897361132776617 0.0011845091907149927 0 0.018427260771097416 0.0010356816563213611 0 0.011956481468555848 -0.00033625319448403376 0 0.012358935952395326 -0.00019069966619996695 0 0.012300456689215727 -0.00089576283271928299 0 0.01532006038029861 0.00040529605454338552 0 0.015825846042686737 2.5450088324483769e-05 0 0.012358935952395326 -0.00019069966619996695 0 0.012840100324993185 -6.1695585258884594e-05 0 0.012724817571356418 -0.00012255603654450734 0 0.012615721797613094 -0.00043880585199934565 0 0.012358935952395326 -0.00019069966619996695 0 0.012300456689215727 -0.00089576283271928299 0 0.012615721797613094 -0.00043880585199934565 0 0.012358935952395326 -0.00019069966619996695 0 0.012724817571356418 -0.00012255603654450734 0 0.019607828977768037 7.8028591911947603e-05 0 0.015825846042686737 2.5450088324483769e-05 0 0.018488141510995617 0.00047637491337817838 0 0.018427260771097416 0.0010356816563213611 0 0.017877508194223304 0.00090038990382354295 0 0.018488141510995617 0.00047637491337817838 0 0.018874982975495561 0.00067682093091136792 0 0.018427260771097416 0.0010356816563213611 0 0.01975582324778638 -6.7538000633473704e-05 0 0.019801367166690148 -0.0001015965938618908 0 0.019819444453048063 -4.2105914596032566e-05 0 0.019801367166690148 -0.0001015965938618908 0 0.019839667847635526 -8.3912137707263472e-05 0 0.019819444453048063 -4.2105914596032566e-05 0 0.012896103801501007 -8.933349658265433e-05 0 0.013111291539828757 -0.00029321916338074952 0 0.013100201730596802 2.6383398843334564e-05 0 0.015825846042686737 2.5450088324483769e-05 0 0.01641124929850284 5.1181935838664541e-05 0 0.015825846042686737 2.5450088324483769e-05 0 0.014369250468613514 -0.00045514218611350732 0 0.012615721797613094 -0.00043880585199934565 0 0.012724817571356418 -0.00012255603654450734 0 0.01283453535500961 -0.0003043791764332496 0 0.012834759605565625 -6.5603019360883558e-05 0 0.012724817571356418 -0.00012255603654450734 0 0.01283453535500961 -0.0003043791764332496 0 0.015825846042686737 2.5450088324483769e-05 0 0.012875352529445584 0.0003629261819371772 0 0.012834759605565625 -6.5603019360883558e-05 0 0.01283453535500961 -0.0003043791764332496 0 0.013111291539828757 -0.00029321916338074952 0 0.01283453535500961 -0.0003043791764332496 0 0.013111291539828757 -0.00029321916338074952 0 0.012863850077468592 -0.00067907247826525484 0 0.012615721797613094 -0.00043880585199934565 0 0.01283453535500961 -0.0003043791764332496 0 0.012863850077468592 -0.00067907247826525484 0 0.013111291539828757 -0.00029321916338074952 0 0.013322141725623201 -0.00059455797902529487 0 0.012863850077468592 -0.00067907247826525484 0 0.013111291539828757 -0.00029321916338074952 0 0.013411214536343466 -0.00020119966723612781 0 0.013322141725623201 -0.00059455797902529487 0 0.013111291539828757 -0.00029321916338074952 0 0.013411214536343466 -0.00020119966723612781 0 0.013100201730596802 2.6383398843334564e-05 0 0.01641124929850284 5.1181935838664541e-05 0 0.018690683141687973 0.00017047866151185666 0 0.013411214536343466 -0.00020119966723612781 0 0.013100201730596802 2.6383398843334564e-05 0 0.013732791364787191 0.00025468554021686353 0 0.01641124929850284 5.1181935838664541e-05 0 0.014911542043995019 0.00014831362863174306 0 0.019839667847635526 -8.3912137707263472e-05 0 0.019882653252562488 -4.418053912445285e-06 0 0.019926471266173515 -1.6873426879170276e-05 0 0.019839667847635526 -8.3912137707263472e-05 0 0.019882653252562488 -4.418053912445285e-06 0 0.019819444453048063 -4.2105914596032566e-05 0 0.019882653252562488 -4.418053912445285e-06 0 0.019819444453048063 -4.2105914596032566e-05 0 0.019852791214914223 1.5415253172018164e-05 0 0.019872875501366235 8.3977580540119123e-05 0 0.019852791214914223 1.5415253172018164e-05 0 0.019913796967500477 5.220520151991615e-05 0 0.019872875501366235 8.3977580540119123e-05 0 0.019788073161438546 1.5232143817954454e-05 0 0.019852791214914223 1.5415253172018164e-05 0 0.019788073161438546 1.5232143817954454e-05 0 0.019819444453048063 -4.2105914596032566e-05 0 0.019852791214914223 1.5415253172018164e-05 0 0.019882653252562488 -4.418053912445285e-06 0 0.019852791214914223 1.5415253172018164e-05 0 0.019913796967500477 5.220520151991615e-05 0 0.019882653252562488 -4.418053912445285e-06 0 0.019913796967500477 5.220520151991615e-05 0 0.019935785806198186 4.1959085800009129e-05 0 0.019955215128901548 7.8556113087101937e-05 0 0.019913796967500477 5.220520151991615e-05 0 0.019935785806198186 4.1959085800009129e-05 0 0.019935785806198186 4.1959085800009129e-05 0 0.019953165855589993 6.6058884026110775e-05 0 0.019952243302220184 6.3666102427304306e-05 0 0.019955215128901548 7.8556113087101937e-05 0 0.019935785806198186 4.1959085800009129e-05 0 0.019953165855589993 6.6058884026110775e-05 0 0.019955253815352111 6.5886262378139789e-05 0 0.019953165855589993 6.6058884026110775e-05 0 0.019952243302220184 6.3666102427304306e-05 0 0.019955253815352111 6.5886262378139789e-05 0 0.019952243302220184 6.3666102427304306e-05 0 0.019880728812924263 7.3451027005680785e-05 0 0.019788020434872537 -0.00031053623694313447 0 0.018371342479000439 8.0798818029318201e-05 0 0.013732791364787191 0.00025468554021686353 0 0.014164227162728667 0.00012180808800325026 0 0.014380393698074537 0.00047879681026557542 0 0.016983189911759931 0.0003186167438103335 0 0.016784714082489865 0.00016526212307044913 0 0.017034824873196391 0.00026154920389546071 0 0.019952243302220184 6.3666102427304306e-05 0 0.019967705659351086 3.943949091339085e-05 0 0.019926471266173515 -1.6873426879170276e-05 0 0.014911542043995019 0.00014831362863174306 0 0.015813651662436545 0.00044627889296224802 0 0.018371342479000439 8.0798818029318201e-05 0 0.018690683141687973 0.00017047866151185666 0 0.019882653252562488 -4.418053912445285e-06 0 0.019935785806198186 4.1959085800009129e-05 0 0.019926471266173515 -1.6873426879170276e-05 0 0.019935785806198186 4.1959085800009129e-05 0 0.019952243302220184 6.3666102427304306e-05 0 0.019926471266173515 -1.6873426879170276e-05 0 0.016983189911759931 0.0003186167438103335 0 0.016757806993403658 0.00019473833656760058 0 0.016784714082489865 0.00016526212307044913 0 0.013411214536343466 -0.00020119966723612781 0 0.013732791364787191 0.00025468554021686353 0 0.013771888463084048 -0.00036475463676478674 0 0.016524674068772123 5.2321971317368519e-05 0 0.016757806993403658 0.00019473833656760058 0 0.016784714082489865 0.00016526212307044913 0 0.013411214536343466 -0.00020119966723612781 0 0.013771888463084048 -0.00036475463676478674 0 0.013322141725623201 -0.00059455797902529487 0 0.013771888463084048 -0.00036475463676478674 0 0.014279651702047777 -0.00027443380723369464 0 0.014034002635927455 -0.00088971565754064239 0 0.013771888463084048 -0.00036475463676478674 0 0.014164227162728667 0.00012180808800325026 0 0.014279651702047777 -0.00027443380723369464 0 0.013732791364787191 0.00025468554021686353 0 0.013771888463084048 -0.00036475463676478674 0 0.014164227162728667 0.00012180808800325026 0 0.014164227162728667 0.00012180808800325026 0 0.014279651702047777 -0.00027443380723369464 0 0.014527119455176679 0.00032328266987205522 0 0.012336203605767943 0.00024477296288082323 0 0.013572206141384593 0.00064125955529348473 0 0.010563987082848609 0.0005966956529191293 0 0.011918778594244084 0.0013110416362333412 0 0.011229840446620268 0.0020264504816137467 0 0.012765845169223215 0.00068669380837830802 0 0.013572206141384593 0.00064125955529348473 0 0.010563987082848609 0.0005966956529191293 0 0.01152402742390817 0.00030159112729894139 0 0.011918778594244084 0.0013110416362333412 0 0.010563987082848609 0.0005966956529191293 0 0.01152402742390817 0.00030159112729894139 0 0.010725600481441758 4.5414107491738583e-05 0 0.01152402742390817 0.00030159112729894139 0 0.013051063040137213 2.9140845315664288e-06 0 0.011837677581823856 -9.7444201557568423e-07 0 0.01152402742390817 0.00030159112729894139 0 0.013051063040137213 2.9140845315664288e-06 0 0.011918778594244084 0.0013110416362333412 0 0.013055923956857708 5.340958407125699e-09 0 0.013815344282533084 -5.9805360980352015e-05 0 0.014480246791320464 1.3663558962111054e-08 0 0.013053950134389501 1.3821511600528455e-07 0 0.012765845169223215 0.00068669380837830802 0 0.013815344282533084 -5.9805360980352015e-05 0 0.014019145848905063 4.1663622568510448e-05 0 0.013876275744959855 1.2514116416563175e-05 0 0.013815344282533084 -5.9805360980352015e-05 0 0.014480246791320464 1.3663558962111054e-08 0 0.014019145848905063 4.1663622568510448e-05 0 0.014482533714951007 2.9714948808130101e-07 0 0.014920993641457844 0.00025535920547006363 0 0.014483525667822645 5.5780855102835126e-10 0 0.014802711491875531 5.8899234763619138e-07 0 0.014936468302396536 4.2899449469672297e-10 0 0.014480246791320464 1.3663558962111054e-08 0 0.014158870023044657 0.00028533014492769071 0 0.014019145848905063 4.1663622568510448e-05 0 0.01553855666574042 0.00038283872038371225 0 0.015567773232930172 0.00039217254999931203 0 0.01555944990546603 0.00036776583822107701 0 0.014158870023044657 0.00028533014492769071 0 0.014019145848905063 4.1663622568510448e-05 0 0.013908775622245788 0.00017159584937148038 0 0.014920993641457844 0.00025535920547006363 0 0.01518853416102648 0.00036879066116006184 0 0.014753512797320744 0.00052114715219180366 0 0.014817010396085155 0.00045886597429090732 0 0.014717832753118908 0.00042565109415149154 0 0.014019145848905063 4.1663622568510448e-05 0 0.013876275744959855 1.2514116416563175e-05 0 0.013908775622245788 0.00017159584937148038 0 0.013572206141384593 0.00064125955529348473 0 0.01518853416102648 0.00036879066116006184 0 0.014164227162728667 0.00012180808800325026 0 0.014527119455176679 0.00032328266987205522 0 0.014380393698074537 0.00047879681026557542 0 0.013572206141384593 0.00064125955529348473 0 0.015813651662436545 0.00044627889296224802 0 0.016963536676686413 0.00032760679151040489 0 0.016890758478569148 0.00039890249948174722 0 0.016824989018934637 0.00031470199667279353 0 0.018371342479000439 8.0798818029318201e-05 0 0.015813651662436545 0.00044627889296224802 0 0.016772061597558736 0.0003593727645928285 0 0.016824989018934637 0.00031470199667279353 0 0.016733192705627651 0.00025726315854593997 0 0.016890758478569148 0.00039890249948174722 0 0.016772061597558736 0.0003593727645928285 0 0.016824989018934637 0.00031470199667279353 0 0.015813651662436545 0.00044627889296224802 0 0.01518853416102648 0.00036879066116006184 0 0.016824989018934637 0.00031470199667279353 0 0.016766628506208889 0.00023094504025021175 0 0.016733192705627651 0.00025726315854593997 0 0.019993281181918496 0.00082513349464597807 0 0.017721738054230534 0.0005518019691657265 0 0.018371342479000439 8.0798818029318201e-05 0 0.017721738054230534 0.0005518019691657265 0 0.019952243302220184 6.3666102427304306e-05 0 0.019924164224010974 8.9295537135326131e-05 0 0.019880728812924263 7.3451027005680785e-05 0 0.01518853416102648 0.00036879066116006184 0 0.016385286916359067 0.00048431210458259056 0 0.016963536676686413 0.00032760679151040489 0 0.016824989018934637 0.00031470199667279353 0 0.016766628506208889 0.00023094504025021175 0 0.018424727483688418 0.0019028517043350392 0 0.018276229217228629 0.0026673968210773813 0 0.017955571525512054 0.002513282494339034 0 0.015152839697592936 8.3615550305104621e-06 0 0.015608102625246558 -1.8506225643983681e-08 0 0.01522459668289068 -4.1912176837510172e-05 0 0.016607915726993907 0.00064230500471138289 0 0.015608788677883805 -2.755449635051588e-07 0 0.014920993641457844 0.00025535920547006363 0 0.014937587496301188 2.2302556665901873e-07 0 0.015608102625246558 -1.8506225643983681e-08 0 0.01493904469438651 2.6656464958898507e-08 0 0.01522459668289068 -4.1912176837510172e-05 0 0.015216653800287885 4.6920530563572377e-05 0 0.01493904469438651 2.6656464958898507e-08 0 0.01522459668289068 -4.1912176837510172e-05 0 0.014920993641457844 0.00025535920547006363 0 0.016385286916359067 0.00048431210458259056 0 0.015216653800287885 4.6920530563572377e-05 0 0.01522459668289068 -4.1912176837510172e-05 0 0.015184101100607467 -1.3794516075736281e-05 0 0.015152839697592936 8.3615550305104621e-06 0 0.01522459668289068 -4.1912176837510172e-05 0 0.015184101100607467 -1.3794516075736281e-05 0 0.016474106030631829 0.00059147170138202905 0 0.016759710065608568 0.0007404716784041056 0 0.016643819342511766 0.00045220594478423155 0 0.016607915726993907 0.00064230500471138289 0 0.016385286916359067 0.00048431210458259056 0 0.017721738054230534 0.0005518019691657265 0 0.016607915726993907 0.00064230500471138289 0 0.017721738054230534 0.0005518019691657265 0 0.016385286916359067 0.00048431210458259056 0 0.019223844961937433 0.00029883901557927606 0 0.019098119066283153 0.00030990539038755813 0 0.019182624073782989 0.00025805674383981049 0 0.019098119066283153 0.00030990539038755813 0 0.019038318611417148 0.00022158703499411463 0 0.018941685585960231 0.00034336426610650725 0 0.019098119066283153 0.00030990539038755813 0 0.019182624073782989 0.00025805674383981049 0 0.019038318611417148 0.00022158703499411463 0 0.019098119066283153 0.00030990539038755813 0 0.019057951891651898 0.00046374524840757852 0 0.018941685585960231 0.00034336426610650725 0 0.017651580722689558 0.00060452994572218494 0 0.017469081209731029 0.00079315830913597634 0 0.017555161584886798 0.00079981023012068073 0 0.019223844961937433 0.00029883901557927606 0 0.019098119066283153 0.00030990539038755813 0 0.019057951891651898 0.00046374524840757852 0 0.018142239616765268 0.00046283413077530396 0 0.018320256641188994 0.00060964647186074615 0 0.017651580722689558 0.00060452994572218494 0 0.017652537156805623 0.00077042865234801532 0 0.017555161584886798 0.00079981023012068073 0 0.017673524694159413 0.00069338394147273723 0 0.017756890626504339 0.00070589475212795994 0 0.017747162458029056 0.00062110943664154834 0 0.017651580722689558 0.00060452994572218494 0 0.017652537156805623 0.00077042865234801532 0 0.017747162458029056 0.00062110943664154834 0 0.017683361996292422 0.00070448075054429084 0 0.017730132016402868 0.00064328502275294 0 0.018956044796412264 0.00054526843479787729 0 0.019085203771633467 0.00071930785038903076 0 0.017756890626504339 0.00070589475212795994 0 0.017827717833304207 0.00063375405853752719 0 0.017747162458029056 0.00062110943664154834 0 0.017756890626504339 0.00070589475212795994 0 0.017827717833304207 0.00063375405853752719 0 0.017822002026840842 0.00074600407980524594 0 0.020410937061107574 0.00065990599710010747 0 0.020323780755883009 0.00065240855720565937 0 0.020365400620148032 0.00070557391034042005 0 0.018956044796412264 0.00054526843479787729 0 0.020222669256692718 0.0008040660055295346 0 0.020393852682255111 0.00057295737452238101 0 0.020323780755883009 0.00065240855720565937 0 0.020243898943662433 0.00046444326987594498 0 0.017827717833304207 0.00063375405853752719 0 0.017747162458029056 0.00062110943664154834 0 0.017831979112587014 0.00047655463041197915 0 0.018142239616765268 0.00046283413077530396 0 0.020222669256692718 0.0008040660055295346 0 0.017651580722689558 0.00060452994572218494 0 0.017747162458029056 0.00062110943664154834 0 0.017831979112587014 0.00047655463041197915 0 0.0192852996376318 0.00035864910425693203 0 0.01921877015454965 0.00033914370362791968 0 0.019227650119464094 0.00025853673729860484 0 0.019223844961937433 0.00029883901557927606 0 0.019222515993740863 0.00026674650650416359 0 0.019227650119464094 0.00025853673729860484 0 0.020393852682255111 0.00057295737452238101 0 0.020434315649031313 0.00025994399479672026 0 0.020243898943662433 0.00046444326987594498 0 0.021305618072375562 0.0009498950807308933 0 0.020222669256692718 0.0008040660055295346 0 0.023535732193439397 0.0016421946707836535 0 0.023079444715248892 0.0014070112901128922 0 0.023156664879676235 0.0019345782107999406 0 0.022220884496489991 0.00092807058540106348 0 0.020222669256692718 0.0008040660055295346 0 0.01921877015454965 0.00033914370362791968 0 0.019222515993740863 0.00026674650650416359 0 0.019227650119464094 0.00025853673729860484 0 0.0192852996376318 0.00035864910425693203 0 0.019274249599516326 0.00026943116010522919 0 0.019227650119464094 0.00025853673729860484 0 0.019223844961937433 0.00029883901557927606 0 0.019227650119464094 0.00025853673729860484 0 0.019182624073782989 0.00025805674383981049 0 0.019274249599516326 0.00026943116010522919 0 0.019227650119464094 0.00025853673729860484 0 0.019182624073782989 0.00025805674383981049 0 0.019274249599516326 0.00026943116010522919 0 0.019182624073782989 0.00025805674383981049 0 0.019038318611417148 0.00022158703499411463 0 0.019257079494147959 0.00026636150227882531 0 0.019207909583993227 0.00021129261076497299 0 0.019274249599516326 0.00026943116010522919 0 0.019446134121019115 0.00028114940511167518 0 0.019395321390238109 0.00017121850785389322 0 0.019416179926873348 0.00036267073449682929 0 0.019274249599516326 0.00026943116010522919 0 0.019446134121019115 0.00028114940511167518 0 0.019524095029292279 0.00034814571274112161 0 0.019446134121019115 0.00028114940511167518 0 0.019551922853910792 0.00025719287104072588 0 0.019446134121019115 0.00028114940511167518 0 0.019477328186103367 0.00021775441161813144 0 0.019551922853910792 0.00025719287104072588 0 0.019477328186103367 0.00021775441161813144 0 0.019551922853910792 0.00025719287104072588 0 0.019524958849651743 0.00015998716282952037 0 0.019477328186103367 0.00021775441161813144 0 0.019395321390238109 0.00017121850785389322 0 0.019524958849651743 0.00015998716282952037 0 0.019446134121019115 0.00028114940511167518 0 0.019477328186103367 0.00021775441161813144 0 0.019395321390238109 0.00017121850785389322 0 0.019730011213538602 0.00034207693674888042 0 0.019616616136259517 0.00033092325145536581 0 0.019635222554271213 0.00025306342286499398 0 0.019616616136259517 0.00033092325145536581 0 0.019551922853910792 0.00025719287104072588 0 0.019635222554271213 0.00025306342286499398 0 0.019524095029292279 0.00034814571274112161 0 0.019616616136259517 0.00033092325145536581 0 0.019551922853910792 0.00025719287104072588 0 0.019551922853910792 0.00025719287104072588 0 0.019579738216037739 0.00020777646512542075 0 0.019635222554271213 0.00025306342286499398 0 0.019551922853910792 0.00025719287104072588 0 0.019579738216037739 0.00020777646512542075 0 0.019524958849651743 0.00015998716282952037 0 0.019710549174579088 0.00021969069106683885 0 0.019635222554271213 0.00025306342286499398 0 0.019608145249778049 0.00016373661274474079 0 0.019579738216037739 0.00020777646512542075 0 0.019635222554271213 0.00025306342286499398 0 0.019608145249778049 0.00016373661274474079 0 0.019710549174579088 0.00021969069106683885 0 0.019668907542645438 0.00015159412428219211 0 0.019608145249778049 0.00016373661274474079 0 0.019668907542645438 0.00015159412428219211 0 0.019608145249778049 0.00016373661274474079 0 0.019626712794875805 0.00010309070213506876 0 0.019608145249778049 0.00016373661274474079 0 0.019544231376655039 8.7739800945973683e-05 0 0.019524958849651743 0.00015998716282952037 0 0.019579738216037739 0.00020777646512542075 0 0.019608145249778049 0.00016373661274474079 0 0.019524958849651743 0.00015998716282952037 0 0.019544231376655039 8.7739800945973683e-05 0 0.019626712794875805 0.00010309070213506876 0 0.019514889167752365 3.9743305199637734e-05 0 0.019608145249778049 0.00016373661274474079 0 0.019544231376655039 8.7739800945973683e-05 0 0.019626712794875805 0.00010309070213506876 0 0.019687714606916967 4.6263315129570016e-05 0 0.019626712794875805 0.00010309070213506876 0 0.019514889167752365 3.9743305199637734e-05 0 0.019038318611417148 0.00022158703499411463 0 0.018720770994244938 0.00034346376697983692 0 0.018941685585960231 0.00034336426610650725 0 0.019207909583993227 0.00021129261076497299 0 0.019115100965600085 0.0002188115857793583 0 0.019544231376655039 8.7739800945973683e-05 0 0.019524958849651743 0.00015998716282952037 0 0.019486971235398044 9.4052495271414551e-05 0 0.019395321390238109 0.00017121850785389322 0 0.019524958849651743 0.00015998716282952037 0 0.019486971235398044 9.4052495271414551e-05 0 0.019544231376655039 8.7739800945973683e-05 0 0.019486971235398044 9.4052495271414551e-05 0 0.019584029554223413 8.7599054744857383e-05 0 0.018720770994244938 0.00034346376697983692 0 0.018941685585960231 0.00034336426610650725 0 0.01872484288110551 0.00065542462897069621 0 0.019057951891651898 0.00046374524840757852 0 0.018941685585960231 0.00034336426610650725 0 0.01872484288110551 0.00065542462897069621 0 0.018320256641188994 0.00060964647186074615 0 0.018078486681528061 0.00079052468727909726 0 0.019115100965600085 0.0002188115857793583 0 0.018890212246323753 0.00036697041458521354 0 0.018720770994244938 0.00034346376697983692 0 0.01872484288110551 0.00065542462897069621 0 0.018373704175067541 0.00056453417434655206 0 0.018078486681528061 0.00079052468727909726 0 0.01797117212019135 0.00085613931172982382 0 0.017439019680752888 0.00093007730790272184 0 0.017615115872204032 0.00092142321717230444 0 0.017451930941193825 0.00089168232715074668 0 0.01872484288110551 0.00065542462897069621 0 0.018373704175067541 0.00056453417434655206 0 0.01830248483919129 0.00083039016031246206 0 0.017439886052099559 0.00091319405442037054 0 0.017451930941193825 0.00089168232715074668 0 0.017423399829969689 0.00091269419869976468 0 0.017439019680752888 0.00093007730790272184 0 0.017439886052099559 0.00091319405442037054 0 0.017463537056230979 0.00088741212563983162 0 0.017439019680752888 0.00093007730790272184 0 0.017439886052099559 0.00091319405442037054 0 0.017451930941193825 0.00089168232715074668 0 0.019260537232236603 0.00012695793745269679 0 0.019514613391795305 1.5984553799389032e-05 0 0.019687714606916967 4.6263315129570016e-05 0 0.019670380922533166 -3.9550069926342961e-05 0 0.019514889167752365 3.9743305199637734e-05 0 0.019033956777735454 0.00016601292439061261 0 0.019514889167752365 3.9743305199637734e-05 0 0.019400084376136398 0.00020848719178950101 0 0.019514889167752365 3.9743305199637734e-05 0 0.019584029554223413 8.7599054744857383e-05 0 0.019400084376136398 0.00020848719178950101 0 0.019544231376655039 8.7739800945973683e-05 0 0.019514889167752365 3.9743305199637734e-05 0 0.019584029554223413 8.7599054744857383e-05 0 0.019584029554223413 8.7599054744857383e-05 0 0.019400084376136398 0.00020848719178950101 0 0.019385244977916483 0.00054946390681080866 0 0.018890212246323753 0.00036697041458521354 0 0.01919780893755375 0.00065507382142466347 0 0.018373704175067541 0.00056453417434655206 0 0.01805250662098639 0.00077351488477711572 0 0.01830248483919129 0.00083039016031246206 0 0.019033956777735454 0.00016601292439061261 0 0.019400084376136398 0.00020848719178950101 0 0.019385244977916483 0.00054946390681080866 0 0.019033956777735454 0.00016601292439061261 0 0.018874982975495561 0.00067682093091136792 0 0.019385244977916483 0.00054946390681080866 0 0.015246806884398108 0.00024168382885800396 0 0.01919780893755375 0.00065507382142466347 0 0.018874982975495561 0.00067682093091136792 0 0.018897361132776617 0.0011845091907149927 0 0.019385244977916483 0.00054946390681080866 0 0.01797117212019135 0.00085613931172982382 0 0.017954952570817986 0.00078879342915938293 0 0.01805250662098639 0.00077351488477711572 0 0.01830248483919129 0.00083039016031246206 0 0.017934974899866042 0.00078586060954459133 0 0.017615115872204032 0.00092142321717230444 0 0.017700017927912419 0.00077597383267609746 0 0.017934974899866042 0.00078586060954459133 0 0.017830296310101676 0.0006527227165299775 0 0.017700017927912419 0.00077597383267609746 0 0.017612614394916671 0.00068950367349967763 0 0.017830296310101676 0.0006527227165299775 0 0.017700017927912419 0.00077597383267609746 0 0.017934974899866042 0.00078586060954459133 0 0.01796786379522167 0.00079285234620003883 0 0.017830296310101676 0.0006527227165299775 0 0.017934974899866042 0.00078586060954459133 0 0.015246806884398108 0.00024168382885800396 0 0.014427396293814097 5.6891686121408686e-05 0 0.01796786379522167 0.00079285234620003883 0 0.01805250662098639 0.00077351488477711572 0 0.017934974899866042 0.00078586060954459133 0 0.017400190182915949 0.00077764652944560856 0 0.017306289981045997 0.00095687700661937439 0 0.017451930941193825 0.00089168232715074668 0 0.017388947957072853 0.00077565545295155971 0 0.017423399829969689 0.00091269419869976468 0 0.017451930941193825 0.00089168232715074668 0 0.017522803754060703 0.00079273612304315601 0 0.017388947957072853 0.00077565545295155971 0 0.017615115872204032 0.00092142321717230444 0 0.017451930941193825 0.00089168232715074668 0 0.017522803754060703 0.00079273612304315601 0 0.017615115872204032 0.00092142321717230444 0 0.017700017927912419 0.00077597383267609746 0 0.017522803754060703 0.00079273612304315601 0 0.017522803754060703 0.00079273612304315601 0 0.017612614394916671 0.00068950367349967763 0 0.017397669568479379 0.00061433841401430014 0 0.017700017927912419 0.00077597383267609746 0 0.017522803754060703 0.00079273612304315601 0 0.017612614394916671 0.00068950367349967763 0 0.017388947957072853 0.00077565545295155971 0 0.017231871766588969 0.00064244193151549083 0 0.017183404921625921 0.00083901413273434556 0 0.017522803754060703 0.00079273612304315601 0 0.017388947957072853 0.00077565545295155971 0 0.017397669568479379 0.00061433841401430014 0 0.017388947957072853 0.00077565545295155971 0 0.017231871766588969 0.00064244193151549083 0 0.017397669568479379 0.00061433841401430014 0 0.016289211591353693 -1.6673449673873405e-05 0 0.016617306780830631 0.00066598888569293648 0 0.015311490234499401 -0.00048827216276512109 0 0.015144078542631036 -0.00048045228883748949 0 0.015266452025581056 -0.00032074451098276329 0 0.015144078542631036 -0.00048045228883748949 0 0.015060676491611316 -0.0003554601536160566 0 0.015266452025581056 -0.00032074451098276329 0 0.015144078542631036 -0.00048045228883748949 0 0.015060676491611316 -0.0003554601536160566 0 0.014970533367874753 -0.00046774674113329742 0 0.016326063579934519 0.00026575241013342382 0 0.016617306780830631 0.00066598888569293648 0 0.017637657414400539 0.00093132600470393549 0 0.017620686181433476 0.00087161787343844157 0 0.017532784603397834 0.00091858323837055501 0 0.017637657414400539 0.00093132600470393549 0 0.017620686181433476 0.00087161787343844157 0 0.017683911675159366 0.00088717753083983341 0 0.017620686181433476 0.00087161787343844157 0 0.017680400873949009 0.00082811439464770332 0 0.017683911675159366 0.00088717753083983341 0 0.016617306780830631 0.00066598888569293648 0 0.017350906573294599 0.00092036077271287335 0 0.017620686181433476 0.00087161787343844157 0 0.017532784603397834 0.00091858323837055501 0 0.017569896793042054 0.0008414303000651432 0 0.017388947957072853 0.00077565545295155971 0 0.017183404921625921 0.00083901413273434556 0 0.017214854173373876 0.00097848947350589717 0 0.017183404921625921 0.00083901413273434556 0 0.017214854173373876 0.00097848947350589717 0 0.017141452221091421 0.0010024481205542031 0 0.017214854173373876 0.00097848947350589717 0 0.017141452221091421 0.0010024481205542031 0 0.0170954087960619 0.0011337874355736603 0 0.017423399829969689 0.00091269419869976468 0 0.017469183445773966 0.00089963804651209736 0 0.017534156180761446 0.00089181281014686536 0 0.017439886052099559 0.00091319405442037054 0 0.017423399829969689 0.00091269419869976468 0 0.017469183445773966 0.00089963804651209736 0 0.017306289981045997 0.00095687700661937439 0 0.017410460426125166 0.00091622611175941565 0 0.017439886052099559 0.00091319405442037054 0 0.017469183445773966 0.00089963804651209736 0 0.017463537056230979 0.00088741212563983162 0 0.017569896793042054 0.0008414303000651432 0 0.017613153285826827 0.00080221619685311347 0 0.017606045446887243 0.0007659058517993215 0 0.017350906573294599 0.00092036077271287335 0 0.017410460426125166 0.00091622611175941565 0 0.017620686181433476 0.00087161787343844157 0 0.017569896793042054 0.0008414303000651432 0 0.01762610514644096 0.00082377062704806379 0 0.017569896793042054 0.0008414303000651432 0 0.01762610514644096 0.00082377062704806379 0 0.017613153285826827 0.00080221619685311347 0 0.017620686181433476 0.00087161787343844157 0 0.01762610514644096 0.00082377062704806379 0 0.017680400873949009 0.00082811439464770332 0 0.01762610514644096 0.00082377062704806379 0 0.017650877982376068 0.0007776878675802083 0 0.017680400873949009 0.00082811439464770332 0 0.01762610514644096 0.00082377062704806379 0 0.017613153285826827 0.00080221619685311347 0 0.017650877982376068 0.0007776878675802083 0 0.017613153285826827 0.00080221619685311347 0 0.017606045446887243 0.0007659058517993215 0 0.017650877982376068 0.0007776878675802083 0 0.017673524694159413 0.00069338394147273723 0 0.017606045446887243 0.0007659058517993215 0 0.017650877982376068 0.0007776878675802083 0 0.017683361996292422 0.00070448075054429084 0 0.017410460426125166 0.00091622611175941565 0 0.017534156180761446 0.00089181281014686536 0 0.017555161584886798 0.00079981023012068073 0 0.017499716817118587 0.00085495238289356513 0 0.017652537156805623 0.00077042865234801532 0 0.017534156180761446 0.00089181281014686536 0 0.017555161584886798 0.00079981023012068073 0 0.017469081209731029 0.00079315830913597634 0 0.017555161584886798 0.00079981023012068073 0 0.017499716817118587 0.00085495238289356513 0 0.017469081209731029 0.00079315830913597634 0 0.017499716817118587 0.00085495238289356513 0 0.017463537056230979 0.00088741212563983162 0 0.017469081209731029 0.00079315830913597634 0 0.017439019680752888 0.00093007730790272184 0 0.017463537056230979 0.00088741212563983162 0 0.017499716817118587 0.00085495238289356513 0 0.017463537056230979 0.00088741212563983162 0 0.017498007390467044 0.00088470047346930606 0 0.017469183445773966 0.00089963804651209736 0 0.017463537056230979 0.00088741212563983162 0 0.017498007390467044 0.00088470047346930606 0 0.017469183445773966 0.00089963804651209736 0 0.017534156180761446 0.00089181281014686536 0 0.017498007390467044 0.00088470047346930606 0 0.017534156180761446 0.00089181281014686536 0 0.017499716817118587 0.00085495238289356513 0 0.017498007390467044 0.00088470047346930606 0 0.017756890626504339 0.00070589475212795994 0 0.017822002026840842 0.00074600407980524594 0 0.017756784227374596 0.00079737046820298164 0 0.017756890626504339 0.00070589475212795994 0 0.017703402981959597 0.00075983454084518507 0 0.017756784227374596 0.00079737046820298164 0 0.017673524694159413 0.00069338394147273723 0 0.017650877982376068 0.0007776878675802083 0 0.017703402981959597 0.00075983454084518507 0 0.017673524694159413 0.00069338394147273723 0 0.017756890626504339 0.00070589475212795994 0 0.017703402981959597 0.00075983454084518507 0 0.017703402981959597 0.00075983454084518507 0 0.017680400873949009 0.00082811439464770332 0 0.017756784227374596 0.00079737046820298164 0 0.017650877982376068 0.0007776878675802083 0 0.017703402981959597 0.00075983454084518507 0 0.017680400873949009 0.00082811439464770332 0 0.017680400873949009 0.00082811439464770332 0 0.017756784227374596 0.00079737046820298164 0 0.017739530329969035 0.00086351103867143039 0 0.017824134649266736 0.00085118753282919309 0 0.017756784227374596 0.00079737046820298164 0 0.017739530329969035 0.00086351103867143039 0 0.019285515185119135 0.00087521065406577308 0 0.019085203771633467 0.00071930785038903076 0 0.017824134649266736 0.00085118753282919309 0 0.017822002026840842 0.00074600407980524594 0 0.017756784227374596 0.00079737046820298164 0 0.017824134649266736 0.00085118753282919309 0 0.017739530329969035 0.00086351103867143039 0 0.017737986266524716 0.00093905411611145534 0 0.017824134649266736 0.00085118753282919309 0 0.017829212034840156 0.00094763185307335869 0 0.017737986266524716 0.00093905411611145534 0 0.017637657414400539 0.00093132600470393549 0 0.017683911675159366 0.00088717753083983341 0 0.017737986266524716 0.00093905411611145534 0 0.017683911675159366 0.00088717753083983341 0 0.017739530329969035 0.00086351103867143039 0 0.017737986266524716 0.00093905411611145534 0 0.017680400873949009 0.00082811439464770332 0 0.017683911675159366 0.00088717753083983341 0 0.017739530329969035 0.00086351103867143039 0 0.016326063579934519 0.00026575241013342382 0 0.016186051575330714 0.00025063332047482734 0 0.015060676491611316 -0.0003554601536160566 0 0.014970533367874753 -0.00046774674113329742 0 0.014885796072383673 -0.00039000305111036083 0 0.014970533367874753 -0.00046774674113329742 0 0.014887122137115795 -0.00039156175613470694 0 0.014885796072383673 -0.00039000305111036083 0 0.014970533367874753 -0.00046774674113329742 0 0.014887122137115795 -0.00039156175613470694 0 0.014896101249898028 -0.00050974230570192069 0 0.017144959543661534 0.00047557490061739597 0 0.016186051575330714 0.00025063332047482734 0 0.01488954786549187 -0.00039507402588674184 0 0.014813900512127489 -0.0005149365280651925 0 0.015025306648854396 -0.00039731074971221061 0 0.014885796072383673 -0.00039000305111036083 0 0.014966709391646845 -0.00037660138552481233 0 0.014887122137115795 -0.00039156175613470694 0 0.014966709391646845 -0.00037660138552481233 0 0.01502187424173085 -0.00037039544080257969 0 0.014887122137115795 -0.00039156175613470694 0 0.014885796072383673 -0.00039000305111036083 0 0.014966709391646845 -0.00037660138552481233 0 0.014966709391646845 -0.00037660138552481233 0 0.01502187424173085 -0.00037039544080257969 0 0.015007022921482639 -0.00036178953506607467 0 0.014887122137115795 -0.00039156175613470694 0 0.014801828350652996 -0.00059048609663849309 0 0.014896101249898028 -0.00050974230570192069 0 0.014887122137115795 -0.00039156175613470694 0 0.014801828350652996 -0.00059048609663849309 0 0.014664870655582208 -0.00058874214073588438 0 0.014801828350652996 -0.00059048609663849309 0 0.014664870655582208 -0.00058874214073588438 0 0.014685606760481796 -0.00076920152908520323 0 0.014970533367874753 -0.00046774674113329742 0 0.014921284529030484 -0.00059713690462350323 0 0.015046491278082844 -0.00061623750280952899 0 0.014970533367874753 -0.00046774674113329742 0 0.014896101249898028 -0.00050974230570192069 0 0.014921284529030484 -0.00059713690462350323 0 0.014801828350652996 -0.00059048609663849309 0 0.014896101249898028 -0.00050974230570192069 0 0.014921284529030484 -0.00059713690462350323 0 0.014921284529030484 -0.00059713690462350323 0 0.014900927767950494 -0.00084834368608327558 0 0.015046491278082844 -0.00061623750280952899 0 0.014900927767950494 -0.00084834368608327558 0 0.015075849071138517 -0.00076482569341806061 0 0.015046491278082844 -0.00061623750280952899 0 0.01394190272074493 -0.0011477856326854768 0 0.01236538990637652 -0.0015650205907183988 0 0.010950841629603301 -0.0019976515223695725 0 0.01236538990637652 -0.0015650205907183988 0 0.014801828350652996 -0.00059048609663849309 0 0.014921284529030484 -0.00059713690462350323 0 0.014900927767950494 -0.00084834368608327558 0 0.012505971671390699 -0.0016089314811484356 0 0.012496444579187653 -0.0016246601944669068 0 0.012525996030651096 -0.001588910322248255 0 0.014801828350652996 -0.00059048609663849309 0 0.014900927767950494 -0.00084834368608327558 0 0.014685606760481796 -0.00076920152908520323 0 0.014900927767950494 -0.00084834368608327558 0 0.014685606760481796 -0.00076920152908520323 0 0.014604280183202256 -0.00098014546941357873 0 0.010950841629603301 -0.0019976515223695725 0 0.011385960625163847 -0.0019313933571364133 0 0.0098765925647499569 -0.0022121228359876779 0 0.009965200095432598 -0.0022587065880244092 0 0.01009228576460458 -0.0023256234737503703 0 0.01394190272074493 -0.0011477856326854768 0 0.013444074676872982 -0.0013447340848136474 0 0.012496444579187653 -0.0016246601944669068 0 0.012479196626800065 -0.0016311345433127991 0 0.012465452110173384 -0.0016529161336534706 0 0.012505971671390699 -0.0016089314811484356 0 0.012496444579187653 -0.0016246601944669068 0 0.012479196626800065 -0.0016311345433127991 0 0.0098765925647499569 -0.0022121228359876779 0 0.009965200095432598 -0.0022587065880244092 0 0.0099028207509711027 -0.0022298053701827088 0 0.0098765925647499569 -0.0022121228359876779 0 0.0099042090052834549 -0.0021408299649751969 0 0.0098822746615897863 -0.0022005213197332806 0 0.0098765925647499569 -0.0022121228359876779 0 0.0099281399578157892 -0.0020825601396713697 0 0.009946147101524078 -0.0019830090946487745 0 0.0098765925647499569 -0.0022121228359876779 0 0.0099042090052834549 -0.0021408299649751969 0 0.0099281399578157892 -0.0020825601396713697 0 0.0099042090052834549 -0.0021408299649751969 0 0.0098822746615897863 -0.0022005213197332806 0 0.009874179311431355 -0.0021889369058314882 0 0.0098765925647499569 -0.0022121228359876779 0 0.0098822746615897863 -0.0022005213197332806 0 0.0099028207509711027 -0.0022298053701827088 0 0.0098822746615897863 -0.0022005213197332806 0 0.0098751379529071655 -0.0022180023003133095 0 0.009874179311431355 -0.0021889369058314882 0 0.0098822746615897863 -0.0022005213197332806 0 0.0098751379529071655 -0.0022180023003133095 0 0.0099028207509711027 -0.0022298053701827088 0 0.0098751379529071655 -0.0022180023003133095 0 0.009874179311431355 -0.0021889369058314882 0 0.0098406729351108325 -0.0022106268904100927 0 0.0098751379529071655 -0.0022180023003133095 0 0.0098406729351108325 -0.0022106268904100927 0 0.0098665180366372968 -0.0022222272206844874 0 0.0098751379529071655 -0.0022180023003133095 0 0.0099333426167678672 -0.0022328184060282411 0 0.0098665180366372968 -0.0022222272206844874 0 0.0099333426167678672 -0.0022328184060282411 0 0.009965200095432598 -0.0022587065880244092 0 0.010057850196584679 -0.0022350730780075143 0 0.0099333426167678672 -0.0022328184060282411 0 0.009965200095432598 -0.0022587065880244092 0 0.0099028207509711027 -0.0022298053701827088 0 0.0098751379529071655 -0.0022180023003133095 0 0.0099333426167678672 -0.0022328184060282411 0 0.0099028207509711027 -0.0022298053701827088 0 0.0099824644130540839 -0.002123450464847063 0 0.010021667158042044 -0.0021578484883820149 0 0.0099437132321906485 -0.0021672969309801038 0 0.0099824644130540839 -0.002123450464847063 0 0.010021667158042044 -0.0021578484883820149 0 0.010064409193090677 -0.0020868523263957886 0 0.010021667158042044 -0.0021578484883820149 0 0.010064409193090677 -0.0020868523263957886 0 0.01011660214906006 -0.002108429812937527 0 0.010021667158042044 -0.0021578484883820149 0 0.01011660214906006 -0.002108429812937527 0 0.010105404588711172 -0.0021787682840109695 0 0.010021667158042044 -0.0021578484883820149 0 0.010105404588711172 -0.0021787682840109695 0 0.010034569937690153 -0.0022439784389118186 0 0.0099484248503891072 -0.0022104890271722904 0 0.010021667158042044 -0.0021578484883820149 0 0.0099437132321906485 -0.0021672969309801038 0 0.0099484248503891072 -0.0022104890271722904 0 0.010021667158042044 -0.0021578484883820149 0 0.010034569937690153 -0.0022439784389118186 0 0.0099437132321906485 -0.0021672969309801038 0 0.0098797527749849914 -0.0021979759572935001 0 0.0099029453694874526 -0.002161928770353364 0 0.0099484248503891072 -0.0022104890271722904 0 0.0099437132321906485 -0.0021672969309801038 0 0.0098797527749849914 -0.0021979759572935001 0 0.0098406729351108325 -0.0022106268904100927 0 0.0098797527749849914 -0.0021979759572935001 0 0.0098194288048802942 -0.0022268047354010983 0 0.0098406729351108325 -0.0022106268904100927 0 0.0098797527749849914 -0.0021979759572935001 0 0.0099029453694874526 -0.002161928770353364 0 0.009874179311431355 -0.0021889369058314882 0 0.0098406729351108325 -0.0022106268904100927 0 0.0099029453694874526 -0.002161928770353364 0 0.0099042090052834549 -0.0021408299649751969 0 0.009874179311431355 -0.0021889369058314882 0 0.0099029453694874526 -0.002161928770353364 0 0.0099824644130540839 -0.002123450464847063 0 0.0099029453694874526 -0.002161928770353364 0 0.0099371108838453466 -0.0021145668909157383 0 0.0099824644130540839 -0.002123450464847063 0 0.0099437132321906485 -0.0021672969309801038 0 0.0099029453694874526 -0.002161928770353364 0 0.0099371108838453466 -0.0021145668909157383 0 0.0099808418893389973 -0.0020607494045441076 0 0.010020806742882925 -0.0020707401055471528 0 0.0099824644130540839 -0.002123450464847063 0 0.0099371108838453466 -0.0021145668909157383 0 0.010020806742882925 -0.0020707401055471528 0 0.0099042090052834549 -0.0021408299649751969 0 0.0099371108838453466 -0.0021145668909157383 0 0.0099281399578157892 -0.0020825601396713697 0 0.0099042090052834549 -0.0021408299649751969 0 0.0099029453694874526 -0.002161928770353364 0 0.0099371108838453466 -0.0021145668909157383 0 0.0099371108838453466 -0.0021145668909157383 0 0.0099281399578157892 -0.0020825601396713697 0 0.0099808418893389973 -0.0020607494045441076 0 0.0099281399578157892 -0.0020825601396713697 0 0.0099808418893389973 -0.0020607494045441076 0 0.0099807889425405881 -0.0020159309416703658 0 0.0099808418893389973 -0.0020607494045441076 0 0.010057279375665727 -0.0019919939434516107 0 0.0099807889425405881 -0.0020159309416703658 0 0.0099808418893389973 -0.0020607494045441076 0 0.010020806742882925 -0.0020707401055471528 0 0.010057279375665727 -0.0019919939434516107 0 0.010020806742882925 -0.0020707401055471528 0 0.010091279819127708 -0.0020299626126850591 0 0.010057279375665727 -0.0019919939434516107 0 0.0099824644130540839 -0.002123450464847063 0 0.010020806742882925 -0.0020707401055471528 0 0.010064409193090677 -0.0020868523263957886 0 0.010064409193090677 -0.0020868523263957886 0 0.010091279819127708 -0.0020299626126850591 0 0.010168806599468337 -0.0020281092596152036 0 0.010020806742882925 -0.0020707401055471528 0 0.010064409193090677 -0.0020868523263957886 0 0.010091279819127708 -0.0020299626126850591 0 0.010091279819127708 -0.0020299626126850591 0 0.010057279375665727 -0.0019919939434516107 0 0.010135670877251285 -0.0019799735267135702 0 0.012418391138267064 -0.0014720167249137244 0 0.013236655771351045 -0.00085706424900953472 0 0.010057279375665727 -0.0019919939434516107 0 0.010179182252877051 -0.0018632237347094153 0 0.010135670877251285 -0.0019799735267135702 0 0.010057279375665727 -0.0019919939434516107 0 0.0099985163251755868 -0.0019463605332846097 0 0.010179182252877051 -0.0018632237347094153 0 0.0099281399578157892 -0.0020825601396713697 0 0.009946147101524078 -0.0019830090946487745 0 0.0099807889425405881 -0.0020159309416703658 0 0.010057279375665727 -0.0019919939434516107 0 0.0099807889425405881 -0.0020159309416703658 0 0.0099985163251755868 -0.0019463605332846097 0 0.009946147101524078 -0.0019830090946487745 0 0.0099807889425405881 -0.0020159309416703658 0 0.0099985163251755868 -0.0019463605332846097 0 0.01236538990637652 -0.0015650205907183988 0 0.012418391138267064 -0.0014720167249137244 0 0.015075849071138517 -0.00076482569341806061 0 0.015128656825436845 -0.00074043933484831397 0 0.015046491278082844 -0.00061623750280952899 0 0.015144078542631036 -0.00048045228883748949 0 0.014970533367874753 -0.00046774674113329742 0 0.015046491278082844 -0.00061623750280952899 0 0.015128656825436845 -0.00074043933484831397 0 0.015046491278082844 -0.00061623750280952899 0 0.015195422570081642 -0.00058838808829886899 0 0.015144078542631036 -0.00048045228883748949 0 0.015046491278082844 -0.00061623750280952899 0 0.015195422570081642 -0.00058838808829886899 0 0.015128656825436845 -0.00074043933484831397 0 0.015195422570081642 -0.00058838808829886899 0 0.015350435854718569 -0.00065329114336675777 0 0.015311490234499401 -0.00048827216276512109 0 0.015195422570081642 -0.00058838808829886899 0 0.015350435854718569 -0.00065329114336675777 0 0.015311490234499401 -0.00048827216276512109 0 0.015144078542631036 -0.00048045228883748949 0 0.015195422570081642 -0.00058838808829886899 0 0.016289211591353693 -1.6673449673873405e-05 0 0.013236655771351045 -0.00085706424900953472 0 0.017231871766588969 0.00064244193151549083 0 0.017269448735027216 0.00044174565220400907 0 0.017397669568479379 0.00061433841401430014 0 0.013236655771351045 -0.00085706424900953472 0 0.014168421618787456 -2.2076126957020112e-05 0 0.0099609491938579993 -0.00095195373140959322 0 0.010583176446995498 -0.00072785650416269817 0 0.010342887059613923 -0.0011553425806293334 0 0.017269448735027216 0.00044174565220400907 0 0.017397669568479379 0.00061433841401430014 0 0.017531937204473307 0.00053429228041699151 0 0.017612614394916671 0.00068950367349967763 0 0.017397669568479379 0.00061433841401430014 0 0.017531937204473307 0.00053429228041699151 0 0.010583176446995498 -0.00072785650416269817 0 0.010342887059613923 -0.0011553425806293334 0 0.010703805546433028 -0.0012545234395324562 0 0.010342887059613923 -0.0011553425806293334 0 0.010113811254974538 -0.0014872720090226498 0 0.010470772667547548 -0.0014794203698809691 0 0.010342887059613923 -0.0011553425806293334 0 0.010703805546433028 -0.0012545234395324562 0 0.010470772667547548 -0.0014794203698809691 0 0.010179182252877051 -0.0018632237347094153 0 0.010135670877251285 -0.0019799735267135702 0 0.010193931376903128 -0.0019804686081979269 0 0.013236655771351045 -0.00085706424900953472 0 0.010055235885921655 -0.001668973096230449 0 0.0099609491938579993 -0.00095195373140959322 0 0.010342887059613923 -0.0011553425806293334 0 0.010113811254974538 -0.0014872720090226498 0 0.011844594757725877 -0.00027382360241437617 0 0.011208959554110198 -0.00049876979647705611 0 0.011528775574571251 -0.00090225537006566846 0 0.011208959554110198 -0.00049876979647705611 0 0.011528775574571251 -0.00090225537006566846 0 0.011017223277680434 -0.00095782621396653302 0 0.017830296310101676 0.0006527227165299775 0 0.017612614394916671 0.00068950367349967763 0 0.017531937204473307 0.00053429228041699151 0 0.010583176446995498 -0.00072785650416269817 0 0.010703805546433028 -0.0012545234395324562 0 0.011017223277680434 -0.00095782621396653302 0 0.011208959554110198 -0.00049876979647705611 0 0.010583176446995498 -0.00072785650416269817 0 0.011017223277680434 -0.00095782621396653302 0 0.014427396293814097 5.6891686121408686e-05 0 0.014168421618787456 -2.2076126957020112e-05 0 0.010703805546433028 -0.0012545234395324562 0 0.011158459637789083 -0.0014130227085118231 0 0.010756687788896701 -0.0016363889947774313 0 0.010703805546433028 -0.0012545234395324562 0 0.011017223277680434 -0.00095782621396653302 0 0.011158459637789083 -0.0014130227085118231 0 0.011528775574571251 -0.00090225537006566846 0 0.011017223277680434 -0.00095782621396653302 0 0.011158459637789083 -0.0014130227085118231 0 0.011528775574571251 -0.00090225537006566846 0 0.011158459637789083 -0.0014130227085118231 0 0.011659413294492714 -0.001371758067474454 0 0.011158459637789083 -0.0014130227085118231 0 0.011429373967792995 -0.0018133765651224486 0 0.011659413294492714 -0.001371758067474454 0 0.011158459637789083 -0.0014130227085118231 0 0.011429373967792995 -0.0018133765651224486 0 0.011015301788448848 -0.001791479641825127 0 0.011158459637789083 -0.0014130227085118231 0 0.011015301788448848 -0.001791479641825127 0 0.010756687788896701 -0.0016363889947774313 0 0.011015301788448848 -0.001791479641825127 0 0.010756687788896701 -0.0016363889947774313 0 0.010817865347027182 -0.0020025266556641897 0 0.010817865347027182 -0.0020025266556641897 0 0.011051655555327923 -0.0021788824254926932 0 0.010852907835264462 -0.0024190473143322513 0 0.011015301788448848 -0.001791479641825127 0 0.010817865347027182 -0.0020025266556641897 0 0.011051655555327923 -0.0021788824254926932 0 0.011429373967792995 -0.0018133765651224486 0 0.011051655555327923 -0.0021788824254926932 0 0.011324634893048963 -0.0022221386656317925 0 0.011429373967792995 -0.0018133765651224486 0 0.011015301788448848 -0.001791479641825127 0 0.011051655555327923 -0.0021788824254926932 0 0.011051655555327923 -0.0021788824254926932 0 0.011324634893048963 -0.0022221386656317925 0 0.011118201652052932 -0.002362008818387093 0 0.011429373967792995 -0.0018133765651224486 0 0.011324634893048963 -0.0022221386656317925 0 0.011834643236026446 -0.0020154842422583949 0 0.010055235885921655 -0.001668973096230449 0 0.010282557640263723 -0.0020256605500988661 0 0.010168806599468337 -0.0020281092596152036 0 0.010193931376903128 -0.0019804686081979269 0 0.01028352884346306 -0.0020127710126327451 0 0.010135670877251285 -0.0019799735267135702 0 0.010168806599468337 -0.0020281092596152036 0 0.010193931376903128 -0.0019804686081979269 0 0.010091279819127708 -0.0020299626126850591 0 0.010135670877251285 -0.0019799735267135702 0 0.010168806599468337 -0.0020281092596152036 0 0.010113811254974538 -0.0014872720090226498 0 0.010435349968702337 -0.0018773448042529695 0 0.01028352884346306 -0.0020127710126327451 0 0.010113811254974538 -0.0014872720090226498 0 0.010470772667547548 -0.0014794203698809691 0 0.010435349968702337 -0.0018773448042529695 0 0.010756687788896701 -0.0016363889947774313 0 0.010470772667547548 -0.0014794203698809691 0 0.010435349968702337 -0.0018773448042529695 0 0.010703805546433028 -0.0012545234395324562 0 0.010756687788896701 -0.0016363889947774313 0 0.010470772667547548 -0.0014794203698809691 0 0.010756687788896701 -0.0016363889947774313 0 0.010817865347027182 -0.0020025266556641897 0 0.010435349968702337 -0.0018773448042529695 0 0.010435349968702337 -0.0018773448042529695 0 0.01028352884346306 -0.0020127710126327451 0 0.010311313112294451 -0.002194846999520396 0 0.010435349968702337 -0.0018773448042529695 0 0.010311313112294451 -0.002194846999520396 0 0.010477722750152414 -0.002262728529732617 0 0.01044275899843727 -0.0018893035190902419 0 0.010660348278504201 -0.0023227383114368286 0 0.010817865347027182 -0.0020025266556641897 0 0.010435349968702337 -0.0018773448042529695 0 0.010852907835264462 -0.0024190473143322513 0 0.01028352884346306 -0.0020127710126327451 0 0.01020308945495986 -0.0021741007203222242 0 0.010311313112294451 -0.002194846999520396 0 0.01028352884346306 -0.0020127710126327451 0 0.01020308945495986 -0.0021741007203222242 0 0.010194668605116289 -0.0020829468138989656 0 0.010168806599468337 -0.0020281092596152036 0 0.01028352884346306 -0.0020127710126327451 0 0.010194668605116289 -0.0020829468138989656 0 0.010168806599468337 -0.0020281092596152036 0 0.010194668605116289 -0.0020829468138989656 0 0.01011660214906006 -0.002108429812937527 0 0.010064409193090677 -0.0020868523263957886 0 0.010168806599468337 -0.0020281092596152036 0 0.01011660214906006 -0.002108429812937527 0 0.01020308945495986 -0.0021741007203222242 0 0.010194668605116289 -0.0020829468138989656 0 0.010105404588711172 -0.0021787682840109695 0 0.010194668605116289 -0.0020829468138989656 0 0.01011660214906006 -0.002108429812937527 0 0.010105404588711172 -0.0021787682840109695 0 0.01020308945495986 -0.0021741007203222242 0 0.010105404588711172 -0.0021787682840109695 0 0.010112481302862375 -0.0022771419028821331 0 0.01020308945495986 -0.0021741007203222242 0 0.010112481302862375 -0.0022771419028821331 0 0.010202136662264121 -0.0022985905335990669 0 0.010112481302862375 -0.0022771419028821331 0 0.010127635159156715 -0.0023742047597958009 0 0.010071098580636975 -0.0023888592971670888 0 0.010112481302862375 -0.0022771419028821331 0 0.010127635159156715 -0.0023742047597958009 0 0.010202136662264121 -0.0022985905335990669 0 0.010127635159156715 -0.0023742047597958009 0 0.010202136662264121 -0.0022985905335990669 0 0.010175329374250763 -0.0024193337185304574 0 0.01020308945495986 -0.0021741007203222242 0 0.010202136662264121 -0.0022985905335990669 0 0.010311313112294451 -0.002194846999520396 0 0.010202136662264121 -0.0022985905335990669 0 0.010311313112294451 -0.002194846999520396 0 0.010328243610002417 -0.0023968092457108191 0 0.010311313112294451 -0.002194846999520396 0 0.010328243610002417 -0.0023968092457108191 0 0.010477722750152414 -0.002262728529732617 0 0.010328243610002417 -0.0023968092457108191 0 0.010165517802793742 -0.0024787838257208862 0 0.01035423130103714 -0.0025885869982169392 0 0.010328243610002417 -0.0023968092457108191 0 0.010165517802793742 -0.0024787838257208862 0 0.010175329374250763 -0.0024193337185304574 0 0.010165517802793742 -0.0024787838257208862 0 0.010084996447116605 -0.0024856406592776267 0 0.010175329374250763 -0.0024193337185304574 0 0.010084996447116605 -0.0024856406592776267 0 0.0099566858676527533 -0.0025500034373406697 0 0.010089256568610682 -0.0025650455268268536 0 0.010165517802793742 -0.0024787838257208862 0 0.010084996447116605 -0.0024856406592776267 0 0.0099566858676527533 -0.0025500034373406697 0 0.010127635159156715 -0.0023742047597958009 0 0.010084996447116605 -0.0024856406592776267 0 0.010071098580636975 -0.0023888592971670888 0 0.010127635159156715 -0.0023742047597958009 0 0.010084996447116605 -0.0024856406592776267 0 0.010175329374250763 -0.0024193337185304574 0 0.010202136662264121 -0.0022985905335990669 0 0.010328243610002417 -0.0023968092457108191 0 0.010175329374250763 -0.0024193337185304574 0 0.011324634893048963 -0.0022221386656317925 0 0.011230344793068909 -0.0024231296675202595 0 0.011118201652052932 -0.002362008818387093 0 0.011324634893048963 -0.0022221386656317925 0 0.011230344793068909 -0.0024231296675202595 0 0.011291172782295076 -0.0023080887498265075 0 0.011230344793068909 -0.0024231296675202595 0 0.011118201652052932 -0.002362008818387093 0 0.011097903055160419 -0.002504582798154673 0 0.011118201652052932 -0.002362008818387093 0 0.010852907835264462 -0.0024190473143322513 0 0.011097903055160419 -0.002504582798154673 0 0.011051655555327923 -0.0021788824254926932 0 0.011118201652052932 -0.002362008818387093 0 0.010852907835264462 -0.0024190473143322513 0 0.010328243610002417 -0.0023968092457108191 0 0.010675419452235621 -0.0025342783668366735 0 0.01035423130103714 -0.0025885869982169392 0 0.010328243610002417 -0.0023968092457108191 0 0.010477722750152414 -0.002262728529732617 0 0.010675419452235621 -0.0025342783668366735 0 0.010852907835264462 -0.0024190473143322513 0 0.011097903055160419 -0.002504582798154673 0 0.011016696630699976 -0.0027057982882336311 0 0.010660348278504201 -0.0023227383114368286 0 0.010848180307176897 -0.0026376719694964105 0 0.011097903055160419 -0.002504582798154673 0 0.011016696630699976 -0.0027057982882336311 0 0.011249829605282301 -0.002582740213536501 0 0.011230344793068909 -0.0024231296675202595 0 0.011097903055160419 -0.002504582798154673 0 0.011249829605282301 -0.002582740213536501 0 0.01116494392776405 -0.0025275337851598718 0 0.010874618267014555 -0.0024967133433559997 0 0.010675419452235621 -0.0025342783668366735 0 0.010718693180863091 -0.0028289572238274696 0 0.011007171504116771 -0.0029951751249935781 0 0.010848180307176897 -0.0026376719694964105 0 0.011005451971372116 -0.0029842483474249969 0 0.011119906830294079 -0.0028479445789222997 0 0.011016696630699976 -0.0027057982882336311 0 0.011007171504116771 -0.0029951751249935781 0 0.011119906830294079 -0.0028479445789222997 0 0.011016696630699976 -0.0027057982882336311 0 0.011249829605282301 -0.002582740213536501 0 0.010631710644518066 -0.0026668812735441759 0 0.010874618267014555 -0.0024967133433559997 0 0.010675419452235621 -0.0025342783668366735 0 0.010546651811873684 -0.0027107403283836524 0 0.01035423130103714 -0.0025885869982169392 0 0.010675419452235621 -0.0025342783668366735 0 0.010546651811873684 -0.0027107403283836524 0 0.010718693180863091 -0.0028289572238274696 0 0.0098112948811277714 -0.0026994696662127208 0 0.0097228081887376812 -0.0023050012553663467 0 0.010718693180863091 -0.0028289572238274696 0 0.010971398244733012 -0.0030226966656676847 0 0.010434521675411994 -0.00291551204201342 0 0.010546651811873684 -0.0027107403283836524 0 0.010718693180863091 -0.0028289572238274696 0 0.010434521675411994 -0.00291551204201342 0 0.010631710644518066 -0.0026668812735441759 0 0.0097228081887376812 -0.0023050012553663467 0 0.010971398244733012 -0.0030226966656676847 0 0.010434521675411994 -0.00291551204201342 0 0.011008533138091638 -0.0032176179871265427 0 0.011119906830294079 -0.0028479445789222997 0 0.011007171504116771 -0.0029951751249935781 0 0.010959118180136472 -0.0031309324114375094 0 0.010050028704980306 -0.0023566207127250368 0 0.0098614346671732998 -0.0020631682121433409 0 0.010121721846489925 -0.001824392460719762 0 0.010718693180863091 -0.0028289572238274696 0 0.011007171504116771 -0.0029951751249935781 0 0.010971398244733012 -0.0030226966656676847 0 0.011007171504116771 -0.0029951751249935781 0 0.010971398244733012 -0.0030226966656676847 0 0.010959118180136472 -0.0031309324114375094 0 0.0099566858676527533 -0.0025500034373406697 0 0.0098039880972477182 -0.0024728537452473054 0 0.010089256568610682 -0.0025650455268268536 0 0.010165517802793742 -0.0024787838257208862 0 0.0099566858676527533 -0.0025500034373406697 0 0.01035423130103714 -0.0025885869982169392 0 0.0093805344453100053 -0.0021944347050161924 0 0.0096909418556338067 -0.0023453799152342554 0 0.0099400307421685444 -0.0025565737255714184 0 0.0098112948811277714 -0.0026994696662127208 0 0.0099566858676527533 -0.0025500034373406697 0 0.01035423130103714 -0.0025885869982169392 0 0.010434521675411994 -0.00291551204201342 0 0.0099566858676527533 -0.0025500034373406697 0 0.0092317991969508174 -0.0024298645886599605 0 0.0098039880972477182 -0.0024728537452473054 0 0.010546651811873684 -0.0027107403283836524 0 0.01035423130103714 -0.0025885869982169392 0 0.010434521675411994 -0.00291551204201342 0 0.0093805344453100053 -0.0021944347050161924 0 0.0088836857871074492 -0.0018176946022164201 0 0.0092317991969508174 -0.0024298645886599605 0 0.0098039880972477182 -0.0024728537452473054 0 0.0091892864576936864 -0.0019914661862627282 0 0.0089506605562465601 -0.0019225499902175154 0 0.0089426596307624097 -0.0016438341965219277 0 0.0085940365877194853 -0.0016415807901269924 0 0.0089506605562465601 -0.0019225499902175154 0 0.009137228391813532 -0.0018126885866308205 0 0.0089426596307624097 -0.0016438341965219277 0 0.0089506605562465601 -0.0019225499902175154 0 0.009137228391813532 -0.0018126885866308205 0 0.0092429355972328004 -0.0019486408936145838 0 0.009137228391813532 -0.0018126885866308205 0 0.0093477094291107565 -0.0018476124634544287 0 0.0092182030046983922 -0.0016618633676540762 0 0.0093477094291107565 -0.0018476124634544287 0 0.0094807363476560012 -0.0017363794145722347 0 0.0092182030046983922 -0.0016618633676540762 0 0.009137228391813532 -0.0018126885866308205 0 0.0093477094291107565 -0.0018476124634544287 0 0.0092429355972328004 -0.0019486408936145838 0 0.0089506605562465601 -0.0019225499902175154 0 0.0092429355972328004 -0.0019486408936145838 0 0.0093124043573944732 -0.0021440265953132391 0 0.0093477094291107565 -0.0018476124634544287 0 0.0092429355972328004 -0.0019486408936145838 0 0.0094531694381380094 -0.0020158648126803436 0 0.0092429355972328004 -0.0019486408936145838 0 0.0094531694381380094 -0.0020158648126803436 0 0.0093124043573944732 -0.0021440265953132391 0 0.0093477094291107565 -0.0018476124634544287 0 0.0094531694381380094 -0.0020158648126803436 0 0.0096101407954727221 -0.0019281378455447214 0 0.0094531694381380094 -0.0020158648126803436 0 0.0096101407954727221 -0.0019281378455447214 0 0.0096407453516902629 -0.0020823812204896104 0 0.0093477094291107565 -0.0018476124634544287 0 0.0094807363476560012 -0.0017363794145722347 0 0.0096101407954727221 -0.0019281378455447214 0 0.0094807363476560012 -0.0017363794145722347 0 0.0096622843325004371 -0.0017747942794179552 0 0.0095662631570421416 -0.0016186147347154478 0 0.0094807363476560012 -0.0017363794145722347 0 0.0096622843325004371 -0.0017747942794179552 0 0.0096101407954727221 -0.0019281378455447214 0 0.0096622843325004371 -0.0017747942794179552 0 0.0098186382109398743 -0.00195423595229542 0 0.0096101407954727221 -0.0019281378455447214 0 0.0096622843325004371 -0.0017747942794179552 0 0.0098186382109398743 -0.00195423595229542 0 0.0098145271223420063 -0.001674679430102148 0 0.0098186382109398743 -0.00195423595229542 0 0.0098145271223420063 -0.001674679430102148 0 0.009983753906860687 -0.0019235740362934521 0 0.0098186382109398743 -0.00195423595229542 0 0.0098531169132836677 -0.0022068553697059579 0 0.009983753906860687 -0.0019235740362934521 0 0.0098186382109398743 -0.00195423595229542 0 0.0096101407954727221 -0.0019281378455447214 0 0.0097509689538511843 -0.0020702425026511359 0 0.0096101407954727221 -0.0019281378455447214 0 0.0097509689538511843 -0.0020702425026511359 0 0.0096407453516902629 -0.0020823812204896104 0 0.0097509689538511843 -0.0020702425026511359 0 0.0097531296942338242 -0.0021748385016833803 0 0.0096407453516902629 -0.0020823812204896104 0 0.0097531296942338242 -0.0021748385016833803 0 0.0096407453516902629 -0.0020823812204896104 0 0.0097097810954839547 -0.0022011814628554393 0 0.0097509689538511843 -0.0020702425026511359 0 0.0097531296942338242 -0.0021748385016833803 0 0.0098531169132836677 -0.0022068553697059579 0 0.0098186382109398743 -0.00195423595229542 0 0.0097509689538511843 -0.0020702425026511359 0 0.0098531169132836677 -0.0022068553697059579 0 0.0099333426167678672 -0.0022328184060282411 0 0.0099821793948262939 -0.0021143028318656174 0 0.0098665180366372968 -0.0022222272206844874 0 0.0099333426167678672 -0.0022328184060282411 0 0.0099821793948262939 -0.0021143028318656174 0 0.010057850196584679 -0.0022350730780075143 0 0.0099821793948262939 -0.0021143028318656174 0 0.0098665180366372968 -0.0022222272206844874 0 0.009786427739206148 -0.0022347858901256485 0 0.0097531296942338242 -0.0021748385016833803 0 0.0098531169132836677 -0.0022068553697059579 0 0.009786427739206148 -0.0022347858901256485 0 0.0099204816200807542 -0.0021653791942193986 0 0.0097930932830762336 -0.0022276694422494266 0 0.0097531296942338242 -0.0021748385016833803 0 0.009786427739206148 -0.0022347858901256485 0 0.0097097810954839547 -0.0022011814628554393 0 0.0098406729351108325 -0.0022106268904100927 0 0.0098665180366372968 -0.0022222272206844874 0 0.009786427739206148 -0.0022347858901256485 0 0.0098406729351108325 -0.0022106268904100927 0 0.009786427739206148 -0.0022347858901256485 0 0.0098194288048802942 -0.0022268047354010983 0 0.0097515229932477188 -0.0022716011192708647 0 0.009960798866946733 -0.0022900816993113343 0 0.010089256568610682 -0.0025650455268268536 0 0.0098797527749849914 -0.0021979759572935001 0 0.0098194288048802942 -0.0022268047354010983 0 0.0098668480339345211 -0.0022332744607442769 0 0.0098194288048802942 -0.0022268047354010983 0 0.0097515229932477188 -0.0022716011192708647 0 0.0098668480339345211 -0.0022332744607442769 0 0.009786427739206148 -0.0022347858901256485 0 0.0098194288048802942 -0.0022268047354010983 0 0.0097515229932477188 -0.0022716011192708647 0 0.009786427739206148 -0.0022347858901256485 0 0.0097515229932477188 -0.0022716011192708647 0 0.0097097810954839547 -0.0022011814628554393 0 0.0099484248503891072 -0.0022104890271722904 0 0.0098668480339345211 -0.0022332744607442769 0 0.009960798866946733 -0.0022900816993113343 0 0.0099484248503891072 -0.0022104890271722904 0 0.0098797527749849914 -0.0021979759572935001 0 0.0098668480339345211 -0.0022332744607442769 0 0.0097515229932477188 -0.0022716011192708647 0 0.0098668480339345211 -0.0022332744607442769 0 0.009960798866946733 -0.0022900816993113343 0 0.0099484248503891072 -0.0022104890271722904 0 0.010034569937690153 -0.0022439784389118186 0 0.009960798866946733 -0.0022900816993113343 0 0.010105404588711172 -0.0021787682840109695 0 0.010112481302862375 -0.0022771419028821331 0 0.010034569937690153 -0.0022439784389118186 0 0.010112481302862375 -0.0022771419028821331 0 0.010034569937690153 -0.0022439784389118186 0 0.010071098580636975 -0.0023888592971670888 0 0.010034569937690153 -0.0022439784389118186 0 0.010071098580636975 -0.0023888592971670888 0 0.009960798866946733 -0.0022900816993113343 0 0.010071098580636975 -0.0023888592971670888 0 0.009960798866946733 -0.0022900816993113343 0 0.010089256568610682 -0.0025650455268268536 0 0.010084996447116605 -0.0024856406592776267 0 0.010071098580636975 -0.0023888592971670888 0 0.010089256568610682 -0.0025650455268268536 0 0.0097338768478533576 -0.0022760256040212506 0 0.0096909418556338067 -0.0023453799152342554 0 0.0094531694381380094 -0.0020158648126803436 0 0.0093124043573944732 -0.0021440265953132391 0 0.0095718160532027568 -0.0021435357153362792 0 0.0097515229932477188 -0.0022716011192708647 0 0.0095718160532027568 -0.0021435357153362792 0 0.0097097810954839547 -0.0022011814628554393 0 0.0097515229932477188 -0.0022716011192708647 0 0.0093124043573944732 -0.0021440265953132391 0 0.0095718160532027568 -0.0021435357153362792 0 0.0095718160532027568 -0.0021435357153362792 0 0.0096407453516902629 -0.0020823812204896104 0 0.0097097810954839547 -0.0022011814628554393 0 0.0094531694381380094 -0.0020158648126803436 0 0.0095718160532027568 -0.0021435357153362792 0 0.0096407453516902629 -0.0020823812204896104 0 0.010090782584315233 -0.00011860274169473714 0 0.010271795922795509 -0.000307045384054701 0 0.0096199571450807965 3.8701749310891873e-05 0 0.009310805433735924 -0.00023945340730978574 0 0.0087265136704620539 -1.8275472733697931e-05 0 0.010090782584315233 -0.00011860274169473714 0 0.0094056874213909927 -1.846474452221877e-07 0 0.010621102043622776 -4.8905250706491469e-07 0 0.010090782584315233 -0.00011860274169473714 0 0.0094056874213909927 -1.846474452221877e-07 0 0.0096199571450807965 3.8701749310891873e-05 0 0.0084116021469307061 -0.0003093852845885705 0 0.008053836104354558 -4.9855417316914413e-05 0 0.00776200495963561 0.00010093281241259202 0 0.0084116021469307061 -0.0003093852845885705 0 0.008618224451124085 -0.00032435939558180844 0 0.008053836104354558 -4.9855417316914413e-05 0 0.0084116021469307061 -0.0003093852845885705 0 0.0097565306764039999 -0.00029558227456705411 0 0.008618224451124085 -0.00032435939558180844 0 0.010271795922795509 -0.000307045384054701 0 0.010791578917442229 -0.00018439984923082872 0 0.0097565306764039999 -0.00029558227456705411 0 0.009310805433735924 -0.00023945340730978574 0 0.0096297080888666769 -0.00023665313808279384 0 0.010271795922795509 -0.000307045384054701 0 0.010621102043622776 -4.8905250706491469e-07 0 0.010791578917442229 -0.00018439984923082872 0 0.010090782584315233 -0.00011860274169473714 0 0.010271795922795509 -0.000307045384054701 0 0.010621102043622776 -4.8905250706491469e-07 0 0.010791578917442229 -0.00018439984923082872 0 0.011837677581823856 -9.7444201557568423e-07 0 0.010725600481441758 4.5414107491738583e-05 0 0.010621102043622776 -4.8905250706491469e-07 0 0.010791578917442229 -0.00018439984923082872 0 0.011837677581823856 -9.7444201557568423e-07 0 0.01152402742390817 0.00030159112729894139 0 0.011837677581823856 -9.7444201557568423e-07 0 0.010725600481441758 4.5414107491738583e-05 0 0.010563987082848609 0.0005966956529191293 0 0.010725600481441758 4.5414107491738583e-05 0 0.0097294810406469076 2.0684359826621482e-05 0 0.010725600481441758 4.5414107491738583e-05 0 0.0097565306764039999 -0.00029558227456705411 0 0.0097294810406469076 2.0684359826621482e-05 0 0.010791578917442229 -0.00018439984923082872 0 0.010725600481441758 4.5414107491738583e-05 0 0.0097565306764039999 -0.00029558227456705411 0 0.0097565306764039999 -0.00029558227456705411 0 0.0097294810406469076 2.0684359826621482e-05 0 0.0088683457181189928 -0.00034878231451902867 0 0.011870667150510928 -0.00047847642413164672 0 0.011314464935367703 -0.00096701531097549925 0 0.012336203605767943 0.00024477296288082323 0 0.011870667150510928 -0.00047847642413164672 0 0.013771888463084048 -0.00036475463676478674 0 0.01359177299360189 -0.00099892898158430738 0 0.013322141725623201 -0.00059455797902529487 0 0.013771888463084048 -0.00036475463676478674 0 0.014034002635927455 -0.00088971565754064239 0 0.01359177299360189 -0.00099892898158430738 0 0.014034002635927455 -0.00088971565754064239 0 0.01359177299360189 -0.00099892898158430738 0 0.013777287812488022 -0.0015314083976096197 0 0.01359177299360189 -0.00099892898158430738 0 0.013777287812488022 -0.0015314083976096197 0 0.013193198790947254 -0.0015530324971318303 0 0.013777287812488022 -0.0015314083976096197 0 0.013501551785188227 -0.0021834019110813147 0 0.013193198790947254 -0.0015530324971318303 0 0.0097565306764039999 -0.00029558227456705411 0 0.0088683457181189928 -0.00034878231451902867 0 0.008618224451124085 -0.00032435939558180844 0 0.008618224451124085 -0.00032435939558180844 0 0.0084373217193794686 -0.00029273719050248775 0 0.0081752209480970024 -0.00014153321382720852 0 0.008618224451124085 -0.00032435939558180844 0 0.0081752209480970024 -0.00014153321382720852 0 0.008053836104354558 -4.9855417316914413e-05 0 0.0088683457181189928 -0.00034878231451902867 0 0.008618224451124085 -0.00032435939558180844 0 0.0084373217193794686 -0.00029273719050248775 0 0.011314464935367703 -0.00096701531097549925 0 0.011054074597435739 -0.0012358850747040712 0 0.013501551785188227 -0.0021834019110813147 0 0.012944668693231888 -0.0021715465842906969 0 0.013193198790947254 -0.0015530324971318303 0 0.012944668693231888 -0.0021715465842906969 0 0.01263866000345866 -0.0017450250622009886 0 0.01238391053685412 -0.002099357920557288 0 0.012944668693231888 -0.0021715465842906969 0 0.01238391053685412 -0.002099357920557288 0 0.012653795801582875 -0.0026177260733431188 0 0.01263866000345866 -0.0017450250622009886 0 0.013193198790947254 -0.0015530324971318303 0 0.012707414269735507 -0.0012350434568968087 0 0.012944668693231888 -0.0021715465842906969 0 0.01263866000345866 -0.0017450250622009886 0 0.013193198790947254 -0.0015530324971318303 0 0.013193198790947254 -0.0015530324971318303 0 0.013149941387169808 -0.0010489330831981222 0 0.012707414269735507 -0.0012350434568968087 0 0.01359177299360189 -0.00099892898158430738 0 0.013193198790947254 -0.0015530324971318303 0 0.013149941387169808 -0.0010489330831981222 0 0.013149941387169808 -0.0010489330831981222 0 0.013322141725623201 -0.00059455797902529487 0 0.012863850077468592 -0.00067907247826525484 0 0.01359177299360189 -0.00099892898158430738 0 0.013149941387169808 -0.0010489330831981222 0 0.013322141725623201 -0.00059455797902529487 0 0.012863850077468592 -0.00067907247826525484 0 0.012707414269735507 -0.0012350434568968087 0 0.012300456689215727 -0.00089576283271928299 0 0.013149941387169808 -0.0010489330831981222 0 0.012863850077468592 -0.00067907247826525484 0 0.012707414269735507 -0.0012350434568968087 0 0.012707414269735507 -0.0012350434568968087 0 0.012300456689215727 -0.00089576283271928299 0 0.0121078045932913 -0.001588171329100427 0 0.012615721797613094 -0.00043880585199934565 0 0.012863850077468592 -0.00067907247826525484 0 0.012300456689215727 -0.00089576283271928299 0 0.011844594757725877 -0.00027382360241437617 0 0.011528775574571251 -0.00090225537006566846 0 0.012300456689215727 -0.00089576283271928299 0 0.015246806884398108 0.00024168382885800396 0 0.011326430275510004 -0.00074819646130976037 0 0.012300456689215727 -0.00089576283271928299 0 0.011659413294492714 -0.001371758067474454 0 0.0121078045932913 -0.001588171329100427 0 0.011528775574571251 -0.00090225537006566846 0 0.012300456689215727 -0.00089576283271928299 0 0.011659413294492714 -0.001371758067474454 0 0.011429373967792995 -0.0018133765651224486 0 0.0121078045932913 -0.001588171329100427 0 0.011834643236026446 -0.0020154842422583949 0 0.011429373967792995 -0.0018133765651224486 0 0.011659413294492714 -0.001371758067474454 0 0.0121078045932913 -0.001588171329100427 0 0.01263866000345866 -0.0017450250622009886 0 0.0121078045932913 -0.001588171329100427 0 0.01238391053685412 -0.002099357920557288 0 0.01263866000345866 -0.0017450250622009886 0 0.012707414269735507 -0.0012350434568968087 0 0.0121078045932913 -0.001588171329100427 0 0.01238391053685412 -0.002099357920557288 0 0.011834643236026446 -0.0020154842422583949 0 0.012044022550083296 -0.0024383409882910872 0 0.0121078045932913 -0.001588171329100427 0 0.01238391053685412 -0.002099357920557288 0 0.011834643236026446 -0.0020154842422583949 0 0.011368198894084289 -0.0022523297006281163 0 0.011539966231004813 -0.002344497290356495 0 0.011324634893048963 -0.0022221386656317925 0 0.011834643236026446 -0.0020154842422583949 0 0.012044022550083296 -0.0024383409882910872 0 0.011230344793068909 -0.0024231296675202595 0 0.011291172782295076 -0.0023080887498265075 0 0.01129138793983803 -0.0025460354053327204 0 0.011259835391538235 -0.0022059826764268273 0 0.011291172782295076 -0.0023080887498265075 0 0.011375616231135441 -0.002074014472521615 0 0.011324634893048963 -0.0022221386656317925 0 0.011291172782295076 -0.0023080887498265075 0 0.011229512475843072 -0.002345957907869988 0 0.011259835391538235 -0.0022059826764268273 0 0.011229512475843072 -0.002345957907869988 0 0.011099888984148161 -0.0020814964019401439 0 0.011345783923214692 -0.0022223861963100579 0 0.010874618267014555 -0.0024967133433559997 0 0.011259835391538235 -0.0022059826764268273 0 0.011291172782295076 -0.0023080887498265075 0 0.011229512475843072 -0.002345957907869988 0 0.011229512475843072 -0.002345957907869988 0 0.011099888984148161 -0.0020814964019401439 0 0.010843222615837823 -0.0022379811169558075 0 0.01238391053685412 -0.002099357920557288 0 0.012044022550083296 -0.0024383409882910872 0 0.012653795801582875 -0.0026177260733431188 0 0.011539966231004813 -0.002344497290356495 0 0.012102826672659141 -0.0026058298106611654 0 0.011099888984148161 -0.0020814964019401439 0 0.010954129462381926 -0.0017898682528690933 0 0.010782194791190955 -0.0019792277840188621 0 0.011259835391538235 -0.0022059826764268273 0 0.011099888984148161 -0.0020814964019401439 0 0.011375616231135441 -0.002074014472521615 0 0.011099888984148161 -0.0020814964019401439 0 0.011375616231135441 -0.002074014472521615 0 0.011231630965504462 -0.0017580709165416425 0 0.010050028704980306 -0.0023566207127250368 0 0.0099873650874038877 -0.0028679720680833075 0 0.0097755057876064595 -0.0024561685626848535 0 0.010874618267014555 -0.0024967133433559997 0 0.010468954531069984 -0.0020710549943463905 0 0.010468954531069984 -0.0020710549943463905 0 0.010438591135819528 -0.0018245780603869423 0 0.0097755057876064595 -0.0024561685626848535 0 0.0098614346671732998 -0.0020631682121433409 0 0.0095533259303390468 -0.0020305320881692421 0 0.010050028704980306 -0.0023566207127250368 0 0.0097755057876064595 -0.0024561685626848535 0 0.0098614346671732998 -0.0020631682121433409 0 0.011231630965504462 -0.0017580709165416425 0 0.011068635834377167 -0.0014437028385608642 0 0.010954129462381926 -0.0017898682528690933 0 0.011099888984148161 -0.0020814964019401439 0 0.011231630965504462 -0.0017580709165416425 0 0.010954129462381926 -0.0017898682528690933 0 0.010954129462381926 -0.0017898682528690933 0 0.0106433453262243 -0.0016823857754215067 0 0.010782194791190955 -0.0019792277840188621 0 0.0086081506900061201 -0.0007821977766194146 0 0.0085873979610991361 -0.00072372617499638094 0 0.0086530694496565769 -0.00064755691527929678 0 0.011068635834377167 -0.0014437028385608642 0 0.010954129462381926 -0.0017898682528690933 0 0.0106433453262243 -0.0016823857754215067 0 0.009674828438900572 -0.0013390707482804002 0 0.008503856776088994 -0.00056531662731519963 0 0.011068635834377167 -0.0014437028385608642 0 0.0106433453262243 -0.0016823857754215067 0 0.010791222061440784 -0.0012627633679619982 0 0.0063799300132556056 -0.00016923075134164396 0 0.0062970010290209827 -9.9336413228750777e-05 0 0.0062971891038108799 -0.00016005367679036277 0 0.0086081506900061201 -0.0007821977766194146 0 0.0085873979610991361 -0.00072372617499638094 0 0.0085127956159329176 -0.00079983696584752018 0 0.0063799300132556056 -0.00016923075134164396 0 0.0062971891038108799 -0.00016005367679036277 0 0.0064033463467458142 -4.8902917594072557e-05 0 0.0074034921693110906 -0.00047112519429312041 0 0.0074335294995189613 -0.00044181305646746888 0 0.0086081506900061201 -0.0007821977766194146 0 0.0085591754449668433 -0.00093048328923883564 0 0.0085127956159329176 -0.00079983696584752018 0 0.009674828438900572 -0.0013390707482804002 0 0.010263725162254395 -0.0013102449285960452 0 0.0106433453262243 -0.0016823857754215067 0 0.010482551866488908 -0.0021014534197210007 0 0.010782194791190955 -0.0019792277840188621 0 0.011099888984148161 -0.0020814964019401439 0 0.010782194791190955 -0.0019792277840188621 0 0.010843222615837823 -0.0022379811169558075 0 0.010482551866488908 -0.0021014534197210007 0 0.010782194791190955 -0.0019792277840188621 0 0.010843222615837823 -0.0022379811169558075 0 0.010263725162254395 -0.0013102449285960452 0 0.012102826672659141 -0.0026058298106611654 0 0.012944668693231888 -0.0021715465842906969 0 0.013222106001268214 -0.0028154182007663559 0 0.012653795801582875 -0.0026177260733431188 0 0.013501551785188227 -0.0021834019110813147 0 0.012944668693231888 -0.0021715465842906969 0 0.013222106001268214 -0.0028154182007663559 0 0.011054074597435739 -0.0012358850747040712 0 0.010263725162254395 -0.0013102449285960452 0 0.0084373217193794686 -0.00029273719050248775 0 0.0081272188018588244 -3.5061386604701122e-05 0 0.0081752209480970024 -0.00014153321382720852 0 0.0084373217193794686 -0.00029273719050248775 0 0.0085259609277839876 8.1844239561381079e-05 0 0.0081272188018588244 -3.5061386604701122e-05 0 0.0081752209480970024 -0.00014153321382720852 0 0.0078422736299052481 6.3579120984427968e-06 0 0.008053836104354558 -4.9855417316914413e-05 0 0.0081752209480970024 -0.00014153321382720852 0 0.0078422736299052481 6.3579120984427968e-06 0 0.0078316565876148884 2.2476327224885734e-05 0 0.0081272188018588244 -3.5061386604701122e-05 0 0.0081752209480970024 -0.00014153321382720852 0 0.0078316565876148884 2.2476327224885734e-05 0 0.0081272188018588244 -3.5061386604701122e-05 0 0.0078316565876148884 2.2476327224885734e-05 0 0.007764374367384975 0.00014449977009960938 0 0.0078316565876148884 2.2476327224885734e-05 0 0.007764374367384975 0.00014449977009960938 0 0.0075079273504522247 0.00014868352122136854 0 0.0078422736299052481 6.3579120984427968e-06 0 0.0078316565876148884 2.2476327224885734e-05 0 0.0075588629174281902 0.0001057945610343817 0 0.0078316565876148884 2.2476327224885734e-05 0 0.0075079273504522247 0.00014868352122136854 0 0.0075588629174281902 0.0001057945610343817 0 0.0073064634360945971 0.00016422483293902584 0 0.0071999636144936896 0.00025748363604113 0 0.0070127616453761581 8.3633064942746781e-05 0 0.0075588629174281902 0.0001057945610343817 0 0.0073064634360945971 0.00016422483293902584 0 0.0074288705510761211 0.00011243259161675331 0 0.0075079273504522247 0.00014868352122136854 0 0.0073064634360945971 0.00016422483293902584 0 0.0071999636144936896 0.00025748363604113 0 0.0075079273504522247 0.00014868352122136854 0 0.0075588629174281902 0.0001057945610343817 0 0.0073064634360945971 0.00016422483293902584 0 0.007764374367384975 0.00014449977009960938 0 0.0071999636144936896 0.00025748363604113 0 0.0078758992195634338 0.00029561326067928151 0 0.0076633705274343376 6.9049479909835025e-05 0 0.0074768797036518821 -0.00012256670456878052 0 0.007764374367384975 0.00014449977009960938 0 0.0075079273504522247 0.00014868352122136854 0 0.0071999636144936896 0.00025748363604113 0 0.0072401888755475067 0.00010602996961433641 0 0.0074768797036518821 -0.00012256670456878052 0 0.0085259609277839876 8.1844239561381079e-05 0 0.0081272188018588244 -3.5061386604701122e-05 0 0.007966052799989869 0.00027768013269288076 0 0.0085591754449668433 -0.00093048328923883564 0 0.0084301838797060189 -0.00088324266195497121 0 0.0085127956159329176 -0.00079983696584752018 0 0.010263725162254395 -0.0013102449285960452 0 0.0074768797036518821 -0.00012256670456878052 0 0.0081272188018588244 -3.5061386604701122e-05 0 0.007764374367384975 0.00014449977009960938 0 0.007966052799989869 0.00027768013269288076 0 0.0062970010290209827 -9.9336413228750777e-05 0 0.0063722026941068956 -0.0001776598654045721 0 0.0066799668757151244 -1.9293839152881713e-05 0 0.0067115117145940609 0.00037305426229432287 0 0.0062970010290209827 -9.9336413228750777e-05 0 0.0066799668757151244 -1.9293839152881713e-05 0 0.0074768797036518821 -0.00012256670456878052 0 0.0074335294995189613 -0.00044181305646746888 0 0.0062970010290209827 -9.9336413228750777e-05 0 0.0063722026941068956 -0.0001776598654045721 0 0.0062971891038108799 -0.00016005367679036277 0 0.0063722026941068956 -0.0001776598654045721 0 0.0062971891038108799 -0.00016005367679036277 0 0.0061958721940707879 -9.4164061260153676e-05 0 0.0063722026941068956 -0.0001776598654045721 0 0.0060828808171751762 -0.00014040658361496873 0 0.0061958721940707879 -9.4164061260153676e-05 0 0.0063722026941068956 -0.0001776598654045721 0 0.0066802715454808382 -7.2612837176083342e-05 0 0.0060828808171751762 -0.00014040658361496873 0 0.0066802715454808382 -7.2612837176083342e-05 0 0.0066799668757151244 -1.9293839152881713e-05 0 0.0070127616453761581 8.3633064942746781e-05 0 0.0063722026941068956 -0.0001776598654045721 0 0.0066802715454808382 -7.2612837176083342e-05 0 0.0066799668757151244 -1.9293839152881713e-05 0 0.0071999636144936896 0.00025748363604113 0 0.0066799668757151244 -1.9293839152881713e-05 0 0.0070127616453761581 8.3633064942746781e-05 0 0.0071999636144936896 0.00025748363604113 0 0.0067115117145940609 0.00037305426229432287 0 0.0066799668757151244 -1.9293839152881713e-05 0 0.0066802715454808382 -7.2612837176083342e-05 0 0.0070127616453761581 8.3633064942746781e-05 0 0.0071517150728593404 7.7198589201390628e-05 0 0.0073064634360945971 0.00016422483293902584 0 0.0070127616453761581 8.3633064942746781e-05 0 0.0071517150728593404 7.7198589201390628e-05 0 0.0066802715454808382 -7.2612837176083342e-05 0 0.0071517150728593404 7.7198589201390628e-05 0 0.0070665336352433153 -3.1721968953021961e-05 0 0.0066802715454808382 -7.2612837176083342e-05 0 0.0070665336352433153 -3.1721968953021961e-05 0 0.0063834472579226663 -7.3253070127107258e-05 0 0.0071517150728593404 7.7198589201390628e-05 0 0.0070665336352433153 -3.1721968953021961e-05 0 0.0074126545501120413 7.843796500830194e-05 0 0.0066802715454808382 -7.2612837176083342e-05 0 0.0063834472579226663 -7.3253070127107258e-05 0 0.0060828808171751762 -0.00014040658361496873 0 0.0070665336352433153 -3.1721968953021961e-05 0 0.0063834472579226663 -7.3253070127107258e-05 0 0.0067680907529185565 -3.9283455302906329e-07 0 0.0063834472579226663 -7.3253070127107258e-05 0 0.0067680907529185565 -3.9283455302906329e-07 0 0.0054920928202816677 -1.8754647112158011e-05 0 0.0070665336352433153 -3.1721968953021961e-05 0 0.0067680907529185565 -3.9283455302906329e-07 0 0.0081865434701601236 5.47373406928016e-07 0 0.0070665336352433153 -3.1721968953021961e-05 0 0.0081865434701601236 5.47373406928016e-07 0 0.0074126545501120413 7.843796500830194e-05 0 0.0081865434701601236 5.47373406928016e-07 0 0.0074126545501120413 7.843796500830194e-05 0 0.007718274879952248 0.00011339668935255774 0 0.0071517150728593404 7.7198589201390628e-05 0 0.0074126545501120413 7.843796500830194e-05 0 0.0074288705510761211 0.00011243259161675331 0 0.0073064634360945971 0.00016422483293902584 0 0.0071517150728593404 7.7198589201390628e-05 0 0.0074288705510761211 0.00011243259161675331 0 0.0075588629174281902 0.0001057945610343817 0 0.0074288705510761211 0.00011243259161675331 0 0.0076451238621430637 9.4228070178170166e-05 0 0.0074126545501120413 7.843796500830194e-05 0 0.0074288705510761211 0.00011243259161675331 0 0.0076451238621430637 9.4228070178170166e-05 0 0.0078422736299052481 6.3579120984427968e-06 0 0.0075588629174281902 0.0001057945610343817 0 0.0076451238621430637 9.4228070178170166e-05 0 0.0074126545501120413 7.843796500830194e-05 0 0.0076451238621430637 9.4228070178170166e-05 0 0.007718274879952248 0.00011339668935255774 0 0.0076451238621430637 9.4228070178170166e-05 0 0.0077954720219006179 8.7499134178299002e-05 0 0.007718274879952248 0.00011339668935255774 0 0.0077954720219006179 8.7499134178299002e-05 0 0.008053836104354558 -4.9855417316914413e-05 0 0.00776200495963561 0.00010093281241259202 0 0.0078422736299052481 6.3579120984427968e-06 0 0.0076451238621430637 9.4228070178170166e-05 0 0.008053836104354558 -4.9855417316914413e-05 0 0.0076451238621430637 9.4228070178170166e-05 0 0.0077954720219006179 8.7499134178299002e-05 0 0.008053836104354558 -4.9855417316914413e-05 0 0.0094056874213909927 -1.846474452221877e-07 0 0.0081898142246633401 4.3640727578125479e-07 0 0.0096199571450807965 3.8701749310891873e-05 0 0.0081894465625975636 -1.8594571513556343e-07 0 0.0087265136704620539 -1.8275472733697931e-05 0 0.0081865434701601236 5.47373406928016e-07 0 0.00776200495963561 0.00010093281241259202 0 0.007718274879952248 0.00011339668935255774 0 0.0077954720219006179 8.7499134178299002e-05 0 0.00776200495963561 0.00010093281241259202 0 0.007718274879952248 0.00011339668935255774 0 0.0034575605337970514 -7.0339199763986427e-06 0 0.0039249243462707775 1.3362382448759971e-07 0 0.0027790707346286745 -4.4787146333877107e-05 0 0.0034575605337970514 -7.0339199763986427e-06 0 0.0031574687841421931 -6.6663938013977522e-05 0 0.0025668881739658094 -0.00015252043425395027 0 0.0034575605337970514 -7.0339199763986427e-06 0 0.0025668881739658094 -0.00015252043425395027 0 0.0027790707346286745 -4.4787146333877107e-05 0 0.0034575605337970514 -7.0339199763986427e-06 0 0.0043963211400675252 0.00036489462864473197 0 0.0039249243462707775 1.3362382448759971e-07 0 0.0034575605337970514 -7.0339199763986427e-06 0 0.0043963211400675252 0.00036489462864473197 0 0.0031574687841421931 -6.6663938013977522e-05 0 0.0043963211400675252 0.00036489462864473197 0 0.0039249243462707775 1.3362382448759971e-07 0 0.0053458471864308958 1.8862535307599312e-07 0 0.0067680907529185565 -3.9283455302906329e-07 0 0.0053458471864308958 1.8862535307599312e-07 0 0.0054920928202816677 -1.8754647112158011e-05 0 0.0063834472579226663 -7.3253070127107258e-05 0 0.0054920928202816677 -1.8754647112158011e-05 0 0.0060828808171751762 -0.00014040658361496873 0 0.0043963211400675252 0.00036489462864473197 0 0.0053458471864308958 1.8862535307599312e-07 0 0.0054920928202816677 -1.8754647112158011e-05 0 0.0043963211400675252 0.00036489462864473197 0 0.0054920928202816677 -1.8754647112158011e-05 0 0.0055549674981126406 -9.8155603436920991e-06 0 0.0043963211400675252 0.00036489462864473197 0 0.0055549674981126406 -9.8155603436920991e-06 0 0.0059558365127596428 0.00040420066101928321 0 0.0054920928202816677 -1.8754647112158011e-05 0 0.0055549674981126406 -9.8155603436920991e-06 0 0.0060828808171751762 -0.00014040658361496873 0 0.0055549674981126406 -9.8155603436920991e-06 0 0.0060828808171751762 -0.00014040658361496873 0 0.0061958721940707879 -9.4164061260153676e-05 0 0.0061958721940707879 -9.4164061260153676e-05 0 0.0059558365127596428 0.00040420066101928321 0 0.0063693027958629045 0.00025837881051375217 0 0.0044348340856243638 0.00044477310620030981 0 0.0041692092359152146 0.00046212340433230765 0 0.0055549674981126406 -9.8155603436920991e-06 0 0.0061958721940707879 -9.4164061260153676e-05 0 0.0059558365127596428 0.00040420066101928321 0 0.0028293561629612004 0.00056621049900636307 0 0.0024614798090083346 0.00024279935960875372 0 0.0023225267287951901 0.00049833703942368476 0 0.0028293561629612004 0.00056621049900636307 0 0.0025179153883644763 -7.5092825027931002e-05 0 0.0024614798090083346 0.00024279935960875372 0 0.0028293561629612004 0.00056621049900636307 0 0.0031574687841421931 -6.6663938013977522e-05 0 0.0025179153883644763 -7.5092825027931002e-05 0 0.0043963211400675252 0.00036489462864473197 0 0.0028293561629612004 0.00056621049900636307 0 0.0031574687841421931 -6.6663938013977522e-05 0 0.0044010815523316069 0.00039837228117606678 0 0.0044348340856243638 0.00044477310620030981 0 0.0031574687841421931 -6.6663938013977522e-05 0 0.0023993705096857438 -0.00020464945593130711 0 0.0025668881739658094 -0.00015252043425395027 0 0.0031574687841421931 -6.6663938013977522e-05 0 0.0025179153883644763 -7.5092825027931002e-05 0 0.0023993705096857438 -0.00020464945593130711 0 0.0025179153883644763 -7.5092825027931002e-05 0 0.002200825171575862 2.2860725530898318e-05 0 0.0023731701940849794 -0.00022328547317340938 0 0.0025179153883644763 -7.5092825027931002e-05 0 0.002200825171575862 2.2860725530898318e-05 0 0.0024614798090083346 0.00024279935960875372 0 0.0013708847490608461 -0.00050840110373120441 0 0.0018406857971688514 -0.00073677135730487731 0 0.0018054511128536128 7.0236416680524689e-05 0 0.0018406857971688514 -0.00073677135730487731 0 0.0017528771680174644 -0.0012430995924448071 0 0.0019809946683620955 -0.001355605841903896 0 0.0016312325210364204 -0.00021331998735524309 0 0.0032192298794252163 -0.00012535942845661 0 0.002200825171575862 2.2860725530898318e-05 0 0.0023225267287951901 0.00049833703942368476 0 0.0020307574053908145 0.00042364550541086914 0 0.0013708847490608461 -0.00050840110373120441 0 0.0018406857971688514 -0.00073677135730487731 0 0.0017528771680174644 -0.0012430995924448071 0 0.002200825171575862 2.2860725530898318e-05 0 0.0024614798090083346 0.00024279935960875372 0 0.0023225267287951901 0.00049833703942368476 0 0.0063693027958629045 0.00025837881051375217 0 0.0064033463467458142 -4.8902917594072557e-05 0 0.0065351384208040906 0.00010278391448411201 0 0.0061958721940707879 -9.4164061260153676e-05 0 0.0063693027958629045 0.00025837881051375217 0 0.0064033463467458142 -4.8902917594072557e-05 0 0.0062971891038108799 -0.00016005367679036277 0 0.0061958721940707879 -9.4164061260153676e-05 0 0.0064033463467458142 -4.8902917594072557e-05 0 0.0063799300132556056 -0.00016923075134164396 0 0.0064033463467458142 -4.8902917594072557e-05 0 0.0065887799351526223 -2.7353500738681152e-05 0 0.0074034921693110906 -0.00047112519429312041 0 0.008503856776088994 -0.00056531662731519963 0 0.0064033463467458142 -4.8902917594072557e-05 0 0.0065887799351526223 -2.7353500738681152e-05 0 0.0065351384208040906 0.00010278391448411201 0 0.008503856776088994 -0.00056531662731519963 0 0.0064808986837223883 -0.00071784103196348176 0 0.008503856776088994 -0.00056531662731519963 0 0.0086697108844119835 -0.001323956738858868 0 0.0063693027958629045 0.00025837881051375217 0 0.0065351384208040906 0.00010278391448411201 0 0.0066371773454203878 0.00018340721076656231 0 0.0065887799351526223 -2.7353500738681152e-05 0 0.0065351384208040906 0.00010278391448411201 0 0.0066570943073573311 0.00014560856288066651 0 0.0065351384208040906 0.00010278391448411201 0 0.0066371773454203878 0.00018340721076656231 0 0.0066570943073573311 0.00014560856288066651 0 0.0023225267287951901 0.00049833703942368476 0 0.0019959429170699171 0.00050887693869835463 0 0.0020307574053908145 0.00042364550541086914 0 0.0041692092359152146 0.00046212340433230765 0 0.0051365694763235775 -0.00051374324961667747 0 0.0079459935063119925 -0.00036845183036425403 0 0.0075853733110712446 -0.0012395540791173569 0 0.0074358463311388597 -0.00092045191533012374 0 0.0051365694763235775 -0.00051374324961667747 0 0.0064808986837223883 -0.00071784103196348176 0 0.0046212892110850503 -0.0010626493667090821 0 0.0042605381504589104 -0.00031468395498240686 0 0.0050839964189973103 -0.00073223047670142166 0 0.0051365694763235775 -0.00051374324961667747 0 0.0032192298794252163 -0.00012535942845661 0 0.0032192298794252163 -0.00012535942845661 0 0.0050381677172884843 -0.0013642807430502937 0 0.0068666455802664584 -0.0018078663169061435 0 0.0070339308206786005 -0.001917934015051737 0 0.0073763422130890604 -0.0015545279334161235 0 0.0058944461554486368 -0.00088786864964193345 0 0.0077826581943700448 -0.0016297896815257533 0 0.0054566029477975701 -0.0014550147793719931 0 0.0057208121314894882 -0.00080059986051837318 0 0.0070098340349614057 -0.0016606019573159343 0 0.0050381677172884843 -0.0013642807430502937 0 0.0077826581943700448 -0.0016297896815257533 0 0.0051365694763235775 -0.00051374324961667747 0 0.0058944461554486368 -0.00088786864964193345 0 0.0046212892110850503 -0.0010626493667090821 0 0.0049341035931624406 -0.0011039291258466181 0 0.0050839964189973103 -0.00073223047670142166 0 0.0058944461554486368 -0.00088786864964193345 0 0.0050381677172884843 -0.0013642807430502937 0 0.0077826581943700448 -0.0016297896815257533 0 0.0076384122414224105 -0.0015792873474318209 0 0.0077826581943700448 -0.0016297896815257533 0 0.0093196623049651029 -0.001848530047155002 0 0.0094583599939233858 -0.0014400569713483879 0 0.0095623326515560624 -0.0016835378770004713 0 0.009807106438433846 -0.0016353880800565486 0 0.0076258617315226604 -0.0014681376949423049 0 0.0074624098198709686 -0.001448201882875595 0 0.0076521817364048105 -0.0014052270884244377 0 0.0094583599939233858 -0.0014400569713483879 0 0.0093251102360397305 -0.0015882665300011431 0 0.0095623326515560624 -0.0016835378770004713 0 0.0074624098198709686 -0.001448201882875595 0 0.0076521817364048105 -0.0014052270884244377 0 0.0076023125188704023 -0.0012949041653673595 0 0.0058944461554486368 -0.00088786864964193345 0 0.0064808986837223883 -0.00071784103196348176 0 0.0063092408608634697 -0.0010281255845871052 0 0.0059988749411542574 -0.00098760877685908168 0 0.006133548183054666 -0.00065624116600958597 0 0.0077826581943700448 -0.0016297896815257533 0 0.0086697108844119835 -0.001323956738858868 0 0.0064808986837223883 -0.00071784103196348176 0 0.0086697108844119835 -0.001323956738858868 0 0.011068635834377167 -0.0014437028385608642 0 0.010791222061440784 -0.0012627633679619982 0 0.010901604767278751 -0.0011342007466308666 0 0.0095533259303390468 -0.0020305320881692421 0 0.0093251102360397305 -0.0015882665300011431 0 0.0095623326515560624 -0.0016835378770004713 0 0.010438591135819528 -0.0018245780603869423 0 0.0086697108844119835 -0.001323956738858868 0 0.0098614346671732998 -0.0020631682121433409 0 0.0095533259303390468 -0.0020305320881692421 0 0.009807106438433846 -0.0016353880800565486 0 0.0098614346671732998 -0.0020631682121433409 0 0.009807106438433846 -0.0016353880800565486 0 0.010121721846489925 -0.001824392460719762 0 0.0095533259303390468 -0.0020305320881692421 0 0.0095623326515560624 -0.0016835378770004713 0 0.009807106438433846 -0.0016353880800565486 0 0.0093196623049651029 -0.001848530047155002 0 0.0097228081887376812 -0.0023050012553663467 0 0.0077959559882357357 -0.0017201131212987834 0 0.0080016501900420506 -0.0014950924097898129 0 0.0082743501403740507 -0.0017833124629801926 0 0.0080525954018524012 -0.0015883336036164868 0 0.0086631020622079113 -0.0019296093365426432 0 0.0091842154258432295 -0.0017387226440313099 0 0.0077826581943700448 -0.0016297896815257533 0 0.0086835167539041705 -0.0018252519908905892 0 0.0073763422130890604 -0.0015545279334161235 0 0.0071570580818359208 -0.0011218852068353763 0 0.00771131517244876 -0.0011960202766309433 0 0.0080016501900420506 -0.0014950924097898129 0 0.0082743501403740507 -0.0017833124629801926 0 0.0082019868364471716 -0.0012744368211800232 0 0.0076384122414224105 -0.0015792873474318209 0 0.007977628943635488 -0.0011732865289432964 0 0.0018406857971688514 -0.00073677135730487731 0 0.0019809946683620955 -0.001355605841903896 0 0.0023008336169625379 -0.00052051764088067521 0 0.0068666455802664584 -0.0018078663169061435 0 0.0073763422130890604 -0.0015545279334161235 0 0.0071570580818359208 -0.0011218852068353763 0 0.0050381677172884843 -0.0013642807430502937 0 0.0046068908546915708 -0.00089846132798917025 0 0.0018406857971688514 -0.00073677135730487731 0 0.0023008336169625379 -0.00052051764088067521 0 0.0018054511128536128 7.0236416680524689e-05 0 0.0075617676957716691 -0.00045604297184153935 0 0.007977628943635488 -0.0011732865289432964 0 0.0074927742224732063 -0.00081350003591438528 0 0.0076217601116171175 -0.00043036413207890063 0 0.00771131517244876 -0.0011960202766309433 0 0.0071570580818359208 -0.0011218852068353763 0 0.0074927742224732063 -0.00081350003591438528 0 0.00771131517244876 -0.0011960202766309433 0 0.0046068908546915708 -0.00089846132798917025 0 0.0053412227805477094 -5.7551950137029789e-05 0 0.0076217601116171175 -0.00043036413207890063 0 0.0077446336301761993 -0.001150182223234738 0 0.0078041426411831162 -0.0006728462742278512 0 0.0071570580818359208 -0.0011218852068353763 0 0.0074927742224732063 -0.00081350003591438528 0 0.0074770613752605641 -0.00044703250224824103 0 0.0074927742224732063 -0.00081350003591438528 0 0.0074770613752605641 -0.00044703250224824103 0 0.0076217601116171175 -0.00043036413207890063 0 0.0026336436717687649 0.00031987009746725008 0 0.0021156772722280611 0.00064036192482203155 0 0.0018054511128536128 7.0236416680524689e-05 0 0.0023008336169625379 -0.00052051764088067521 0 0.0026336436717687649 0.00031987009746725008 0 0.0018054511128536128 7.0236416680524689e-05 0 0.0021156772722280611 0.00064036192482203155 0 0.0024829489969703947 0.00087335550976627078 0 0.0020893606438347938 0.0012524783449606601 0 0.0021156772722280611 0.00064036192482203155 0 0.0020893606438347938 0.0012524783449606601 0 0.0015676616465270545 0.00070053938004912446 0 0.0026336436717687649 0.00031987009746725008 0 0.0021156772722280611 0.00064036192482203155 0 0.0024829489969703947 0.00087335550976627078 0 0.0074770613752605641 -0.00044703250224824103 0 0.0078345852417133297 -0.00019499512797366332 0 0.0077475777406159994 5.7496900108139885e-05 0 0.0026336436717687649 0.00031987009746725008 0 0.0024829489969703947 0.00087335550976627078 0 0.0029813109432343123 0.0011790591200235201 0 0.0053412227805477094 -5.7551950137029789e-05 0 0.0031598952527786797 0.0010297015131693231 0 0.0074770613752605641 -0.00044703250224824103 0 0.0076217601116171175 -0.00043036413207890063 0 0.0078345852417133297 -0.00019499512797366332 0 -0.0013295448455425761 0.0012231190426945739 0 -0.00037939457992544623 0.00028442306061999092 0 0.0013573085081843622 0.0013229376324520729 0 0.0031598952527786797 0.0010297015131693231 0 0.0011262037171473492 0.0013147342617255582 0 0.0011493702386480224 0.0013332828593385633 0 0.0010909560820088588 0.0013321428745080711 0 0.0024829489969703947 0.00087335550976627078 0 0.0020893606438347938 0.0012524783449606601 0 0.0029813109432343123 0.0011790591200235201 0 0.0011262037171473492 0.0013147342617255582 0 0.0010801157412133858 0.0013155924781142389 0 0.0010909560820088588 0.0013321428745080711 0 -0.003843494585221948 0.0010153901242639998 0 -0.0037898474786147544 0.0010456962150785969 0 -0.0037215113924220153 0.00094283227471312725 0 -0.0043267090755235074 0.00090089693443247962 0 -0.0022385732189162794 0.0012586020711922523 0 -0.0013295448455425761 0.0012231190426945739 0 -0.0022385732189162794 0.0012586020711922523 0 -0.003843494585221948 0.0010153901242639998 0 -0.0037898474786147544 0.0010456962150785969 0 -0.0035810169358347897 0.001024716781489724 0 -0.003843494585221948 0.0010153901242639998 0 -0.003867012860143319 0.00097042466136187488 0 -0.0035810169358347897 0.001024716781489724 0 -0.003540546718829279 0.00086419629838835506 0 -0.003867012860143319 0.00097042466136187488 0 -0.0031794240724410797 0.001265955273500126 0 0.0011262037171473492 0.0013147342617255582 0 0.0011493702386480224 0.0013332828593385633 0 0.0011692116701354435 0.001334674056768835 0 0.0013573085081843622 0.0013229376324520729 0 0.0013012883173076409 0.0012813187761055299 0 0.0020893606438347938 0.0012524783449606601 0 0.0011661277828505679 0.0012852618190935213 0 0.0015676616465270545 0.00070053938004912446 0 0.0011493702386480224 0.0013332828593385633 0 0.0011692116701354435 0.001334674056768835 0 0.0011661277828505679 0.0012852618190935213 0 -0.0022385732189162794 0.0012586020711922523 0 -0.0028560658850094989 0.0012506829486552574 0 -0.0022385732189162794 0.0012586020711922523 0 -0.00084528968249668031 0.0016664021630416958 0 0.0011692116701354435 0.001334674056768835 0 0.001027870778613883 0.0014128692132193746 0 0.0011661277828505679 0.0012852618190935213 0 -0.0027004254778555683 0.00084697452761277293 0 -0.0031794240724410797 0.001265955273500126 0 -0.0025184345866233132 0.001174784658031182 0 -0.0039156689852963035 0.001542843438182882 0 -0.0028135653260631063 0.0012717374434856542 0 -0.0028294210214008606 0.0018846851759423181 0 -0.0021808814167039625 0.0006840626471083112 0 -0.0025184345866233132 0.001174784658031182 0 -0.0015617232000356886 0.00089007722215121634 0 -0.0028135653260631063 0.0012717374434856542 0 -0.0028294210214008606 0.0018846851759423181 0 -0.0020800370629766398 0.0016012743855916419 0 0.0011661277828505679 0.0012852618190935213 0 0.0010211306754099848 0.00094507180457507434 0 0.0015676616465270545 0.00070053938004912446 0 0.001027870778613883 0.0014128692132193746 0 0.0011661277828505679 0.0012852618190935213 0 0.00053781851355721544 0.0013064518874768393 0 0.0011661277828505679 0.0012852618190935213 0 0.0010211306754099848 0.00094507180457507434 0 0.00053781851355721544 0.0013064518874768393 0 0.0010211306754099848 0.00094507180457507434 0 0.00089291056027067698 0.00045297363402771056 0 0.0015676616465270545 0.00070053938004912446 0 0.0010211306754099848 0.00094507180457507434 0 0.00089291056027067698 0.00045297363402771056 0 0.00053781851355721544 0.0013064518874768393 0 0.0021156772722280611 0.00064036192482203155 0 0.0015676616465270545 0.00070053938004912446 0 0.0018054511128536128 7.0236416680524689e-05 0 0.0013708847490608461 -0.00050840110373120441 0 0.00089291056027067698 0.00045297363402771056 0 0.0018054511128536128 7.0236416680524689e-05 0 0.00089291056027067698 0.00045297363402771056 0 0.0015676616465270545 0.00070053938004912446 0 0.0018054511128536128 7.0236416680524689e-05 0 0.0016312325210364204 -0.00021331998735524309 0 0.0018082284576832258 5.8754538899436252e-05 0 0.0025179153883644763 -7.5092825027931002e-05 0 0.0023731701940849794 -0.00022328547317340938 0 0.0023993705096857438 -0.00020464945593130711 0 0.0023731701940849794 -0.00022328547317340938 0 0.0023993705096857438 -0.00020464945593130711 0 0.0018877150310844641 -0.00011686341696589975 0 0.0023993705096857438 -0.00020464945593130711 0 0.0025668881739658094 -0.00015252043425395027 0 0.0018877150310844641 -0.00011686341696589975 0 0.0025668881739658094 -0.00015252043425395027 0 0.0018877150310844641 -0.00011686341696589975 0 0.0017269594904242291 -4.6378523197054917e-06 0 0.0018877150310844641 -0.00011686341696589975 0 0.0010032344347852104 0.00029020409307592101 0 0.0017269594904242291 -4.6378523197054917e-06 0 0.0023731701940849794 -0.00022328547317340938 0 0.0018877150310844641 -0.00011686341696589975 0 0.0019007808197672171 0.00042934580150225229 0 0.0018082284576832258 5.8754538899436252e-05 0 0.00024066860952587471 0.00096112131935539196 0 -0.00084528968249668031 0.0016664021630416958 0 0.00024066860952587471 0.00096112131935539196 0 -0.00080611771484065116 0.00065634423751550022 0 0.00024066860952587471 0.00096112131935539196 0 -0.0028560658850094989 0.0012506829486552574 0 -0.0016135184835630795 0.00092694510746769467 0 -0.00068604590291472772 0.00043629982269388341 0 -0.0015825618801622282 0.0023401285508837457 0 -0.0015617232000356886 0.00089007722215121634 0 -0.0015825618801622282 0.0023401285508837457 0 -0.0020800370629766398 0.0016012743855916419 0 -0.0015617232000356886 0.00089007722215121634 0 -0.0028135653260631063 0.0012717374434856542 0 -0.0020800370629766398 0.0016012743855916419 0 -0.0015617232000356886 0.00089007722215121634 0 -0.0028294210214008606 0.0018846851759423181 0 -0.0015825618801622282 0.0023401285508837457 0 -0.0020800370629766398 0.0016012743855916419 0 -8.5525288550103182e-05 0.00027930789525833937 0 0.00015699341288922432 0.00031874393201805341 0 0.0010032344347852104 0.00029020409307592101 0 -0.00068604590291472772 0.00043629982269388341 0 0.00045319921320182457 0.00030051684634391625 0 0.00015699341288922432 0.00031874393201805341 0 -0.00068604590291472772 0.00043629982269388341 0 -8.5525288550103182e-05 0.00027930789525833937 0 0.00015699341288922432 0.00031874393201805341 0 0.0018877150310844641 -0.00011686341696589975 0 0.0019007808197672171 0.00042934580150225229 0 0.0010032344347852104 0.00029020409307592101 0 0.00045319921320182457 0.00030051684634391625 0 0.00015699341288922432 0.00031874393201805341 0 0.0010032344347852104 0.00029020409307592101 0 0.00024066860952587471 0.00096112131935539196 0 0.0011995403258983582 0.00040502548196587551 0 0.0010032344347852104 0.00029020409307592101 0 0.00085847409289350161 0.00015768308347353005 0 0.0017269594904242291 -4.6378523197054917e-06 0 -8.5525288550103182e-05 0.00027930789525833937 0 0.0010032344347852104 0.00029020409307592101 0 0.00085847409289350161 0.00015768308347353005 0 -8.5525288550103182e-05 0.00027930789525833937 0 0.00085847409289350161 0.00015768308347353005 0 0.00014018672083418844 0.00012482480202137978 0 -0.00033950597191385293 1.6205225383527083e-07 0 0.00014018672083418844 0.00012482480202137978 0 0.0010818003387533174 2.1684330460569364e-07 0 0.00085847409289350161 0.00015768308347353005 0 0.0010818003387533174 2.1684330460569364e-07 0 0.0017269594904242291 -4.6378523197054917e-06 0 0.00085847409289350161 0.00015768308347353005 0 0.00014018672083418844 0.00012482480202137978 0 0.0010818003387533174 2.1684330460569364e-07 0 0.0010818003387533174 2.1684330460569364e-07 0 0.0017269594904242291 -4.6378523197054917e-06 0 0.0025031982995257639 -1.5702870904115447e-07 0 0.0025668881739658094 -0.00015252043425395027 0 0.0017269594904242291 -4.6378523197054917e-06 0 0.0027790707346286745 -4.4787146333877107e-05 0 0.0039249243462707775 1.3362382448759971e-07 0 0.0027790707346286745 -4.4787146333877107e-05 0 0.0025031982995257639 -1.5702870904115447e-07 0 0.0017269594904242291 -4.6378523197054917e-06 0 0.0027790707346286745 -4.4787146333877107e-05 0 0.0025031982995257639 -1.5702870904115447e-07 0 0.0092191906687038323 -0.0011175113289149797 0 0.009339434227099621 -0.0010271955566720442 0 0.0091619958603155766 -0.0010096125913019146 0 0.0092191906687038323 -0.0011175113289149797 0 0.009339434227099621 -0.0010271955566720442 0 0.0092723549813038594 -0.0012350221167010988 0 0.0092191906687038323 -0.0011175113289149797 0 0.0092723549813038594 -0.0012350221167010988 0 0.00910861525987431 -0.0011941685741728735 0 0.0090735654177314419 -0.0010593985643278442 0 0.0091619958603155766 -0.0010096125913019146 0 0.0090483880759897623 -0.00097137993142137815 0 0.00910861525987431 -0.0011941685741728735 0 0.0090735654177314419 -0.0010593985643278442 0 0.0089549877335513076 -0.0010637113022544888 0 0.0090735654177314419 -0.0010593985643278442 0 0.0090483880759897623 -0.00097137993142137815 0 0.0089549877335513076 -0.0010637113022544888 0 0.00910861525987431 -0.0011941685741728735 0 0.0090735654177314419 -0.0010593985643278442 0 0.0091619958603155766 -0.0010096125913019146 0 0.0092191906687038323 -0.0011175113289149797 0 0.00910861525987431 -0.0011941685741728735 0 0.0091619958603155766 -0.0010096125913019146 0 0.009339434227099621 -0.0010271955566720442 0 0.0082379922215750998 -0.00037448258525449502 0 0.0085138140760417421 -0.00017156450402749097 0 0.009339434227099621 -0.0010271955566720442 0 0.0091619958603155766 -0.0010096125913019146 0 0.0090844391160680316 -0.00080642329173552768 0 0.0092953015383886329 -0.0010039450105259347 0 0.0086815070771966603 -0.0005919933767646701 0 0.0090483880759897623 -0.00097137993142137815 0 0.0090844391160680316 -0.00080642329173552768 0 0.0089488895959402518 -0.00091726827507572679 0 0.0091619958603155766 -0.0010096125913019146 0 0.0090483880759897623 -0.00097137993142137815 0 0.0090844391160680316 -0.00080642329173552768 0 0.009339434227099621 -0.0010271955566720442 0 0.0094093896258365794 -0.00067457527333911996 0 0.0085138140760417421 -0.00017156450402749097 0 0.008209587407186086 -0.0014304679414396133 0 0.0060299881046439333 -0.0011715174397864624 0 0.0067742634631094961 -0.0020229756442980374 0 0.0068900699955500326 -0.0020087992483022654 0 0.0068664649802865334 -0.0018802351979134628 0 0.0068900699955500326 -0.0020087992483022654 0 0.0069872003933792197 -0.0019920993619544657 0 0.0069303073552015003 -0.0021359413477644259 0 0.009339434227099621 -0.0010271955566720442 0 0.0094093896258365794 -0.00067457527333911996 0 0.009725093019416339 -0.0010866069240878286 0 0.0068900699955500326 -0.0020087992483022654 0 0.0069872003933792197 -0.0019920993619544657 0 0.0068664649802865334 -0.0018802351979134628 0 0.0067742634631094961 -0.0020229756442980374 0 0.0068900699955500326 -0.0020087992483022654 0 0.0069303073552015003 -0.0021359413477644259 0 0.008209587407186086 -0.0014304679414396133 0 0.0088941092877734967 -0.0014097973873224089 0 0.0069872003933792197 -0.0019920993619544657 0 0.0070967353940608879 -0.0018740433519998437 0 0.0071462499409618652 -0.0020337059945535422 0 0.0088941092877734967 -0.0014097973873224089 0 0.0083982319264107787 -0.0018951907682332135 0 0.0069872003933792197 -0.0019920993619544657 0 0.0069303073552015003 -0.0021359413477644259 0 0.0071462499409618652 -0.0020337059945535422 0 0.0098914140255539212 -0.0015670642774639014 0 0.0099044837667985608 -0.0015647886083672855 0 0.0098786008665021005 -0.0015918354170992451 0 0.0098195831507415354 -0.0013880703224424978 0 0.0096873271168542892 -0.0012493547702629964 0 0.0096552801931955728 -0.0014124118150588734 0 0.0098914140255539212 -0.0015670642774639014 0 0.0098997535787175382 -0.0015535324787994992 0 0.0099044837667985608 -0.0015647886083672855 0 0.009947807701760774 -0.0015488595789165806 0 0.0088941092877734967 -0.0014097973873224089 0 0.0095296992443736385 -0.0012127883879347325 0 0.0088941092877734967 -0.0014097973873224089 0 0.0094358220271948037 -0.0013179604659194308 0 0.0096873271168542892 -0.0012493547702629964 0 0.0096552801931955728 -0.0014124118150588734 0 0.009339434227099621 -0.0010271955566720442 0 0.0092723549813038594 -0.0012350221167010988 0 0.009725093019416339 -0.0010866069240878286 0 0.0096552801931955728 -0.0014124118150588734 0 0.009662966769684346 -0.0015274625801221088 0 0.0097856916261696361 -0.0015255289775401345 0 0.0096552801931955728 -0.0014124118150588734 0 0.009662966769684346 -0.0015274625801221088 0 0.0095252366109235247 -0.0014713438746399691 0 0.0098195831507415354 -0.0013880703224424978 0 0.0096552801931955728 -0.0014124118150588734 0 0.0097856916261696361 -0.0015255289775401345 0 0.0098195831507415354 -0.0013880703224424978 0 0.0097856916261696361 -0.0015255289775401345 0 0.0099098838708586746 -0.0015356366596594069 0 0.009662966769684346 -0.0015274625801221088 0 0.0097856916261696361 -0.0015255289775401345 0 0.0098145271223420063 -0.001674679430102148 0 0.0097856916261696361 -0.0015255289775401345 0 0.0098145271223420063 -0.001674679430102148 0 0.0099098838708586746 -0.0015356366596594069 0 0.0096622843325004371 -0.0017747942794179552 0 0.0098145271223420063 -0.001674679430102148 0 0.0095662631570421416 -0.0016186147347154478 0 0.009662966769684346 -0.0015274625801221088 0 0.0098145271223420063 -0.001674679430102148 0 0.0095662631570421416 -0.0016186147347154478 0 0.009662966769684346 -0.0015274625801221088 0 0.0095662631570421416 -0.0016186147347154478 0 0.0095252366109235247 -0.0014713438746399691 0 0.0094807363476560012 -0.0017363794145722347 0 0.0093822847192978256 -0.001532897834303878 0 0.0092182030046983922 -0.0016618633676540762 0 0.0094807363476560012 -0.0017363794145722347 0 0.0095662631570421416 -0.0016186147347154478 0 0.0093822847192978256 -0.001532897834303878 0 0.0095662631570421416 -0.0016186147347154478 0 0.0093822847192978256 -0.001532897834303878 0 0.0095252366109235247 -0.0014713438746399691 0 0.0094358220271948037 -0.0013179604659194308 0 0.0096552801931955728 -0.0014124118150588734 0 0.0095252366109235247 -0.0014713438746399691 0 0.0094358220271948037 -0.0013179604659194308 0 0.0093822847192978256 -0.001532897834303878 0 0.0095252366109235247 -0.0014713438746399691 0 0.0094358220271948037 -0.0013179604659194308 0 0.0093822847192978256 -0.001532897834303878 0 0.0090627229709054069 -0.0014033234966368874 0 0.0095296992443736385 -0.0012127883879347325 0 0.0089987215160920227 -0.0014321499865737491 0 0.0092723549813038594 -0.0012350221167010988 0 0.00910861525987431 -0.0011941685741728735 0 0.0090627229709054069 -0.0014033234966368874 0 0.0093822847192978256 -0.001532897834303878 0 0.0092182030046983922 -0.0016618633676540762 0 0.0090627229709054069 -0.0014033234966368874 0 0.0089426596307624097 -0.0016438341965219277 0 0.0087406437662377445 -0.0014198261777809387 0 0.0090627229709054069 -0.0014033234966368874 0 0.0092182030046983922 -0.0016618633676540762 0 0.0089426596307624097 -0.0016438341965219277 0 0.0090627229709054069 -0.0014033234966368874 0 0.009137228391813532 -0.0018126885866308205 0 0.0092182030046983922 -0.0016618633676540762 0 0.0089426596307624097 -0.0016438341965219277 0 0.0089426596307624097 -0.0016438341965219277 0 0.0085940365877194853 -0.0016415807901269924 0 0.0087406437662377445 -0.0014198261777809387 0 0.0085940365877194853 -0.0016415807901269924 0 0.0087406437662377445 -0.0014198261777809387 0 0.0085436862513765619 -0.0014756911611250893 0 0.0087406437662377445 -0.0014198261777809387 0 0.0085436862513765619 -0.0014756911611250893 0 0.0085480369794253084 -0.0013111110220456826 0 0.0087406437662377445 -0.0014198261777809387 0 0.0085480369794253084 -0.0013111110220456826 0 0.0086915821990618553 -0.0012168489590393386 0 0.0087406437662377445 -0.0014198261777809387 0 0.0088806107789839647 -0.0012377529957682259 0 0.0086915821990618553 -0.0012168489590393386 0 0.00910861525987431 -0.0011941685741728735 0 0.0090627229709054069 -0.0014033234966368874 0 0.0088806107789839647 -0.0012377529957682259 0 0.0087406437662377445 -0.0014198261777809387 0 0.0090627229709054069 -0.0014033234966368874 0 0.0088806107789839647 -0.0012377529957682259 0 0.008195775205102878 -0.0018466693369886169 0 0.008516080411042487 -0.0018981618636191558 0 0.0083223027466617083 -0.0014087197440948837 0 0.0091626877041343473 -0.0020714026495138233 0 0.0086835167539041705 -0.0018252519908905892 0 0.0086631020622079113 -0.0019296093365426432 0 0.0092447685826493251 -0.0021741996379348455 0 0.0091842154258432295 -0.0017387226440313099 0 0.0086631020622079113 -0.0019296093365426432 0 0.0092447685826493251 -0.0021741996379348455 0 0.0092321669684627614 -0.0022648930258166618 0 0.0091626877041343473 -0.0020714026495138233 0 0.0097228081887376812 -0.0023050012553663467 0 0.010545462990659228 -0.0032378092990890533 0 0.0097228081887376812 -0.0023050012553663467 0 0.008195775205102878 -0.0018466693369886169 0 0.0081789854236355691 -0.001942583831965842 0 0.008516080411042487 -0.0018981618636191558 0 0.0091892864576936864 -0.0019914661862627282 0 0.0087648796658959371 -0.0019035779379409025 0 0.0083223027466617083 -0.0014087197440948837 0 0.0085940365877194853 -0.0016415807901269924 0 0.0085436862513765619 -0.0014756911611250893 0 0.0083223027466617083 -0.0014087197440948837 0 0.008516080411042487 -0.0018981618636191558 0 0.0087648796658959371 -0.0019035779379409025 0 0.0083223027466617083 -0.0014087197440948837 0 0.0092317991969508174 -0.0024298645886599605 0 0.0091892864576936864 -0.0019914661862627282 0 0.0087648796658959371 -0.0019035779379409025 0 0.0088836857871074492 -0.0018176946022164201 0 0.0083692573408661354 -0.001426799648405398 0 0.0092317991969508174 -0.0024298645886599605 0 0.0081789854236355691 -0.001942583831965842 0 0.008516080411042487 -0.0018981618636191558 0 0.0092317991969508174 -0.0024298645886599605 0 0.008516080411042487 -0.0018981618636191558 0 0.0087648796658959371 -0.0019035779379409025 0 0.0085436862513765619 -0.0014756911611250893 0 0.0084487922332042824 -0.0013568531363581978 0 0.0083223027466617083 -0.0014087197440948837 0 0.0085436862513765619 -0.0014756911611250893 0 0.0085480369794253084 -0.0013111110220456826 0 0.0084487922332042824 -0.0013568531363581978 0 0.0085480369794253084 -0.0013111110220456826 0 0.0084487922332042824 -0.0013568531363581978 0 0.0083811081010623026 -0.0012127215185118235 0 0.0084487922332042824 -0.0013568531363581978 0 0.0083223027466617083 -0.0014087197440948837 0 0.0083811081010623026 -0.0012127215185118235 0 0.008195775205102878 -0.0018466693369886169 0 0.0083223027466617083 -0.0014087197440948837 0 0.0082175480781652276 -0.0011618835692638958 0 0.0084467987901004748 -0.0019484250158446153 0 0.008414143094593346 -0.0017444983027385837 0 0.0085075358503204981 -0.0014413249991491069 0 0.0091626877041343473 -0.0020714026495138233 0 0.0082545280464072467 -0.0012656125832973448 0 0.0083223027466617083 -0.0014087197440948837 0 0.0082175480781652276 -0.0011618835692638958 0 0.0083811081010623026 -0.0012127215185118235 0 0.0082175480781652276 -0.0011618835692638958 0 0.0082362945711621765 -0.0010605297400398046 0 0.0080754979184644339 -0.00080314229401215172 0 0.0086835167539041705 -0.0018252519908905892 0 0.007977628943635488 -0.0011732865289432964 0 0.008414143094593346 -0.0017444983027385837 0 0.0085075358503204981 -0.0014413249991491069 0 0.0083277468314514394 -0.0011809792318567603 0 0.0082175480781652276 -0.0011618835692638958 0 0.0082362945711621765 -0.0010605297400398046 0 0.0083811081010623026 -0.0012127215185118235 0 0.0082362945711621765 -0.0010605297400398046 0 0.0083676912014672544 -0.0010506751929945288 0 0.0083811081010623026 -0.0012127215185118235 0 0.0082362945711621765 -0.0010605297400398046 0 0.0083676912014672544 -0.0010506751929945288 0 0.0082438984131632184 -0.00094636874126684571 0 0.0083676912014672544 -0.0010506751929945288 0 0.0083811081010623026 -0.0012127215185118235 0 0.0085143950243604122 -0.0011474692299662827 0 0.0085480369794253084 -0.0013111110220456826 0 0.0083811081010623026 -0.0012127215185118235 0 0.0085143950243604122 -0.0011474692299662827 0 0.0083676912014672544 -0.0010506751929945288 0 0.0085143950243604122 -0.0011474692299662827 0 0.0084779022568293658 -0.0010165658402254711 0 0.0084779022568293658 -0.0010165658402254711 0 0.0083628256695383787 -0.00093592383605636841 0 0.0084632387474432077 -0.0008867564733231238 0 0.0083676912014672544 -0.0010506751929945288 0 0.0084779022568293658 -0.0010165658402254711 0 0.0083628256695383787 -0.00093592383605636841 0 0.0083493382579559305 -0.00082765616488250876 0 0.0082886807795026149 -0.00072731000508775758 0 0.0084581267682727647 -0.00074440742291420831 0 0.0084632387474432077 -0.0008867564733231238 0 0.0083493382579559305 -0.00082765616488250876 0 0.0084581267682727647 -0.00074440742291420831 0 0.0083628256695383787 -0.00093592383605636841 0 0.0084632387474432077 -0.0008867564733231238 0 0.0083493382579559305 -0.00082765616488250876 0 0.0083493382579559305 -0.00082765616488250876 0 0.0082784785933532785 -0.00087384851017966998 0 0.0082488228967588298 -0.00081065187490514455 0 0.0081736050779380141 -0.00082098324752530121 0 0.0082243508209244101 -0.00086349239303323941 0 0.0082438984131632184 -0.00094636874126684571 0 0.0083628256695383787 -0.00093592383605636841 0 0.0083493382579559305 -0.00082765616488250876 0 0.0082784785933532785 -0.00087384851017966998 0 0.0083493382579559305 -0.00082765616488250876 0 0.0082488228967588298 -0.00081065187490514455 0 0.0082886807795026149 -0.00072731000508775758 0 0.0082488228967588298 -0.00081065187490514455 0 0.0081770251938085639 -0.00073932478135040492 0 0.0082886807795026149 -0.00072731000508775758 0 0.0081736050779380141 -0.00082098324752530121 0 0.0081379733244069368 -0.00076316939931434782 0 0.0081770251938085639 -0.00073932478135040492 0 0.0082488228967588298 -0.00081065187490514455 0 0.0081736050779380141 -0.00082098324752530121 0 0.0081770251938085639 -0.00073932478135040492 0 0.0082784785933532785 -0.00087384851017966998 0 0.0082488228967588298 -0.00081065187490514455 0 0.0082243508209244101 -0.00086349239303323941 0 0.0082488228967588298 -0.00081065187490514455 0 0.0081736050779380141 -0.00082098324752530121 0 0.0082243508209244101 -0.00086349239303323941 0 0.0082784785933532785 -0.00087384851017966998 0 0.0082243508209244101 -0.00086349239303323941 0 0.0082438984131632184 -0.00094636874126684571 0 0.0083628256695383787 -0.00093592383605636841 0 0.0082784785933532785 -0.00087384851017966998 0 0.0082438984131632184 -0.00094636874126684571 0 0.0083676912014672544 -0.0010506751929945288 0 0.0083628256695383787 -0.00093592383605636841 0 0.0082438984131632184 -0.00094636874126684571 0 0.0085075358503204981 -0.0014413249991491069 0 0.0085504993930360686 -0.00093362652557565245 0 0.0083277468314514394 -0.0011809792318567603 0 0.0082362945711621765 -0.0010605297400398046 0 0.0082438984131632184 -0.00094636874126684571 0 0.0080754979184644339 -0.00080314229401215172 0 0.0082545280464072467 -0.0012656125832973448 0 0.0083544683537835861 -0.00091010815199467061 0 0.0077446336301761993 -0.001150182223234738 0 0.0078041426411831162 -0.0006728462742278512 0 0.0079393175837969513 -0.00075637554668286 0 0.0081736050779380141 -0.00082098324752530121 0 0.0082438984131632184 -0.00094636874126684571 0 0.0080754979184644339 -0.00080314229401215172 0 0.0081736050779380141 -0.00082098324752530121 0 0.0080754979184644339 -0.00080314229401215172 0 0.0081379733244069368 -0.00076316939931434782 0 0.0080754979184644339 -0.00080314229401215172 0 0.0081379733244069368 -0.00076316939931434782 0 0.0080790647026439365 -0.00074720892112952906 0 0.0080754979184644339 -0.00080314229401215172 0 0.0080411818945787354 -0.00075456351092718444 0 0.0080790647026439365 -0.00074720892112952906 0 0.0080754979184644339 -0.00080314229401215172 0 0.0079393175837969513 -0.00075637554668286 0 0.0080411818945787354 -0.00075456351092718444 0 0.0083544683537835861 -0.00091010815199467061 0 0.007977628943635488 -0.0011732865289432964 0 0.0080754979184644339 -0.00080314229401215172 0 0.0077446336301761993 -0.001150182223234738 0 0.0079393175837969513 -0.00075637554668286 0 0.00910861525987431 -0.0011941685741728735 0 0.0089549877335513076 -0.0010637113022544888 0 0.0088806107789839647 -0.0012377529957682259 0 0.0088003284098510538 -0.001111370983731914 0 0.0089549877335513076 -0.0010637113022544888 0 0.0088086474836466481 -0.00097666521026502809 0 0.0088003284098510538 -0.001111370983731914 0 0.0089549877335513076 -0.0010637113022544888 0 0.0088806107789839647 -0.0012377529957682259 0 0.0088003284098510538 -0.001111370983731914 0 0.0088806107789839647 -0.0012377529957682259 0 0.0086915821990618553 -0.0012168489590393386 0 0.0085143950243604122 -0.0011474692299662827 0 0.0086915821990618553 -0.0012168489590393386 0 0.0086545483959226659 -0.001059319091518436 0 0.0085480369794253084 -0.0013111110220456826 0 0.0085143950243604122 -0.0011474692299662827 0 0.0086915821990618553 -0.0012168489590393386 0 0.0085143950243604122 -0.0011474692299662827 0 0.0084779022568293658 -0.0010165658402254711 0 0.0086545483959226659 -0.001059319091518436 0 0.0088003284098510538 -0.001111370983731914 0 0.0086915821990618553 -0.0012168489590393386 0 0.0086545483959226659 -0.001059319091518436 0 0.0088003284098510538 -0.001111370983731914 0 0.0086545483959226659 -0.001059319091518436 0 0.0088086474836466481 -0.00097666521026502809 0 0.0086175560228267684 -0.00089175216316745838 0 0.0088077355866009368 -0.00079628557411893055 0 0.0088086474836466481 -0.00097666521026502809 0 0.0086545483959226659 -0.001059319091518436 0 0.0086175560228267684 -0.00089175216316745838 0 0.0088086474836466481 -0.00097666521026502809 0 0.0084779022568293658 -0.0010165658402254711 0 0.0086545483959226659 -0.001059319091518436 0 0.0086175560228267684 -0.00089175216316745838 0 0.0084779022568293658 -0.0010165658402254711 0 0.0084632387474432077 -0.0008867564733231238 0 0.0086175560228267684 -0.00089175216316745838 0 0.0084632387474432077 -0.0008867564733231238 0 0.0086175560228267684 -0.00089175216316745838 0 0.0084581267682727647 -0.00074440742291420831 0 0.0086175560228267684 -0.00089175216316745838 0 0.0086086018426530502 -0.00067471771322950131 0 0.0084581267682727647 -0.00074440742291420831 0 0.0086175560228267684 -0.00089175216316745838 0 0.0088077355866009368 -0.00079628557411893055 0 0.0086086018426530502 -0.00067471771322950131 0 0.0090844391160680316 -0.00080642329173552768 0 0.0088077355866009368 -0.00079628557411893055 0 0.0089488895959402518 -0.00091726827507572679 0 0.0088077355866009368 -0.00079628557411893055 0 0.0088086474836466481 -0.00097666521026502809 0 0.0089488895959402518 -0.00091726827507572679 0 0.0089549877335513076 -0.0010637113022544888 0 0.0088086474836466481 -0.00097666521026502809 0 0.0089488895959402518 -0.00091726827507572679 0 0.0090483880759897623 -0.00097137993142137815 0 0.0089549877335513076 -0.0010637113022544888 0 0.0089488895959402518 -0.00091726827507572679 0 0.0082379922215750998 -0.00037448258525449502 0 0.0081656119333977269 -0.00020593555435299634 0 0.0080661564659322404 -0.00014214251464654909 0 0.0090844391160680316 -0.00080642329173552768 0 0.0088077355866009368 -0.00079628557411893055 0 0.0086965480608284709 -0.00044507144406568294 0 0.0086815070771966603 -0.0005919933767646701 0 0.0083716624323720446 -0.00029761712539231233 0 0.0081656119333977269 -0.00020593555435299634 0 0.0082445713333662522 -0.00028113064072361358 0 0.0082153088017438338 -0.00021957556191869431 0 0.0081656119333977269 -0.00020593555435299634 0 0.0081860703904480317 -0.00017261083244104962 0 0.0082153088017438338 -0.00021957556191869431 0 0.0086965480608284709 -0.00044507144406568294 0 0.0084173869284073569 -0.00050094353599765208 0 0.008237815798206715 -0.00032004498511936224 0 0.0088077355866009368 -0.00079628557411893055 0 0.0086086018426530502 -0.00067471771322950131 0 0.0086965480608284709 -0.00044507144406568294 0 0.0086086018426530502 -0.00067471771322950131 0 0.0084581267682727647 -0.00074440742291420831 0 0.0084173869284073569 -0.00050094353599765208 0 0.0086086018426530502 -0.00067471771322950131 0 0.0086965480608284709 -0.00044507144406568294 0 0.0084173869284073569 -0.00050094353599765208 0 0.0080661564659322404 -0.00014214251464654909 0 0.0080863079562539988 -5.3859178839827029e-05 0 0.0080799595899958328 -8.4263152359533968e-05 0 0.008146481358751536 -0.0001314396313133169 0 0.0080799595899958328 -8.4263152359533968e-05 0 0.0081972465616802874 -9.0674781468522142e-05 0 0.0080661564659322404 -0.00014214251464654909 0 0.008146481358751536 -0.0001314396313133169 0 0.0080799595899958328 -8.4263152359533968e-05 0 0.0081656119333977269 -0.00020593555435299634 0 0.008146481358751536 -0.0001314396313133169 0 0.0081860703904480317 -0.00017261083244104962 0 0.0081656119333977269 -0.00020593555435299634 0 0.0080661564659322404 -0.00014214251464654909 0 0.008146481358751536 -0.0001314396313133169 0 0.0076217601116171175 -0.00043036413207890063 0 0.0077999481700367712 -0.00051555812552536229 0 0.0078041426411831162 -0.0006728462742278512 0 0.0076217601116171175 -0.00043036413207890063 0 0.007802724637906904 -0.00040026367932034226 0 0.0077999481700367712 -0.00051555812552536229 0 0.007802724637906904 -0.00040026367932034226 0 0.0078881153148898861 -0.00048858861709507261 0 0.0077999481700367712 -0.00051555812552536229 0 0.007802724637906904 -0.00040026367932034226 0 0.0078881153148898861 -0.00048858861709507261 0 0.0079181201468720187 -0.00037517104801733549 0 0.0078881153148898861 -0.00048858861709507261 0 0.0077999481700367712 -0.00051555812552536229 0 0.0078790118905545953 -0.00059175664384310592 0 0.0078881153148898861 -0.00048858861709507261 0 0.0078790118905545953 -0.00059175664384310592 0 0.0079896533497461446 -0.00057191293088163875 0 0.0078041426411831162 -0.0006728462742278512 0 0.0079393175837969513 -0.00075637554668286 0 0.0079052297033906527 -0.00066315466114972926 0 0.0079052297033906527 -0.00066315466114972926 0 0.0078790118905545953 -0.00059175664384310592 0 0.0079843117857264796 -0.00064432161245959064 0 0.0077999481700367712 -0.00051555812552536229 0 0.0078041426411831162 -0.0006728462742278512 0 0.0078790118905545953 -0.00059175664384310592 0 0.0078041426411831162 -0.0006728462742278512 0 0.0079052297033906527 -0.00066315466114972926 0 0.0078790118905545953 -0.00059175664384310592 0 0.0078790118905545953 -0.00059175664384310592 0 0.0079843117857264796 -0.00064432161245959064 0 0.0079896533497461446 -0.00057191293088163875 0 0.0079843117857264796 -0.00064432161245959064 0 0.0080419679154015208 -0.00064838074028771453 0 0.0079896533497461446 -0.00057191293088163875 0 0.0079843117857264796 -0.00064432161245959064 0 0.0080688942624838993 -0.00069997901699744467 0 0.0080419679154015208 -0.00064838074028771453 0 0.0079393175837969513 -0.00075637554668286 0 0.0079052297033906527 -0.00066315466114972926 0 0.0079843117857264796 -0.00064432161245959064 0 0.0079393175837969513 -0.00075637554668286 0 0.0079843117857264796 -0.00064432161245959064 0 0.0080096025613138264 -0.00071814633505859547 0 0.0079843117857264796 -0.00064432161245959064 0 0.0080096025613138264 -0.00071814633505859547 0 0.0080688942624838993 -0.00069997901699744467 0 0.0080096025613138264 -0.00071814633505859547 0 0.0080411818945787354 -0.00075456351092718444 0 0.0080688942624838993 -0.00069997901699744467 0 0.0079393175837969513 -0.00075637554668286 0 0.0080096025613138264 -0.00071814633505859547 0 0.0080411818945787354 -0.00075456351092718444 0 0.0081379733244069368 -0.00076316939931434782 0 0.0081113912740699602 -0.0007261151477568359 0 0.0080790647026439365 -0.00074720892112952906 0 0.0081379733244069368 -0.00076316939931434782 0 0.0081113912740699602 -0.0007261151477568359 0 0.0081770251938085639 -0.00073932478135040492 0 0.0080411818945787354 -0.00075456351092718444 0 0.0080790647026439365 -0.00074720892112952906 0 0.0080688942624838993 -0.00069997901699744467 0 0.0081113912740699602 -0.0007261151477568359 0 0.0080790647026439365 -0.00074720892112952906 0 0.0080688942624838993 -0.00069997901699744467 0 0.0081113912740699602 -0.0007261151477568359 0 0.0080688942624838993 -0.00069997901699744467 0 0.0080936138426251983 -0.00065477567507632309 0 0.0081113912740699602 -0.0007261151477568359 0 0.0080936138426251983 -0.00065477567507632309 0 0.0081445149213911234 -0.00066437150358403469 0 0.0080936138426251983 -0.00065477567507632309 0 0.0081296408758540634 -0.00058866617771129084 0 0.0081445149213911234 -0.00066437150358403469 0 0.0080688942624838993 -0.00069997901699744467 0 0.0080936138426251983 -0.00065477567507632309 0 0.0080419679154015208 -0.00064838074028771453 0 0.0080936138426251983 -0.00065477567507632309 0 0.0080419679154015208 -0.00064838074028771453 0 0.0080633667188458359 -0.00060247950077638797 0 0.0080419679154015208 -0.00064838074028771453 0 0.0080633667188458359 -0.00060247950077638797 0 0.0079896533497461446 -0.00057191293088163875 0 0.0080936138426251983 -0.00065477567507632309 0 0.0080633667188458359 -0.00060247950077638797 0 0.0081296408758540634 -0.00058866617771129084 0 0.0080633667188458359 -0.00060247950077638797 0 0.0080585103766785647 -0.00053126859323517463 0 0.0081296408758540634 -0.00058866617771129084 0 0.0080633667188458359 -0.00060247950077638797 0 0.0080585103766785647 -0.00053126859323517463 0 0.0079896533497461446 -0.00057191293088163875 0 0.0078881153148898861 -0.00048858861709507261 0 0.0079896533497461446 -0.00057191293088163875 0 0.007985830038802693 -0.00048686366344450027 0 0.0080585103766785647 -0.00053126859323517463 0 0.0079896533497461446 -0.00057191293088163875 0 0.007985830038802693 -0.00048686366344450027 0 0.0078881153148898861 -0.00048858861709507261 0 0.007985830038802693 -0.00048686366344450027 0 0.0079181201468720187 -0.00037517104801733549 0 0.007985830038802693 -0.00048686366344450027 0 0.0080499425999311005 -0.00043363539182333043 0 0.0079181201468720187 -0.00037517104801733549 0 0.0080585103766785647 -0.00053126859323517463 0 0.0080499425999311005 -0.00043363539182333043 0 0.0081288136975402187 -0.00050620794696028997 0 0.0080585103766785647 -0.00053126859323517463 0 0.007985830038802693 -0.00048686366344450027 0 0.0080499425999311005 -0.00043363539182333043 0 0.0080499425999311005 -0.00043363539182333043 0 0.0081647954299361013 -0.00042828365484240329 0 0.0081288136975402187 -0.00050620794696028997 0 0.0081647954299361013 -0.00042828365484240329 0 0.0082385495012673449 -0.00053993093230325011 0 0.0081288136975402187 -0.00050620794696028997 0 0.0082385495012673449 -0.00053993093230325011 0 0.0081288136975402187 -0.00050620794696028997 0 0.0081296408758540634 -0.00058866617771129084 0 0.0080585103766785647 -0.00053126859323517463 0 0.0081288136975402187 -0.00050620794696028997 0 0.0081296408758540634 -0.00058866617771129084 0 0.0082385495012673449 -0.00053993093230325011 0 0.0081296408758540634 -0.00058866617771129084 0 0.008224936638618752 -0.00064173895506043003 0 0.0081296408758540634 -0.00058866617771129084 0 0.0081445149213911234 -0.00066437150358403469 0 0.008224936638618752 -0.00064173895506043003 0 0.0081113912740699602 -0.0007261151477568359 0 0.0081445149213911234 -0.00066437150358403469 0 0.0081770251938085639 -0.00073932478135040492 0 0.0081445149213911234 -0.00066437150358403469 0 0.0081770251938085639 -0.00073932478135040492 0 0.008224936638618752 -0.00064173895506043003 0 0.0081770251938085639 -0.00073932478135040492 0 0.0082886807795026149 -0.00072731000508775758 0 0.008224936638618752 -0.00064173895506043003 0 0.0082385495012673449 -0.00053993093230325011 0 0.008224936638618752 -0.00064173895506043003 0 0.0083358251113702393 -0.00062857408001113163 0 0.0082886807795026149 -0.00072731000508775758 0 0.008224936638618752 -0.00064173895506043003 0 0.0083358251113702393 -0.00062857408001113163 0 0.0082886807795026149 -0.00072731000508775758 0 0.0084581267682727647 -0.00074440742291420831 0 0.0083358251113702393 -0.00062857408001113163 0 0.0084581267682727647 -0.00074440742291420831 0 0.0083358251113702393 -0.00062857408001113163 0 0.0084173869284073569 -0.00050094353599765208 0 0.0081647954299361013 -0.00042828365484240329 0 0.0082385495012673449 -0.00053993093230325011 0 0.0084173869284073569 -0.00050094353599765208 0 0.0081647954299361013 -0.00042828365484240329 0 0.0084173869284073569 -0.00050094353599765208 0 0.008237815798206715 -0.00032004498511936224 0 0.0082385495012673449 -0.00053993093230325011 0 0.0083358251113702393 -0.00062857408001113163 0 0.0084173869284073569 -0.00050094353599765208 0 0.0086965480608284709 -0.00044507144406568294 0 0.008237815798206715 -0.00032004498511936224 0 0.0080532495763616981 -7.5091832764132599e-05 0 0.0083716624323720446 -0.00029761712539231233 0 0.0080761791103391278 -8.7241210298532441e-05 0 0.0080661564659322404 -0.00014214251464654909 0 0.0080532495763616981 -7.5091832764132599e-05 0 0.0080863079562539988 -5.3859178839827029e-05 0 0.008237815798206715 -0.00032004498511936224 0 0.0080532495763616981 -7.5091832764132599e-05 0 0.0080394956038439165 -0.00023889403036909501 0 0.008237815798206715 -0.00032004498511936224 0 0.0080946079284527264 -0.00034661959808215232 0 0.0080394956038439165 -0.00023889403036909501 0 0.0081647954299361013 -0.00042828365484240329 0 0.008237815798206715 -0.00032004498511936224 0 0.0080946079284527264 -0.00034661959808215232 0 0.0080499425999311005 -0.00043363539182333043 0 0.0081647954299361013 -0.00042828365484240329 0 0.0080946079284527264 -0.00034661959808215232 0 0.0080532495763616981 -7.5091832764132599e-05 0 0.0078345852417133297 -0.00019499512797366332 0 0.0077475777406159994 5.7496900108139885e-05 0 0.0079833166005246654 -0.00031358882220007908 0 0.0080394956038439165 -0.00023889403036909501 0 0.0078345852417133297 -0.00019499512797366332 0 0.0079833166005246654 -0.00031358882220007908 0 0.0079181201468720187 -0.00037517104801733549 0 0.0078345852417133297 -0.00019499512797366332 0 0.0080499425999311005 -0.00043363539182333043 0 0.0080946079284527264 -0.00034661959808215232 0 0.0079833166005246654 -0.00031358882220007908 0 0.0080499425999311005 -0.00043363539182333043 0 0.0079833166005246654 -0.00031358882220007908 0 0.0079181201468720187 -0.00037517104801733549 0 0.0080946079284527264 -0.00034661959808215232 0 0.0079833166005246654 -0.00031358882220007908 0 0.0080394956038439165 -0.00023889403036909501 0 0.0080532495763616981 -7.5091832764132599e-05 0 0.0080394956038439165 -0.00023889403036909501 0 0.0078345852417133297 -0.00019499512797366332 0 0.0076217601116171175 -0.00043036413207890063 0 0.007802724637906904 -0.00040026367932034226 0 0.0078345852417133297 -0.00019499512797366332 0 0.007802724637906904 -0.00040026367932034226 0 0.0079181201468720187 -0.00037517104801733549 0 0.0078345852417133297 -0.00019499512797366332 0 0.0080532495763616981 -7.5091832764132599e-05 0 0.0077475777406159994 5.7496900108139885e-05 0 0.0080863079562539988 -5.3859178839827029e-05 0 0.0031598952527786797 0.0010297015131693231 0 0.0047879048674555206 -0.00019512845911833716 0 0.0005486692059630641 -5.9360387669586036e-05 0 0.00095554555440868012 2.0618062634343643e-05 0 0.0011945533099108898 -0.00014392682375531096 0 0.00061662127650053485 0.00010971262653620574 0 0.0005486692059630641 -5.9360387669586036e-05 0 0.00095554555440868012 2.0618062634343643e-05 0 -0.00037939457992544623 0.00028442306061999092 0 0.0031598952527786797 0.0010297015131693231 0 -0.00037939457992544623 0.00028442306061999092 0 0.0010863074635477639 -2.0014173594061684e-05 0 0.00053723281172554768 0.00011386647999292979 0 0.00095554555440868012 2.0618062634343643e-05 0 0.00083282824792873513 0.00032095886638080313 0 0.00095554555440868012 2.0618062634343643e-05 0 0.0012790924662912854 0.00018962874757398043 0 0.0010486693708330059 0.00041152213316205023 0 0.00095554555440868012 2.0618062634343643e-05 0 0.0011945533099108898 -0.00014392682375531096 0 0.0012790924662912854 0.00018962874757398043 0 0.0012790924662912854 0.00018962874757398043 0 0.0013977624832088671 0.0004775739851920007 0 0.0010486693708330059 0.00041152213316205023 0 0.001180295391639532 0.00086956419883920332 0 0.0013977624832088671 0.0004775739851920007 0 0.0010486693708330059 0.00041152213316205023 0 0.001180295391639532 0.00086956419883920332 0 0.00078887052233989215 0.00073090406301307414 0 0.0010486693708330059 0.00041152213316205023 0 0.00095554555440868012 2.0618062634343643e-05 0 0.0010486693708330059 0.00041152213316205023 0 0.00083282824792873513 0.00032095886638080313 0 -0.0036321585656727997 0.0010722624586063634 0 -0.003843494585221948 0.0010153901242639998 0 -0.0037215113924220153 0.00094283227471312725 0 -0.0014564892422727843 0.00082090633739469914 0 -0.00037939457992544623 0.00028442306061999092 0 0.00078887052233989215 0.00073090406301307414 0 0.00053723281172554768 0.00011386647999292979 0 0.00083282824792873513 0.00032095886638080313 0 0.00078887052233989215 0.00073090406301307414 0 0.0010486693708330059 0.00041152213316205023 0 0.00083282824792873513 0.00032095886638080313 0 0.0052772070144745924 -0.00010572747385342865 0 0.0039077753351701586 -0.00081250381177511936 0 0.0019315542636370721 -0.00022794091641725221 0 0.0018211789602029791 0.00018268151617200601 0 0.0026758864547950724 -0.00029917080091239502 0 0.0018211789602029791 0.00018268151617200601 0 0.0025525655362622747 0.00058824769011243364 0 0.0026758864547950724 -0.00029917080091239502 0 0.0011945533099108898 -0.00014392682375531096 0 0.0012790924662912854 0.00018962874757398043 0 0.0018211789602029791 0.00018268151617200601 0 0.0047879048674555206 -0.00019512845911833716 0 0.0052772070144745924 -0.00010572747385342865 0 0.0011945533099108898 -0.00014392682375531096 0 0.0019315542636370721 -0.00022794091641725221 0 0.0018211789602029791 0.00018268151617200601 0 0.001834155649802414 0.0007738072669348032 0 0.001180295391639532 0.00086956419883920332 0 0.0013977624832088671 0.0004775739851920007 0 0.0012790924662912854 0.00018962874757398043 0 0.0013977624832088671 0.0004775739851920007 0 0.0018211789602029791 0.00018268151617200601 0 0.001834155649802414 0.0007738072669348032 0 0.0013977624832088671 0.0004775739851920007 0 0.0018211789602029791 0.00018268151617200601 0 0.001834155649802414 0.0007738072669348032 0 0.0018211789602029791 0.00018268151617200601 0 0.0025525655362622747 0.00058824769011243364 0 0.0026627375159248051 0.0011163416855335046 0 0.0019585667463336638 0.0004952142815506192 0 0.0030068954423490774 0.00027696777145148714 0 0.0019585667463336638 0.0004952142815506192 0 0.0030068954423490774 0.00027696777145148714 0 0.0026508816886433753 -0.00033273212501634068 0 0.0030068954423490774 0.00027696777145148714 0 0.0026508816886433753 -0.00033273212501634068 0 0.0034114003943282174 -0.00053328021142777136 0 0.0026508816886433753 -0.00033273212501634068 0 0.0028151752536290341 -0.00092807474212585207 0 0.0034114003943282174 -0.00053328021142777136 0 0.0023008243411579061 0.00058619507097670473 0 0.0039077753351701586 -0.00081250381177511936 0 0.0019585667463336638 0.0004952142815506192 0 0.0026508816886433753 -0.00033273212501634068 0 0.0021278544174946883 -0.00086902216464190883 0 0.0026508816886433753 -0.00033273212501634068 0 0.0021278544174946883 -0.00086902216464190883 0 0.0028151752536290341 -0.00092807474212585207 0 0.002239871991416066 -0.00088741156754877843 0 0.0026072664139494221 -0.0013421752592191346 0 0.0023499053200903802 -0.0018519529901736534 0 0.0039077753351701586 -0.00081250381177511936 0 0.0065431982598985524 -0.00066227861782915088 0 0.008146481358751536 -0.0001314396313133169 0 0.0081860703904480317 -0.00017261083244104962 0 0.0081972465616802874 -9.0674781468522142e-05 0 0.0081860703904480317 -0.00017261083244104962 0 0.0081972465616802874 -9.0674781468522142e-05 0 0.008231263261893185 -0.00020136271178156282 0 0.0081972465616802874 -9.0674781468522142e-05 0 0.008231263261893185 -0.00020136271178156282 0 0.0082530406489706703 -0.00022002657112559396 0 0.0039077753351701586 -0.00081250381177511936 0 0.0022913849652231554 -0.00084858240699887445 0 0.002239871991416066 -0.00088741156754877843 0 0.0026072664139494221 -0.0013421752592191346 0 0.0028151752536290341 -0.00092807474212585207 0 0.0026072664139494221 -0.0013421752592191346 0 0.0028151752536290341 -0.00092807474212585207 0 0.0029073664082325248 -0.0013862075551146632 0 0.0028151752536290341 -0.00092807474212585207 0 0.0033654207516436272 -0.001223405712256212 0 0.0034114003943282174 -0.00053328021142777136 0 0.0028151752536290341 -0.00092807474212585207 0 0.0029073664082325248 -0.0013862075551146632 0 0.0033654207516436272 -0.001223405712256212 0 0.0029073664082325248 -0.0013862075551146632 0 0.0032529343429873177 -0.0016565687568300738 0 0.0033654207516436272 -0.001223405712256212 0 0.0029073664082325248 -0.0013862075551146632 0 0.0027329878838093522 -0.0016603094905257188 0 0.0032529343429873177 -0.0016565687568300738 0 0.0026072664139494221 -0.0013421752592191346 0 0.0029073664082325248 -0.0013862075551146632 0 0.0027329878838093522 -0.0016603094905257188 0 0.0094093896258365794 -0.00067457527333911996 0 0.0087490543358566489 -0.00014600407241636802 0 0.0085138140760417421 -0.00017156450402749097 0 0.0027329878838093522 -0.0016603094905257188 0 0.0032529343429873177 -0.0016565687568300738 0 0.0026178762401718979 -0.0020835413958345678 0 0.0060299881046439333 -0.0011715174397864624 0 0.0049958707400946751 -0.0020482813116287448 0 0.0032529343429873177 -0.0016565687568300738 0 0.0026178762401718979 -0.0020835413958345678 0 0.0037468024442908489 -0.0020106159032683892 0 0.0067742634631094961 -0.0020229756442980374 0 0.0066132629687105284 -0.0018901931646230314 0 0.0068664649802865334 -0.0018802351979134628 0 0.0060299881046439333 -0.0011715174397864624 0 0.0065431982598985524 -0.00066227861782915088 0 0.0060299881046439333 -0.0011715174397864624 0 0.0073687977221206956 -0.00051310842463419225 0 0.0073687977221206956 -0.00051310842463419225 0 0.0065431982598985524 -0.00066227861782915088 0 0.0082733420826556301 -0.00026849536226724745 0 0.0082492753606977481 -0.00024702920953922664 0 0.008270398170368046 -0.00023019114760923623 0 0.0066600821561649875 -0.0010223909907564937 0 0.0065386434924312661 -0.001033818233168247 0 0.0065247280445315959 -0.00090615387247685859 0 0.0082379922215750998 -0.00037448258525449502 0 0.0085138140760417421 -0.00017156450402749097 0 0.0082445713333662522 -0.00028113064072361358 0 0.0082379922215750998 -0.00037448258525449502 0 0.0081656119333977269 -0.00020593555435299634 0 0.0082445713333662522 -0.00028113064072361358 0 0.0073687977221206956 -0.00051310842463419225 0 0.0081762782814055503 -0.0003724388804373174 0 0.0082445713333662522 -0.00028113064072361358 0 0.0082492753606977481 -0.00024702920953922664 0 0.0082153088017438338 -0.00021957556191869431 0 0.0082733420826556301 -0.00026849536226724745 0 0.0082445713333662522 -0.00028113064072361358 0 0.0082492753606977481 -0.00024702920953922664 0 0.0082492753606977481 -0.00024702920953922664 0 0.0082153088017438338 -0.00021957556191869431 0 0.008231263261893185 -0.00020136271178156282 0 0.0082492753606977481 -0.00024702920953922664 0 0.008231263261893185 -0.00020136271178156282 0 0.008270398170368046 -0.00023019114760923623 0 0.0071505630862979596 -0.00081118155050890095 0 0.0065431982598985524 -0.00066227861782915088 0 0.0081860703904480317 -0.00017261083244104962 0 0.0082153088017438338 -0.00021957556191869431 0 0.008231263261893185 -0.00020136271178156282 0 0.0027329878838093522 -0.0016603094905257188 0 0.0026178762401718979 -0.0020835413958345678 0 0.0023499053200903802 -0.0018519529901736534 0 0.0026072664139494221 -0.0013421752592191346 0 0.0027329878838093522 -0.0016603094905257188 0 0.0023499053200903802 -0.0018519529901736534 0 0.0037468024442908489 -0.0020106159032683892 0 0.0041074490230141245 -0.0015298026155252137 0 0.0049470531521121361 -0.0019591725495832911 0 0.0049958707400946751 -0.0020482813116287448 0 0.006092474190299348 -0.0019026887675272733 0 0.0069872003933792197 -0.0019920993619544657 0 0.0068664649802865334 -0.0018802351979134628 0 0.0070967353940608879 -0.0018740433519998437 0 0.0032529343429873177 -0.0016565687568300738 0 0.0037468024442908489 -0.0020106159032683892 0 0.0041074490230141245 -0.0015298026155252137 0 0.0032529343429873177 -0.0016565687568300738 0 0.0033654207516436272 -0.001223405712256212 0 0.0041074490230141245 -0.0015298026155252137 0 0.0033654207516436272 -0.001223405712256212 0 0.0038453033153621106 -0.0010138574553211861 0 0.0041074490230141245 -0.0015298026155252137 0 0.0033654207516436272 -0.001223405712256212 0 0.0038453033153621106 -0.0010138574553211861 0 0.0034114003943282174 -0.00053328021142777136 0 0.0047073385656671435 -0.0010242239436325381 0 0.0041074490230141245 -0.0015298026155252137 0 0.0049470531521121361 -0.0019591725495832911 0 0.0038453033153621106 -0.0010138574553211861 0 0.0047073385656671435 -0.0010242239436325381 0 0.0042392129354906598 -0.00056685130991825994 0 0.0038453033153621106 -0.0010138574553211861 0 0.0047073385656671435 -0.0010242239436325381 0 0.0041074490230141245 -0.0015298026155252137 0 0.0047073385656671435 -0.0010242239436325381 0 0.0042392129354906598 -0.00056685130991825994 0 0.0048209859355047499 -9.7774754141762401e-05 0 0.0042392129354906598 -0.00056685130991825994 0 0.0039216556174624549 9.8748268261271145e-05 0 0.0048209859355047499 -9.7774754141762401e-05 0 0.0038453033153621106 -0.0010138574553211861 0 0.0042392129354906598 -0.00056685130991825994 0 0.0034114003943282174 -0.00053328021142777136 0 0.0042392129354906598 -0.00056685130991825994 0 0.0034114003943282174 -0.00053328021142777136 0 0.0039216556174624549 9.8748268261271145e-05 0 0.0030068954423490774 0.00027696777145148714 0 0.0034114003943282174 -0.00053328021142777136 0 0.0039216556174624549 9.8748268261271145e-05 0 0.0036565334582167666 0.0010404739075122733 0 0.0030068954423490774 0.00027696777145148714 0 0.0039216556174624549 9.8748268261271145e-05 0 0.0036565334582167666 0.0010404739075122733 0 0.0039216556174624549 9.8748268261271145e-05 0 0.0044435388953748796 0.00061938506392006203 0 0.0039216556174624549 9.8748268261271145e-05 0 0.0044435388953748796 0.00061938506392006203 0 0.0048209859355047499 -9.7774754141762401e-05 0 0.0053682959311641357 0.00082139911425454365 0 0.0044435388953748796 0.00061938506392006203 0 0.0048209859355047499 -9.7774754141762401e-05 0 0.0053682959311641357 0.00082139911425454365 0 0.0056960743074495421 0.00017297630578757872 0 0.0048209859355047499 -9.7774754141762401e-05 0 0.0053682959311641357 0.00082139911425454365 0 0.0065092893918942763 0.000946322370169324 0 0.0056960743074495421 0.00017297630578757872 0 0.0065092893918942763 0.000946322370169324 0 0.0056960743074495421 0.00017297630578757872 0 0.0063333559829031692 -0.00014226912466201301 0 0.0063333559829031692 -0.00014226912466201301 0 0.0054639578290925535 -0.00065989254239139561 0 0.0062220243917385952 -0.0010713010811279314 0 0.0056960743074495421 0.00017297630578757872 0 0.0063333559829031692 -0.00014226912466201301 0 0.0054639578290925535 -0.00065989254239139561 0 0.0063333559829031692 -0.00014226912466201301 0 0.0067528632332539357 -0.00068788675211966448 0 0.0062220243917385952 -0.0010713010811279314 0 0.0047073385656671435 -0.0010242239436325381 0 0.0054639578290925535 -0.00065989254239139561 0 0.0048209859355047499 -9.7774754141762401e-05 0 0.0056960743074495421 0.00017297630578757872 0 0.0054639578290925535 -0.00065989254239139561 0 0.0048209859355047499 -9.7774754141762401e-05 0 0.0065092893918942763 0.000946322370169324 0 0.0082087762314384267 0.0011041035299522036 0 0.0072917548577487367 0.00034308396631798428 0 0.0082087762314384267 0.0011041035299522036 0 0.0081317378354017148 0.00022874342624319263 0 0.0072917548577487367 0.00034308396631798428 0 0.0081317378354017148 0.00022874342624319263 0 0.0072917548577487367 0.00034308396631798428 0 0.0073698719070292851 -0.00034638919495682917 0 0.0065092893918942763 0.000946322370169324 0 0.0063333559829031692 -0.00014226912466201301 0 0.0072917548577487367 0.00034308396631798428 0 0.0063333559829031692 -0.00014226912466201301 0 0.0067528632332539357 -0.00068788675211966448 0 0.0073698719070292851 -0.00034638919495682917 0 0.0063333559829031692 -0.00014226912466201301 0 0.0072917548577487367 0.00034308396631798428 0 0.0073698719070292851 -0.00034638919495682917 0 0.0067528632332539357 -0.00068788675211966448 0 0.0071907352822161335 -0.0008654434523982594 0 0.0073698719070292851 -0.00034638919495682917 0 0.0071907352822161335 -0.0008654434523982594 0 0.0073698719070292851 -0.00034638919495682917 0 0.0076653800030657433 -0.00091819064079006981 0 0.0073698719070292851 -0.00034638919495682917 0 0.0082121610749981474 -0.00054794177395144355 0 0.0076653800030657433 -0.00091819064079006981 0 0.0082121610749981474 -0.00054794177395144355 0 0.0081012776635950995 -0.0010252494690970323 0 0.0085951658463750569 -0.00096226061109208649 0 0.0082121610749981474 -0.00054794177395144355 0 0.0081012776635950995 -0.0010252494690970323 0 0.0076653800030657433 -0.00091819064079006981 0 0.0081317378354017148 0.00022874342624319263 0 0.0073698719070292851 -0.00034638919495682917 0 0.0082121610749981474 -0.00054794177395144355 0 0.0082485655085083043 -0.0013320239459615802 0 0.0078122950637898939 -0.0016025866809555906 0 0.0078461237318597169 -0.0018437469194633018 0 0.0082485655085083043 -0.0013320239459615802 0 0.0077605406786947313 -0.0013463891115877097 0 0.0078122950637898939 -0.0016025866809555906 0 0.0082485655085083043 -0.0013320239459615802 0 0.0081012776635950995 -0.0010252494690970323 0 0.0077605406786947313 -0.0013463891115877097 0 0.0082485655085083043 -0.0013320239459615802 0 0.0081012776635950995 -0.0010252494690970323 0 0.0085951658463750569 -0.00096226061109208649 0 0.0071907352822161335 -0.0008654434523982594 0 0.0076653800030657433 -0.00091819064079006981 0 0.0073874562874428843 -0.0012314895533305737 0 0.0081012776635950995 -0.0010252494690970323 0 0.0077605406786947313 -0.0013463891115877097 0 0.0076653800030657433 -0.00091819064079006981 0 0.0077605406786947313 -0.0013463891115877097 0 0.0076653800030657433 -0.00091819064079006981 0 0.0073874562874428843 -0.0012314895533305737 0 0.0077605406786947313 -0.0013463891115877097 0 0.0075902952967503773 -0.0015468680463557899 0 0.0073874562874428843 -0.0012314895533305737 0 0.0075902952967503773 -0.0015468680463557899 0 0.0072355155170236015 -0.0015476741484974498 0 0.0077512303329242624 -0.0018420753165791586 0 0.0077605406786947313 -0.0013463891115877097 0 0.0075902952967503773 -0.0015468680463557899 0 0.0078122950637898939 -0.0016025866809555906 0 0.0075902952967503773 -0.0015468680463557899 0 0.0078122950637898939 -0.0016025866809555906 0 0.0077512303329242624 -0.0018420753165791586 0 0.0078122950637898939 -0.0016025866809555906 0 0.0077512303329242624 -0.0018420753165791586 0 0.0078461237318597169 -0.0018437469194633018 0 0.0072355155170236015 -0.0015476741484974498 0 0.0067149134668435381 -0.001576434538924602 0 0.0077512303329242624 -0.0018420753165791586 0 0.0075902952967503773 -0.0015468680463557899 0 0.0072355155170236015 -0.0015476741484974498 0 0.0073874562874428843 -0.0012314895533305737 0 0.0072355155170236015 -0.0015476741484974498 0 0.0073874562874428843 -0.0012314895533305737 0 0.006870682161212156 -0.0011544892192663784 0 0.0067528632332539357 -0.00068788675211966448 0 0.0071907352822161335 -0.0008654434523982594 0 0.006870682161212156 -0.0011544892192663784 0 0.0071907352822161335 -0.0008654434523982594 0 0.0073874562874428843 -0.0012314895533305737 0 0.006870682161212156 -0.0011544892192663784 0 0.006870682161212156 -0.0011544892192663784 0 0.0067149134668435381 -0.001576434538924602 0 0.0062220243917385952 -0.0010713010811279314 0 0.0067528632332539357 -0.00068788675211966448 0 0.006870682161212156 -0.0011544892192663784 0 0.0062220243917385952 -0.0010713010811279314 0 0.0072355155170236015 -0.0015476741484974498 0 0.006870682161212156 -0.0011544892192663784 0 0.0067149134668435381 -0.001576434538924602 0 0.0073901489995662805 -0.0019638023519610347 0 0.0077512303329242624 -0.0018420753165791586 0 0.0073311199648612496 -0.0018474714309091704 0 0.0067149134668435381 -0.001576434538924602 0 0.0077512303329242624 -0.0018420753165791586 0 0.0062388745254878539 -0.001933495596087644 0 0.007693638684398707 -0.0018379025211358625 0 0.0067926286335947923 -0.0018912699807602242 0 0.0086162700595194212 -0.0017769939234884605 0 0.0087833473711869028 -0.0016716393365582684 0 0.0097894169536846525 -0.0016233447702496426 0 0.0097257265180822842 -0.0015905745109605132 0 0.009654269618370839 -0.0015651185825498683 0 0.0073901489995662805 -0.0019638023519610347 0 0.0077512303329242624 -0.0018420753165791586 0 0.0078461237318597169 -0.0018437469194633018 0 0.0097257265180822842 -0.0015905745109605132 0 0.0096906882687704705 -0.0015729858875813375 0 0.009654269618370839 -0.0015651185825498683 0 0.0097257265180822842 -0.0015905745109605132 0 0.0096906882687704705 -0.0015729858875813375 0 0.0097263014524335435 -0.0015878120433547977 0 0.0096906882687704705 -0.0015729858875813375 0 0.0097019670764407744 -0.0015840597483469448 0 0.0097263014524335435 -0.0015878120433547977 0 0.0096906882687704705 -0.0015729858875813375 0 0.0096578123241432261 -0.0015409952758484681 0 0.0096758337859092543 -0.001559413761066604 0 0.0096906882687704705 -0.0015729858875813375 0 0.0097019670764407744 -0.0015840597483469448 0 0.0096758337859092543 -0.001559413761066604 0 0.0097019670764407744 -0.0015840597483469448 0 0.0096973230903477769 -0.0015867938429007617 0 0.0096758337859092543 -0.001559413761066604 0 0.0096578123241432261 -0.0015409952758484681 0 0.0096622697608515218 -0.0015296778742727101 0 0.0096758337859092543 -0.001559413761066604 0 0.0096578123241432261 -0.0015409952758484681 0 0.009654269618370839 -0.0015651185825498683 0 0.0096520052411063831 -0.001493035044321726 0 0.0096906882687704705 -0.0015729858875813375 0 0.0096578123241432261 -0.0015409952758484681 0 0.009654269618370839 -0.0015651185825498683 0 0.0047073385656671435 -0.0010242239436325381 0 0.0054639578290925535 -0.00065989254239139561 0 0.0055044208027574485 -0.0013292372257105065 0 0.0047073385656671435 -0.0010242239436325381 0 0.0055044208027574485 -0.0013292372257105065 0 0.0049470531521121361 -0.0019591725495832911 0 0.0054639578290925535 -0.00065989254239139561 0 0.0055044208027574485 -0.0013292372257105065 0 0.0062220243917385952 -0.0010713010811279314 0 0.0067149134668435381 -0.001576434538924602 0 0.0062220243917385952 -0.0010713010811279314 0 0.0062388745254878539 -0.001933495596087644 0 0.0055044208027574485 -0.0013292372257105065 0 0.0062220243917385952 -0.0010713010811279314 0 0.0062388745254878539 -0.001933495596087644 0 0.0073901489995662805 -0.0019638023519610347 0 0.0073311199648612496 -0.0018474714309091704 0 0.0072306332996471424 -0.0019329712912651387 0 0.0072306332996471424 -0.0019329712912651387 0 0.0070967353940608879 -0.0018740433519998437 0 0.0071462499409618652 -0.0020337059945535422 0 0.0073311199648612496 -0.0018474714309091704 0 0.0072306332996471424 -0.0019329712912651387 0 0.0070967353940608879 -0.0018740433519998437 0 0.0055044208027574485 -0.0013292372257105065 0 0.0062388745254878539 -0.001933495596087644 0 0.0049470531521121361 -0.0019591725495832911 0 0.0067926286335947923 -0.0018912699807602242 0 0.006092474190299348 -0.0019026887675272733 0 0.0098786008665021005 -0.0015918354170992451 0 0.0098801475255677115 -0.0015582143652619459 0 0.0098302399379455157 -0.0015856596718758721 0 0.0098914140255539212 -0.0015670642774639014 0 0.0098997535787175382 -0.0015535324787994992 0 0.0098801475255677115 -0.0015582143652619459 0 0.0098914140255539212 -0.0015670642774639014 0 0.0098786008665021005 -0.0015918354170992451 0 0.0098801475255677115 -0.0015582143652619459 0 0.0098801475255677115 -0.0015582143652619459 0 0.0098302399379455157 -0.0015856596718758721 0 0.0098230110523632366 -0.0015710092689358371 0 0.0098801475255677115 -0.0015582143652619459 0 0.0098230110523632366 -0.0015710092689358371 0 0.0098882293652035914 -0.0015402190241708357 0 0.0086162700595194212 -0.0017769939234884605 0 0.0083982319264107787 -0.0018951907682332135 0 0.0073901489995662805 -0.0019638023519610347 0 0.0072306332996471424 -0.0019329712912651387 0 0.0071462499409618652 -0.0020337059945535422 0 0.0097894169536846525 -0.0016233447702496426 0 0.0098786008665021005 -0.0015918354170992451 0 0.0098302399379455157 -0.0015856596718758721 0 0.0097894169536846525 -0.0016233447702496426 0 0.0098302399379455157 -0.0015856596718758721 0 0.0097710950147874374 -0.0015902327339828721 0 0.0097894169536846525 -0.0016233447702496426 0 0.0097257265180822842 -0.0015905745109605132 0 0.0097710950147874374 -0.0015902327339828721 0 0.0097710950147874374 -0.0015902327339828721 0 0.0097602871857821079 -0.0015838348128721842 0 0.0098230110523632366 -0.0015710092689358371 0 0.0097257265180822842 -0.0015905745109605132 0 0.0097710950147874374 -0.0015902327339828721 0 0.0097263014524335435 -0.0015878120433547977 0 0.0097710950147874374 -0.0015902327339828721 0 0.0097263014524335435 -0.0015878120433547977 0 0.0097301492975120554 -0.0015903313356368627 0 0.0097710950147874374 -0.0015902327339828721 0 0.0097301492975120554 -0.0015903313356368627 0 0.0097602871857821079 -0.0015838348128721842 0 0.0098302399379455157 -0.0015856596718758721 0 0.0097710950147874374 -0.0015902327339828721 0 0.0098230110523632366 -0.0015710092689358371 0 0.0097128457134534243 -0.0015985063560676792 0 0.0097019670764407744 -0.0015840597483469448 0 0.0097301492975120554 -0.0015903313356368627 0 0.0097128457134534243 -0.0015985063560676792 0 0.0097019670764407744 -0.0015840597483469448 0 0.0096973230903477769 -0.0015867938429007617 0 0.0097019670764407744 -0.0015840597483469448 0 0.0097263014524335435 -0.0015878120433547977 0 0.0097301492975120554 -0.0015903313356368627 0 0.0097301492975120554 -0.0015903313356368627 0 0.0097292724228774195 -0.0015942946933883101 0 0.0097602871857821079 -0.0015838348128721842 0 0.0097128457134534243 -0.0015985063560676792 0 0.0097301492975120554 -0.0015903313356368627 0 0.0097292724228774195 -0.0015942946933883101 0 0.0097602871857821079 -0.0015838348128721842 0 0.0097320697256465267 -0.00155840888430609 0 0.0098090394109227475 -0.00155836341083708 0 0.0097292724228774195 -0.0015942946933883101 0 0.0097602871857821079 -0.0015838348128721842 0 0.0097320697256465267 -0.00155840888430609 0 0.0097602871857821079 -0.0015838348128721842 0 0.0098090394109227475 -0.00155836341083708 0 0.0098230110523632366 -0.0015710092689358371 0 0.0098090394109227475 -0.00155836341083708 0 0.0098230110523632366 -0.0015710092689358371 0 0.0098882293652035914 -0.0015402190241708357 0 0.0098090394109227475 -0.00155836341083708 0 0.0098694195760614389 -0.0015345587429836912 0 0.0098882293652035914 -0.0015402190241708357 0 0.0097320697256465267 -0.00155840888430609 0 0.0098090394109227475 -0.00155836341083708 0 0.0098694195760614389 -0.0015345587429836912 0 0.010878544036241415 -0.0010323483205868097 0 0.010441872681936228 -0.001336870014557444 0 0.010856989066160979 -0.001351764871953248 0 0.010271839515910083 -0.0013167191508746314 0 0.010159137503700727 -0.0014436425718825203 0 0.010441872681936228 -0.001336870014557444 0 0.010856989066160979 -0.001351764871953248 0 0.010669379067016677 -0.00162679332654401 0 0.010856989066160979 -0.001351764871953248 0 0.010975269934196492 -0.0016097178851582014 0 0.010669379067016677 -0.00162679332654401 0 0.010441872681936228 -0.001336870014557444 0 0.010337255015243208 -0.0018198348324604317 0 0.010669379067016677 -0.00162679332654401 0 0.0099098838708586746 -0.0015356366596594069 0 0.0098882293652035914 -0.0015402190241708357 0 0.010010168125214281 -0.0016698296086256686 0 0.010441872681936228 -0.001336870014557444 0 0.010010168125214281 -0.0016698296086256686 0 0.010337255015243208 -0.0018198348324604317 0 0.010159137503700727 -0.0014436425718825203 0 0.0099995592878844124 -0.0016590037639384496 0 0.0098694195760614389 -0.0015345587429836912 0 0.0098882293652035914 -0.0015402190241708357 0 0.010010168125214281 -0.0016698296086256686 0 0.0098145271223420063 -0.001674679430102148 0 0.0099098838708586746 -0.0015356366596594069 0 0.010010168125214281 -0.0016698296086256686 0 0.0098997535787175382 -0.0015535324787994992 0 0.0098801475255677115 -0.0015582143652619459 0 0.0099098838708586746 -0.0015356366596594069 0 0.0098801475255677115 -0.0015582143652619459 0 0.0099098838708586746 -0.0015356366596594069 0 0.0098882293652035914 -0.0015402190241708357 0 0.009947807701760774 -0.0015488595789165806 0 0.009871285131881978 -0.0014956464145534105 0 0.011533584842076129 -0.0012479322284107515 0 0.011814095800959785 -0.0012771263032576319 0 0.011696963072192071 -0.0014822808843931343 0 0.011533584842076129 -0.0012479322284107515 0 0.011814095800959785 -0.0012771263032576319 0 0.011615719731589596 -0.001050732740103995 0 0.011814095800959785 -0.0012771263032576319 0 0.011870419361802579 -0.0010761139229968424 0 0.012131033865773987 -0.0012389007575331894 0 0.011814095800959785 -0.0012771263032576319 0 0.012001116473451728 -0.0014925206829300691 0 0.012131033865773987 -0.0012389007575331894 0 0.011814095800959785 -0.0012771263032576319 0 0.012001116473451728 -0.0014925206829300691 0 0.011696963072192071 -0.0014822808843931343 0 0.012001116473451728 -0.0014925206829300691 0 0.011891117091656229 -0.0016726221085906934 0 0.011696963072192071 -0.0014822808843931343 0 0.012001116473451728 -0.0014925206829300691 0 0.011891117091656229 -0.0016726221085906934 0 0.012176258319436733 -0.0017640316078077287 0 0.011696963072192071 -0.0014822808843931343 0 0.011390770895375778 -0.0014590409095065681 0 0.0115842278394868 -0.0016635958900615801 0 0.011891117091656229 -0.0016726221085906934 0 0.011696963072192071 -0.0014822808843931343 0 0.0115842278394868 -0.0016635958900615801 0 0.011533584842076129 -0.0012479322284107515 0 0.011696963072192071 -0.0014822808843931343 0 0.011390770895375778 -0.0014590409095065681 0 0.011390770895375778 -0.0014590409095065681 0 0.011303326154479086 -0.0016956785715279226 0 0.0115842278394868 -0.0016635958900615801 0 0.011390770895375778 -0.0014590409095065681 0 0.011178603218532319 -0.0015370112989705682 0 0.011303326154479086 -0.0016956785715279226 0 0.011390770895375778 -0.0014590409095065681 0 0.011178603218532319 -0.0015370112989705682 0 0.011118928479045212 -0.0013605692093940139 0 0.010975269934196492 -0.0016097178851582014 0 0.011178603218532319 -0.0015370112989705682 0 0.011303326154479086 -0.0016956785715279226 0 0.010975269934196492 -0.0016097178851582014 0 0.011178603218532319 -0.0015370112989705682 0 0.011118928479045212 -0.0013605692093940139 0 0.010856989066160979 -0.001351764871953248 0 0.010975269934196492 -0.0016097178851582014 0 0.011118928479045212 -0.0013605692093940139 0 0.010878544036241415 -0.0010323483205868097 0 0.010856989066160979 -0.001351764871953248 0 0.011054615727688167 -0.0011777628447028623 0 0.010856989066160979 -0.001351764871953248 0 0.011118928479045212 -0.0013605692093940139 0 0.011054615727688167 -0.0011777628447028623 0 0.011118928479045212 -0.0013605692093940139 0 0.011054615727688167 -0.0011777628447028623 0 0.011276695804912439 -0.0011767376933433612 0 0.011054615727688167 -0.0011777628447028623 0 0.011276695804912439 -0.0011767376933433612 0 0.011136955876762895 -0.00097524222445249573 0 0.011533584842076129 -0.0012479322284107515 0 0.011390770895375778 -0.0014590409095065681 0 0.011276695804912439 -0.0011767376933433612 0 0.011390770895375778 -0.0014590409095065681 0 0.011118928479045212 -0.0013605692093940139 0 0.011276695804912439 -0.0011767376933433612 0 0.011533584842076129 -0.0012479322284107515 0 0.011276695804912439 -0.0011767376933433612 0 0.011430729339706555 -0.0010682607117918682 0 0.011276695804912439 -0.0011767376933433612 0 0.011430729339706555 -0.0010682607117918682 0 0.011294719648800799 -0.00094487733257256335 0 0.011276695804912439 -0.0011767376933433612 0 0.011294719648800799 -0.00094487733257256335 0 0.011136955876762895 -0.00097524222445249573 0 0.011251178581311132 -0.00076904021478810573 0 0.010688758749749394 -0.0011483214579180545 0 0.011294719648800799 -0.00094487733257256335 0 0.011136955876762895 -0.00097524222445249573 0 0.0112885633065729 -0.00076037626743929033 0 0.011430729339706555 -0.0010682607117918682 0 0.011294719648800799 -0.00094487733257256335 0 0.01143339327608861 -0.0009279822092931111 0 0.011294719648800799 -0.00094487733257256335 0 0.01143339327608861 -0.0009279822092931111 0 0.011362716398122238 -0.00082715183551118219 0 0.010878544036241415 -0.0010323483205868097 0 0.011136955876762895 -0.00097524222445249573 0 0.011279649427760415 -0.0007414532403015754 0 0.010271839515910083 -0.0013167191508746314 0 0.010688758749749394 -0.0011483214579180545 0 0.0097320697256465267 -0.00155840888430609 0 0.0097297521318799179 -0.001621824963648438 0 0.0097406418435096783 -0.0016749905361082629 0 0.010878544036241415 -0.0010323483205868097 0 0.011054615727688167 -0.0011777628447028623 0 0.011136955876762895 -0.00097524222445249573 0 0.0097292724228774195 -0.0015942946933883101 0 0.0097320697256465267 -0.00155840888430609 0 0.0097297521318799179 -0.001621824963648438 0 0.0097128457134534243 -0.0015985063560676792 0 0.0097292724228774195 -0.0015942946933883101 0 0.0097297521318799179 -0.001621824963648438 0 0.0097128457134534243 -0.0015985063560676792 0 0.0097297521318799179 -0.001621824963648438 0 0.0097147467377302916 -0.001609833887628526 0 0.0097297521318799179 -0.001621824963648438 0 0.0097267453748656491 -0.0016244548643647187 0 0.0097147467377302916 -0.001609833887628526 0 0.0097297521318799179 -0.001621824963648438 0 0.0097364496722218887 -0.0016423159282419168 0 0.0097401299633254439 -0.0016539782183614383 0 0.0097297521318799179 -0.001621824963648438 0 0.0097401299633254439 -0.0016539782183614383 0 0.0097406418435096783 -0.0016749905361082629 0 0.0097297521318799179 -0.001621824963648438 0 0.0097364496722218887 -0.0016423159282419168 0 0.0097267453748656491 -0.0016244548643647187 0 0.0097364496722218887 -0.0016423159282419168 0 0.0097443099903189584 -0.0016372777336628368 0 0.0097282946153844276 -0.001618199102753744 0 0.0097443099903189584 -0.0016372777336628368 0 0.0097282946153844276 -0.001618199102753744 0 0.009755099049054609 -0.0016212789064562526 0 0.0097364496722218887 -0.0016423159282419168 0 0.0097443099903189584 -0.0016372777336628368 0 0.0097401299633254439 -0.0016539782183614383 0 0.0097282946153844276 -0.001618199102753744 0 0.009755099049054609 -0.0016212789064562526 0 0.0097312260598263721 -0.0015833740542333552 0 0.0097282946153844276 -0.001618199102753744 0 0.0096988965710329538 -0.0015785437345114763 0 0.0097312260598263721 -0.0015833740542333552 0 0.0097364496722218887 -0.0016423159282419168 0 0.0097267453748656491 -0.0016244548643647187 0 0.0097282946153844276 -0.001618199102753744 0 0.0097267453748656491 -0.0016244548643647187 0 0.0097282946153844276 -0.001618199102753744 0 0.0097147467377302916 -0.001609833887628526 0 0.0097147467377302916 -0.001609833887628526 0 0.0096973230903477769 -0.0015867938429007617 0 0.0096988965710329538 -0.0015785437345114763 0 0.0097282946153844276 -0.001618199102753744 0 0.0097147467377302916 -0.001609833887628526 0 0.0096988965710329538 -0.0015785437345114763 0 0.0097128457134534243 -0.0015985063560676792 0 0.0097147467377302916 -0.001609833887628526 0 0.0096973230903477769 -0.0015867938429007617 0 0.011362716398122238 -0.00082715183551118219 0 0.011398724798679198 -0.00074197108752048556 0 0.011521563139995221 -0.00082744935712658662 0 0.01143339327608861 -0.0009279822092931111 0 0.011362716398122238 -0.00082715183551118219 0 0.011521563139995221 -0.00082744935712658662 0 0.011341983816975872 -0.00076637799994188705 0 0.011362716398122238 -0.00082715183551118219 0 0.011398724798679198 -0.00074197108752048556 0 0.011341983816975872 -0.00076637799994188705 0 0.011352087935807397 -0.00073499482106342026 0 0.011398724798679198 -0.00074197108752048556 0 0.011294719648800799 -0.00094487733257256335 0 0.011362716398122238 -0.00082715183551118219 0 0.0112885633065729 -0.00076037626743929033 0 0.0097401299633254439 -0.0016539782183614383 0 0.0097406418435096783 -0.0016749905361082629 0 0.0097509711768499416 -0.0016572857868273946 0 0.011341983816975872 -0.00076637799994188705 0 0.011362716398122238 -0.00082715183551118219 0 0.0112885633065729 -0.00076037626743929033 0 0.011341983816975872 -0.00076637799994188705 0 0.0112885633065729 -0.00076037626743929033 0 0.011352087935807397 -0.00073499482106342026 0 0.0097406418435096783 -0.0016749905361082629 0 0.0097690268621317376 -0.0016473187225585913 0 0.009828171515370113 -0.0016193719260635139 0 0.0097443099903189584 -0.0016372777336628368 0 0.0097401299633254439 -0.0016539782183614383 0 0.0097566188425892465 -0.0016458310324707118 0 0.0097401299633254439 -0.0016539782183614383 0 0.0097509711768499416 -0.0016572857868273946 0 0.0097566188425892465 -0.0016458310324707118 0 0.0097406418435096783 -0.0016749905361082629 0 0.0097509711768499416 -0.0016572857868273946 0 0.0097690268621317376 -0.0016473187225585913 0 0.0097509711768499416 -0.0016572857868273946 0 0.0097690268621317376 -0.0016473187225585913 0 0.0097566188425892465 -0.0016458310324707118 0 0.0097690268621317376 -0.0016473187225585913 0 0.0097566188425892465 -0.0016458310324707118 0 0.0097774355179708495 -0.0016301987927530833 0 0.0097443099903189584 -0.0016372777336628368 0 0.0097566188425892465 -0.0016458310324707118 0 0.009755099049054609 -0.0016212789064562526 0 0.0097566188425892465 -0.0016458310324707118 0 0.009755099049054609 -0.0016212789064562526 0 0.0097774355179708495 -0.0016301987927530833 0 0.009755099049054609 -0.0016212789064562526 0 0.0097774355179708495 -0.0016301987927530833 0 0.0097914255772701062 -0.0016122994537612898 0 0.009755099049054609 -0.0016212789064562526 0 0.0097914255772701062 -0.0016122994537612898 0 0.0097701507768351535 -0.0015949505730845509 0 0.0097690268621317376 -0.0016473187225585913 0 0.0097774355179708495 -0.0016301987927530833 0 0.009828171515370113 -0.0016193719260635139 0 0.0097774355179708495 -0.0016301987927530833 0 0.0097914255772701062 -0.0016122994537612898 0 0.009828171515370113 -0.0016193719260635139 0 0.0097914255772701062 -0.0016122994537612898 0 0.009828171515370113 -0.0016193719260635139 0 0.009807944248785349 -0.0015902386779867053 0 0.0112885633065729 -0.00076037626743929033 0 0.011364907721890215 -0.00068487053272332679 0 0.011352087935807397 -0.00073499482106342026 0 0.011364907721890215 -0.00068487053272332679 0 0.011352087935807397 -0.00073499482106342026 0 0.011398724798679198 -0.00074197108752048556 0 0.011364907721890215 -0.00068487053272332679 0 0.011398724798679198 -0.00074197108752048556 0 0.011419517785281882 -0.00064164249798465893 0 0.011398724798679198 -0.00074197108752048556 0 0.011419517785281882 -0.00064164249798465893 0 0.011498042277919186 -0.00069346982670852721 0 0.011498042277919186 -0.00069346982670852721 0 0.011672079970714228 -0.00071018587881847991 0 0.011521563139995221 -0.00082744935712658662 0 0.011419517785281882 -0.00064164249798465893 0 0.011498042277919186 -0.00069346982670852721 0 0.011494252034147969 -0.00057233315510811609 0 0.011498042277919186 -0.00069346982670852721 0 0.011672079970714228 -0.00071018587881847991 0 0.011565777064741373 -0.00061861353444138867 0 0.011672079970714228 -0.00071018587881847991 0 0.011521563139995221 -0.00082744935712658662 0 0.011771463936991106 -0.0008864372925405003 0 0.011398724798679198 -0.00074197108752048556 0 0.011498042277919186 -0.00069346982670852721 0 0.011521563139995221 -0.00082744935712658662 0 0.01143339327608861 -0.0009279822092931111 0 0.011521563139995221 -0.00082744935712658662 0 0.011615719731589596 -0.001050732740103995 0 0.011521563139995221 -0.00082744935712658662 0 0.011615719731589596 -0.001050732740103995 0 0.011771463936991106 -0.0008864372925405003 0 0.011533584842076129 -0.0012479322284107515 0 0.011430729339706555 -0.0010682607117918682 0 0.011615719731589596 -0.001050732740103995 0 0.011430729339706555 -0.0010682607117918682 0 0.01143339327608861 -0.0009279822092931111 0 0.011615719731589596 -0.001050732740103995 0 0.011870419361802579 -0.0010761139229968424 0 0.012027662838341573 -0.00093061467088880378 0 0.012131033865773987 -0.0012389007575331894 0 0.011814095800959785 -0.0012771263032576319 0 0.011615719731589596 -0.001050732740103995 0 0.011870419361802579 -0.0010761139229968424 0 0.011615719731589596 -0.001050732740103995 0 0.011870419361802579 -0.0010761139229968424 0 0.011771463936991106 -0.0008864372925405003 0 0.011870419361802579 -0.0010761139229968424 0 0.011771463936991106 -0.0008864372925405003 0 0.012027662838341573 -0.00093061467088880378 0 0.011771463936991106 -0.0008864372925405003 0 0.011866040337075407 -0.00070330353298241218 0 0.012027662838341573 -0.00093061467088880378 0 0.011672079970714228 -0.00071018587881847991 0 0.011771463936991106 -0.0008864372925405003 0 0.011866040337075407 -0.00070330353298241218 0 0.011672079970714228 -0.00071018587881847991 0 0.011866040337075407 -0.00070330353298241218 0 0.011678642182134977 -0.00052628662285968196 0 0.011866040337075407 -0.00070330353298241218 0 0.0119258438237075 -0.00051258067747452581 0 0.011678642182134977 -0.00052628662285968196 0 0.0119258438237075 -0.00051258067747452581 0 0.011678642182134977 -0.00052628662285968196 0 0.011785937278844588 -0.00031824743915521563 0 0.011678642182134977 -0.00052628662285968196 0 0.011598954104953266 -0.00037663357449005408 0 0.011785937278844588 -0.00031824743915521563 0 0.011678642182134977 -0.00052628662285968196 0 0.011565777064741373 -0.00061861353444138867 0 0.011533034980185382 -0.00051962548329577277 0 0.011419517785281882 -0.00064164249798465893 0 0.011494252034147969 -0.00057233315510811609 0 0.011473445485561779 -0.00038380915434324937 0 0.011672079970714228 -0.00071018587881847991 0 0.011678642182134977 -0.00052628662285968196 0 0.011565777064741373 -0.00061861353444138867 0 0.011498042277919186 -0.00069346982670852721 0 0.011565777064741373 -0.00061861353444138867 0 0.011494252034147969 -0.00057233315510811609 0 0.011565777064741373 -0.00061861353444138867 0 0.011494252034147969 -0.00057233315510811609 0 0.011533034980185382 -0.00051962548329577277 0 0.011533034980185382 -0.00051962548329577277 0 0.011566470352228568 -0.00044807738389221957 0 0.011473445485561779 -0.00038380915434324937 0 0.011494252034147969 -0.00057233315510811609 0 0.011533034980185382 -0.00051962548329577277 0 0.011473445485561779 -0.00038380915434324937 0 0.011678642182134977 -0.00052628662285968196 0 0.011533034980185382 -0.00051962548329577277 0 0.011566470352228568 -0.00044807738389221957 0 0.011566470352228568 -0.00044807738389221957 0 0.011598954104953266 -0.00037663357449005408 0 0.011473445485561779 -0.00038380915434324937 0 0.011678642182134977 -0.00052628662285968196 0 0.011566470352228568 -0.00044807738389221957 0 0.011598954104953266 -0.00037663357449005408 0 0.010286554340125913 -0.0014755558991250211 0 0.010035924718903393 -0.0012211136622133751 0 0.010613189047737871 -0.0004168451299553458 0 0.011598954104953266 -0.00037663357449005408 0 0.011473445485561779 -0.00038380915434324937 0 0.0115771214471672 -0.00021870701164833714 0 0.010856986821416078 -0.00089945337609512578 0 0.01140861592839865 6.7527928213772492e-05 0 0.011473445485561779 -0.00038380915434324937 0 0.0115771214471672 -0.00021870701164833714 0 0.011406065598207414 9.5384940121054511e-05 0 0.0115771214471672 -0.00021870701164833714 0 0.011785937278844588 -0.00031824743915521563 0 0.011697202663958323 -0.00010011630710053721 0 0.011785937278844588 -0.00031824743915521563 0 0.011697202663958323 -0.00010011630710053721 0 0.01195677321514306 -0.00015000049058046784 0 0.011598954104953266 -0.00037663357449005408 0 0.0115771214471672 -0.00021870701164833714 0 0.011785937278844588 -0.00031824743915521563 0 0.009654269618370839 -0.0015651185825498683 0 0.0096520052411063831 -0.001493035044321726 0 0.0096437578842421198 -0.0014020381702209881 0 0.0096520052411063831 -0.001493035044321726 0 0.0096745936461817856 -0.0014601891632630315 0 0.0096437578842421198 -0.0014020381702209881 0 0.0096520052411063831 -0.001493035044321726 0 0.0096749379215695357 -0.0015291242462321492 0 0.0096745936461817856 -0.0014601891632630315 0 0.0096520052411063831 -0.001493035044321726 0 0.0096749379215695357 -0.0015291242462321492 0 0.0096622697608515218 -0.0015296778742727101 0 0.0096578123241432261 -0.0015409952758484681 0 0.0096520052411063831 -0.001493035044321726 0 0.0096622697608515218 -0.0015296778742727101 0 0.0096749379215695357 -0.0015291242462321492 0 0.0096622697608515218 -0.0015296778742727101 0 0.0096758337859092543 -0.001559413761066604 0 0.0096749379215695357 -0.0015291242462321492 0 0.0096758337859092543 -0.001559413761066604 0 0.0096988965710329538 -0.0015785437345114763 0 0.0096973230903477769 -0.0015867938429007617 0 0.0096758337859092543 -0.001559413761066604 0 0.0096988965710329538 -0.0015785437345114763 0 0.0096749379215695357 -0.0015291242462321492 0 0.0096988965710329538 -0.0015785437345114763 0 0.0097033875697557052 -0.001552174033850593 0 0.0096749379215695357 -0.0015291242462321492 0 0.0097033875697557052 -0.001552174033850593 0 0.0097147472700114604 -0.0015191466465110698 0 0.0097033875697557052 -0.001552174033850593 0 0.0097312260598263721 -0.0015833740542333552 0 0.0097147472700114604 -0.0015191466465110698 0 0.0096988965710329538 -0.0015785437345114763 0 0.0097033875697557052 -0.001552174033850593 0 0.0097312260598263721 -0.0015833740542333552 0 0.009755099049054609 -0.0016212789064562526 0 0.0097312260598263721 -0.0015833740542333552 0 0.0097701507768351535 -0.0015949505730845509 0 0.0097312260598263721 -0.0015833740542333552 0 0.0097717804633034502 -0.0015630900915116098 0 0.0097701507768351535 -0.0015949505730845509 0 0.0097312260598263721 -0.0015833740542333552 0 0.0097147472700114604 -0.0015191466465110698 0 0.0097717804633034502 -0.0015630900915116098 0 0.0097147472700114604 -0.0015191466465110698 0 0.0096745936461817856 -0.0014601891632630315 0 0.009737389297415593 -0.0014490834097002905 0 0.0097147472700114604 -0.0015191466465110698 0 0.009737389297415593 -0.0014490834097002905 0 0.0098034131946071745 -0.0015164547347245613 0 0.0096749379215695357 -0.0015291242462321492 0 0.0097147472700114604 -0.0015191466465110698 0 0.0096745936461817856 -0.0014601891632630315 0 0.0096745936461817856 -0.0014601891632630315 0 0.009737389297415593 -0.0014490834097002905 0 0.0096751875112953151 -0.0013606444887108318 0 0.0097406418435096783 -0.0016749905361082629 0 0.009828171515370113 -0.0016193719260635139 0 0.010286554340125913 -0.0014755558991250211 0 0.011364907721890215 -0.00068487053272332679 0 0.011419517785281882 -0.00064164249798465893 0 0.011473445485561779 -0.00038380915434324937 0 0.009828171515370113 -0.0016193719260635139 0 0.010286554340125913 -0.0014755558991250211 0 0.0098928933347453372 -0.0015676463361471906 0 0.010688758749749394 -0.0011483214579180545 0 0.010856986821416078 -0.00089945337609512578 0 0.0112885633065729 -0.00076037626743929033 0 0.011364907721890215 -0.00068487053272332679 0 0.011473445485561779 -0.00038380915434324937 0 0.009737389297415593 -0.0014490834097002905 0 0.0098158303022605285 -0.0014637852821799135 0 0.00981378673362957 -0.0013798718327852433 0 0.0098158303022605285 -0.0014637852821799135 0 0.0099245472358289906 -0.0014861182944746535 0 0.00981378673362957 -0.0013798718327852433 0 0.0098034131946071745 -0.0015164547347245613 0 0.0099245472358289906 -0.0014861182944746535 0 0.0099193153041051713 -0.0015310704864473625 0 0.0098158303022605285 -0.0014637852821799135 0 0.0098034131946071745 -0.0015164547347245613 0 0.0099245472358289906 -0.0014861182944746535 0 0.009737389297415593 -0.0014490834097002905 0 0.0098158303022605285 -0.0014637852821799135 0 0.0098034131946071745 -0.0015164547347245613 0 0.0097147472700114604 -0.0015191466465110698 0 0.0098034131946071745 -0.0015164547347245613 0 0.0097717804633034502 -0.0015630900915116098 0 0.0098034131946071745 -0.0015164547347245613 0 0.0097717804633034502 -0.0015630900915116098 0 0.009835265122351361 -0.0015553930825233191 0 0.0097717804633034502 -0.0015630900915116098 0 0.009807944248785349 -0.0015902386779867053 0 0.009835265122351361 -0.0015553930825233191 0 0.0097717804633034502 -0.0015630900915116098 0 0.009807944248785349 -0.0015902386779867053 0 0.0097701507768351535 -0.0015949505730845509 0 0.0097914255772701062 -0.0016122994537612898 0 0.009807944248785349 -0.0015902386779867053 0 0.0097701507768351535 -0.0015949505730845509 0 0.009828171515370113 -0.0016193719260635139 0 0.009807944248785349 -0.0015902386779867053 0 0.0098928933347453372 -0.0015676463361471906 0 0.009807944248785349 -0.0015902386779867053 0 0.0098928933347453372 -0.0015676463361471906 0 0.009835265122351361 -0.0015553930825233191 0 0.0098928933347453372 -0.0015676463361471906 0 0.009835265122351361 -0.0015553930825233191 0 0.0099193153041051713 -0.0015310704864473625 0 0.0098034131946071745 -0.0015164547347245613 0 0.009835265122351361 -0.0015553930825233191 0 0.0099193153041051713 -0.0015310704864473625 0 0.010286554340125913 -0.0014755558991250211 0 0.0099245472358289906 -0.0014861182944746535 0 0.01000931702221926 -0.0013954910118110161 0 0.010286554340125913 -0.0014755558991250211 0 0.0098928933347453372 -0.0015676463361471906 0 0.0099193153041051713 -0.0015310704864473625 0 0.010286554340125913 -0.0014755558991250211 0 0.0099245472358289906 -0.0014861182944746535 0 0.0099193153041051713 -0.0015310704864473625 0 0.0099245472358289906 -0.0014861182944746535 0 0.01000931702221926 -0.0013954910118110161 0 0.00981378673362957 -0.0013798718327852433 0 0.010286554340125913 -0.0014755558991250211 0 0.01000931702221926 -0.0013954910118110161 0 0.010035924718903393 -0.0012211136622133751 0 0.01000931702221926 -0.0013954910118110161 0 0.010035924718903393 -0.0012211136622133751 0 0.00981378673362957 -0.0013798718327852433 0 0.010035924718903393 -0.0012211136622133751 0 0.009591150652587449 -0.0011300816540299244 0 0.0098991838920088025 -0.00063621964085199489 0 0.010035924718903393 -0.0012211136622133751 0 0.009591150652587449 -0.0011300816540299244 0 0.00981378673362957 -0.0013798718327852433 0 0.009591150652587449 -0.0011300816540299244 0 0.00981378673362957 -0.0013798718327852433 0 0.0096751875112953151 -0.0013606444887108318 0 0.009737389297415593 -0.0014490834097002905 0 0.00981378673362957 -0.0013798718327852433 0 0.0096751875112953151 -0.0013606444887108318 0 0.0082485655085083043 -0.0013320239459615802 0 0.0078461237318597169 -0.0018437469194633018 0 0.009591150652587449 -0.0011300816540299244 0 0.009654269618370839 -0.0015651185825498683 0 0.009591150652587449 -0.0011300816540299244 0 0.0096437578842421198 -0.0014020381702209881 0 0.0082485655085083043 -0.0013320239459615802 0 0.009591150652587449 -0.0011300816540299244 0 0.0085951658463750569 -0.00096226061109208649 0 0.0087833473711869028 -0.0016716393365582684 0 0.0095747539276621104 -0.0011706973895076838 0 0.009591150652587449 -0.0011300816540299244 0 0.0096751875112953151 -0.0013606444887108318 0 0.0096437578842421198 -0.0014020381702209881 0 0.0096745936461817856 -0.0014601891632630315 0 0.0096751875112953151 -0.0013606444887108318 0 0.0096437578842421198 -0.0014020381702209881 0 0.0082121610749981474 -0.00054794177395144355 0 0.0089793101992765127 -0.00057700099278545827 0 0.0089101714610813967 2.1618116654317955e-05 0 0.0081317378354017148 0.00022874342624319263 0 0.0082121610749981474 -0.00054794177395144355 0 0.0089101714610813967 2.1618116654317955e-05 0 0.0082121610749981474 -0.00054794177395144355 0 0.0085951658463750569 -0.00096226061109208649 0 0.0089793101992765127 -0.00057700099278545827 0 0.009591150652587449 -0.0011300816540299244 0 0.0085951658463750569 -0.00096226061109208649 0 0.0089793101992765127 -0.00057700099278545827 0 0.0089793101992765127 -0.00057700099278545827 0 0.0095958065367936652 -0.00032483934395505318 0 0.0089101714610813967 2.1618116654317955e-05 0 0.010035924718903393 -0.0012211136622133751 0 0.0098991838920088025 -0.00063621964085199489 0 0.010374799056927401 0.00013105582021510136 0 0.009591150652587449 -0.0011300816540299244 0 0.0095958065367936652 -0.00032483934395505318 0 0.0098991838920088025 -0.00063621964085199489 0 0.009591150652587449 -0.0011300816540299244 0 0.0089793101992765127 -0.00057700099278545827 0 0.0095958065367936652 -0.00032483934395505318 0 0.0095958065367936652 -0.00032483934395505318 0 0.0098991838920088025 -0.00063621964085199489 0 0.010374799056927401 0.00013105582021510136 0 0.0095958065367936652 -0.00032483934395505318 0 0.0096673789162235527 0.00039385076610395686 0 0.010374799056927401 0.00013105582021510136 0 0.010057871077196542 0.0010034382920748866 0 0.0096673789162235527 0.00039385076610395686 0 0.010374799056927401 0.00013105582021510136 0 0.010057871077196542 0.0010034382920748866 0 0.0095512489960857556 0.0011393345231361094 0 0.0096673789162235527 0.00039385076610395686 0 0.0095512489960857556 0.0011393345231361094 0 0.0096673789162235527 0.00039385076610395686 0 0.0088853587237636179 0.00074011474482522379 0 0.0095958065367936652 -0.00032483934395505318 0 0.0096673789162235527 0.00039385076610395686 0 0.0089101714610813967 2.1618116654317955e-05 0 0.0096673789162235527 0.00039385076610395686 0 0.0089101714610813967 2.1618116654317955e-05 0 0.0088853587237636179 0.00074011474482522379 0 0.0082087762314384267 0.0011041035299522036 0 0.0081317378354017148 0.00022874342624319263 0 0.0088853587237636179 0.00074011474482522379 0 0.0081317378354017148 0.00022874342624319263 0 0.0089101714610813967 2.1618116654317955e-05 0 0.0088853587237636179 0.00074011474482522379 0 0.011827780673845116 0.00022329584214912331 0 0.011697202663958323 -0.00010011630710053721 0 0.01195677321514306 -0.00015000049058046784 0 0.0115771214471672 -0.00021870701164833714 0 0.011406065598207414 9.5384940121054511e-05 0 0.011697202663958323 -0.00010011630710053721 0 0.011406065598207414 9.5384940121054511e-05 0 0.011827780673845116 0.00022329584214912331 0 0.011119224416360863 0.00033656912591929658 0 0.011406065598207414 9.5384940121054511e-05 0 0.011827780673845116 0.00022329584214912331 0 0.011697202663958323 -0.00010011630710053721 0 0.010035924718903393 -0.0012211136622133751 0 0.010613189047737871 -0.0004168451299553458 0 0.010573776706475382 0.00048369413368242343 0 0.010036103041997401 -0.0011617467936891519 0 0.010583173770988896 0.00029740933189875576 0 0.010286554340125913 -0.0014755558991250211 0 0.011406065598207414 9.5384940121054511e-05 0 0.010613189047737871 -0.0004168451299553458 0 0.010613189047737871 -0.0004168451299553458 0 0.010897377239280538 0.00014056253745909212 0 0.010573776706475382 0.00048369413368242343 0 0.011406065598207414 9.5384940121054511e-05 0 0.010613189047737871 -0.0004168451299553458 0 0.010897377239280538 0.00014056253745909212 0 0.011406065598207414 9.5384940121054511e-05 0 0.010897377239280538 0.00014056253745909212 0 0.011119224416360863 0.00033656912591929658 0 0.011119224416360863 0.00033656912591929658 0 0.010573776706475382 0.00048369413368242343 0 0.010835668591999104 0.00072681100148065496 0 0.010897377239280538 0.00014056253745909212 0 0.011119224416360863 0.00033656912591929658 0 0.010573776706475382 0.00048369413368242343 0 0.010819610395134837 0.0011746953821416364 0 0.010573776706475382 0.00048369413368242343 0 0.010835668591999104 0.00072681100148065496 0 0.011827780673845116 0.00022329584214912331 0 0.011119224416360863 0.00033656912591929658 0 0.010835668591999104 0.00072681100148065496 0 0.010983299190195738 0.00082309404593183691 0 0.01093895529717677 0.00052839182611932531 0 0.011086291887333634 0.00063775525249430405 0 0.010983299190195738 0.00082309404593183691 0 0.01093895529717677 0.00052839182611932531 0 0.010835668591999104 0.00072681100148065496 0 0.011379516272697995 0.00036057365406726096 0 0.010894802543812364 0.0006965757740491715 0 0.010871578314837867 0.00096568530636592295 0 0.011030434585705819 0.00071776825732288634 0 0.01093330958619268 0.0011820236495794323 0 0.010536709437180073 0.0012659886576285753 0 0.011086291887333634 0.00063775525249430405 0 0.01093330958619268 0.0011820236495794323 0 0.011286424251748799 0.00098711046497819703 0 0.011086291887333634 0.00063775525249430405 0 0.011086291887333634 0.00063775525249430405 0 0.011311328885278362 0.00041882457230088093 0 0.01148021559104637 0.00064659173060477944 0 0.011286424251748799 0.00098711046497819703 0 0.011086291887333634 0.00063775525249430405 0 0.01148021559104637 0.00064659173060477944 0 0.01093895529717677 0.00052839182611932531 0 0.011086291887333634 0.00063775525249430405 0 0.011311328885278362 0.00041882457230088093 0 0.011827780673845116 0.00022329584214912331 0 0.012226035795397838 -6.1502674266456398e-05 0 0.01195677321514306 -0.00015000049058046784 0 0.01093895529717677 0.00052839182611932531 0 0.011311328885278362 0.00041882457230088093 0 0.011426951826748306 -1.7212644529907822e-05 0 0.011379516272697995 0.00036057365406726096 0 0.011817064348948794 -2.2671690871523846e-05 0 0.011426951826748306 -1.7212644529907822e-05 0 0.011792842384321791 0.00033776415442633636 0 0.0120818134748419 7.095140463388165e-05 0 0.011792842384321791 0.00033776415442633636 0 0.01211759222695542 0.00061920743133837385 0 0.0120818134748419 7.095140463388165e-05 0 0.011311328885278362 0.00041882457230088093 0 0.011792842384321791 0.00033776415442633636 0 0.01148021559104637 0.00064659173060477944 0 0.011311328885278362 0.00041882457230088093 0 0.011426951826748306 -1.7212644529907822e-05 0 0.011792842384321791 0.00033776415442633636 0 0.011792842384321791 0.00033776415442633636 0 0.011809103299637871 0.00071758647486769669 0 0.01211759222695542 0.00061920743133837385 0 0.011809103299637871 0.00071758647486769669 0 0.012034288323158485 0.00080317423757137168 0 0.01211759222695542 0.00061920743133837385 0 0.011792842384321791 0.00033776415442633636 0 0.011809103299637871 0.00071758647486769669 0 0.01148021559104637 0.00064659173060477944 0 0.011809103299637871 0.00071758647486769669 0 0.01148021559104637 0.00064659173060477944 0 0.011597829303806411 0.00091712172107117251 0 0.011286424251748799 0.00098711046497819703 0 0.01148021559104637 0.00064659173060477944 0 0.011597829303806411 0.00091712172107117251 0 0.011579751089958614 0.001210800922768495 0 0.011597829303806411 0.00091712172107117251 0 0.011860341097990857 0.00099312350824437459 0 0.011579751089958614 0.001210800922768495 0 0.011286424251748799 0.00098711046497819703 0 0.011597829303806411 0.00091712172107117251 0 0.011809103299637871 0.00071758647486769669 0 0.011597829303806411 0.00091712172107117251 0 0.011860341097990857 0.00099312350824437459 0 0.011809103299637871 0.00071758647486769669 0 0.012034288323158485 0.00080317423757137168 0 0.011860341097990857 0.00099312350824437459 0 0.012034288323158485 0.00080317423757137168 0 0.011860341097990857 0.00099312350824437459 0 0.012136559742672807 0.0010059644006510254 0 0.012136559742672807 0.0010059644006510254 0 0.012246152888055528 0.00074130411596293839 0 0.012366486435569554 0.00099499856819812047 0 0.012246152888055528 0.00074130411596293839 0 0.01275757729365639 0.00091951673333777516 0 0.013309187845089644 0.00028304949183619287 0 0.012335368215998616 0.00071400767130397628 0 0.013334724183528992 0.00043275591608646602 0 0.012246152888055528 0.00074130411596293839 0 0.013343201583575092 0.00059390612661157317 0 0.012836877453258348 0.00037927086234096439 0 0.012034288323158485 0.00080317423757137168 0 0.012136559742672807 0.0010059644006510254 0 0.012246152888055528 0.00074130411596293839 0 0.012246152888055528 0.00074130411596293839 0 0.012366486435569554 0.00099499856819812047 0 0.01275757729365639 0.00091951673333777516 0 0.012246152888055528 0.00074130411596293839 0 0.012494197203811844 0.00044501010205039312 0 0.012836877453258348 0.00037927086234096439 0 0.012494197203811844 0.00044501010205039312 0 0.01211759222695542 0.00061920743133837385 0 0.012451616935979546 0.00023945510614115377 0 0.012034288323158485 0.00080317423757137168 0 0.012246152888055528 0.00074130411596293839 0 0.01211759222695542 0.00061920743133837385 0 0.012246152888055528 0.00074130411596293839 0 0.012494197203811844 0.00044501010205039312 0 0.01211759222695542 0.00061920743133837385 0 0.01330655634574229 0.00090393927600128713 0 0.013309187845089644 0.00028304949183619287 0 0.013799645585711468 0.00066819278628006207 0 0.013619468367366255 0.0012029043807382728 0 0.01330655634574229 0.00090393927600128713 0 0.013799645585711468 0.00066819278628006207 0 0.01275757729365639 0.00091951673333777516 0 0.01330655634574229 0.00090393927600128713 0 0.013309187845089644 0.00028304949183619287 0 0.01331997966220194 0.00015437092219432321 0 0.013603638038236762 -0.0008582286415008166 0 0.013343201583575092 0.00059390612661157317 0 0.013308603510160909 0.00021156832147342663 0 0.014189474127750963 -0.00031507787292292083 0 0.013308603510160909 0.00021156832147342663 0 0.012877954723415456 0.00010455009006178603 0 0.012836877453258348 0.00037927086234096439 0 0.013343201583575092 0.00059390612661157317 0 0.013308603510160909 0.00021156832147342663 0 0.012836877453258348 0.00037927086234096439 0 0.013308603510160909 0.00021156832147342663 0 0.012877954723415456 0.00010455009006178603 0 0.01293821304511817 -0.00023577298041849398 0 0.012142114304920645 0.00056034322836348517 0 0.012206327607193562 5.2208028352160672e-05 0 0.01211759222695542 0.00061920743133837385 0 0.012451616935979546 0.00023945510614115377 0 0.012320517108952258 -9.5937240302360607e-06 0 0.012494197203811844 0.00044501010205039312 0 0.012451616935979546 0.00023945510614115377 0 0.012686096960031975 0.00022912350476681347 0 0.012494197203811844 0.00044501010205039312 0 0.012836877453258348 0.00037927086234096439 0 0.012686096960031975 0.00022912350476681347 0 0.012877954723415456 0.00010455009006178603 0 0.012836877453258348 0.00037927086234096439 0 0.012686096960031975 0.00022912350476681347 0 0.012451616935979546 0.00023945510614115377 0 0.012686096960031975 0.00022912350476681347 0 0.012610286890656144 -5.0019507829426856e-05 0 0.012877954723415456 0.00010455009006178603 0 0.012610286890656144 -5.0019507829426856e-05 0 0.01293821304511817 -0.00023577298041849398 0 0.012877954723415456 0.00010455009006178603 0 0.012686096960031975 0.00022912350476681347 0 0.012610286890656144 -5.0019507829426856e-05 0 0.012451616935979546 0.00023945510614115377 0 0.012610286890656144 -5.0019507829426856e-05 0 0.012320517108952258 -9.5937240302360607e-06 0 0.012610286890656144 -5.0019507829426856e-05 0 0.012442994650809714 -0.00050016288385958173 0 0.01293821304511817 -0.00023577298041849398 0 0.012206327607193562 5.2208028352160672e-05 0 0.012470880114964051 -0.00044854180553237063 0 0.012610286890656144 -5.0019507829426856e-05 0 0.012320517108952258 -9.5937240302360607e-06 0 0.012442994650809714 -0.00050016288385958173 0 0.012442994650809714 -0.00050016288385958173 0 0.01293821304511817 -0.00023577298041849398 0 0.012942999899981553 -0.00049751079605198079 0 0.013308603510160909 0.00021156832147342663 0 0.01293821304511817 -0.00023577298041849398 0 0.013279556803959813 -0.00049597470066544661 0 0.01293821304511817 -0.00023577298041849398 0 0.012942999899981553 -0.00049751079605198079 0 0.013279556803959813 -0.00049597470066544661 0 0.013052005683937041 -0.00075698364779481998 0 0.013279556803959813 -0.00049597470066544661 0 0.013318928257562847 -0.00087763668289092957 0 0.012942999899981553 -0.00049751079605198079 0 0.013052005683937041 -0.00075698364779481998 0 0.013279556803959813 -0.00049597470066544661 0 0.012470880114964051 -0.00044854180553237063 0 0.012740436447134558 -0.0008225199705264259 0 0.012470880114964051 -0.00044854180553237063 0 0.013067744685467042 -0.00078184314880932798 0 0.012782050068612381 -0.00056062212965400995 0 0.013052005683937041 -0.00075698364779481998 0 0.012796841135293809 -0.00089611276647082096 0 0.012442994650809714 -0.00050016288385958173 0 0.012942999899981553 -0.00049751079605198079 0 0.013052005683937041 -0.00075698364779481998 0 0.012577759248962966 -0.00029036268460200818 0 0.01237496900103629 -0.00060335878178223912 0 0.012634236827971991 -0.00073798283913000906 0 0.012577759248962966 -0.00029036268460200818 0 0.01237496900103629 -0.00060335878178223912 0 0.012157305740348108 -0.00036645837171221012 0 0.0119258438237075 -0.00051258067747452581 0 0.012157305740348108 -0.00036645837171221012 0 0.012137291523432615 -0.00065756894137666019 0 0.0119258438237075 -0.00051258067747452581 0 0.011785937278844588 -0.00031824743915521563 0 0.012157305740348108 -0.00036645837171221012 0 0.01237496900103629 -0.00060335878178223912 0 0.012157305740348108 -0.00036645837171221012 0 0.012137291523432615 -0.00065756894137666019 0 0.011866040337075407 -0.00070330353298241218 0 0.0119258438237075 -0.00051258067747452581 0 0.012137291523432615 -0.00065756894137666019 0 0.011785937278844588 -0.00031824743915521563 0 0.012157305740348108 -0.00036645837171221012 0 0.01195677321514306 -0.00015000049058046784 0 0.012226035795397838 -6.1502674266456398e-05 0 0.012157305740348108 -0.00036645837171221012 0 0.01195677321514306 -0.00015000049058046784 0 0.011817064348948794 -2.2671690871523846e-05 0 0.012470880114964051 -0.00044854180553237063 0 0.012226035795397838 -6.1502674266456398e-05 0 0.012577759248962966 -0.00029036268460200818 0 0.012157305740348108 -0.00036645837171221012 0 0.011426951826748306 -1.7212644529907822e-05 0 0.0120818134748419 7.095140463388165e-05 0 0.012111422911414307 -0.00052146177082993382 0 0.017732795423112076 -0.00014135052227716769 0 0.017386654027488416 -0.00085202261698474164 0 0.016806839505513239 6.670611596064367e-05 0 0.017386654027488416 -0.00085202261698474164 0 0.016806839505513239 6.670611596064367e-05 0 0.015895424272269743 -0.00056804468095508699 0 0.017279032548811867 -0.00080777684488463422 0 0.016122274777077963 -0.00044594519483231662 0 0.017228571799349227 0.0012294097290725845 0 0.016806839505513239 6.670611596064367e-05 0 0.015529097263515288 0.00080660577308719176 0 0.017228571799349227 0.0012294097290725845 0 0.017732795423112076 -0.00014135052227716769 0 0.016806839505513239 6.670611596064367e-05 0 0.016806839505513239 6.670611596064367e-05 0 0.015529097263515288 0.00080660577308719176 0 0.015895424272269743 -0.00056804468095508699 0 0.016122274777077963 -0.00044594519483231662 0 0.014742693199904996 5.7643669650236862e-06 0 0.01634082981985829 -0.00032451984316119874 0 0.014946253363196816 0.00017524893987825709 0 0.015311190371146109 -0.0011963107682675638 0 0.014261999440299494 0.0010601381469199094 0 0.015529097263515288 0.00080660577308719176 0 0.014546081286300841 -0.00015754053033024509 0 0.015529097263515288 0.00080660577308719176 0 0.015895424272269743 -0.00056804468095508699 0 0.014546081286300841 -0.00015754053033024509 0 0.014261999440299494 0.0010601381469199094 0 0.014546081286300841 -0.00015754053033024509 0 0.013799645585711468 0.00066819278628006207 0 0.013309187845089644 0.00028304949183619287 0 0.014546081286300841 -0.00015754053033024509 0 0.013799645585711468 0.00066819278628006207 0 0.014261999440299494 0.0010601381469199094 0 0.013619468367366255 0.0012029043807382728 0 0.013799645585711468 0.00066819278628006207 0 0.013308603510160909 0.00021156832147342663 0 0.014189474127750963 -0.00031507787292292083 0 0.013945649805540522 -0.0013070063773662627 0 0.014946253363196816 0.00017524893987825709 0 0.014189474127750963 -0.00031507787292292083 0 0.015311190371146109 -0.0011963107682675638 0 0.013334724183528992 0.00043275591608646602 0 0.014742693199904996 5.7643669650236862e-06 0 0.013343201583575092 0.00059390612661157317 0 0.014946253363196816 0.00017524893987825709 0 0.014189474127750963 -0.00031507787292292083 0 0.014189474127750963 -0.00031507787292292083 0 0.013945649805540522 -0.0013070063773662627 0 0.015311190371146109 -0.0011963107682675638 0 0.013945649805540522 -0.0013070063773662627 0 0.014731488989289072 -0.0018257926920033003 0 0.015311190371146109 -0.0011963107682675638 0 0.013603638038236762 -0.0008582286415008166 0 0.01392636773206829 -0.0017512142266440105 0 0.013945649805540522 -0.0013070063773662627 0 0.014731488989289072 -0.0018257926920033003 0 0.014475926001840724 -0.0026243565223799648 0 0.014731488989289072 -0.0018257926920033003 0 0.015359274319522184 -0.0024760376725446766 0 0.014475926001840724 -0.0026243565223799648 0 0.015311190371146109 -0.0011963107682675638 0 0.016224678619060406 -0.0020303441621735119 0 0.015359274319522184 -0.0024760376725446766 0 0.014731488989289072 -0.0018257926920033003 0 0.015311190371146109 -0.0011963107682675638 0 0.015359274319522184 -0.0024760376725446766 0 0.01634082981985829 -0.00032451984316119874 0 0.015311190371146109 -0.0011963107682675638 0 0.016562292796303318 -0.0012104836125906356 0 0.015311190371146109 -0.0011963107682675638 0 0.016562292796303318 -0.0012104836125906356 0 0.016224678619060406 -0.0020303441621735119 0 0.016562292796303318 -0.0012104836125906356 0 0.016224678619060406 -0.0020303441621735119 0 0.017283761920459672 -0.001771283442507618 0 0.018182856396270378 -0.0024732527074699572 0 0.017283761920459672 -0.001771283442507618 0 0.016961518043142665 -0.0025222000031724502 0 0.016224678619060406 -0.0020303441621735119 0 0.017283761920459672 -0.001771283442507618 0 0.016961518043142665 -0.0025222000031724502 0 0.017386654027488416 -0.00085202261698474164 0 0.016562292796303318 -0.0012104836125906356 0 0.017283761920459672 -0.001771283442507618 0 0.017386654027488416 -0.00085202261698474164 0 0.01634082981985829 -0.00032451984316119874 0 0.016562292796303318 -0.0012104836125906356 0 0.01858748876538379 -0.0024029459769779366 0 0.018895278729600291 -0.0025132515298804184 0 0.019054088690508432 -0.0022548225519517812 0 0.018216951227886507 -0.0025335277184625081 0 0.018023852216598444 -0.0029592616171664429 0 0.018182856396270378 -0.0024732527074699572 0 0.017103079388615643 -0.0035307478173574581 0 0.016961518043142665 -0.0025222000031724502 0 0.017103079388615643 -0.0035307478173574581 0 0.016961518043142665 -0.0025222000031724502 0 0.016110107576085452 -0.0031488717089375546 0 0.016224678619060406 -0.0020303441621735119 0 0.016961518043142665 -0.0025222000031724502 0 0.016110107576085452 -0.0031488717089375546 0 0.016224678619060406 -0.0020303441621735119 0 0.016110107576085452 -0.0031488717089375546 0 0.015359274319522184 -0.0024760376725446766 0 0.017103079388615643 -0.0035307478173574581 0 0.016110107576085452 -0.0031488717089375546 0 0.016184432707851647 -0.0043678459062246955 0 0.018023852216598444 -0.0029592616171664429 0 0.017747602603282793 -0.0034835787904279802 0 0.016110107576085452 -0.0031488717089375546 0 0.014918572075754373 -0.0039186822820231363 0 0.016184432707851647 -0.0043678459062246955 0 0.016110107576085452 -0.0031488717089375546 0 0.015359274319522184 -0.0024760376725446766 0 0.014918572075754373 -0.0039186822820231363 0 0.015359274319522184 -0.0024760376725446766 0 0.014475926001840724 -0.0026243565223799648 0 0.014918572075754373 -0.0039186822820231363 0 0.01392636773206829 -0.0017512142266440105 0 0.013890724460425786 -0.0025847013577126876 0 0.013318928257562847 -0.00087763668289092957 0 0.013434248912069962 -0.0011822717613273229 0 0.013061660843993465 -0.0010146245390875324 0 0.013434248912069962 -0.0011822717613273229 0 0.013061660843993465 -0.0010146245390875324 0 0.01313045282637882 -0.0012734053890001542 0 0.013434248912069962 -0.0011822717613273229 0 0.013303583626489172 -0.0014641452950034067 0 0.013578500640449857 -0.0015318616014720909 0 0.013434248912069962 -0.0011822717613273229 0 0.013303583626489172 -0.0014641452950034067 0 0.01313045282637882 -0.0012734053890001542 0 0.013303583626489172 -0.0014641452950034067 0 0.013578500640449857 -0.0015318616014720909 0 0.013345675462251291 -0.0017583898868001929 0 0.017335391900505464 -0.0027417173145794205 0 0.016868787278601662 -0.0019414853319337675 0 0.0200081455565463 -0.0026502956652784365 0 0.019840539228396983 -0.0019217545744730229 0 0.020472744778622948 -0.0022053865777554075 0 0.019714728820364125 -0.0022015128123965147 0 0.0194731684877191 -0.002166008772868384 0 0.019840539228396983 -0.0019217545744730229 0 0.017335391900505464 -0.0027417173145794205 0 0.020342478098608525 -0.0019679557221182532 0 0.013890724460425786 -0.0025847013577126876 0 0.017335391900505464 -0.0027417173145794205 0 0.014918572075754373 -0.0039186822820231363 0 0.015337098678427009 -0.0051852830733916866 0 0.016184432707851647 -0.0043678459062246955 0 0.017335391900505464 -0.0027417173145794205 0 0.017747602603282793 -0.0034835787904279802 0 0.019382345829802826 -0.0023922552634091472 0 0.0194731684877191 -0.002166008772868384 0 0.019054088690508432 -0.0022548225519517812 0 0.019714728820364125 -0.0022015128123965147 0 0.019382345829802826 -0.0023922552634091472 0 0.0194731684877191 -0.002166008772868384 0 0.0194731684877191 -0.002166008772868384 0 0.019054088690508432 -0.0022548225519517812 0 0.019367361237789628 -0.0020051001693203343 0 0.0194731684877191 -0.002166008772868384 0 0.019367361237789628 -0.0020051001693203343 0 0.019840539228396983 -0.0019217545744730229 0 0.019020874881735577 -0.0020244934277604616 0 0.019054088690508432 -0.0022548225519517812 0 0.019367361237789628 -0.0020051001693203343 0 0.018895278729600291 -0.0025132515298804184 0 0.019382345829802826 -0.0023922552634091472 0 0.019054088690508432 -0.0022548225519517812 0 0.012376771035592156 -0.00095831559701321095 0 0.012634236827971991 -0.00073798283913000906 0 0.012751655299161984 -0.0012118958133822883 0 0.012376771035592156 -0.00095831559701321095 0 0.012027662838341573 -0.00093061467088880378 0 0.012131033865773987 -0.0012389007575331894 0 0.012376771035592156 -0.00095831559701321095 0 0.012027662838341573 -0.00093061467088880378 0 0.012137291523432615 -0.00065756894137666019 0 0.011866040337075407 -0.00070330353298241218 0 0.012027662838341573 -0.00093061467088880378 0 0.012137291523432615 -0.00065756894137666019 0 0.01237496900103629 -0.00060335878178223912 0 0.012376771035592156 -0.00095831559701321095 0 0.012634236827971991 -0.00073798283913000906 0 0.01237496900103629 -0.00060335878178223912 0 0.012376771035592156 -0.00095831559701321095 0 0.012137291523432615 -0.00065756894137666019 0 0.013052005683937041 -0.00075698364779481998 0 0.013318928257562847 -0.00087763668289092957 0 0.013061660843993465 -0.0010146245390875324 0 0.013052005683937041 -0.00075698364779481998 0 0.012796841135293809 -0.00089611276647082096 0 0.013061660843993465 -0.0010146245390875324 0 0.013061660843993465 -0.0010146245390875324 0 0.012751655299161984 -0.0012118958133822883 0 0.01313045282637882 -0.0012734053890001542 0 0.012796841135293809 -0.00089611276647082096 0 0.013061660843993465 -0.0010146245390875324 0 0.012751655299161984 -0.0012118958133822883 0 0.012740436447134558 -0.0008225199705264259 0 0.012742192828629362 -0.0011991488607246677 0 0.012751655299161984 -0.0012118958133822883 0 0.013012891638413581 -0.001510227137976623 0 0.012564333365030505 -0.0014228428388807621 0 0.012751655299161984 -0.0012118958133822883 0 0.01313045282637882 -0.0012734053890001542 0 0.013012891638413581 -0.001510227137976623 0 0.013303583626489172 -0.0014641452950034067 0 0.01313045282637882 -0.0012734053890001542 0 0.013012891638413581 -0.001510227137976623 0 0.013012891638413581 -0.001510227137976623 0 0.012967621955065504 -0.0017742798849884405 0 0.013345675462251291 -0.0017583898868001929 0 0.013303583626489172 -0.0014641452950034067 0 0.013012891638413581 -0.001510227137976623 0 0.013345675462251291 -0.0017583898868001929 0 0.013012891638413581 -0.001510227137976623 0 0.012665377399203457 -0.0016846786789046857 0 0.012967621955065504 -0.0017742798849884405 0 0.013012891638413581 -0.001510227137976623 0 0.012665377399203457 -0.0016846786789046857 0 0.012564333365030505 -0.0014228428388807621 0 0.012665377399203457 -0.0016846786789046857 0 0.012308026305317715 -0.0015437786453164335 0 0.012446365156795374 -0.0017911854785452089 0 0.012665377399203457 -0.0016846786789046857 0 0.012564333365030505 -0.0014228428388807621 0 0.012308026305317715 -0.0015437786453164335 0 0.012376771035592156 -0.00095831559701321095 0 0.012751655299161984 -0.0012118958133822883 0 0.012564333365030505 -0.0014228428388807621 0 0.012376771035592156 -0.00095831559701321095 0 0.012564333365030505 -0.0014228428388807621 0 0.012131033865773987 -0.0012389007575331894 0 0.012001116473451728 -0.0014925206829300691 0 0.012131033865773987 -0.0012389007575331894 0 0.012308026305317715 -0.0015437786453164335 0 0.012564333365030505 -0.0014228428388807621 0 0.012131033865773987 -0.0012389007575331894 0 0.012308026305317715 -0.0015437786453164335 0 0.012001116473451728 -0.0014925206829300691 0 0.012308026305317715 -0.0015437786453164335 0 0.012176258319436733 -0.0017640316078077287 0 0.012308026305317715 -0.0015437786453164335 0 0.012176258319436733 -0.0017640316078077287 0 0.012446365156795374 -0.0017911854785452089 0 0.012176258319436733 -0.0017640316078077287 0 0.012362109781221721 -0.0019682735330226872 0 0.012446365156795374 -0.0017911854785452089 0 0.012176258319436733 -0.0017640316078077287 0 0.012362109781221721 -0.0019682735330226872 0 0.01220007379497583 -0.0019976873339810864 0 0.012362109781221721 -0.0019682735330226872 0 0.01220007379497583 -0.0019976873339810864 0 0.012337053468685544 -0.002179043367852484 0 0.012362109781221721 -0.0019682735330226872 0 0.012337053468685544 -0.002179043367852484 0 0.0124398319318608 -0.0021039432174451041 0 0.012337053468685544 -0.002179043367852484 0 0.012497622219520641 -0.0022367224251570281 0 0.0124398319318608 -0.0021039432174451041 0 0.01220007379497583 -0.0019976873339810864 0 0.012337053468685544 -0.002179043367852484 0 0.012137877402926312 -0.0022030049835170332 0 0.012626125692380074 -0.002133514804192996 0 0.012756716607140265 -0.002167678376076915 0 0.012648553663380644 -0.0022769847276009909 0 0.012626125692380074 -0.002133514804192996 0 0.012497622219520641 -0.0022367224251570281 0 0.012648553663380644 -0.0022769847276009909 0 0.012626125692380074 -0.002133514804192996 0 0.012497622219520641 -0.0022367224251570281 0 0.0124398319318608 -0.0021039432174451041 0 0.012362109781221721 -0.0019682735330226872 0 0.0124398319318608 -0.0021039432174451041 0 0.012572252544673852 -0.0019688995390387057 0 0.012626125692380074 -0.002133514804192996 0 0.0124398319318608 -0.0021039432174451041 0 0.012572252544673852 -0.0019688995390387057 0 0.012626125692380074 -0.002133514804192996 0 0.012572252544673852 -0.0019688995390387057 0 0.012763906864218461 -0.0020431029810472007 0 0.012572252544673852 -0.0019688995390387057 0 0.012752241722515181 -0.0018791121481622271 0 0.012763906864218461 -0.0020431029810472007 0 0.012572252544673852 -0.0019688995390387057 0 0.012609448981976811 -0.0018305758443707496 0 0.012752241722515181 -0.0018791121481622271 0 0.012362109781221721 -0.0019682735330226872 0 0.012572252544673852 -0.0019688995390387057 0 0.012446365156795374 -0.0017911854785452089 0 0.012572252544673852 -0.0019688995390387057 0 0.012446365156795374 -0.0017911854785452089 0 0.012609448981976811 -0.0018305758443707496 0 0.012665377399203457 -0.0016846786789046857 0 0.012446365156795374 -0.0017911854785452089 0 0.012609448981976811 -0.0018305758443707496 0 0.012665377399203457 -0.0016846786789046857 0 0.012609448981976811 -0.0018305758443707496 0 0.012752241722515181 -0.0018791121481622271 0 0.012665377399203457 -0.0016846786789046857 0 0.012967621955065504 -0.0017742798849884405 0 0.012752241722515181 -0.0018791121481622271 0 0.012967621955065504 -0.0017742798849884405 0 0.012897937520721091 -0.0019663721576261878 0 0.012752241722515181 -0.0018791121481622271 0 0.012897937520721091 -0.0019663721576261878 0 0.012752241722515181 -0.0018791121481622271 0 0.012763906864218461 -0.0020431029810472007 0 0.012967621955065504 -0.0017742798849884405 0 0.013104077789760932 -0.0019956991916517254 0 0.013345675462251291 -0.0017583898868001929 0 0.012967621955065504 -0.0017742798849884405 0 0.012897937520721091 -0.0019663721576261878 0 0.013104077789760932 -0.0019956991916517254 0 0.017088044022010997 -0.0019249862151825457 0 0.016868787278601662 -0.0019414853319337675 0 0.020853109799916426 -0.0018355019289941811 0 0.020821198320826254 -0.0014399735688577417 0 0.020986086180609483 -0.001526179388470899 0 0.020853109799916426 -0.0018355019289941811 0 0.020453216088374065 -0.0017898909347047287 0 0.020660699818619489 -0.0016347367998523687 0 0.020853109799916426 -0.0018355019289941811 0 0.020821198320826254 -0.0014399735688577417 0 0.020660699818619489 -0.0016347367998523687 0 0.020853109799916426 -0.0018355019289941811 0 0.021185261691775942 -0.0015183141239722903 0 0.020986086180609483 -0.001526179388470899 0 0.012897937520721091 -0.0019663721576261878 0 0.012763906864218461 -0.0020431029810472007 0 0.012880425825909694 -0.0021374955066016947 0 0.012897937520721091 -0.0019663721576261878 0 0.013104077789760932 -0.0019956991916517254 0 0.012880425825909694 -0.0021374955066016947 0 0.017088044022010997 -0.0019249862151825457 0 0.015835005271358098 -0.0012129924878223383 0 0.013104077789760932 -0.0019956991916517254 0 0.012880425825909694 -0.0021374955066016947 0 0.012862766331944766 -0.0022346915667949678 0 0.014726297517817892 -0.0022375793709696248 0 0.015835005271358098 -0.0012129924878223383 0 0.012880425825909694 -0.0021374955066016947 0 0.012756716607140265 -0.002167678376076915 0 0.012854111358278811 -0.0022492681587815977 0 0.012756716607140265 -0.002167678376076915 0 0.012854111358278811 -0.0022492681587815977 0 0.012648553663380644 -0.0022769847276009909 0 0.012763906864218461 -0.0020431029810472007 0 0.012880425825909694 -0.0021374955066016947 0 0.012756716607140265 -0.002167678376076915 0 0.012626125692380074 -0.002133514804192996 0 0.012763906864218461 -0.0020431029810472007 0 0.012756716607140265 -0.002167678376076915 0 0.015835005271358098 -0.0012129924878223383 0 0.018957869865742705 -0.00029435941827464019 0 0.021185261691775942 -0.0015183141239722903 0 0.021082888574000321 -0.0013184471236615319 0 0.021382740845666447 -0.00098095946418043541 0 0.021185261691775942 -0.0015183141239722903 0 0.021082888574000321 -0.0013184471236615319 0 0.020986086180609483 -0.001526179388470899 0 0.021082888574000321 -0.0013184471236615319 0 0.020821198320826254 -0.0014399735688577417 0 0.020986086180609483 -0.001526179388470899 0 0.021082888574000321 -0.0013184471236615319 0 0.020821198320826254 -0.0014399735688577417 0 0.020932627409588248 -0.0011558168474419608 0 0.020821198320826254 -0.0014399735688577417 0 0.020932627409588248 -0.0011558168474419608 0 0.020634022761527537 -0.0012132334187246955 0 0.020932627409588248 -0.0011558168474419608 0 0.020634022761527537 -0.0012132334187246955 0 0.020800301244887923 -0.00090001351509532584 0 0.021082888574000321 -0.0013184471236615319 0 0.020932627409588248 -0.0011558168474419608 0 0.021125128299863068 -0.0010823450205792637 0 0.020932627409588248 -0.0011558168474419608 0 0.021125128299863068 -0.0010823450205792637 0 0.021100240192554614 -0.00088097441718810511 0 0.020932627409588248 -0.0011558168474419608 0 0.020800301244887923 -0.00090001351509532584 0 0.021100240192554614 -0.00088097441718810511 0 0.021382740845666447 -0.00098095946418043541 0 0.021125128299863068 -0.0010823450205792637 0 0.021100240192554614 -0.00088097441718810511 0 0.021082888574000321 -0.0013184471236615319 0 0.021382740845666447 -0.00098095946418043541 0 0.021125128299863068 -0.0010823450205792637 0 0.015750218331240153 7.3226735130295728e-05 0 0.015734561104605266 7.0776879278000373e-05 0 0.015721918814061212 5.7082964528066032e-05 0 0.012494501651442327 -0.0025204975837859055 0 0.012394763576225602 -0.0025098770033966881 0 0.012296339919171659 -0.0023955350076130598 0 0.012374433539908017 -0.0025112410491200669 0 0.012394763576225602 -0.0025098770033966881 0 0.012296339919171659 -0.0023955350076130598 0 0.015734561104605266 7.0776879278000373e-05 0 0.015644100059892491 7.6392652783401684e-05 0 0.015721918814061212 5.7082964528066032e-05 0 0.013870206017416876 -0.0012827672407847387 0 0.014033049829923771 -0.0011234692976198723 0 0.012374433539908017 -0.0025112410491200669 0 0.012394763576225602 -0.0025098770033966881 0 0.012333970995425058 -0.00256729208943597 0 0.012394763576225602 -0.0025098770033966881 0 0.012291165270388585 -0.0023824334563618773 0 0.012421841459358811 -0.0023661720851753006 0 0.012494501651442327 -0.0025204975837859055 0 0.012394763576225602 -0.0025098770033966881 0 0.012421841459358811 -0.0023661720851753006 0 0.012394763576225602 -0.0025098770033966881 0 0.012291165270388585 -0.0023824334563618773 0 0.012333970995425058 -0.00256729208943597 0 0.012337053468685544 -0.002179043367852484 0 0.012291165270388585 -0.0023824334563618773 0 0.012137877402926312 -0.0022030049835170332 0 0.012337053468685544 -0.002179043367852484 0 0.012291165270388585 -0.0023824334563618773 0 0.012421841459358811 -0.0023661720851753006 0 0.012337053468685544 -0.002179043367852484 0 0.012497622219520641 -0.0022367224251570281 0 0.012421841459358811 -0.0023661720851753006 0 0.015835005271358098 -0.0012129924878223383 0 0.013870206017416876 -0.0012827672407847387 0 0.012497622219520641 -0.0022367224251570281 0 0.012421841459358811 -0.0023661720851753006 0 0.012530004562055949 -0.00234706857102283 0 0.012854111358278811 -0.0022492681587815977 0 0.012494501651442327 -0.0025204975837859055 0 0.012648553663380644 -0.0022769847276009909 0 0.015731957501117725 2.8688116770777679e-05 0 0.015750218331240153 7.3226735130295728e-05 0 0.015734561104605266 7.0776879278000373e-05 0 0.012494501651442327 -0.0025204975837859055 0 0.012530004562055949 -0.00234706857102283 0 0.012648553663380644 -0.0022769847276009909 0 0.012497622219520641 -0.0022367224251570281 0 0.012530004562055949 -0.00234706857102283 0 0.012648553663380644 -0.0022769847276009909 0 0.012494501651442327 -0.0025204975837859055 0 0.012421841459358811 -0.0023661720851753006 0 0.012530004562055949 -0.00234706857102283 0 0.019116265943755307 -0.001473999064248362 0 0.019319942237964873 -0.0017095625885520001 0 0.019507398172495173 -0.0013737490584885053 0 0.019319942237964873 -0.0017095625885520001 0 0.019675930391915432 -0.0016736335433841496 0 0.019507398172495173 -0.0013737490584885053 0 0.019319942237964873 -0.0017095625885520001 0 0.019367361237789628 -0.0020051001693203343 0 0.019675930391915432 -0.0016736335433841496 0 0.019020874881735577 -0.0020244934277604616 0 0.019319942237964873 -0.0017095625885520001 0 0.019367361237789628 -0.0020051001693203343 0 0.019367361237789628 -0.0020051001693203343 0 0.019675930391915432 -0.0016736335433841496 0 0.019840539228396983 -0.0019217545744730229 0 0.019675930391915432 -0.0016736335433841496 0 0.020104697989613621 -0.0015801788697416815 0 0.019901129592889612 -0.0013588767937920928 0 0.020104697989613621 -0.0015801788697416815 0 0.019840539228396983 -0.0019217545744730229 0 0.020453216088374065 -0.0017898909347047287 0 0.019675930391915432 -0.0016736335433841496 0 0.020104697989613621 -0.0015801788697416815 0 0.019840539228396983 -0.0019217545744730229 0 0.020853109799916426 -0.0018355019289941811 0 0.020472744778622948 -0.0022053865777554075 0 0.020453216088374065 -0.0017898909347047287 0 0.019840539228396983 -0.0019217545744730229 0 0.020472744778622948 -0.0022053865777554075 0 0.020453216088374065 -0.0017898909347047287 0 0.020104697989613621 -0.0015801788697416815 0 0.020453216088374065 -0.0017898909347047287 0 0.020517789238126128 -0.0014809958187337721 0 0.020453216088374065 -0.0017898909347047287 0 0.020660699818619489 -0.0016347367998523687 0 0.020517789238126128 -0.0014809958187337721 0 0.020821198320826254 -0.0014399735688577417 0 0.020660699818619489 -0.0016347367998523687 0 0.020517789238126128 -0.0014809958187337721 0 0.020821198320826254 -0.0014399735688577417 0 0.020517789238126128 -0.0014809958187337721 0 0.020634022761527537 -0.0012132334187246955 0 0.020517789238126128 -0.0014809958187337721 0 0.020634022761527537 -0.0012132334187246955 0 0.020263811527661619 -0.0012983497105822702 0 0.020634022761527537 -0.0012132334187246955 0 0.020458931363203921 -0.001030731594338483 0 0.020800301244887923 -0.00090001351509532584 0 0.020634022761527537 -0.0012132334187246955 0 0.020458931363203921 -0.001030731594338483 0 0.020263811527661619 -0.0012983497105822702 0 0.020458931363203921 -0.001030731594338483 0 0.020263811527661619 -0.0012983497105822702 0 0.020085230316980882 -0.0010195001046487545 0 0.020458931363203921 -0.001030731594338483 0 0.020085230316980882 -0.0010195001046487545 0 0.020383624354234905 -0.00079662285844366585 0 0.020263811527661619 -0.0012983497105822702 0 0.019901129592889612 -0.0013588767937920928 0 0.020085230316980882 -0.0010195001046487545 0 0.020104697989613621 -0.0015801788697416815 0 0.020517789238126128 -0.0014809958187337721 0 0.020263811527661619 -0.0012983497105822702 0 0.020104697989613621 -0.0015801788697416815 0 0.020263811527661619 -0.0012983497105822702 0 0.019901129592889612 -0.0013588767937920928 0 0.019901129592889612 -0.0013588767937920928 0 0.019772169759121164 -0.0011407903115019818 0 0.019507398172495173 -0.0013737490584885053 0 0.019675930391915432 -0.0016736335433841496 0 0.019901129592889612 -0.0013588767937920928 0 0.019507398172495173 -0.0013737490584885053 0 0.019901129592889612 -0.0013588767937920928 0 0.020085230316980882 -0.0010195001046487545 0 0.019772169759121164 -0.0011407903115019818 0 0.020085230316980882 -0.0010195001046487545 0 0.019772169759121164 -0.0011407903115019818 0 0.01980710593159174 -0.00090244312515609638 0 0.019772169759121164 -0.0011407903115019818 0 0.019520676142398361 -0.0010477988320972598 0 0.019507398172495173 -0.0013737490584885053 0 0.01955044966979785 -0.00081370842667706023 0 0.019520676142398361 -0.0010477988320972598 0 0.01980710593159174 -0.00090244312515609638 0 0.019121933432191263 -0.0011313392793765222 0 0.019520676142398361 -0.0010477988320972598 0 0.019507398172495173 -0.0013737490584885053 0 0.019772169759121164 -0.0011407903115019818 0 0.019520676142398361 -0.0010477988320972598 0 0.01980710593159174 -0.00090244312515609638 0 0.019677371679013678 -0.00051292305709519097 0 0.019851766229243124 -0.00053140303135816125 0 0.019905350278776556 -0.00027904924384197771 0 0.019851766229243124 -0.00053140303135816125 0 0.020074347095956502 -0.00044907285766459994 0 0.019905350278776556 -0.00027904924384197771 0 0.019851766229243124 -0.00053140303135816125 0 0.019840258806087457 -0.00069210084814420717 0 0.020074347095956502 -0.00044907285766459994 0 0.019629323756183984 -0.00064325480195850211 0 0.019851766229243124 -0.00053140303135816125 0 0.019840258806087457 -0.00069210084814420717 0 0.019629323756183984 -0.00064325480195850211 0 0.019677371679013678 -0.00051292305709519097 0 0.019851766229243124 -0.00053140303135816125 0 0.01955044966979785 -0.00081370842667706023 0 0.01980710593159174 -0.00090244312515609638 0 0.019840258806087457 -0.00069210084814420717 0 0.019629323756183984 -0.00064325480195850211 0 0.01955044966979785 -0.00081370842667706023 0 0.019840258806087457 -0.00069210084814420717 0 0.020085230316980882 -0.0010195001046487545 0 0.01980710593159174 -0.00090244312515609638 0 0.020161877951684001 -0.00066826003936675037 0 0.01980710593159174 -0.00090244312515609638 0 0.019840258806087457 -0.00069210084814420717 0 0.020161877951684001 -0.00066826003936675037 0 0.020161877951684001 -0.00066826003936675037 0 0.020074347095956502 -0.00044907285766459994 0 0.020294777048651794 -0.00045816858070319317 0 0.019840258806087457 -0.00069210084814420717 0 0.020161877951684001 -0.00066826003936675037 0 0.020074347095956502 -0.00044907285766459994 0 0.020294777048651794 -0.00045816858070319317 0 0.020502316000372087 -0.00042336568861062266 0 0.020392665896291472 -0.00058987179726149429 0 0.020502316000372087 -0.00042336568861062266 0 0.020392665896291472 -0.00058987179726149429 0 0.020621254487370844 -0.00060810248754179742 0 0.020161877951684001 -0.00066826003936675037 0 0.020294777048651794 -0.00045816858070319317 0 0.020392665896291472 -0.00058987179726149429 0 0.020085230316980882 -0.0010195001046487545 0 0.020161877951684001 -0.00066826003936675037 0 0.020383624354234905 -0.00079662285844366585 0 0.020161877951684001 -0.00066826003936675037 0 0.020392665896291472 -0.00058987179726149429 0 0.020383624354234905 -0.00079662285844366585 0 0.020458931363203921 -0.001030731594338483 0 0.020383624354234905 -0.00079662285844366585 0 0.020618769441133528 -0.00078513972621600922 0 0.020392665896291472 -0.00058987179726149429 0 0.020383624354234905 -0.00079662285844366585 0 0.020621254487370844 -0.00060810248754179742 0 0.020383624354234905 -0.00079662285844366585 0 0.020618769441133528 -0.00078513972621600922 0 0.020621254487370844 -0.00060810248754179742 0 0.020618769441133528 -0.00078513972621600922 0 0.020795944347356828 -0.00062792828578195662 0 0.020621254487370844 -0.00060810248754179742 0 0.020458931363203921 -0.001030731594338483 0 0.020618769441133528 -0.00078513972621600922 0 0.020800301244887923 -0.00090001351509532584 0 0.020618769441133528 -0.00078513972621600922 0 0.020800301244887923 -0.00090001351509532584 0 0.020795944347356828 -0.00062792828578195662 0 0.020795944347356828 -0.00062792828578195662 0 0.020621254487370844 -0.00060810248754179742 0 0.020751464972122425 -0.00044406181620107682 0 0.020502316000372087 -0.00042336568861062266 0 0.020621254487370844 -0.00060810248754179742 0 0.020751464972122425 -0.00044406181620107682 0 0.020795944347356828 -0.00062792828578195662 0 0.020751464972122425 -0.00044406181620107682 0 0.020967426599871643 -0.00041449911895421353 0 0.02079368600983781 -0.0002768626220573915 0 0.021022391818632566 -0.00020129009708460849 0 0.020967426599871643 -0.00041449911895421353 0 0.020751464972122425 -0.00044406181620107682 0 0.02079368600983781 -0.0002768626220573915 0 0.020967426599871643 -0.00041449911895421353 0 0.020502316000372087 -0.00042336568861062266 0 0.020751464972122425 -0.00044406181620107682 0 0.02079368600983781 -0.0002768626220573915 0 0.02079368600983781 -0.0002768626220573915 0 0.020846097949782105 -0.00012151405517554209 0 0.020604614924144334 -0.00026625307646393782 0 0.02079368600983781 -0.0002768626220573915 0 0.021022391818632566 -0.00020129009708460849 0 0.020846097949782105 -0.00012151405517554209 0 0.021022391818632566 -0.00020129009708460849 0 0.02104474592346596 -2.2791116066405926e-05 0 0.020846097949782105 -0.00012151405517554209 0 0.021065442995265981 0.00020284528592588312 0 0.02104474592346596 -2.2791116066405926e-05 0 0.021257745049074368 8.9330568850163168e-05 0 0.021065442995265981 0.00020284528592588312 0 0.02104474592346596 -2.2791116066405926e-05 0 0.020849480221687342 1.7738993605176633e-05 0 0.02104474592346596 -2.2791116066405926e-05 0 0.020849480221687342 1.7738993605176633e-05 0 0.020846097949782105 -0.00012151405517554209 0 0.020849480221687342 1.7738993605176633e-05 0 0.020846097949782105 -0.00012151405517554209 0 0.020624493556102578 -9.6008719046614398e-05 0 0.020683777972223039 0.00011423076496412149 0 0.020849480221687342 1.7738993605176633e-05 0 0.020624493556102578 -9.6008719046614398e-05 0 0.020683777972223039 0.00011423076496412149 0 0.020624493556102578 -9.6008719046614398e-05 0 0.020408446131280188 -5.9954594306495417e-05 0 0.020624493556102578 -9.6008719046614398e-05 0 0.020359500554169036 -0.00026954304532933758 0 0.020408446131280188 -5.9954594306495417e-05 0 0.020624493556102578 -9.6008719046614398e-05 0 0.020604614924144334 -0.00026625307646393782 0 0.020359500554169036 -0.00026954304532933758 0 0.020846097949782105 -0.00012151405517554209 0 0.020624493556102578 -9.6008719046614398e-05 0 0.020604614924144334 -0.00026625307646393782 0 0.020502316000372087 -0.00042336568861062266 0 0.02079368600983781 -0.0002768626220573915 0 0.020604614924144334 -0.00026625307646393782 0 0.020294777048651794 -0.00045816858070319317 0 0.020502316000372087 -0.00042336568861062266 0 0.020359500554169036 -0.00026954304532933758 0 0.020502316000372087 -0.00042336568861062266 0 0.020604614924144334 -0.00026625307646393782 0 0.020359500554169036 -0.00026954304532933758 0 0.020074347095956502 -0.00044907285766459994 0 0.020141150691167946 -0.0001768758332506128 0 0.020359500554169036 -0.00026954304532933758 0 0.020074347095956502 -0.00044907285766459994 0 0.020294777048651794 -0.00045816858070319317 0 0.020359500554169036 -0.00026954304532933758 0 0.020141150691167946 -0.0001768758332506128 0 0.020359500554169036 -0.00026954304532933758 0 0.020408446131280188 -5.9954594306495417e-05 0 0.020405481836063302 0.00025621781636801447 0 0.020408446131280188 -5.9954594306495417e-05 0 0.020170447119656088 2.4391616358818507e-05 0 0.020141150691167946 -0.0001768758332506128 0 0.020408446131280188 -5.9954594306495417e-05 0 0.020170447119656088 2.4391616358818507e-05 0 0.020141150691167946 -0.0001768758332506128 0 0.020170447119656088 2.4391616358818507e-05 0 0.019886385787790607 -5.9139087400429563e-05 0 0.020018565060953678 0.00018078469703066113 0 0.020170447119656088 2.4391616358818507e-05 0 0.019886385787790607 -5.9139087400429563e-05 0 0.020074347095956502 -0.00044907285766459994 0 0.020141150691167946 -0.0001768758332506128 0 0.019905350278776556 -0.00027904924384197771 0 0.020141150691167946 -0.0001768758332506128 0 0.019886385787790607 -5.9139087400429563e-05 0 0.019905350278776556 -0.00027904924384197771 0 0.015788452717651686 -1.2830321900874819e-05 0 0.015687824574136273 2.2267565278260285e-05 0 0.015655519178891027 -7.7384906718185468e-05 0 0.015606238670260396 1.5562215683896407e-05 0 0.015687824574136273 2.2267565278260285e-05 0 0.015655519178891027 -7.7384906718185468e-05 0 0.015687824574136273 2.2267565278260285e-05 0 0.015644100059892491 7.6392652783401684e-05 0 0.015721918814061212 5.7082964528066032e-05 0 0.015606238670260396 1.5562215683896407e-05 0 0.015687824574136273 2.2267565278260285e-05 0 0.015644100059892491 7.6392652783401684e-05 0 0.018957869865742705 -0.00029435941827464019 0 0.018478738757269585 -0.00027667004082671269 0 0.015788452717651686 -1.2830321900874819e-05 0 0.015687824574136273 2.2267565278260285e-05 0 0.015721918814061212 5.7082964528066032e-05 0 0.015750218331240153 7.3226735130295728e-05 0 0.015788452717651686 -1.2830321900874819e-05 0 0.015721918814061212 5.7082964528066032e-05 0 0.021382740845666447 -0.00098095946418043541 0 0.021588903549674934 -0.00048935127277208331 0 0.021273828601388909 -0.00062214537006700021 0 0.021382740845666447 -0.00098095946418043541 0 0.021100240192554614 -0.00088097441718810511 0 0.021273828601388909 -0.00062214537006700021 0 0.020800301244887923 -0.00090001351509532584 0 0.021100240192554614 -0.00088097441718810511 0 0.021021375337091822 -0.00063205894685467649 0 0.021100240192554614 -0.00088097441718810511 0 0.021021375337091822 -0.00063205894685467649 0 0.021273828601388909 -0.00062214537006700021 0 0.020800301244887923 -0.00090001351509532584 0 0.020795944347356828 -0.00062792828578195662 0 0.021021375337091822 -0.00063205894685467649 0 0.020795944347356828 -0.00062792828578195662 0 0.021021375337091822 -0.00063205894685467649 0 0.020967426599871643 -0.00041449911895421353 0 0.021021375337091822 -0.00063205894685467649 0 0.021148098440400866 -0.00044957144941104235 0 0.021273828601388909 -0.00062214537006700021 0 0.021148098440400866 -0.00044957144941104235 0 0.020967426599871643 -0.00041449911895421353 0 0.021226685528836362 -0.00027421628472571705 0 0.021021375337091822 -0.00063205894685467649 0 0.021148098440400866 -0.00044957144941104235 0 0.020967426599871643 -0.00041449911895421353 0 0.021148098440400866 -0.00044957144941104235 0 0.021273828601388909 -0.00062214537006700021 0 0.021386500891764724 -0.00032808274494497419 0 0.021588903549674934 -0.00048935127277208331 0 0.021273828601388909 -0.00062214537006700021 0 0.021386500891764724 -0.00032808274494497419 0 0.021588903549674934 -0.00048935127277208331 0 0.021386500891764724 -0.00032808274494497419 0 0.021607855004269483 -4.9680582045927472e-05 0 0.021386500891764724 -0.00032808274494497419 0 0.021407497481480429 -0.00012157520667660534 0 0.021607855004269483 -4.9680582045927472e-05 0 0.021386500891764724 -0.00032808274494497419 0 0.021407497481480429 -0.00012157520667660534 0 0.021226685528836362 -0.00027421628472571705 0 0.021022391818632566 -0.00020129009708460849 0 0.020967426599871643 -0.00041449911895421353 0 0.021226685528836362 -0.00027421628472571705 0 0.021148098440400866 -0.00044957144941104235 0 0.021386500891764724 -0.00032808274494497419 0 0.021226685528836362 -0.00027421628472571705 0 0.021407497481480429 -0.00012157520667660534 0 0.021226685528836362 -0.00027421628472571705 0 0.02123105577655603 -8.9393256337879786e-05 0 0.021022391818632566 -0.00020129009708460849 0 0.021226685528836362 -0.00027421628472571705 0 0.02123105577655603 -8.9393256337879786e-05 0 0.021022391818632566 -0.00020129009708460849 0 0.02104474592346596 -2.2791116066405926e-05 0 0.02123105577655603 -8.9393256337879786e-05 0 0.02104474592346596 -2.2791116066405926e-05 0 0.02123105577655603 -8.9393256337879786e-05 0 0.021257745049074368 8.9330568850163168e-05 0 0.021407497481480429 -0.00012157520667660534 0 0.02123105577655603 -8.9393256337879786e-05 0 0.02140125542899865 3.7772081125192789e-05 0 0.021459051787841358 0.0002066106817487579 0 0.021257745049074368 8.9330568850163168e-05 0 0.02140125542899865 3.7772081125192789e-05 0 0.02123105577655603 -8.9393256337879786e-05 0 0.021257745049074368 8.9330568850163168e-05 0 0.02140125542899865 3.7772081125192789e-05 0 0.021506985959429511 8.4059420415272236e-06 0 0.021668437033332974 0.00012371380786912561 0 0.021607855004269483 -4.9680582045927472e-05 0 0.021407497481480429 -0.00012157520667660534 0 0.021506985959429511 8.4059420415272236e-06 0 0.021607855004269483 -4.9680582045927472e-05 0 0.021407497481480429 -0.00012157520667660534 0 0.021506985959429511 8.4059420415272236e-06 0 0.02140125542899865 3.7772081125192789e-05 0 0.021574193464583391 0.00016229503225480133 0 0.021506985959429511 8.4059420415272236e-06 0 0.02140125542899865 3.7772081125192789e-05 0 0.021574193464583391 0.00016229503225480133 0 0.021459051787841358 0.0002066106817487579 0 0.02140125542899865 3.7772081125192789e-05 0 0.021574193464583391 0.00016229503225480133 0 0.021506985959429511 8.4059420415272236e-06 0 0.021668437033332974 0.00012371380786912561 0 0.021883429820322858 0.00056220845687609893 0 0.01995052963661554 -0.00031441843041243482 0 0.021806291114121315 0.0003000804337287834 0 0.021668437033332974 0.00012371380786912561 0 0.021784958566375478 -7.5075264457271429e-06 0 0.021668437033332974 0.00012371380786912561 0 0.021784958566375478 -7.5075264457271429e-06 0 0.021607855004269483 -4.9680582045927472e-05 0 0.01995052963661554 -0.00031441843041243482 0 0.021822749270844356 -2.4033803138535896e-05 0 0.015788452717651686 -1.2830321900874819e-05 0 0.015795787126084142 -0.00023139985003587204 0 0.015655519178891027 -7.7384906718185468e-05 0 0.018478738757269585 -0.00027667004082671269 0 0.01995052963661554 -0.00031441843041243482 0 0.021588903549674934 -0.00048935127277208331 0 0.021759723531974175 -2.7191067281988369e-05 0 0.021607855004269483 -4.9680582045927472e-05 0 0.015795787126084142 -0.00023139985003587204 0 0.015655519178891027 -7.7384906718185468e-05 0 0.015634386034217629 -0.00018326357989686943 0 0.015655519178891027 -7.7384906718185468e-05 0 0.015634386034217629 -0.00018326357989686943 0 0.015518140408709429 -0.00015063285801221151 0 0.01995052963661554 -0.00031441843041243482 0 0.018459124897757272 1.3852196188578286e-05 0 0.02178501595212684 0.00031946403298451073 0 0.021789194447163037 0.0003199705411713447 0 0.021777202857952652 0.00032790988738314703 0 0.021806291114121315 0.0003000804337287834 0 0.02178501595212684 0.00031946403298451073 0 0.021789194447163037 0.0003199705411713447 0 0.015795787126084142 -0.00023139985003587204 0 0.015634386034217629 -0.00018326357989686943 0 0.015564645281186604 -0.00027578584004513341 0 0.021799149071296344 0.0003394690617257627 0 0.021789194447163037 0.0003199705411713447 0 0.021777202857952652 0.00032790988738314703 0 0.015466054520737333 -0.00023194747496771951 0 0.015564645281186604 -0.00027578584004513341 0 0.015411176764493143 -0.00025812118618151383 0 0.018459124897757272 1.3852196188578286e-05 0 0.01849487299196274 0.00035449677508134491 0 0.021790738000758276 0.00034426804119686499 0 0.021777202857952652 0.00032790988738314703 0 0.021787753756710521 0.00034256021825883982 0 0.015466054520737333 -0.00023194747496771951 0 0.015564645281186604 -0.00027578584004513341 0 0.015518140408709429 -0.00015063285801221151 0 0.015564645281186604 -0.00027578584004513341 0 0.015392581937304009 -0.00028094174396090085 0 0.015411176764493143 -0.00025812118618151383 0 0.016250293783895722 -0.00046318691035718745 0 0.017088579290613942 -5.3648252555839881e-05 0 0.017192515991077184 8.0551993864364961e-05 0 0.017022298392403441 -0.00012160047043753744 0 0.017497054320911618 0.00013056908467683429 0 0.01849487299196274 0.00035449677508134491 0 0.017088579290613942 -5.3648252555839881e-05 0 0.01849487299196274 0.00035449677508134491 0 0.016250293783895722 -0.00046318691035718745 0 0.015420909959958097 -0.00045547267426967618 0 0.016250293783895722 -0.00046318691035718745 0 0.015332890969758702 -0.00025195792465670534 0 0.015272959608843104 -0.00028574595554231884 0 0.015280148562266982 -0.00019006331641817278 0 0.015466054520737333 -0.00023194747496771951 0 0.015332890969758702 -0.00025195792465670534 0 0.015272705261299152 -0.00031899304327400184 0 0.015466054520737333 -0.00023194747496771951 0 0.015332890969758702 -0.00025195792465670534 0 0.015385679666361517 -0.00017976454260979098 0 0.015332890969758702 -0.00025195792465670534 0 0.015280148562266982 -0.00019006331641817278 0 0.015385679666361517 -0.00017976454260979098 0 0.015951213771155413 -0.00055280002785266515 0 0.016250293783895722 -0.00046318691035718745 0 0.015171792216751754 -0.0002156756987922368 0 0.015272959608843104 -0.00028574595554231884 0 0.015123432260864279 -0.00030768171620265553 0 0.015171792216751754 -0.0002156756987922368 0 0.015272959608843104 -0.00028574595554231884 0 0.015280148562266982 -0.00019006331641817278 0 0.015163219755691772 -0.0001122229655771642 0 0.015372753640483693 -0.00011827770747687524 0 0.015465592063872184 3.0550956491608055e-05 0 0.015163219755691772 -0.0001122229655771642 0 0.015280148562266982 -0.00019006331641817278 0 0.015372753640483693 -0.00011827770747687524 0 0.015171792216751754 -0.0002156756987922368 0 0.015163219755691772 -0.0001122229655771642 0 0.015280148562266982 -0.00019006331641817278 0 0.015280148562266982 -0.00019006331641817278 0 0.015385679666361517 -0.00017976454260979098 0 0.015372753640483693 -0.00011827770747687524 0 0.015372753640483693 -0.00011827770747687524 0 0.015518140408709429 -0.00015063285801221151 0 0.015465592063872184 3.0550956491608055e-05 0 0.015655519178891027 -7.7384906718185468e-05 0 0.015518140408709429 -0.00015063285801221151 0 0.015465592063872184 3.0550956491608055e-05 0 0.015634386034217629 -0.00018326357989686943 0 0.015564645281186604 -0.00027578584004513341 0 0.015518140408709429 -0.00015063285801221151 0 0.015466054520737333 -0.00023194747496771951 0 0.015385679666361517 -0.00017976454260979098 0 0.015518140408709429 -0.00015063285801221151 0 0.015385679666361517 -0.00017976454260979098 0 0.015372753640483693 -0.00011827770747687524 0 0.015518140408709429 -0.00015063285801221151 0 0.015606238670260396 1.5562215683896407e-05 0 0.015655519178891027 -7.7384906718185468e-05 0 0.015465592063872184 3.0550956491608055e-05 0 0.014600266484309192 -0.0004504619943304359 0 0.014245595185191548 -0.00077109697263131921 0 0.014031188475643219 -0.00075600436959028623 0 0.013048702677033246 -0.0015303163324004365 0 0.01439791152677026 -0.0012447007559582754 0 0.01375433292669489 -0.0018177065480905054 0 0.012516763360950292 -0.0025245426821215839 0 0.013048702677033246 -0.0015303163324004365 0 0.012976858392339537 -0.0021002118886283556 0 0.014453968987585906 -0.0019131183574984572 0 0.012976858392339537 -0.0021002118886283556 0 0.014453968987585906 -0.0019131183574984572 0 0.013324996885574826 -0.0025947463424307524 0 0.012976858392339537 -0.0021002118886283556 0 0.012568916848769133 -0.0024947804030382107 0 0.013324996885574826 -0.0025947463424307524 0 0.015606238670260396 1.5562215683896407e-05 0 0.015644100059892491 7.6392652783401684e-05 0 0.015465592063872184 3.0550956491608055e-05 0 0.012296339919171659 -0.0023955350076130598 0 0.013048702677033246 -0.0015303163324004365 0 0.012976858392339537 -0.0021002118886283556 0 0.012296339919171659 -0.0023955350076130598 0 0.012976858392339537 -0.0021002118886283556 0 0.012568916848769133 -0.0024947804030382107 0 0.014033049829923771 -0.0011234692976198723 0 0.014245595185191548 -0.00077109697263131921 0 0.013652513967988415 -0.0017910580821478084 0 0.013008438947750401 -0.0017546931080446933 0 0.013389822260872992 -0.0023456105233028955 0 0.013652513967988415 -0.0017910580821478084 0 0.013973557640970699 -0.0016088873991996191 0 0.013932185332337133 -0.0021616682599985802 0 0.01305764487955228 -0.0019598288482815585 0 0.01200552185179966 -0.0026143976850482773 0 0.01241443582369939 -0.0023738926064679126 0 0.011961240704373939 -0.0025344413955465401 0 0.012330677877453377 -0.0025275381759641419 0 0.013652513967988415 -0.0017910580821478084 0 0.013932185332337133 -0.0021616682599985802 0 0.013389822260872992 -0.0023456105233028955 0 0.01305764487955228 -0.0019598288482815585 0 0.011680497071990863 -0.0026193918998184055 0 0.013008438947750401 -0.0017546931080446933 0 0.012752528126496939 -0.0023497198278685113 0 0.013389822260872992 -0.0023456105233028955 0 0.013008438947750401 -0.0017546931080446933 0 0.01212071022488866 -0.0023593399289643961 0 0.012752528126496939 -0.0023497198278685113 0 0.013048702677033246 -0.0015303163324004365 0 0.014453968987585906 -0.0019131183574984572 0 0.01439791152677026 -0.0012447007559582754 0 0.01375433292669489 -0.0018177065480905054 0 0.01468954721194422 -0.0011767968222044917 0 0.014453968987585906 -0.0019131183574984572 0 0.01439791152677026 -0.0012447007559582754 0 0.015342135834806831 -0.0012318364445126479 0 0.013652513967988415 -0.0017910580821478084 0 0.013008438947750401 -0.0017546931080446933 0 0.013919568615017856 -0.0011368266158952459 0 0.013652513967988415 -0.0017910580821478084 0 0.013973557640970699 -0.0016088873991996191 0 0.013919568615017856 -0.0011368266158952459 0 0.014837750763996776 -0.00080082342266478651 0 0.015282165829423461 -0.00060345384444447355 0 0.015342135834806831 -0.0012318364445126479 0 0.01439791152677026 -0.0012447007559582754 0 0.014837750763996776 -0.00080082342266478651 0 0.015342135834806831 -0.0012318364445126479 0 0.014031188475643219 -0.00075600436959028623 0 0.014837750763996776 -0.00080082342266478651 0 0.014978168982358469 -0.00024241189535987705 0 0.014031188475643219 -0.00075600436959028623 0 0.01439791152677026 -0.0012447007559582754 0 0.014837750763996776 -0.00080082342266478651 0 0.014600266484309192 -0.0004504619943304359 0 0.014926492909487648 -0.00025297916310684847 0 0.015163219755691772 -0.0001122229655771642 0 0.015063335794909077 -0.00022054911528109132 0 0.014978168982358469 -0.00024241189535987705 0 0.015171792216751754 -0.0002156756987922368 0 0.015063335794909077 -0.00022054911528109132 0 0.015123432260864279 -0.00030768171620265553 0 0.015171792216751754 -0.0002156756987922368 0 0.015163219755691772 -0.0001122229655771642 0 0.015063335794909077 -0.00022054911528109132 0 0.015063335794909077 -0.00022054911528109132 0 0.014938789859996662 -0.00025969787903293106 0 0.014978168982358469 -0.00024241189535987705 0 0.017904893242111891 0.00017496824189441442 0 0.016863871295263608 -9.0193003622591805e-05 0 0.017377048439624738 -8.8228757199730715e-05 0 0.01736582616345209 -0.00016159685997060521 0 0.017179012779671352 -0.00019030774953545377 0 0.017904893242111891 0.00017496824189441442 0 0.017088579290613942 -5.3648252555839881e-05 0 0.015063335794909077 -0.00022054911528109132 0 0.014938789859996662 -0.00025969787903293106 0 0.015123432260864279 -0.00030768171620265553 0 0.016863871295263608 -9.0193003622591805e-05 0 0.017088579290613942 -5.3648252555839881e-05 0 0.015271544883319508 -9.3911460734779839e-05 0 0.015282165829423461 -0.00060345384444447355 0 0.014978168982358469 -0.00024241189535987705 0 0.017800387559756856 0.00013354190575573833 0 0.017173740763965419 0.00012209253827409432 0 0.017160574131963056 3.7611345889430605e-05 0 0.015271544883319508 -9.3911460734779839e-05 0 0.014938789859996662 -0.00025969787903293106 0 0.014978168982358469 -0.00024241189535987705 0 0.014837750763996776 -0.00080082342266478651 0 0.015282165829423461 -0.00060345384444447355 0 0.014978168982358469 -0.00024241189535987705 0 0.016252707974305818 -1.1619261044392659e-05 0 0.016863871295263608 -9.0193003622591805e-05 0 0.015271544883319508 -9.3911460734779839e-05 0 0.015282165829423461 -0.00060345384444447355 0 0.015717533060478694 -0.0003132124627163379 0 0.016065881476638223 4.6712006551149999e-05 0 0.015271544883319508 -9.3911460734779839e-05 0 0.015717533060478694 -0.0003132124627163379 0 0.015282165829423461 -0.00060345384444447355 0 0.015717533060478694 -0.0003132124627163379 0 0.015585772875575516 -0.00071014504847203804 0 0.015717533060478694 -0.0003132124627163379 0 0.015991816131519225 -0.00072812887321175776 0 0.015585772875575516 -0.00071014504847203804 0 0.016065881476638223 4.6712006551149999e-05 0 0.015717533060478694 -0.0003132124627163379 0 0.016200049806761818 -0.00036310075569919586 0 0.017935542805537302 0.00015609436534513865 0 0.015770119849073796 -0.00042924930076895774 0 0.01468025186121614 -0.00031293554351715546 0 0.014511208283201248 -0.00061514365018267741 0 0.014612353501766213 -0.00054728001302536446 0 0.015770119849073796 -0.00042924930076895774 0 0.014933797758406848 -0.00043384534657854188 0 0.01468025186121614 -0.00031293554351715546 0 0.014612353501766213 -0.00054728001302536446 0 0.014783387361038165 -0.00064179856462951942 0 0.015770119849073796 -0.00042924930076895774 0 0.015027958281061847 -0.00061300873380563134 0 0.015717533060478694 -0.0003132124627163379 0 0.016200049806761818 -0.00036310075569919586 0 0.015991816131519225 -0.00072812887321175776 0 0.014506721721072804 -0.00059770982465650615 0 0.01453366362612765 -0.00085520030165710129 0 0.014166234024249134 -0.0011301114228058642 0 0.015027958281061847 -0.00061300873380563134 0 0.014328540157967782 -0.0012039751203535187 0 0.015027958281061847 -0.00061300873380563134 0 0.014834304151529393 -0.0006759138713543063 0 0.014506721721072804 -0.00059770982465650615 0 0.014612353501766213 -0.00054728001302536446 0 0.01465153101835032 -0.00068759504761146993 0 0.014612353501766213 -0.00054728001302536446 0 0.01465153101835032 -0.00068759504761146993 0 0.014783387361038165 -0.00064179856462951942 0 0.01465153101835032 -0.00068759504761146993 0 0.014783387361038165 -0.00064179856462951942 0 0.014798517031161038 -0.00080272980551465386 0 0.01465153101835032 -0.00068759504761146993 0 0.01453366362612765 -0.00085520030165710129 0 0.014798517031161038 -0.00080272980551465386 0 0.014506721721072804 -0.00059770982465650615 0 0.01465153101835032 -0.00068759504761146993 0 0.01453366362612765 -0.00085520030165710129 0 0.014845309703259757 -0.00051846115904396963 0 0.014389723711743598 -0.0013441543113101955 0 0.013919568615017856 -0.0011368266158952459 0 0.015027958281061847 -0.00061300873380563134 0 0.01468954721194422 -0.0011767968222044917 0 0.015991816131519225 -0.00072812887321175776 0 0.015585772875575516 -0.00071014504847203804 0 0.015342135834806831 -0.0012318364445126479 0 0.015282165829423461 -0.00060345384444447355 0 0.015585772875575516 -0.00071014504847203804 0 0.015342135834806831 -0.0012318364445126479 0 0.01502187424173085 -0.00037039544080257969 0 0.014971118265935144 -0.00039341264680086172 0 0.014973039663213466 -0.00055486732994908966 0 0.01502187424173085 -0.00037039544080257969 0 0.015007022921482639 -0.00036178953506607467 0 0.014971118265935144 -0.00039341264680086172 0 0.015010342165610754 -0.00034528584169050817 0 0.015007022921482639 -0.00036178953506607467 0 0.014971118265935144 -0.00039341264680086172 0 0.015010342165610754 -0.00034528584169050817 0 0.014952863727782123 -0.00033760185501307199 0 0.014971118265935144 -0.00039341264680086172 0 0.014971118265935144 -0.00039341264680086172 0 0.01489876613455246 -0.00038861565064127798 0 0.014901532139257162 -0.00049373409796409724 0 0.014952863727782123 -0.00033760185501307199 0 0.014869411690741208 -0.00027435377358557263 0 0.01489876613455246 -0.00038861565064127798 0 0.014952863727782123 -0.00033760185501307199 0 0.014971118265935144 -0.00039341264680086172 0 0.01489876613455246 -0.00038861565064127798 0 0.018243022562396315 0.00017478089793482345 0 0.015770119849073796 -0.00042924930076895774 0 0.014869411690741208 -0.00027435377358557263 0 0.01473841931519536 -0.00042004861945879916 0 0.01489876613455246 -0.00038861565064127798 0 0.01473841931519536 -0.00042004861945879916 0 0.01489876613455246 -0.00038861565064127798 0 0.014783387361038165 -0.00064179856462951942 0 0.014862951151060197 -0.00045004278127805169 0 0.014884138565881918 -0.00061517830182364406 0 0.01489876613455246 -0.00038861565064127798 0 0.014783387361038165 -0.00064179856462951942 0 0.014798517031161038 -0.00080272980551465386 0 0.01489876613455246 -0.00038861565064127798 0 0.014770537294519414 -0.00057318143185400555 0 0.014901532139257162 -0.00049373409796409724 0 0.014770537294519414 -0.00057318143185400555 0 0.014867783323942875 -0.00057342270416691431 0 0.014901532139257162 -0.00049373409796409724 0 0.014770537294519414 -0.00057318143185400555 0 0.014867783323942875 -0.00057342270416691431 0 0.014822399522345235 -0.00067378011102125113 0 0.014867783323942875 -0.00057342270416691431 0 0.014973039663213466 -0.00055486732994908966 0 0.014822399522345235 -0.00067378011102125113 0 0.014867783323942875 -0.00057342270416691431 0 0.014901532139257162 -0.00049373409796409724 0 0.014973039663213466 -0.00055486732994908966 0 0.014971118265935144 -0.00039341264680086172 0 0.014901532139257162 -0.00049373409796409724 0 0.014973039663213466 -0.00055486732994908966 0 0.014664870655582208 -0.00058874214073588438 0 0.014685606760481796 -0.00076920152908520323 0 0.014461098559146153 -0.00082589358122459619 0 0.014813900512127489 -0.0005149365280651925 0 0.014846505433179644 -0.00059099570183024797 0 0.014685606760481796 -0.00076920152908520323 0 0.014461098559146153 -0.00082589358122459619 0 0.014604280183202256 -0.00098014546941357873 0 0.014461098559146153 -0.00082589358122459619 0 0.014604280183202256 -0.00098014546941357873 0 0.01424858927788415 -0.0011091785780299732 0 0.012479196626800065 -0.0016311345433127991 0 0.012445053341858607 -0.0016475070742221559 0 0.012465452110173384 -0.0016529161336534706 0 0.013444074676872982 -0.0013447340848136474 0 0.013563908862443722 -0.0012284515778115102 0 0.014973039663213466 -0.00055486732994908966 0 0.014822399522345235 -0.00067378011102125113 0 0.014821508875258117 -0.00080793660449573828 0 0.014770537294519414 -0.00057318143185400555 0 0.014822399522345235 -0.00067378011102125113 0 0.014643928156298277 -0.0008691140163628368 0 0.014846505433179644 -0.00059099570183024797 0 0.013563908862443722 -0.0012284515778115102 0 0.014822399522345235 -0.00067378011102125113 0 0.014821508875258117 -0.00080793660449573828 0 0.014643928156298277 -0.0008691140163628368 0 0.010228801822092444 -0.0022711320033165562 0 0.01009228576460458 -0.0023256234737503703 0 0.010364204012937139 -0.0022939282891735855 0 0.011385960625163847 -0.0019313933571364133 0 0.011158158784920999 -0.0021363480011921555 0 0.012465452110173384 -0.0016529161336534706 0 0.012428451761067756 -0.0016725210462085205 0 0.012421351576541131 -0.001689653456689987 0 0.012445053341858607 -0.0016475070742221559 0 0.012465452110173384 -0.0016529161336534706 0 0.012428451761067756 -0.0016725210462085205 0 0.013563908862443722 -0.0012284515778115102 0 0.013658410243284201 -0.0013618159557426597 0 0.013563908862443722 -0.0012284515778115102 0 0.012388423090200017 -0.0019193838971753123 0 0.01008086069052757 -0.0022541980509771481 0 0.011158158784920999 -0.0021363480011921555 0 0.010228801822092444 -0.0022711320033165562 0 0.01009228576460458 -0.0023256234737503703 0 0.010057850196584679 -0.0022350730780075143 0 0.009965200095432598 -0.0022587065880244092 0 0.01009228576460458 -0.0023256234737503703 0 0.010057850196584679 -0.0022350730780075143 0 0.014389723711743598 -0.0013441543113101955 0 0.013973557640970699 -0.0016088873991996191 0 0.013919568615017856 -0.0011368266158952459 0 0.01453366362612765 -0.00085520030165710129 0 0.014166234024249134 -0.0011301114228058642 0 0.014529322307868981 -0.0010544748577972724 0 0.014884138565881918 -0.00061517830182364406 0 0.013658410243284201 -0.0013618159557426597 0 0.014798517031161038 -0.00080272980551465386 0 0.014529322307868981 -0.0010544748577972724 0 0.014592199336525238 -0.0014613840337183545 0 0.01453366362612765 -0.00085520030165710129 0 0.014798517031161038 -0.00080272980551465386 0 0.014529322307868981 -0.0010544748577972724 0 0.014166234024249134 -0.0011301114228058642 0 0.014529322307868981 -0.0010544748577972724 0 0.014592199336525238 -0.0014613840337183545 0 0.012968221403716377 -0.001694183961018936 0 0.012834756529974636 -0.0020744696333557171 0 0.012226347462954697 -0.0019548017515760769 0 0.012507955683831088 -0.0015810018986890215 0 0.012403742636149387 -0.0016218109460450294 0 0.012428451761067756 -0.0016725210462085205 0 0.012428451761067756 -0.0016725210462085205 0 0.012421351576541131 -0.001689653456689987 0 0.012385879312998204 -0.0016974015236405097 0 0.012403742636149387 -0.0016218109460450294 0 0.012428451761067756 -0.0016725210462085205 0 0.012385879312998204 -0.0016974015236405097 0 0.011158158784920999 -0.0021363480011921555 0 0.011690977456791702 -0.0021398600232555732 0 0.013658410243284201 -0.0013618159557426597 0 0.011690977456791702 -0.0021398600232555732 0 0.011690977456791702 -0.0021398600232555732 0 0.011680497071990863 -0.0026193918998184055 0 0.014328540157967782 -0.0012039751203535187 0 0.01305764487955228 -0.0019598288482815585 0 0.013658410243284201 -0.0013618159557426597 0 0.01305764487955228 -0.0019598288482815585 0 0.012834756529974636 -0.0020744696333557171 0 0.012226347462954697 -0.0019548017515760769 0 0.012154799633940611 -0.0020850622431677233 0 0.014166234024249134 -0.0011301114228058642 0 0.014592199336525238 -0.0014613840337183545 0 0.013827338823266937 -0.001729627513855476 0 0.014389723711743598 -0.0013441543113101955 0 0.013973557640970699 -0.0016088873991996191 0 0.013932185332337133 -0.0021616682599985802 0 0.010429523435082333 -0.0028641698986045594 0 0.010710160292133638 -0.002769305989100765 0 0.010931542584704626 -0.0028523048597296841 0 0.010851783835321203 -0.0026676502436775262 0 0.010710160292133638 -0.002769305989100765 0 0.010931542584704626 -0.0028523048597296841 0 0.010592956812979877 -0.002621418822188437 0 0.010458456555695389 -0.0027728345937582293 0 0.010638660461942194 -0.0021500170966730447 0 0.010851783835321203 -0.0026676502436775262 0 0.010700030768244866 -0.0026640217816243763 0 0.010710160292133638 -0.002769305989100765 0 0.010851783835321203 -0.0026676502436775262 0 0.010770157671451567 -0.0025202633950171796 0 0.010700030768244866 -0.0026640217816243763 0 0.010770157671451567 -0.0025202633950171796 0 0.010700030768244866 -0.0026640217816243763 0 0.010592956812979877 -0.002621418822188437 0 0.010700030768244866 -0.0026640217816243763 0 0.010592956812979877 -0.002621418822188437 0 0.010573522653214859 -0.0027424689829434658 0 0.010429523435082333 -0.0028641698986045594 0 0.010573522653214859 -0.0027424689829434658 0 0.010710160292133638 -0.002769305989100765 0 0.010700030768244866 -0.0026640217816243763 0 0.010573522653214859 -0.0027424689829434658 0 0.010710160292133638 -0.002769305989100765 0 0.01128611116175216 -0.0021674691980258982 0 0.011265682961574616 -0.0021688490003236838 0 0.01126092239961086 -0.0021828807446530644 0 0.010429523435082333 -0.0028641698986045594 0 0.010573522653214859 -0.0027424689829434658 0 0.010458456555695389 -0.0027728345937582293 0 0.011690977456791702 -0.0021398600232555732 0 0.010964855811802452 -0.0024912302431482542 0 0.010450387802381993 -0.0022740262376992446 0 0.010394913158502097 -0.0022469326256463308 0 0.01043739714472473 -0.0022331839866044129 0 0.010592956812979877 -0.002621418822188437 0 0.010573522653214859 -0.0027424689829434658 0 0.010458456555695389 -0.0027728345937582293 0 0.011158158784920999 -0.0021363480011921555 0 0.010964855811802452 -0.0024912302431482542 0 0.010383915202364424 -0.0023089788269729668 0 0.010450387802381993 -0.0022740262376992446 0 0.010394913158502097 -0.0022469326256463308 0 0.010383915202364424 -0.0023089788269729668 0 0.010394913158502097 -0.0022469326256463308 0 0.010310589545618752 -0.0022365802154652452 0 0.010394913158502097 -0.0022469326256463308 0 0.01043739714472473 -0.0022331839866044129 0 0.010362678053380169 -0.0021821887229333667 0 0.01043739714472473 -0.0022331839866044129 0 0.010492971352009455 -0.0022064799613471407 0 0.010362678053380169 -0.0021821887229333667 0 0.010394913158502097 -0.0022469326256463308 0 0.010362678053380169 -0.0021821887229333667 0 0.010310589545618752 -0.0022365802154652452 0 0.010450387802381993 -0.0022740262376992446 0 0.01043739714472473 -0.0022331839866044129 0 0.010492971352009455 -0.0022064799613471407 0 0.010456511490088227 -0.0021274037313704511 0 0.010241058872621745 -0.0020606982815577933 0 0.010555560680915869 -0.0020176618919407444 0 0.010450387802381993 -0.0022740262376992446 0 0.010492971352009455 -0.0022064799613471407 0 0.010638660461942194 -0.0021500170966730447 0 0.010492971352009455 -0.0022064799613471407 0 0.010362678053380169 -0.0021821887229333667 0 0.010456511490088227 -0.0021274037313704511 0 0.010492971352009455 -0.0022064799613471407 0 0.010456511490088227 -0.0021274037313704511 0 0.010638660461942194 -0.0021500170966730447 0 0.010770157671451567 -0.0025202633950171796 0 0.010592956812979877 -0.002621418822188437 0 0.010638660461942194 -0.0021500170966730447 0 0.010964855811802452 -0.0024912302431482542 0 0.010487890327446927 -0.0021962142975466849 0 0.010638660461942194 -0.0021500170966730447 0 0.010886424409497979 -0.0023371401595719565 0 0.010985154146312081 -0.0021848203584593959 0 0.010770157671451567 -0.0025202633950171796 0 0.010638660461942194 -0.0021500170966730447 0 0.010886424409497979 -0.0023371401595719565 0 0.010228801822092444 -0.0022711320033165562 0 0.010057850196584679 -0.0022350730780075143 0 0.010189359185185742 -0.0021821165578794232 0 0.0099821793948262939 -0.0021143028318656174 0 0.010057850196584679 -0.0022350730780075143 0 0.010189359185185742 -0.0021821165578794232 0 0.010228801822092444 -0.0022711320033165562 0 0.010189359185185742 -0.0021821165578794232 0 0.010310589545618752 -0.0022365802154652452 0 0.010228801822092444 -0.0022711320033165562 0 0.010383915202364424 -0.0023089788269729668 0 0.010310589545618752 -0.0022365802154652452 0 0.010362678053380169 -0.0021821887229333667 0 0.010189359185185742 -0.0021821165578794232 0 0.010310589545618752 -0.0022365802154652452 0 0.010362678053380169 -0.0021821887229333667 0 0.010456511490088227 -0.0021274037313704511 0 0.010241058872621745 -0.0020606982815577933 0 0.010362678053380169 -0.0021821887229333667 0 0.010189359185185742 -0.0021821165578794232 0 0.010241058872621745 -0.0020606982815577933 0 0.0099821793948262939 -0.0021143028318656174 0 0.010189359185185742 -0.0021821165578794232 0 0.010241058872621745 -0.0020606982815577933 0 0.0099204816200807542 -0.0021653791942193986 0 0.01019739513275574 -0.0020955334860053533 0 0.0098531169132836677 -0.0022068553697059579 0 0.010141143472901836 -0.0021288330400897641 0 0.009983753906860687 -0.0019235740362934521 0 0.010141143472901836 -0.0021288330400897641 0 0.009983753906860687 -0.0019235740362934521 0 0.010337255015243208 -0.0018198348324604317 0 0.009983753906860687 -0.0019235740362934521 0 0.010010168125214281 -0.0016698296086256686 0 0.010337255015243208 -0.0018198348324604317 0 0.0098145271223420063 -0.001674679430102148 0 0.009983753906860687 -0.0019235740362934521 0 0.010010168125214281 -0.0016698296086256686 0 0.010753125574921777 -0.0020171306169073943 0 0.010555560680915869 -0.0020176618919407444 0 0.010679930631412028 -0.0018597626478703601 0 0.010753125574921777 -0.0020171306169073943 0 0.010679930631412028 -0.0018597626478703601 0 0.010937812295103957 -0.0019283956210418315 0 0.010638660461942194 -0.0021500170966730447 0 0.010753125574921777 -0.0020171306169073943 0 0.010985154146312081 -0.0021848203584593959 0 0.010638660461942194 -0.0021500170966730447 0 0.010753125574921777 -0.0020171306169073943 0 0.010555560680915869 -0.0020176618919407444 0 0.010456511490088227 -0.0021274037313704511 0 0.010638660461942194 -0.0021500170966730447 0 0.010555560680915869 -0.0020176618919407444 0 0.010555560680915869 -0.0020176618919407444 0 0.010337255015243208 -0.0018198348324604317 0 0.010679930631412028 -0.0018597626478703601 0 0.01019739513275574 -0.0020955334860053533 0 0.010530640285006347 -0.0020136425025865995 0 0.010141143472901836 -0.0021288330400897641 0 0.010555560680915869 -0.0020176618919407444 0 0.010337255015243208 -0.0018198348324604317 0 0.010337255015243208 -0.0018198348324604317 0 0.010669379067016677 -0.00162679332654401 0 0.010679930631412028 -0.0018597626478703601 0 0.010669379067016677 -0.00162679332654401 0 0.010679930631412028 -0.0018597626478703601 0 0.010879222613458989 -0.001772703331739283 0 0.010975269934196492 -0.0016097178851582014 0 0.010669379067016677 -0.00162679332654401 0 0.010879222613458989 -0.001772703331739283 0 0.010679930631412028 -0.0018597626478703601 0 0.010879222613458989 -0.001772703331739283 0 0.010937812295103957 -0.0019283956210418315 0 0.010975269934196492 -0.0016097178851582014 0 0.011145530873619323 -0.0018461306114718188 0 0.011303326154479086 -0.0016956785715279226 0 0.010975269934196492 -0.0016097178851582014 0 0.010879222613458989 -0.001772703331739283 0 0.011145530873619323 -0.0018461306114718188 0 0.010879222613458989 -0.001772703331739283 0 0.011145530873619323 -0.0018461306114718188 0 0.010937812295103957 -0.0019283956210418315 0 0.011145530873619323 -0.0018461306114718188 0 0.011118312737024376 -0.0020416000786624734 0 0.011330794364963389 -0.002046042206190932 0 0.011145530873619323 -0.0018461306114718188 0 0.010937812295103957 -0.0019283956210418315 0 0.011118312737024376 -0.0020416000786624734 0 0.011118312737024376 -0.0020416000786624734 0 0.010985154146312081 -0.0021848203584593959 0 0.011245883412317189 -0.0022367947088687869 0 0.010937812295103957 -0.0019283956210418315 0 0.011118312737024376 -0.0020416000786624734 0 0.010985154146312081 -0.0021848203584593959 0 0.010753125574921777 -0.0020171306169073943 0 0.010937812295103957 -0.0019283956210418315 0 0.010985154146312081 -0.0021848203584593959 0 0.011145530873619323 -0.0018461306114718188 0 0.011330794364963389 -0.002046042206190932 0 0.011512643315704271 -0.00187717186552359 0 0.011491263782964016 -0.0022105308456091808 0 0.011330794364963389 -0.002046042206190932 0 0.011551856235982485 -0.0020497072126983251 0 0.011491263782964016 -0.0022105308456091808 0 0.011330794364963389 -0.002046042206190932 0 0.011245883412317189 -0.0022367947088687869 0 0.011118312737024376 -0.0020416000786624734 0 0.011330794364963389 -0.002046042206190932 0 0.011245883412317189 -0.0022367947088687869 0 0.011330794364963389 -0.002046042206190932 0 0.011512643315704271 -0.00187717186552359 0 0.011551856235982485 -0.0020497072126983251 0 0.011145530873619323 -0.0018461306114718188 0 0.011512643315704271 -0.00187717186552359 0 0.011303326154479086 -0.0016956785715279226 0 0.011512643315704271 -0.00187717186552359 0 0.011303326154479086 -0.0016956785715279226 0 0.0115842278394868 -0.0016635958900615801 0 0.011512643315704271 -0.00187717186552359 0 0.0115842278394868 -0.0016635958900615801 0 0.011779427848025142 -0.0018371268520764668 0 0.011891117091656229 -0.0016726221085906934 0 0.0115842278394868 -0.0016635958900615801 0 0.011779427848025142 -0.0018371268520764668 0 0.011512643315704271 -0.00187717186552359 0 0.011779427848025142 -0.0018371268520764668 0 0.011706255441991295 -0.0019803625777116674 0 0.011891117091656229 -0.0016726221085906934 0 0.012176258319436733 -0.0017640316078077287 0 0.011997118586253953 -0.0018616411891406105 0 0.011891117091656229 -0.0016726221085906934 0 0.011779427848025142 -0.0018371268520764668 0 0.011997118586253953 -0.0018616411891406105 0 0.011779427848025142 -0.0018371268520764668 0 0.011997118586253953 -0.0018616411891406105 0 0.011933463869965315 -0.0020369064420727757 0 0.012176258319436733 -0.0017640316078077287 0 0.01220007379497583 -0.0019976873339810864 0 0.011997118586253953 -0.0018616411891406105 0 0.01220007379497583 -0.0019976873339810864 0 0.011997118586253953 -0.0018616411891406105 0 0.011933463869965315 -0.0020369064420727757 0 0.01220007379497583 -0.0019976873339810864 0 0.011933463869965315 -0.0020369064420727757 0 0.012137877402926312 -0.0022030049835170332 0 0.011933463869965315 -0.0020369064420727757 0 0.012137877402926312 -0.0022030049835170332 0 0.011907269978327381 -0.0022600103314272188 0 0.011512643315704271 -0.00187717186552359 0 0.011551856235982485 -0.0020497072126983251 0 0.011706255441991295 -0.0019803625777116674 0 0.011551856235982485 -0.0020497072126983251 0 0.011706255441991295 -0.0019803625777116674 0 0.01171557258335084 -0.0021419210968509064 0 0.011779427848025142 -0.0018371268520764668 0 0.011933463869965315 -0.0020369064420727757 0 0.011706255441991295 -0.0019803625777116674 0 0.011933463869965315 -0.0020369064420727757 0 0.011706255441991295 -0.0019803625777116674 0 0.01171557258335084 -0.0021419210968509064 0 0.011933463869965315 -0.0020369064420727757 0 0.01171557258335084 -0.0021419210968509064 0 0.011907269978327381 -0.0022600103314272188 0 0.011491263782964016 -0.0022105308456091808 0 0.011551856235982485 -0.0020497072126983251 0 0.01171557258335084 -0.0021419210968509064 0 0.011491263782964016 -0.0022105308456091808 0 0.01171557258335084 -0.0021419210968509064 0 0.011663945944959894 -0.0023476034716434164 0 0.01171557258335084 -0.0021419210968509064 0 0.011663945944959894 -0.0023476034716434164 0 0.011907269978327381 -0.0022600103314272188 0 0.011663945944959894 -0.0023476034716434164 0 0.011907269978327381 -0.0022600103314272188 0 0.011862544906832148 -0.0025137402385663659 0 0.011663945944959894 -0.0023476034716434164 0 0.011862544906832148 -0.0025137402385663659 0 0.011585172875774647 -0.0025605701051452617 0 0.011862544906832148 -0.0025137402385663659 0 0.0120955183931523 -0.0023757333535445267 0 0.012333970995425058 -0.00256729208943597 0 0.012291165270388585 -0.0023824334563618773 0 0.012137877402926312 -0.0022030049835170332 0 0.0120955183931523 -0.0023757333535445267 0 0.012137877402926312 -0.0022030049835170332 0 0.011907269978327381 -0.0022600103314272188 0 0.0120955183931523 -0.0023757333535445267 0 0.011907269978327381 -0.0022600103314272188 0 0.011862544906832148 -0.0025137402385663659 0 0.0120955183931523 -0.0023757333535445267 0 0.012291165270388585 -0.0023824334563618773 0 0.0120955183931523 -0.0023757333535445267 0 0.012333970995425058 -0.00256729208943597 0 0.01227169156466777 -0.0026446140525724022 0 0.012516763360950292 -0.0025245426821215839 0 0.012333970995425058 -0.00256729208943597 0 0.012568916848769133 -0.0024947804030382107 0 0.012793945904429645 -0.0025181087864245616 0 0.011862544906832148 -0.0025137402385663659 0 0.012333970995425058 -0.00256729208943597 0 0.011833801379946818 -0.0028913232415805081 0 0.012797193371800106 -0.0025158441902147239 0 0.012516763360950292 -0.0025245426821215839 0 0.012374433539908017 -0.0025112410491200669 0 0.012296339919171659 -0.0023955350076130598 0 0.012568916848769133 -0.0024947804030382107 0 0.012374433539908017 -0.0025112410491200669 0 0.012333970995425058 -0.00256729208943597 0 0.012568916848769133 -0.0024947804030382107 0 0.011862544906832148 -0.0025137402385663659 0 0.011833801379946818 -0.0028913232415805081 0 0.011647855031840114 -0.0027255608071769764 0 0.011585172875774647 -0.0025605701051452617 0 0.011647855031840114 -0.0027255608071769764 0 0.011506599546530919 -0.0027577472891353997 0 0.011862544906832148 -0.0025137402385663659 0 0.011585172875774647 -0.0025605701051452617 0 0.011647855031840114 -0.0027255608071769764 0 0.011833801379946818 -0.0028913232415805081 0 0.011647855031840114 -0.0027255608071769764 0 0.011497277260626437 -0.0028600419724675837 0 0.012516763360950292 -0.0025245426821215839 0 0.012096135542340835 -0.0026049067404476174 0 0.011497277260626437 -0.0028600419724675837 0 0.011506599546530919 -0.0027577472891353997 0 0.01124194477365381 -0.0028575871289172505 0 0.011214586669698644 -0.0028584124163349451 0 0.01200552185179966 -0.0026143976850482773 0 0.011506599546530919 -0.0027577472891353997 0 0.01128339822069699 -0.0026724889890850567 0 0.011159993807011642 -0.0028666816663480165 0 0.011647855031840114 -0.0027255608071769764 0 0.011497277260626437 -0.0028600419724675837 0 0.011506599546530919 -0.0027577472891353997 0 0.011585172875774647 -0.0025605701051452617 0 0.011506599546530919 -0.0027577472891353997 0 0.011385344037711936 -0.0025777315697694848 0 0.011385344037711936 -0.0025777315697694848 0 0.01128339822069699 -0.0026724889890850567 0 0.011133801673185435 -0.0024846362661407797 0 0.011506599546530919 -0.0027577472891353997 0 0.011385344037711936 -0.0025777315697694848 0 0.01128339822069699 -0.0026724889890850567 0 0.012096135542340835 -0.0026049067404476174 0 0.01200552185179966 -0.0026143976850482773 0 0.011680497071990863 -0.0026193918998184055 0 0.010976902485637537 -0.002679217286729632 0 0.010851783835321203 -0.0026676502436775262 0 0.010770157671451567 -0.0025202633950171796 0 0.011133801673185435 -0.0024846362661407797 0 0.010851783835321203 -0.0026676502436775262 0 0.010931542584704626 -0.0028523048597296841 0 0.011133801673185435 -0.0024846362661407797 0 0.011159993807011642 -0.0028666816663480165 0 0.010935889875929774 -0.0028671327142069866 0 0.011133801673185435 -0.0024846362661407797 0 0.01128339822069699 -0.0026724889890850567 0 0.011159993807011642 -0.0028666816663480165 0 0.011133801673185435 -0.0024846362661407797 0 0.01200552185179966 -0.0026143976850482773 0 0.011680497071990863 -0.0026193918998184055 0 0.010770157671451567 -0.0025202633950171796 0 0.010886424409497979 -0.0023371401595719565 0 0.011133801673185435 -0.0024846362661407797 0 0.010886424409497979 -0.0023371401595719565 0 0.011133801673185435 -0.0024846362661407797 0 0.010985154146312081 -0.0021848203584593959 0 0.011133801673185435 -0.0024846362661407797 0 0.010985154146312081 -0.0021848203584593959 0 0.011245883412317189 -0.0022367947088687869 0 0.011491263782964016 -0.0022105308456091808 0 0.011245883412317189 -0.0022367947088687869 0 0.01141970656401832 -0.0024156683264228728 0 0.011491263782964016 -0.0022105308456091808 0 0.011663945944959894 -0.0023476034716434164 0 0.01141970656401832 -0.0024156683264228728 0 0.011663945944959894 -0.0023476034716434164 0 0.011585172875774647 -0.0025605701051452617 0 0.01141970656401832 -0.0024156683264228728 0 0.011585172875774647 -0.0025605701051452617 0 0.011385344037711936 -0.0025777315697694848 0 0.01141970656401832 -0.0024156683264228728 0 0.011133801673185435 -0.0024846362661407797 0 0.011245883412317189 -0.0022367947088687869 0 0.01141970656401832 -0.0024156683264228728 0 0.011385344037711936 -0.0025777315697694848 0 0.011133801673185435 -0.0024846362661407797 0 0.01141970656401832 -0.0024156683264228728 0 
</DataArray>
</PointData>
<CellData Scalars="region_id,cross_section_updated," Vectors="" Tensors="stress,">
<DataArray type="Float64" Name="region_id" format="ascii">
5 5 5 5 5 5 5 5 5 5 5 5 5 6 5 5 5 5 5 5 5 5 5 6 6 5 5 5 5 5 5 5 5 5 5 5 6 5 6 5 6 5 5 5 5 5 5 5 5 5 5 5 5 5 5 5 6 5 5 5 6 5 5 5 5 5 5 6 5 5 5 5 6 5 5 5 5 5 5 5 5 5 5 6 5 5 6 5 6 5 5 6 5 6 5 5 5 5 5 5 5 6 5 5 6 5 5 5 5 6 6 5 6 5 5 5 5 5 5 5 5 5 5 6 5 5 6 5 5 5 6 5 5 5 5 5 5 5 5 5 5 5 5 6 5 5 5 5 5 5 5 5 5 5 5 5 5 5 5 5 5 5 5 6 5 5 5 5 5 5 5 5 5 5 5 5 5 5 5 5 5 5 5 5 5 5 5 5 5 6 5 5 5 5 6 5 6 5 5 5 5 5 5 5 5 5 5 5 6 5 5 5 5 5 5 5 5 5 5 5 5 5 5 5 5 5 5 6 6 5 5 5 5 5 5 6 5 5 5 6 5 5 5 5 5 6 5 5 5 5 5 5 6 5 5 5 5 6 5 5 5 5 6 6 5 5 5 5 5 5 5 5 5 5 5 5 5 5 5 5 6 5 6 5 5 5 5 5 5 5 6 5 6 5 5 5 6 5 5 5 5 5 5 5 5 5 6 5 5 5 5 5 5 5 6 5 5 5 5 5 5 5 5 5 5 5 5 5 5 5 5 5 5 5 6 5 5 5 5 5 5 5 5 5 5 6 5 6 5 5 5 6 5 5 5 5 5 5 5 5 5 5 5 5 6 5 5 6 5 6 5 5 5 6 5 5 5 5 5 5 5 5 5 6 5 5 5 6 5 5 5 5 5 5 6 5 5 5 5 5 5 5 5 5 5 5 5 6 5 5 5 5 5 6 5 6 5 5 5 6 5 5 5 5 5 5 5 5 5 5 5 5 5 5 5 6 5 6 5 5 5 5 6 5 5 5 5 5 5 5 5 6 5 5 6 5 6 5 6 5 5 5 6 6 5 5 5 5 5 5 5 6 6 5 6 5 6 5 6 5 5 5 6 5 6 5 6 5 5 6 5 5 5 6 5 5 5 5 6 5 6 5 5 5 5 6 5 5 5 5 5 6 5 5 5 5 5 6 5 5 5 6 5 6 5 5 5 6 5 5 5 5 5 5 5 6 5 5 5 5 5 6 5 5 5 5 5 6 5 6 5 5 5 5 5 5 5 5 6 5 5 5 5 5 5 6 5 5 5 5 5 5 6 5 5 5 5 6 5 5 5 6 5 5 5 5 5 5 5 5 5 6 5 5 5 5 5 5 5 5 5 5 5 5 6 5 5 5 5 5 6 5 5 6 5 5 5 5 5 5 5 6 5 5 5 5 5 5 5 6 5 6 5 5 5 6 5 5 5 5 5 5 5 5 6 5 5 5 5 6 5 5 6 5 5 5 5 5 5 5 5 5 5 5 5 5 5 5 5 5 5 6 5 5 5 5 5 5 5 5 5 5 6 5 5 5 6 5 5 5 5 6 5 5 5 5 6 5 5 5 6 5 5 5 5 5 5 5 6 5 5 6 5 5 6 5 5 5 5 5 5 5 6 5 5 5 5 5 5 5 5 5 5 5 6 5 5 5 5 5 5 5 5 5 5 5 5 6 5 5 5 5 5 5 5 5 5 5 5 5 5 6 5 5 6 5 6 6 5 6 5 5 5 5 6 5 6 5 5 6 6 5 5 6 5 5 5 6 6 5 5 5 5 5 5 5 5 5 5 5 5 5 5 5 5 5 5 5 5 5 5 5 5 5 5 6 5 5 5 5 6 5 6 5 5 5 5 5 5 6 5 5 5 5 6 5 6 5 6 6 6 6 5 6 5 5 5 5 5 5 5 5 5 5 5 5 5 6 5 5 5 6 6 5 5 5 6 5 6 5 6 5 5 6 6 6 5 6 5 5 5 5 5 5 5 5 6 5 5 5 5 5 6 6 6 5 5 5 6 6 6 6 5 5 5 5 5 5 5 5 5 5 5 5 5 5 6 5 5 5 5 5 5 5 5 5 5 5 5 6 5 5 5 5 6 5 5 5 5 6 5 5 5 5 5 6 5 5 5 5 5 5 5 5 6 5 5 5 5 6 6 5 5 6 6 5 5 5 5 6 5 6 5 5 5 5 5 5 6 5 5 5 6 5 5 5 6 6 5 6 5 5 5 5 6 5 5 5 5 5 6 5 6 6 5 5 5 5 5 5 5 5 6 5 5 5 5 5 6 6 6 5 5 5 5 5 5 6 5 5 5 6 5 5 5 5 6 6 6 5 5 5 6 5 5 5 5 5 5 5 5 6 5 5 6 5 5 5 5 5 5 5 5 5 5 5 5 5 5 5 5 5 5 5 5 5 5 5 5 5 5 5 5 5 5 5 5 5 5 5 5 5 5 5 5 5 6 5 5 5 5 5 5 5 5 5 5 5 5 5 5 5 5 5 5 5 5 5 5 5 5 5 6 5 5 5 6 5 5 5 5 5 6 5 5 5 5 6 5 5 6 5 5 5 5 6 5 5 6 5 5 5 6 5 5 6 5 5 5 5 6 5 5 5 5 5 5 6 5 5 5 6 5 5 5 5 5 5 5 6 5 5 5 5 5 5 5 5 5 5 5 5 5 5 6 5 5 5 5 5 6 5 5 5 5 5 5 5 5 5 5 5 5 5 5 5 5 5 5 5 5 5 5 5 5 5 5 5 5 6 5 5 5 5 5 5 6 6 6 6 5 5 5 5 5 5 5 5 5 5 5 5 5 5 5 5 5 5 5 6 5 5 5 5 5 5 5 5 5 6 5 5 6 5 5 5 5 5 5 5 5 5 5 5 5 5 5 5 5 5 6 5 5 5 5 6 5 5 6 5 5 6 5 5 5 5 5 5 5 5 5 5 5 5 6 5 5 5 5 5 5 5 5 5 5 5 6 5 5 5 6 5 6 6 5 5 5 5 5 5 5 5 5 5 5 5 5 6 5 5 6 6 5 5 5 6 5 5 6 5 5 5 5 6 6 5 6 5 5 5 6 5 5 5 5 5 6 5 5 6 6 5 5 6 5 5 5 5 5 5 5 5 5 6 6 5 5 5 5 5 5 5 6 5 5 5 6 5 5 5 6 5 5 5 6 5 5 5 5 5 5 5 5 5 5 5 6 5 5 5 6 5 6 5 5 5 5 5 6 5 6 5 5 6 5 5 6 6 5 5 5 6 5 5 5 6 5 5 5 6 5 5 5 5 6 6 6 5 5 5 5 5 5 5 6 5 5 5 5 6 6 5 5 5 5 5 5 5 6 5 6 5 5 5 6 5 6 5 5 5 5 5 5 5 5 5 6 5 5 5 5 5 5 5 5 5 5 5 5 5 5 5 5 5 5 5 5 5 5 5 5 6 5 5 5 6 5 5 6 5 5 5 5 5 5 6 5 6 5 5 5 6 5 6 5 5 5 6 5 5 5 5 5 5 5 5 5 5 5 5 5 5 5 5 6 5 5 5 5 5 6 5 5 5 5 5 5 5 5 5 5 5 6 5 5 5 5 5 6 5 5 5 5 5 5 5 5 5 5 5 5 5 5 6 5 5 5 6 5 5 5 5 5 5 5 5 5 5 5 5 5 5 5 6 5 5 5 5 5 5 6 5 6 5 5 5 5 5 5 5 5 6 5 6 5 5 5 5 5 5 6 5 5 5 5 5 5 5 6 5 6 6 5 5 6 5 5 5 5 6 5 6 5 6 5 5 5 5 5 5 5 5 5 5 5 5 5 5 5 5 5 5 6 5 6 5 5 5 5 5 5 5 5 5 5 5 5 5 5 6 5 6 5 5 5 6 6 5 6 5 5 5 5 6 5 5 5 5 6 6 5 5 6 6 5 5 6 6 5 5 5 5 6 5 5 6 5 5 5 6 5 6 5 6 5 5 5 6 5 5 5 6 6 6 6 5 5 5 5 6 5 5 6 5 6 5 6 5 5 5 5 5 5 5 6 6 5 5 5 5 6 6 5 5 6 5 5 6 5 5 5 5 5 5 5 5 5 5 6 5 5 5 5 5 5 6 5 5 5 6 5 5 5 6 5 5 5 5 5 5 6 5 6 5 6 5 5 5 6 5 5 6 5 5 6 5 6 5 5 6 5 5 5 5 6 5 5 5 6 5 5 5 5 5 5 5 5 5 5 5 5 5 5 5 5 5 5 5 5 5 5 5 5 5 5 5 5 5 6 6 5 5 6 5 5 5 5 5 5 5 5 5 6 5 5 5 5 5 5 5 6 6 5 5 6 5 5 5 5 5 5 5 5 5 5 5 5 5 5 5 5 5 5 6 5 5 5 5 5 5 5 5 5 5 5 5 5 5 5 5 5 5 5 5 5 5 5 5 5 5 5 5 5 5 5 5 5 5 5 5 5 5 5 5 5 5 5 5 5 5 5 5 5 5 5 5 5 5 5 5 5 5 5 5 5 5 5 5 5 5 5 5 5 5 5 5 6 5 5 5 5 5 5 5 6 5 5 5 6 5 6 5 5 5 5 5 5 5 5 5 5 5 6 5 5 5 5 5 5 5 5 5 5 5 5 5 6 5 5 5 6 5 5 6 5 5 5 5 5 6 5 6 5 5 5 5 5 5 5 5 5 6 5 5 5 5 5 5 5 6 5 5 6 5 5 6 5 5 5 5 5 5 5 5 5 5 5 5 5 5 5 6 5 5 5 5 5 5 5 5 5 5 5 5 5 5 5 5 5 5 5 5 5 5 5 5 5 5 5 5 5 5 5 5 6 5 5 5 5 5 5 5 5 5 5 5 5 5 5 5 5 5 5 5 5 5 5 5 5 5 5 5 5 5 5 5 5 5 6 5 5 5 5 5 5 5 5 5 5 5 5 5 5 5 5 5 5 5 5 5 5 5 5 5 5 5 5 5 5 5 5 5 5 5 5 5 5 5 5 5 5 5 5 5 5 5 5 5 5 5 5 5 5 5 5 5 5 5 5 5 5 5 5 5 5 5 5 5 5 5 5 5 5 5 5 5 5 5 5 5 5 5 5 5 5 6 5 5 5 6 5 5 5 5 5 5 5 5 5 6 5 5 5 6 5 5 5 5 5 6 5 6 5 5 6 5 5 6 5 5 5 5 5 5 5 5 6 5 5 5 6 5 5 5 5 5 5 5 6 6 5 5 6 5 5 6 6 5 5 5 5 5 5 5 5 5 6 5 5 5 6 5 5 5 6 5 5 6 5 5 6 5 6 6 5 6 5 5 5 5 5 5 6 6 5 5 5 5 5 5 5 5 5 5 5 5 5 5 5 5 6 5 5 6 5 5 5 6 5 5 5 5 5 5 5 5 5 5 6 5 5 5 6 5 5 5 6 5 5 5 5 6 6 5 6 5 5 6 5 6 6 5 5 5 6 5 5 5 6 6 5 5 5 5 5 6 5 5 6 5 5 5 6 5 5 5 5 5 5 5 5 5 5 5 5 6 5 5 5 5 5 5 5 5 5 6 5 5 5 5 5 5 5 5 5 5 5 5 5 5 5 5 5 5 5 5 5 6 5 5 6 5 5 5 5 5 5 5 5 5 5 5 5 5 5 5 5 5 5 5 5 5 5 5 5 5 5 5 5 5 5 5 6 5 5 5 5 5 5 5 6 5 5 5 5 5 5 5 5 5 5 5 5 5 5 5 5 5 5 5 5 5 6 5 5 5 5 5 5 5 5 6 5 5 5 5 5 6 5 5 5 6 5 5 5 5 5 5 5 5 5 5 5 5 5 6 6 5 5 5 5 6 5 5 5 5 5 5 6 5 6 5 5 5 5 6 5 5 5 5 6 6 5 5 5 6 5 5 5 5 5 5 5 5 5 6 5 5 5 5 6 5 5 5 5 5 5 5 5 5 5 5 5 5 5 5 5 6 5 5 5 5 5 5 5 5 5 6 5 5 5 5 5 5 5 5 5 5 5 5 5 5 5 5 5 5 5 5 5 5 5 5 5 5 5 6 5 5 6 5 5 5 5 5 5 5 6 5 5 5 5 5 5 5 5 5 5 5 5 5 5 5 5 6 5 5 5 5 5 5 5 5 5 5 5 5 5 5 5 5 5 5 5 5 5 5 5 5 5 6 5 5 5 5 5 5 5 6 5 5 5 5 5 5 5 6 6 6 5 5 5 5 6 5 5 6 5 5 6 6 5 5 5 6 6 5 5 5 5 5 5 5 5 5 5 5 5 5 6 5 5 5 6 5 5 5 5 6 5 5 5 5 5 5 5 5 5 5 5 5 5 5 5 5 5 5 5 5 5 5 5 5 5 5 5 5 5 5 5 5 5 5 5 5 5 5 5 5 5 5 5 5 6 5 5 5 5 5 5 5 6 5 5 5 6 5 6 6 5 5 6 5 6 6 5 5 6 5 5 5 6 5 5 5 5 5 5 5 6 5 5 6 5 5 5 5 5 5 5 5 5 5 6 5 5 5 5 5 5 5 5 5 6 5 5 5 5 6 6 5 5 5 5 5 5 5 6 5 5 5 5 5 5 5 6 6 6 5 6 6 5 5 5 5 5 5 6 5 5 5 5 5 5 5 5 5 5 5 5 5 5 5 5 5 5 5 5 5 5 5 5 5 5 5 5 5 5 5 5 5 5 5 5 5 5 5 5 5 5 5 5 5 5 5 5 5 5 5 5 5 5 5 5 5 5 5 5 5 5 5 5 5 6 5 5 5 5 5 5 5 5 6 5 6 5 5 5 5 6 5 6 5 5 5 6 5 5 5 6 5 5 5 5 5 5 5 5 5 5 5 5 6 5 5 5 5 5 5 5 5 5 6 6 5 5 6 5 5 5 6 6 5 5 6 5 5 6 5 5 6 5 6 5 5 5 6 5 5 6 5 5 5 5 5 5 5 5 6 5 5 5 6 6 5 5 5 5 5 5 5 5 5 5 5 5 6 5 5 5 5 5 5 5 5 5 5 5 5 5 5 5 5 5 5 6 5 5 5 5 5 5 5 6 5 5 5 6 5 5 5 5 5 5 5 5 5 5 5 5 5 5 5 5 5 5 5 5 5 5 5 5 5 5 5 5 5 6 6 5 5 5 5 5 6 5 5 5 5 6 5 5 5 5 5 6 5 5 5 5 5 5 5 6 5 5 5 5 5 5 5 6 5 5 5 5 5 5 5 5 5 5 5 5 5 5 5 5 5 5 5 6 5 5 5 5 5 5 5 6 5 5 5 5 5 5 5 5 5 6 5 5 6 5 5 5 5 5 6 6 5 5 5 6 5 6 5 6 5 5 5 6 5 5 5 5 5 5 5 6 5 5 5 6 5 5 5 6 5 5 5 5 5 6 5 5 5 6 6 5 6 5 5 6 5 5 5 5 6 5 5 6 6 5 5 5 6 6 5 6 5 5 5 5 5 5 5 6 5 5 6 5 5 5 6 5 6 5 6 5 5 5 5 5 5 5 5 5 6 5 5 6 5 5 5 5 5 5 5 5 5 5 5 6 5 5 6 5 5 5 5 5 5 5 6 5 5 5 5 5 5 5 5 5 6 5 6 5 6 5 5 5 5 6 5 5 5 6 6 5 5 5 6 5 5 5 5 5 5 5 6 5 5 6 5 5 6 5 5 5 5 5 5 5 5 6 5 5 5 5 5 5 6 5 5 5 5 5 5 5 5 5 5 6 5 5 5 5 5 5 5 5 5 5 5 5 5 5 5 5 5 5 5 5 5 5 5 5 5 5 5 5 5 5 5 5 5 5 5 6 5 5 5 5 5 5 5 5 5 5 5 5 5 6 5 5 5 5 6 6 6 5 5 5 5 5 5 5 5 5 5 5 5 5 5 5 6 5 5 5 5 5 6 5 6 5 5 5 5 5 5 6 5 5 5 5 5 6 5 5 5 5 5 6 5 5 5 5 5 5 6 5 5 6 5 5 5 5 6 5 5 5 5 5 5 5 5 5 5 5 5 5 5 5 5 6 5 5 5 5 5 5 5 5 6 5 5 5 5 5 5 5 5 5 6 5 5 5 5 5 5 5 5 5 5 5 5 6 5 5 5 5 6 5 5 5 5 5 5 6 6 6 5 5 5 5 5 6 6 6 5 5 5 5 5 5 5 6 6 5 5 5 5 5 5 6 5 5 5 6 5 5 5 5 5 5 5 5 5 5 5 5 6 5 5 5 5 5 6 5 5 5 5 6 5 5 5 5 6 5 5 5 5 5 5 6 6 6 5 5 5 5 5 5 5 5 5 5 5 6 5 5 5 5 5 5 5 5 5 5 5 5 5 5 5 5 5 5 5 5 5 5 5 5 5 5 5 5 5 5 5 5 5 5 5 5 5 5 5 5 5 5 5 5 5 5 6 5 6 5 5 5 5 5 5 5 5 6 5 6 5 5 5 5 5 5 6 5 5 6 5 5 5 5 5 5 5 6 5 6 5 6 5 5 5 5 6 5 6 5 5 6 5 5 5 5 5 5 5 5 5 5 6 5 5 5 6 5 5 5 5 5 5 5 6 5 5 5 5 5 5 5 5 5 5 5 5 5 5 5 5 5 5 5 5 5 5 5 5 5 5 6 5 5 5 6 5 5 6 5 5 5 5 5 5 5 5 5 6 5 5 5 5 5 5 5 5 5 5 6 5 5 6 5 5 5 5 5 5 5 5 5 5 5 5 5 5 5 5 5 5 5 5 5 5 5 5 5 5 5 6 5 5 6 5 5 5 6 5 6 5 5 5 5 5 5 5 5 6 5 5 5 6 5 5 5 5 5 5 5 6 5 5 5 5 6 5 5 6 5 5 6 5 5 5 6 5 5 5 6 5 5 6 6 5 5 6 6 5 5 5 5 5 5 5 5 5 5 6 5 5 5 5 6 5 5 5 5 5 5 5 5 5 5 5 5 6 5 6 5 5 5 5 5 5 6 5 5 6 5 5 5 5 5 5 5 5 5 5 5 5 6 5 5 5 5 6 5 5 5 6 6 5 5 5 5 5 5 5 6 5 5 5 5 5 5 5 5 5 5 6 5 5 5 5 5 5 5 5 5 5 5 5 5 6 6 5 5 6 5 5 5 5 5 5 6 5 6 5 5 5 5 6 5 6 5 5 6 6 5 5 5 5 5 5 5 5 5 5 5 5 5 5 5 5 5 5 5 5 5 5 5 5 5 5 5 5 5 5 5 5 5 5 5 5 5 5 5 5 5 5 5 5 5 5 5 5 5 5 5 5 5 5 5 5 5 5 5 6 5 5 5 5 5 5 5 5 6 5 5 6 5 5 5 5 5 5 5 5 5 5 5 5 5 5 5 5 5 5 5 5 5 5 5 5 5 5 5 5 6 5 5 5 5 5 5 5 5 6 5 6 5 5 6 5 6 5 5 5 6 5 5 5 6 5 6 5 5 5 5 5 5 5 5 5 5 5 5 5 5 5 6 5 5 6 5 5 5 5 5 5 6 5 5 6 5 5 6 5 5 5 5 5 6 5 5 6 5 5 5 6 5 5 5 5 5 5 6 6 5 5 5 6 6 6 6 5 5 5 6 5 6 5 5 5 5 5 6 5 5 5 5 5 5 6 5 5 5 5 5 5 5 5 5 5 5 5 5 5 6 5 5 5 5 6 6 5 5 5 5 5 5 5 5 5 5 5 5 5 6 5 5 6 6 5 5 6 5 5 5 5 5 5 5 5 5 5 6 5 5 5 5 5 5 5 6 5 5 5 5 5 5 5 5 5 5 6 5 5 5 5 5 5 5 5 6 5 5 5 5 5 5 5 5 5 5 5 5 5 5 5 5 5 6 5 5 5 5 6 5 6 5 5 5 5 5 5 5 5 5 5 5 5 6 5 6 5 6 5 5 5 5 5 6 5 6 5 6 5 5 5 6 6 6 5 5 5 5 6 5 5 5 6 5 6 5 5 5 5 5 5 5 6 5 6 5 5 5 5 5 5 5 6 5 6 5 5 5 5 5 6 5 5 5 6 6 5 6 5 5 5 5 5 5 5 5 6 5 5 5 5 6 5 5 5 5 5 5 5 6 5 5 5 5 5 5 5 5 5 5 5 5 5 5 5 5 5 5 5 5 5 5 5 5 6 6 5 5 5 5 5 6 6 6 5 5 6 5 5 5 5 5 5 6 5 5 6 6 5 5 5 5 5 5 5 5 5 5 5 5 6 5 5 5 5 5 5 5 5 5 5 5 5 5 5 5 5 5 5 5 5 5 5 5 5 6 6 5 6 5 5 5 5 5 5 5 5 5 5 5 5 5 6 5 5 5 5 5 5 5 6 6 5 5 5 5 5 5 5 5 6 5 6 5 5 5 6 6 6 5 6 5 5 6 5 5 6 5 5 5 5 5 5 5 5 5 5 5 5 5 5 5 5 5 5 6 5 5 5 5 5 5 5 5 5 5 5 6 5 5 5 5 5 5 5 5 6 5 5 5 5 5 5 5 5 5 5 5 5 5 5 5 5 5 5 5 5 6 5 5 5 5 5 5 6 6 5 5 5 5 5 5 6 5 5 5 5 6 5 5 5 5 5 5 5 5 5 5 5 5 5 5 5 6 5 5 5 6 5 5 5 5 5 5 5 5 5 5 5 5 5 5 5 6 5 5 5 5 5 5 6 6 6 5 5 5 5 5 5 6 5 5 6 5 5 5 5 5 5 6 5 6 5 5 5 5 5 5 5 5 6 6 6 5 5 5 5 5 5 5 5 5 5 6 5 5 6 5 5 6 6 5 5 5 5 5 5 5 5 5 6 5 5 5 5 6 6 5 6 5 5 5 5 5 5 5 5 5 6 6 5 6 5 5 5 6 5 6 5 5 5 5 5 5 5 5 5 5 5 5 5 5 6 5 5 6 5 5 5 6 5 5 5 5 6 5 5 5 5 5 5 5 5 5 5 5 5 5 6 5 5 5 5 5 5 6 5 5 5 5 5 5 5 6 5 6 5 5 5 6 5 5 5 6 5 5 5 5 5 5 6 5 6 5 5 5 5 5 5 5 6 6 5 5 6 5 5 5 6 5 5 6 5 5 5 6 5 5 5 5 5 5 6 6 5 5 5 6 6 5 6 6 5 5 5 6 6 5 5 5 5 5 6 5 5 5 5 5 5 5 5 5 5 5 5 5 5 5 5 5 5 5 5 5 5 5 5 5 5 5 6 5 5 5 5 5 5 5 5 5 5 5 5 5 6 6 5 6 6 5 5 6 6 6 5 5 6 5 6 5 5 5 5 6 5 5 5 6 5 6 5 5 6 5 5 5 5 6 6 5 5 5 5 6 5 5 6 5 5 5 5 5 5 5 5 5 6 5 5 5 6 5 5 6 6 5 5 5 5 5 5 6 5 5 5 5 5 5 6 5 5 5 5 5 5 5 5 5 6 6 5 6 5 5 5 5 5 5 5 5 5 5 5 5 5 5 5 5 5 5 5 5 5 5 5 5 5 5 5 5 5 5 5 5 5 5 6 5 5 5 5 5 5 5 5 5 5 5 5 5 6 5 5 6 6 5 5 5 5 5 5 6 5 5 6 5 5 5 6 6 5 5 5 5 5 5 5 5 6 5 5 6 5 5 5 5 5 5 5 5 5 5 5 5 6 6 5 6 5 5 6 5 5 6 5 5 5 5 6 5 5 6 5 5 6 5 5 6 5 5 6 6 5 6 5 5 5 6 5 5 5 5 5 5 5 5 5 6 5 5 5 5 5 6 5 5 6 5 5 5 5 5 5 6 5 5 5 6 6 5 5 5 5 5 6 5 6 5 5 5 6 5 5 5 5 5 5 5 5 5 5 5 5 5 5 5 6 5 5 5 5 5 5 5 5 5 5 5 5 5 5 5 6 5 5 5 5 5 5 5 5 6 5 5 5 5 5 5 5 5 5 5 5 5 5 5 5 5 5 5 5 5 5 5 5 5 5 5 5 5 5 5 5 5 5 5 5 5 5 5 5 5 6 5 6 5 5 5 5 5 5 5 5 5 5 5 5 5 5 5 5 5 5 5 5 5 5 5 5 5 5 5 5 5 5 5 5 6 5 5 5 5 5 5 6 5 5 5 5 5 5 5 5 5 5 5 5 5 6 6 5 5 6 5 5 5 5 5 5 5 5 6 5 5 5 5 5 5 5 5 5 5 5 5 5 5 5 5 5 5 5 5 5 5 5 5 5 6 6 5 5 6 5 6 5 5 5 5 5 5 5 5 5 5 5 5 5 5 5 5 5 5 6 5 6 5 6 5 5 5 5 5 5 5 5 6 5 5 5 5 5 5 5 5 6 5 5 5 5 5 5 5 5 5 5 5 5 5 5 5 5 5 5 5 5 5 5 6 5 5 5 6 6 5 5 5 5 5 5 5 5 5 5 5 5 5 5 5 6 5 5 5 5 5 5 5 5 6 5 5 5 5 5 5 5 5 5 5 5 5 5 5 5 5 5 5 5 5 6 5 5 5 5 5 5 5 5 5 5 5 6 5 5 6 5 5 5 5 5 5 5 6 5 5 6 5 5 5 5 6 5 5 6 6 5 5 5 6 5 5 5 5 5 5 6 5 5 5 5 5 5 5 5 6 5 5 5 5 5 6 5 5 5 5 5 5 6 5 5 6 5 5 5 5 5 5 5 5 5 5 6 6 5 5 6 6 5 5 5 5 5 6 5 5 6 5 6 5 5 6 5 6 5 6 5 6 5 6 5 6 5 5 5 5 5 6 5 5 5 5 6 5 6 5 5 5 6 6 5 5 5 5 5 5 5 5 5 5 5 6 5 5 5 5 5 5 5 5 5 5 5 5 5 5 5 5 5 5 5 5 5 5 5 6 5 5 5 5 5 5 5 5 5 5 5 6 5 5 6 6 6 5 5 5 5 5 5 5 5 5 5 6 6 5 5 5 5 6 5 5 5 5 5 5 6 5 5 5 5 5 5 5 5 5 6 5 6 5 5 5 5 5 5 6 5 5 5 5 5 5 5 5 5 5 5 5 5 5 5 5 5 5 5 5 5 5 5 5 5 5 5 5 5 6 5 5 6 5 5 5 5 5 5 5 6 5 5 5 5 5 5 6 5 5 5 5 6 5 6 5 5 6 5 5 5 5 5 5 5 6 5 5 5 5 6 5 5 5 5 5 6 5 5 5 5 5 6 5 5 6 5 5 5 5 5 5 5 5 5 6 5 5 5 5 5 5 5 5 6 5 6 5 6 5 5 5 5 5 5 5 5 5 5 5 5 5 5 6 5 5 5 5 6 5 6 5 6 5 5 5 6 5 5 5 6 5 6 5 5 5 5 5 5 5 5 6 5 5 5 5 5 5 5 5 6 5 5 5 5 5 5 5 5 5 5 5 5 5 5 5 5 5 5 5 5 5 5 6 6 5 5 5 6 5 6 5 6 5 5 6 5 5 6 5 5 5 6 5 5 5 5 5 5 5 5 6 5 5 6 5 5 5 5 5 5 5 5 5 6 6 5 5 5 5 6 5 5 5 5 5 5 5 5 5 5 5 5 5 6 5 5 5 6 5 6 5 6 5 5 5 6 5 5 5 5 5 5 5 5 5 5 5 5 5 5 5 5 5 5 5 5 5 5 6 5 5 5 5 5 6 5 6 5 5 5 6 5 5 5 5 5 5 5 5 5 5 5 5 5 5 5 5 5 5 5 5 5 5 5 5 5 5 5 5 5 5 5 5 5 5 5 5 5 5 5 5 5 6 5 5 5 5 5 5 5 5 5 5 5 5 5 5 5 6 5 5 5 5 5 5 5 5 5 5 5 5 5 5 6 5 5 6 5 5 5 5 5 5 5 5 5 5 5 6 5 5 5 5 6 6 5 6 6 6 5 5 5 5 5 6 5 5 6 6 5 5 5 5 5 5 5 5 5 6 5 5 5 5 6 6 6 5 5 6 5 5 6 5 6 6 5 5 5 5 5 5 5 5 5 5 5 5 5 5 6 5 5 5 5 6 5 5 6 5 6 6 5 6 6 5 5 5 6 5 5 5 6 5 5 5 5 5 5 5 5 6 5 5 6 6 6 5 5 5 5 6 5 5 5 5 6 5 5 5 5 5 5 5 5 5 6 5 5 5 5 5 6 6 5 5 5 5 5 5 5 5 5 5 5 5 5 5 5 5 5 5 5 5 5 5 5 6 5 6 5 5 6 5 5 5 5 5 5 5 5 5 5 6 5 6 5 5 5 5 6 5 5 5 5 5 5 5 5 5 5 5 5 6 5 5 6 5 6 5 6 6 5 5 5 5 6 5 6 5 6 6 5 5 6 5 5 5 5 6 5 6 5 5 5 5 6 5 5 5 5 5 5 5 5 5 5 5 5 5 5 5 6 6 5 5 5 6 5 6 5 5 6 5 6 6 5 5 5 5 5 5 6 5 5 5 6 5 5 5 6 5 5 5 5 5 5 5 5 5 5 5 5 5 5 6 5 5 5 6 5 5 6 5 5 6 5 5 5 5 5 5 5 5 6 6 5 6 5 6 5 6 6 6 6 6 5 5 5 5 5 6 5 5 5 5 6 6 5 5 6 5 6 5 5 6 6 5 6 5 5 5 5 5 5 6 6 5 5 5 5 5 5 6 5 5 5 5 6 5 6 5 5 5 5 5 5 5 5 5 5 5 5 6 5 6 5 6 5 6 5 5 6 5 6 5 5 5 5 5 5 5 5 5 5 6 5 5 5 5 5 5 5 5 6 5 5 5 5 5 6 5 5 5 5 5 6 6 5 5 5 5 6 6 5 5 5 5 5 5 5 5 5 5 5 5 6 5 5 6 5 5 5 5 6 6 6 5 5 5 6 6 5 5 6 5 5 5 5 5 5 6 5 6 6 5 5 5 5 6 6 6 5 5 6 5 5 5 6 5 5 6 5 5 5 5 5 6 6 5 5 6 5 5 5 6 5 5 5 5 5 5 5 5 5 5 5 5 5 5 6 6 5 5 6 5 6 5 5 5 5 6 5 5 5 5 5 5 6 5 6 5 5 5 5 6 6 5 6 5 5 5 6 6 5 5 6 5 5 5 5 5 5 5 6 5 5 5 6 5 5 6 5 5 6 5 5 5 6 6 5 5 6 5 5 5 5 5 5 5 5 5 5 6 5 5 5 5 5 5 5 5 5 5 5 5 5 5 6 5 5 5 5 5 5 5 5 5 5 5 5 5 5 5 5 5 5 5 5 5 6 5 5 5 5 5 6 5 5 5 5 5 5 5 5 5 5 5 5 5 5 5 5 5 5 5 5 5 5 5 5 5 5 6 5 5 5 5 5 5 5 6 5 6 5 5 5 5 5 5 6 5 5 6 5 5 5 5 5 5 5 5 5 5 5 5 5 5 5 5 5 5 5 5 5 5 5 5 5 5 5 5 6 5 5 6 5 5 5 5 5 5 5 5 5 5 5 5 5 6 5 5 5 5 6 5 5 5 5 6 5 5 5 5 5 6 5 5 5 5 6 5 5 6 5 5 5 6 5 5 5 5 6 5 5 5 5 6 5 5 5 6 6 6 5 5 6 5 5 5 5 6 6 5 6 5 5 6 5 5 5 6 5 5 6 5 5 6 6 5 5 6 5 5 5 5 5 5 5 5 5 5 5 5 5 5 5 6 5 5 5 5 5 5 5 5 5 5 5 5 5 5 5 5 5 5 5 6 5 5 5 6 5 6 5 6 5 5 5 5 6 5 5 5 5 5 5 5 5 5 5 5 5 6 5 5 5 5 5 5 5 5 6 5 5 5 5 5 5 5 5 5 5 5 5 5 5 5 5 5 5 5 5 6 5 5 5 5 5 5 5 5 6 5 5 5 5 5 5 5 5 5 5 5 5 5 6 5 6 5 6 5 5 5 5 5 5 5 5 5 5 6 5 6 5 5 5 5 5 5 5 5 5 6 5 6 5 5 6 5 5 5 5 5 5 6 5 5 5 6 6 5 5 5 5 5 5 5 5 5 5 5 5 6 5 6 5 5 5 5 5 5 5 5 5 5 5 5 5 5 6 5 5 5 5 5 6 5 5 5 5 5 5 5 5 5 5 5 5 5 5 5 5 5 5 5 5 5 5 5 5 5 5 5 5 5 5 5 5 5 5 5 6 5 5 6 5 5 6 5 5 5 5 5 5 5 5 5 5 5 5 5 5 5 5 5 5 5 5 5 5 5 5 5 5 5 5 5 5 5 5 6 5 5 5 5 5 5 5 5 5 5 5 5 5 5 6 5 5 6 5 5 6 5 5 5 5 5 5 6 6 5 5 5 5 5 5 5 5 5 5 5 5 5 5 5 5 5 5 5 5 5 5 5 5 5 5 5 5 5 5 5 5 5 5 5 5 5 5 5 5 5 5 5 5 6 5 5 5 5 5 6 6 5 5 5 5 5 5 5 5 5 5 5 5 5 5 5 5 5 5 5 5 5 5 5 5 6 5 5 5 5 5 6 5 5 5 5 5 5 5 6 5 5 5 5 5 5 5 6 5 5 5 5 5 5 5 5 5 6 5 5 5 5 5 5 5 6 5 5 6 5 5 5 5 5 5 5 5 5 5 5 5 5 5 5 5 6 5 5 6 5 5 5 5 5 5 5 5 5 5 5 5 5 5 5 5 5 5 5 5 5 6 5 5 5 5 5 5 5 6 5 5 5 5 6 5 5 5 5 5 5 5 5 5 6 5 5 5 5 5 6 5 5 5 6 5 5 5 6 5 5 6 6 5 5 5 6 5 6 5 5 5 5 5 6 5 5 5 5 5 5 5 5 5 5 5 5 6 5 6 5 5 5 5 5 5 6 5 5 5 5 5 6 5 5 5 6 5 5 5 5 5 5 5 5 6 5 5 5 5 5 5 6 5 5 5 5 5 6 5 5 6 5 6 5 5 5 5 5 5 6 5 5 5 5 6 5 5 5 5 5 6 5 5 5 5 5 5 5 5 5 5 5 5 5 5 5 6 5 5 5 5 6 6 5 5 5 5 5 5 5 5 6 5 5 5 5 5 5 5 5 5 5 5 5 6 5 5 6 5 5 6 5 5 5 5 5 5 5 6 5 6 6 5 5 6 5 5 5 5 5 5 6 5 5 6 5 6 5 5 5 5 5 5 5 5 5 5 5 5 5 6 5 5 5 5 5 5 6 5 5 5 5 5 5 5 5 5 5 5 6 5 5 6 5 5 5 6 5 5 5 5 5 5 5 5 5 6 5 5 5 5 5 5 5 6 5 5 5 5 5 5 5 6 5 5 5 6 5 5 5 5 6 5 5 5 5 5 5 6 5 5 5 5 5 5 5 5 5 5 5 5 5 5 5 6 5 6 5 5 6 5 5 5 5 5 5 5 6 5 5 5 5 5 5 5 5 5 5 5 5 5 5 5 5 5 5 5 5 5 5 5 5 5 5 5 5 5 5 5 5 5 6 5 5 5 5 5 5 5 5 5 5 5 5 6 5 5 6 5 5 5 6 5 5 5 5 6 5 5 5 5 5 6 5 5 5 5 5 5 5 5 5 5 5 5 5 5 5 5 5 5 5 5 6 6 5 5 5 6 5 5 5 5 6 5 5 5 6 5 5 6 5 5 5 5 5 5 5 6 5 5 5 5 5 5 5 5 5 5 6 5 5 5 5 5 5 5 5 5 5 5 5 5 5 5 5 5 5 5 5 5 5 5 5 5 5 5 5 5 5 5 5 6 5 5 6 5 5 5 5 5 5 6 5 5 6 5 5 5 5 5 5 5 5 5 5 5 5 6 5 6 5 5 5 5 5 5 5 5 6 5 5 5 6 5 5 5 5 5 5 6 5 5 5 5 5 5 5 5 5 5 5 5 5 5 5 6 5 5 5 5 5 5 5 5 5 5 5 5 5 5 5 5 5 5 5 5 5 5 5 5 5 5 5 5 5 5 5 5 5 5 5 5 5 6 5 5 5 6 5 5 5 5 5 5 6 5 5 5 6 5 5 5 6 5 6 6 5 5 5 5 5 5 5 5 5 5 5 5 5 6 5 5 5 5 6 5 5 5 5 6 6 5 6 5 6 5 5 5 5 5 5 6 5 5 5 6 5 5 6 5 5 6 5 5 6 5 5 6 5 5 6 5 5 6 5 5 6 5 5 6 6 5 5 5 5 5 5 5 5 5 5 5 5 5 5 5 5 5 5 5 5 5 5 5 5 5 6 5 5 5 5 5 5 6 5 5 5 5 6 5 5 6 5 6 5 5 6 5 5 5 6 5 5 5 5 5 5 5 5 5 5 5 6 5 5 5 5 5 5 5 6 5 5 5 5 5 5 6 5 5 5 5 5 5 5 5 6 5 5 5 6 5 5 5 5 5 5 5 5 5 5 5 5 5 5 5 6 6 5 5 5 5 5 5 5 5 5 5 5 5 5 5 5 5 5 5 5 5 5 5 5 5 5 5 5 5 5 5 6 5 5 5 5 5 5 5 5 6 5 5 5 5 5 5 6 5 5 5 5 5 6 5 6 5 5 5 5 5 6 5 5 5 5 5 5 5 5 5 5 6 5 5 5 5 5 5 5 5 5 6 5 5 5 5 5 5 5 5 5 5 5 6 5 5 5 5 5 5 5 5 5 5 5 5 5 6 5 5 5 6 5 5 5 6 5 5 5 6 5 5 6 5 5 5 5 5 5 5 5 5 5 5 5 5 5 5 5 5 5 5 5 5 6 5 5 5 5 5 6 5 5 5 5 5 6 5 5 5 5 5 5 5 5 5 5 5 5 5 5 5 5 5 6 5 5 5 5 5 5 5 5 5 5 5 5 5 5 5 5 5 5 5 5 5 5 6 5 5 5 5 5 5 5 5 5 5 5 5 5 5 5 5 5 5 5 5 5 5 5 5 5 5 5 5 5 5 5 5 6 5 5 5 5 5 6 6 5 5 6 5 5 5 5 5 5 5 5 5 5 5 5 5 5 5 5 5 5 5 5 5 5 5 5 5 5 5 5 5 5 6 5 5 5 6 6 5 6 5 5 6 5 5 6 5 5 6 5 5 5 6 5 6 6 5 6 5 6 5 5 5 5 6 5 5 5 5 5 6 5 5 5 5 5 5 5 6 5 5 5 6 5 5 5 5 5 6 5 6 5 5 5 5 5 5 5 6 6 5 5 5 5 5 5 6 5 5 5 5 5 6 5 5 6 5 5 6 5 5 5 5 5 5 5 5 5 5 5 5 6 5 5 5 5 5 5 5 5 5 5 5 5 6 5 5 6 5 5 5 6 5 5 5 5 5 5 5 5 5 5 5 5 5 6 5 6 5 5 5 5 5 6 5 5 5 5 5 5 5 5 5 5 5 5 5 5 5 5 5 5 6 5 6 5 5 6 6 5 5 5 5 5 5 5 6 5 5 5 5 5 6 5 6 5 5 5 6 5 6 5 5 5 5 5 6 5 5 5 5 5 5 5 5 5 5 5 5 5 5 5 6 5 5 5 5 5 5 5 5 5 5 5 5 6 5 5 5 5 5 5 5 5 6 5 5 5 5 5 6 6 5 5 6 5 6 5 6 5 5 5 5 5 5 5 5 5 5 5 5 5 5 5 5 5 5 5 5 6 5 6 5 5 5 5 6 5 5 5 5 5 5 5 5 5 6 5 5 6 5 6 5 5 5 6 6 5 6 5 5 5 5 5 5 5 5 6 6 6 5 5 5 5 5 5 6 5 5 5 5 5 5 5 5 5 5 6 5 5 5 6 5 5 5 5 5 5 5 5 5 5 6 5 5 5 6 6 5 5 5 6 5 6 6 5 5 6 5 5 5 6 5 6 5 5 5 5 5 5 5 5 5 6 6 5 5 5 6 5 5 5 5 5 5 5 6 5 5 5 5 5 5 5 6 5 5 5 5 5 5 5 5 6 5 5 5 5 5 5 5 5 6 5 5 5 6 5 5 5 5 5 6 5 5 5 5 5 5 5 5 5 5 5 6 5 5 6 5 5 5 6 5 5 5 5 5 5 5 5 5 6 5 5 5 5 6 5 5 5 5 5 5 5 5 6 5 5 5 5 5 5 5 5 5 5 6 5 5 5 5 5 5 5 6 5 5 5 5 5 6 5 5 5 5 5 6 5 5 5 5 5 5 5 5 5 5 5 5 5 5 6 5 5 5 5 5 5 5 5 5 5 5 6 5 6 5 5 5 5 5 5 5 5 5 5 5 5 5 5 6 6 5 5 6 5 5 5 6 5 5 5 5 5 6 6 5 5 6 5 5 5 5 5 5 6 5 6 5 5 5 5 5 5 5 5 5 5 5 5 5 6 5 5 5 6 6 5 5 5 5 5 5 5 5 5 5 6 5 6 5 5 5 5 5 6 5 5 6 5 5 5 5 6 5 5 6 5 6 5 6 5 5 6 5 6 6 5 6 5 5 5 6 6 5 5 6 5 5 5 6 6 6 5 5 5 5 5 5 6 5 5 5 6 6 5 5 5 6 5 5 6 5 5 5 5 6 5 6 5 5 5 5 5 6 5 5 5 5 5 5 5 5 5 5 5 5 5 5 5 5 5 5 5 5 5 5 6 5 5 5 5 5 6 6 5 6 5 5 5 5 5 6 5 5 5 5 5 6 5 5 5 6 5 6 5 5 5 5 5 6 5 6 5 5 5 5 5 5 5 5 5 6 5 5 5 6 5 5 5 6 5 5 5 5 5 5 6 5 5 6 5 5 5 5 5 5 5 6 5 5 5 5 5 5 5 5 5 5 5 5 5 5 5 5 5 6 5 5 5 5 5 5 6 5 5 5 6 6 5 5 5 5 5 5 5 5 5 5 5 5 6 6 5 5 5 5 6 5 6 5 5 5 5 5 5 5 5 5 5 5 5 5 5 5 5 5 5 5 5 5 5 5 5 5 5 5 5 5 5 5 5 5 5 5 5 5 5 5 5 5 5 5 5 6 5 5 5 5 5 6 5 5 5 5 5 5 5 6 5 6 5 5 5 5 5 5 5 6 5 5 5 5 5 5 6 5 5 5 5 5 5 5 5 5 5 5 5 5 5 6 5 5 5 5 5 5 5 5 5 5 6 5 5 5 5 5 5 5 5 5 5 5 5 5 5 5 5 5 5 5 5 5 5 5 5 5 5 5 5 5 5 5 5 6 5 5 6 5 6 5 5 6 5 5 6 5 5 6 5 5 5 5 5 5 5 6 6 5 5 5 6 5 5 5 5 5 5 5 5 5 5 5 5 5 5 5 5 5 5 5 5 5 5 5 5 5 5 5 5 5 6 5 5 5 5 5 5 5 5 5 5 5 5 5 5 5 5 5 6 5 5 5 5 5 5 6 5 5 5 5 5 5 6 5 5 5 5 5 5 5 5 5 6 6 5 5 5 5 5 5 5 5 5 6 5 5 5 5 5 5 5 5 5 5 5 5 5 5 6 5 5 5 5 5 5 5 5 6 5 5 5 5 5 6 5 5 5 6 5 5 5 5 6 6 5 5 5 5 5 5 5 6 5 5 5 5 6 5 6 5 5 5 6 5 5 6 5 5 5 5 5 5 5 5 5 5 5 5 5 5 6 5 6 5 5 6 5 5 5 6 5 5 5 5 5 5 5 5 5 5 5 5 5 5 5 5 5 5 5 5 5 5 5 5 5 5 5 5 5 5 6 5 5 5 5 5 5 5 5 5 5 5 5 5 5 5 5 6 5 5 5 5 5 6 5 5 5 5 5 5 6 5 5 5 5 5 5 5 6 5 6 6 5 5 5 5 6 5 6 5 6 6 5 6 5 6 6 5 6 6 6 5 5 5 5 6 5 6 6 5 5 6 5 5 5 6 5 5 6 5 5 6 5 5 6 5 6 5 5 6 5 5 5 5 5 5 5 5 5 5 6 5 6 6 5 5 5 5 6 6 5 5 5 5 6 5 5 6 6 5 5 5 5 5 5 5 5 5 5 5 5 5 6 5 5 5 5 5 5 6 6 6 6 5 5 5 5 5 5 5 5 5 6 5 5 5 5 5 5 5 5 5 5 5 5 5 5 5 5 5 5 5 5 6 5 5 5 6 5 5 5 5 5 6 5 6 5 5 5 5 6 6 5 5 5 5 5 5 5 5 5 5 5 5 5 5 5 5 5 6 5 5 5 5 5 5 5 5 5 5 5 5 5 6 5 5 6 6 5 5 5 5 5 6 5 5 5 5 5 5 5 5 6 5 5 6 5 5 5 5 5 5 5 5 5 5 5 5 5 5 5 5 5 5 5 5 5 5 5 5 5 5 6 5 5 5 5 5 5 6 5 5 5 5 5 5 5 5 5 5 5 5 5 5 5 5 5 5 5 5 5 5 5 6 5 5 5 5 5 5 5 5 5 5 5 5 5 5 5 5 5 5 5 5 5 5 5 5 5 5 5 5 5 5 5 5 5 5 5 5 5 5 5 5 5 5 5 5 5 5 5 5 5 5 5 5 5 5 5 5 5 5 5 5 5 5 5 5 5 6 5 5 5 5 5 5 5 5 5 5 5 5 5 5 5 6 5 5 6 6 5 5 5 5 5 5 5 5 6 5 5 6 5 5 5 6 5 5 5 5 5 5 5 5 5 6 5 5 5 6 5 5 5 6 5 5 5 5 5 5 5 5 5 6 5 5 6 6 6 5 5 5 5 6 5 5 5 5 6 5 5 5 5 6 5 5 5 5 5 5 5 5 5 5 5 5 5 5 5 5 5 5 5 5 5 5 5 5 5 5 5 5 5 5 5 5 5 5 5 5 5 5 5 5 5 5 5 5 5 5 5 5 5 5 5 5 5 5 5 5 5 5 5 6 6 5 5 5 5 5 5 5 5 5 5 5 5 5 5 5 5 5 5 5 5 6 5 5 5 5 5 6 5 5 5 5 5 5 5 5 5 5 5 5 5 5 5 5 5 5 5 5 5 6 5 5 5 5 5 6 5 5 5 5 6 5 5 5 5 5 5 5 5 5 5 5 5 5 5 5 5 5 5 5 5 5 5 5 5 5 6 5 5 5 5 6 5 5 5 5 5 5 5 5 5 5 5 5 5 5 5 5 5 5 5 5 5 5 5 5 5 5 5 5 5 5 5 5 5 5 5 5 5 5 5 5 5 5 5 5 5 5 5 5 5 5 5 5 5 5 5 5 5 5 5 5 5 5 5 5 5 5 5 5 5 5 5 5 5 5 5 6 5 5 5 5 5 5 5 5 5 5 5 5 5 5 5 5 5 5 5 5 5 5 5 5 5 5 6 5 5 5 5 5 5 5 5 5 5 5 5 5 5 5 5 5 5 5 5 5 5 5 5 5 5 5 5 6 5 5 5 5 5 5 5 5 5 5 5 5 5 5 5 5 5 5 5 5 5 5 5 5 6 5 5 5 5 5 5 5 5 5 5 6 6 5 5 5 5 5 5 5 6 5 5 5 5 5 5 5 5 5 5 5 5 5 5 5 5 6 5 5 5 5 5 5 5 5 5 5 6 5 5 5 5 6 5 5 5 5 5 5 5 5 5 6 5 5 5 5 5 5 6 6 5 5 5 5 5 5 5 5 5 5 6 5 5 5 5 6 5 5 5 6 5 5 5 5 5 5 5 5 6 5 5 5 6 5 5 5 5 5 5 5 5 5 5 5 5 6 5 5 5 5 5 6 5 5 5 6 5 5 5 5 5 6 5 5 6 6 5 6 5 5 5 5 5 5 5 5 5 5 5 5 5 5 5 5 6 5 5 5 5 5 5 5 5 5 5 5 5 5 5 5 5 5 5 5 5 5 5 5 5 5 5 5 5 5 5 5 5 5 5 5 5 5 5 6 5 5 5 5 5 5 6 5 6 5 5 5 5 6 5 5 5 5 5 5 5 5 5 5 5 5 5 5 5 6 5 5 5 5 5 5 5 6 5 5 5 5 5 5 5 5 5 5 5 5 5 5 5 5 5 5 5 5 5 5 5 5 5 5 5 5 5 5 5 5 5 5 5 5 5 5 5 5 5 5 5 5 5 5 5 5 5 5 5 5 5 5 5 5 5 5 5 5 5 5 5 5 5 5 5 5 5 5 5 5 5 5 5 5 5 5 5 5 5 5 5 5 5 5 5 5 5 5 5 5 6 5 5 5 5 5 5 5 5 5 5 5 5 5 5 5 5 5 5 5 5 5 5 5 5 5 5 5 5 5 5 5 6 5 5 6 5 6 5 5 5 6 5 5 5 5 5 6 5 5 5 6 5 6 6 6 5 5 5 5 6 5 5 5 5 5 5 5 5 5 5 5 5 6 5 6 5 5 5 5 5 5 6 5 5 6 5 5 6 5 5 5 6 5 5 5 5 5 5 5 6 5 5 5 5 6 5 6 5 6 5 5 5 5 6 5 5 5 5 5 6 5 6 5 6 5 5 6 6 5 5 5 5 5 5 6 5 5 5 5 5 5 5 5 5 6 5 5 6 5 5 5 5 5 5 5 5 6 5 5 5 6 5 5 6 5 5 6 5 5 6 6 6 5 5 5 5 6 5 5 5 5 5 5 5 6 6 6 6 6 5 5 5 5 5 5 5 5 5 5 5 5 5 5 6 5 5 6 5 5 5 5 5 5 5 5 5 5 5 6 5 5 5 5 5 5 5 5 5 5 6 5 5 5 5 5 5 5 5 5 5 6 5 5 5 5 5 5 5 5 5 5 5 5 5 5 5 5 5 5 5 5 5 5 5 5 5 5 5 5 5 5 5 5 5 5 5 5 5 5 5 5 5 5 5 5 5 6 5 5 6 5 5 5 5 5 5 6 5 6 5 5 5 5 5 6 6 5 5 5 5 6 5 5 5 5 5 5 5 5 5 
</DataArray>
<DataArray type="Float64" Name="stress" NumberOfComponents="9" format="ascii">
2499.558693747942 21.85066276463095 0 21.85066276463095 -176.14605441511486 0 0 0 0 2522.7796229160158 -50.488454477303044 0 -50.488454477303044 0.70137470929688528 0 0 0 0 2777.2447104148018 479.12868243720084 0 479.12868243720084 68.965316280184396 0 0 0 0 2778.6296525007674 229.3493459414712 0 229.3493459414712 -6.1893183928344229 0 0 0 0 2444.1783971535287 406.73744799604447 0 406.73744799604447 75.136457164222932 0 0 0 0 2442.1402996992192 55.50613934884484 0 55.50613934884484 -95.30466043276769 0 0 0 0 2395.8543440917128 -153.02667653502647 0 -153.02667653502647 -413.49255861104871 0 0 0 0 2273.1421115343401 87.407702636899671 0 87.407702636899671 -88.412094613349836 0 0 0 0 2375.4124279247408 90.20002777988401 0 90.20002777988401 -411.76641525167378 0 0 0 0 2310.623312467771 168.69579546093524 0 168.69579546093524 -161.21814402208713 0 0 0 0 123.23339862149442 647.68012818941713 0 647.68012818941713 -231.07535380815102 0 0 0 0 1858.0450959666705 -189.24643932465744 0 -189.24643932465744 -311.0864572210009 0 0 0 0 2064.0757650188971 -80.393734074250006 0 -80.393734074250006 -326.22280264515075 0 0 0 0 7.3675105620334023 -5.3835330237581758 0 -5.3835330237581758 1.8366798349866922 0 0 0 0 -186.43364971989649 67.149021420674444 0 67.149021420674444 198.65162201319117 0 0 0 0 -280.38229361599042 -958.68072375816575 0 -958.68072375816575 353.55116390175851 0 0 0 0 3747.6543588036875 -177.69294629080758 0 -177.69294629080758 250.91154201652853 0 0 0 0 433.57908730127383 -305.72301102812912 0 -305.72301102812912 193.33865653836983 0 0 0 0 778.55891058823909 -164.70985675877284 0 -164.70985675877284 249.12455789657065 0 0 0 0 684.08744464666233 -271.30865582144361 0 -271.30865582144361 49.921982139743591 0 0 0 0 628.08364998517209 113.91063663333466 0 113.91063663333466 282.34919430917989 0 0 0 0 503.30210199980502 117.74647547300259 0 117.74647547300259 -449.01176488672445 0 0 0 0 971.38134899476427 -247.75935149300003 0 -247.75935149300003 -403.78002015562913 0 0 0 0 6.2133840582511795 2.5094735377708588 0 2.5094735377708588 -0.24653075369871624 0 0 0 0 1.0691180462186836 1.1264467431056033 0 1.1264467431056033 -1.391659282049337 0 0 0 0 -82.719579507305752 1364.7154305038302 0 1364.7154305038302 -54.874311424676989 0 0 0 0 895.3136540568521 -93.419117138931199 0 -93.419117138931199 -489.61711929218961 0 0 0 0 1802.6653500517205 563.6649650996527 0 563.6649650996527 45.616514193049909 0 0 0 0 689.99829905842671 187.87930675425974 0 187.87930675425974 -14.436215425647163 0 0 0 0 1002.8423168374429 131.07876519130593 0 131.07876519130593 -51.907805351928445 0 0 0 0 660.0067920749716 112.23609533347403 0 112.23609533347403 8.421204702421397 0 0 0 0 658.08002390411275 82.461062736923381 0 82.461062736923381 26.226811518311735 0 0 0 0 690.69552373596525 27.555317226740186 0 27.555317226740186 -45.074220998273603 0 0 0 0 -236.41648940136656 669.01560752654837 0 669.01560752654837 -801.04682129784203 0 0 0 0 2198.273103405656 234.55144276036253 0 234.55144276036253 -26.671889046807124 0 0 0 0 -248.58126938946953 851.64743191131674 0 851.64743191131674 -1403.5605628332942 0 0 0 0 15.188651339156735 -10.808034618850115 0 -10.808034618850115 1.5689285567273394 0 0 0 0 410.13198855315022 86.698483344512042 0 86.698483344512042 50.233555153856955 0 0 0 0 7.5965873067730598 -1.6256920298134503 0 -1.6256920298134503 -0.073820097101208237 0 0 0 0 26.578430455148919 -4.8164670804884304 0 -4.8164670804884304 -0.0026905992832332148 0 0 0 0 5.7918466741738257 -0.2935483882797314 0 -0.2935483882797314 -0.088843702714576728 0 0 0 0 854.3396572915226 9.8083569602257512 0 9.8083569602257512 -59.933569589321195 0 0 0 0 660.79132711388957 -14.361176748800595 0 -14.361176748800595 -0.17388850571035722 0 0 0 0 793.999709599997 -113.7848197386237 0 -113.7848197386237 -102.85841447159385 0 0 0 0 492.36114311251004 -176.05243688235478 0 -176.05243688235478 52.942122711781678 0 0 0 0 733.47980781268052 -93.992598710378445 0 -93.992598710378445 -0.10141326213020624 0 0 0 0 712.1132188357733 -185.3630410930237 0 -185.3630410930237 28.174789498216867 0 0 0 0 813.05988312539557 -321.51701821325162 0 -321.51701821325162 21.557008897932718 0 0 0 0 1137.9718514646374 -121.95224758757604 0 -121.95224758757604 -103.0865294390689 0 0 0 0 286.87108009649819 -31.766153496704433 0 -31.766153496704433 90.018474013658164 0 0 0 0 334.22759829098504 -49.397289628143753 0 -49.397289628143753 0.16570234923103405 0 0 0 0 495.78499230195303 -150.00144667095725 0 -150.00144667095725 34.168747426782431 0 0 0 0 242.5938169885485 -133.36789116236145 0 -133.36789116236145 122.87155034386278 0 0 0 0 169.12185278023753 7.434007794106372 0 7.434007794106372 81.011014895955512 0 0 0 0 83.335959079420718 75.800435113434816 0 75.800435113434816 33.959570770041694 0 0 0 0 121.93349099029729 30.135593271688634 0 30.135593271688634 87.354946400328885 0 0 0 0 -0.14639638597554949 -0.18718677287004937 0 -0.18718677287004937 -0.30858138737034424 0 0 0 0 338.52201808516111 -152.9982238527266 0 -152.9982238527266 119.80365636443111 0 0 0 0 -60.34473599345074 -63.143793753637226 0 -63.143793753637226 249.24965909521993 0 0 0 0 32.950974807718012 70.463959092050573 0 70.463959092050573 -13.626844206318992 0 0 0 0 4.1246327944886474 -1.4935311439060257 0 -1.4935311439060257 -2.30742704260904 0 0 0 0 48.453297054540599 -25.030185673728571 0 -25.030185673728571 18.67797562505848 0 0 0 0 -5.8094685548785492 6.3441121074830349 0 6.3441121074830349 15.254893306731134 0 0 0 0 736.09359136072453 -245.59504984664233 0 -245.59504984664233 25.130796848078482 0 0 0 0 1684.9885497833166 -847.90630992968158 0 -847.90630992968158 241.18116037070388 0 0 0 0 356.00257313522616 -269.43645107997946 0 -269.43645107997946 112.11459951514357 0 0 0 0 700.07274986174889 -360.35195503762276 0 -360.35195503762276 73.988226428513158 0 0 0 0 1.8952197493863991 0.82399028535300545 0 0.82399028535300545 -0.069781107259125452 0 0 0 0 297.58254023487098 -20.272969684228613 0 -20.272969684228613 39.688003136704197 0 0 0 0 122.81582526674902 -201.75446627326534 0 -201.75446627326534 307.20829445657478 0 0 0 0 185.0667629341915 -488.95226496184324 0 -488.95226496184324 641.01055049251613 0 0 0 0 2933.6814232796023 180.4612044821547 0 180.4612044821547 -322.98650609291917 0 0 0 0 3.1686984112670835 -4.2890149348468327 0 -4.2890149348468327 4.7916621512277935 0 0 0 0 -220.55917314375256 -98.636097899549782 0 -98.636097899549782 266.60471909061948 0 0 0 0 3572.3201386882756 -701.45763664051719 0 -701.45763664051719 477.07928601065532 0 0 0 0 159.69083161685558 22.012354469047182 0 22.012354469047182 -110.12483527219956 0 0 0 0 74.920322824764298 27.132113495349586 0 27.132113495349586 -32.673682988605265 0 0 0 0 107.26886832778109 77.086469068433075 0 77.086469068433075 11.210948034197713 0 0 0 0 88.099575861764606 -57.878422842013833 0 -57.878422842013833 -28.240556139994965 0 0 0 0 93.323250895307865 3.4593148778528757 0 3.4593148778528757 -2.2605124461438209 0 0 0 0 1054.04790646117 -158.06961592929031 0 -158.06961592929031 -107.81334395993235 0 0 0 0 1285.0324734137903 -356.98279300752228 0 -356.98279300752228 -13.953336291585245 0 0 0 0 -30.48996188428282 -59.6860153513353 0 -59.6860153513353 -4.2711539138931585 0 0 0 0 3.3346570521459284 -10.561309700110428 0 -10.561309700110428 11.121195234236401 0 0 0 0 62.996250718279043 -69.027081557744168 0 -69.027081557744168 -115.76156836453418 0 0 0 0 13.161131291315542 -40.353642455562934 0 -40.353642455562934 4.7364503583607842 0 0 0 0 13.594288030372098 9.7299498823134059 0 9.7299498823134059 -8.0688085540496388 0 0 0 0 43.523355314668152 -13.882977376068879 0 -13.882977376068879 -7.9053787036496601 0 0 0 0 19.224820513376613 -9.7289594737072065 0 -9.7289594737072065 0.34751957704111325 0 0 0 0 44.017634477946558 -1.8720829037457634 0 -1.8720829037457634 -2.8804645159957261 0 0 0 0 18.095927579313866 -19.975746978501235 0 -19.975746978501235 -0.83352380646408619 0 0 0 0 12.991470719627614 -6.6596066375238081 0 -6.6596066375238081 0.45869971222594619 0 0 0 0 15.181004808546277 -16.523260203649755 0 -16.523260203649755 0.59888993831333437 0 0 0 0 -6.2980086446675188 -6.6966000595209607 0 -6.6966000595209607 -0.36946203810558575 0 0 0 0 42.161664190201918 -40.885674743700207 0 -40.885674743700207 18.678824185340545 0 0 0 0 28.631550954414706 -4.584495698754381 0 -4.584495698754381 -4.8315228126936063 0 0 0 0 39.16106731556647 -30.951223686184619 0 -30.951223686184619 5.0259395309990396 0 0 0 0 30.056585281869047 -14.911212112695694 0 -14.911212112695694 16.472291142862858 0 0 0 0 52.386441682843724 -27.505815636293391 0 -27.505815636293391 25.124022743082605 0 0 0 0 468.85457379307627 42.352307121481857 0 42.352307121481857 -82.121493129479518 0 0 0 0 52.404411464685836 -1.0593392957432002 0 -1.0593392957432002 -30.780001766088617 0 0 0 0 10.739103354593738 11.147514729375743 0 11.147514729375743 -7.676738418657834 0 0 0 0 59.179067459597718 8.34601011538075 0 8.34601011538075 -8.3936418825087458 0 0 0 0 112.8208691773325 -30.253310504876254 0 -30.253310504876254 -48.263497168712775 0 0 0 0 12.746185163450079 9.9705602333269923 0 9.9705602333269923 -5.8415542924523223 0 0 0 0 -8.8804807270826132 26.227572546003785 0 26.227572546003785 99.703719782066855 0 0 0 0 104.43525073731143 -17.769108481650846 0 -17.769108481650846 -28.16942934626195 0 0 0 0 143.62422653927933 -137.46498856469313 0 -137.46498856469313 303.70785609200715 0 0 0 0 63.592344436154235 105.65431539379915 0 105.65431539379915 -92.582825795566464 0 0 0 0 4.884328560233886 -11.899953332573489 0 -11.899953332573489 11.945882265634447 0 0 0 0 1.7312766240260089 -1.0677579170043288 0 -1.0677579170043288 0.66851853266105188 0 0 0 0 84.239942910367972 57.067772848037976 0 57.067772848037976 -97.612091496053381 0 0 0 0 1.002385921295371 -1.2462309366436131 0 -1.2462309366436131 2.8294615452562479 0 0 0 0 1513.1354191292339 -442.9041427858059 0 -442.9041427858059 -84.051040248573642 0 0 0 0 1393.1641558448391 -433.52033500520463 0 -433.52033500520463 268.38970376563816 0 0 0 0 22.761809005622126 -237.29926867911706 0 -237.29926867911706 226.53693033061401 0 0 0 0 1201.6129551229096 -703.21098516814072 0 -703.21098516814072 318.38107770476034 0 0 0 0 1372.4250115598024 -237.54477935627514 0 -237.54477935627514 32.917147531370574 0 0 0 0 1334.0541197312705 -447.56575602453643 0 -447.56575602453643 -15.790862674864357 0 0 0 0 1431.6205798797164 -404.18581562494228 0 -404.18581562494228 279.14521832981819 0 0 0 0 1592.8881417954908 -242.57823014872918 0 -242.57823014872918 61.878414150460117 0 0 0 0 1627.3080974381082 -510.80061610379926 0 -510.80061610379926 206.85954309615408 0 0 0 0 1549.1105772816154 -580.73382073799121 0 -580.73382073799121 -38.77842787975019 0 0 0 0 2.7738230426217889 -0.44296083274979026 0 -0.44296083274979026 -0.77482705993549161 0 0 0 0 1882.0871286556503 -437.93850794871508 0 -437.93850794871508 84.449556672738723 0 0 0 0 2043.8222510099949 -446.60679809084183 0 -446.60679809084183 -5.4928852667816273 0 0 0 0 3.6791708615755709 -0.00019823353942172162 0 -0.00019823353942172162 -1.7078828238086934 0 0 0 0 2085.3969889477885 -123.24561009063973 0 -123.24561009063973 -242.99042634724742 0 0 0 0 2500.3511017874298 -308.93870854380407 0 -308.93870854380407 -160.9519671499792 0 0 0 0 876.43151623882295 -218.80139801620237 0 -218.80139801620237 189.05997990465312 0 0 0 0 3.4524824630018784 2.104788569648349 0 2.104788569648349 -2.4718798031421825 0 0 0 0 958.02039345321828 -255.9441669808183 0 -255.9441669808183 90.976658526887832 0 0 0 0 1045.025825173725 -93.609647568198255 0 -93.609647568198255 102.46555109231872 0 0 0 0 2052.7973909686843 -1219.2370503380234 0 -1219.2370503380234 40.189893404143561 0 0 0 0 440.0006136312586 -473.80939677111184 0 -473.80939677111184 343.2325255742096 0 0 0 0 1197.6867252429656 -628.36960539731683 0 -628.36960539731683 364.21673088329794 0 0 0 0 954.88299681975332 -1126.5175079147477 0 -1126.5175079147477 232.44366392829443 0 0 0 0 1520.4293502315122 -562.74880985714731 0 -562.74880985714731 28.087700772555309 0 0 0 0 1308.8227400986216 -448.79426413749889 0 -448.79426413749889 -33.192171889973451 0 0 0 0 1274.142840770186 -415.11526866410503 0 -415.11526866410503 13.408340944806696 0 0 0 0 1289.2838140881795 -369.08980871017667 0 -369.08980871017667 60.407488671678351 0 0 0 0 1357.549815568389 -295.33120593491344 0 -295.33120593491344 51.596854649194697 0 0 0 0 1422.5213467926005 -342.0107454056963 0 -342.0107454056963 -2.9668944841104121 0 0 0 0 -0.40082410022358772 -0.14841224967521782 0 -0.14841224967521782 -0.17376540684358699 0 0 0 0 -58.818776522493863 58.296784680779027 0 58.296784680779027 11.8301510022484 0 0 0 0 -39.792193043154839 46.71491736619555 0 46.71491736619555 -16.294387447864381 0 0 0 0 -0.27483932086033747 17.566700976943665 0 17.566700976943665 -25.567572576608427 0 0 0 0 2.9590364358155057 23.942671951027648 0 23.942671951027648 -22.048177596261837 0 0 0 0 5.56012844848442 9.6864647696680102 0 9.6864647696680102 2.287370631950381 0 0 0 0 4.7859772921146941 27.768515630151416 0 27.768515630151416 -25.436281705198617 0 0 0 0 -59.988142219852307 43.096276558943735 0 43.096276558943735 1.4464919970909307 0 0 0 0 20.45825931654872 23.884052701911273 0 23.884052701911273 -0.095241887898417588 0 0 0 0 17.429499801273778 19.619436521306927 0 19.619436521306927 0.036111639822979789 0 0 0 0 33.042254587533535 23.427321711732311 0 23.427321711732311 2.5875069301701359 0 0 0 0 74.686721779318759 -22.319158609841356 0 -22.319158609841356 17.194904107691436 0 0 0 0 97.812418513087323 9.6921841542818861 0 9.6921841542818861 0.029096601506558663 0 0 0 0 195.60776112283202 -29.283340220550109 0 -29.283340220550109 -8.7303132300436452 0 0 0 0 68.458888821667642 -12.550085296886412 0 -12.550085296886412 48.636290212144381 0 0 0 0 76.536544173297443 -4.984821476818265 0 -4.984821476818265 -9.5959805990326572 0 0 0 0 28.256210648265551 26.272453413904373 0 26.272453413904373 -25.466062383246879 0 0 0 0 16.434185879552388 6.2889774728951409 0 6.2889774728951409 9.1185899876579981 0 0 0 0 83.637254245120857 30.116578188357863 0 30.116578188357863 -50.28007539550606 0 0 0 0 -11.19939753478684 -100.69738472886655 0 -100.69738472886655 13.355389071341733 0 0 0 0 1.4715386213171655 -0.22497132728342706 0 -0.22497132728342706 0.12375804256110456 0 0 0 0 482.47490390152961 84.206119224905166 0 84.206119224905166 209.18013132800019 0 0 0 0 373.97762932417754 -31.711874181934697 0 -31.711874181934697 175.81418037242429 0 0 0 0 362.97056846870328 20.105289087815823 0 20.105289087815823 8.8636516810970463 0 0 0 0 228.80240084709658 -104.0495128453372 0 -104.0495128453372 -21.760831810781124 0 0 0 0 197.10241234613932 -36.184976573675677 0 -36.184976573675677 7.7267560356824916 0 0 0 0 274.91380951401516 10.505512233253395 0 10.505512233253395 -0.062714582943536795 0 0 0 0 364.27789908608247 48.790401629677525 0 48.790401629677525 -3.696968348568447 0 0 0 0 314.9263416545291 -44.611570295470948 0 -44.611570295470948 -32.036717844607828 0 0 0 0 302.54474615895742 37.288366902688161 0 37.288366902688161 25.805015314532277 0 0 0 0 294.19343536767701 8.1684158329649854 0 8.1684158329649854 -24.270958960767302 0 0 0 0 270.24654250875756 8.2350638137137935 0 8.2350638137137935 0.029836792422562552 0 0 0 0 236.29255629920226 53.765759769176491 0 53.765759769176491 22.892414960703114 0 0 0 0 237.37331667907711 44.109765283229549 0 44.109765283229549 85.337038852407147 0 0 0 0 331.98659898241749 94.31643795145132 0 94.31643795145132 38.839742871039981 0 0 0 0 183.27074197510956 131.53210535027964 0 131.53210535027964 99.870666088448104 0 0 0 0 538.844905199614 73.862830646891169 0 73.862830646891169 -5.348228180948766 0 0 0 0 316.48853449993476 64.913702469501061 0 64.913702469501061 13.76644013699439 0 0 0 0 261.33713789104513 259.27178037637577 0 259.27178037637577 178.57518520330555 0 0 0 0 107.77072849853721 66.043971421603416 0 66.043971421603416 61.327461050082412 0 0 0 0 128.99345749354688 50.860828320505604 0 50.860828320505604 61.86451152228976 0 0 0 0 42.174089851829194 -4.8584079492401528 0 -4.8584079492401528 -28.040823694326662 0 0 0 0 29.189830598028493 -40.273564769016659 0 -40.273564769016659 26.085355425656253 0 0 0 0 778.89055005750561 21.168612182478796 0 21.168612182478796 -12.494115191031483 0 0 0 0 -39.337343969818903 91.327758334586548 0 91.327758334586548 113.22217519657302 0 0 0 0 485.11590844998136 -59.30644862451453 0 -59.30644862451453 -33.277006621040613 0 0 0 0 1.3370275585635483 1.4166962393471607 0 1.4166962393471607 1.6931893900051516 0 0 0 0 371.65827236116456 -50.660427721011274 0 -50.660427721011274 -18.668151538857842 0 0 0 0 469.32866500109958 49.784926048579905 0 49.784926048579905 -65.533037804671721 0 0 0 0 15.544203263896634 9.8791401724440675 0 9.8791401724440675 -22.237464689843307 0 0 0 0 228.14335770450998 100.78012955915307 0 100.78012955915307 23.602413886370641 0 0 0 0 4.8760829668698165 3.8313359822356006 0 3.8313359822356006 3.4782089571896444 0 0 0 0 0.36984790217320551 -14.628311834537953 0 -14.628311834537953 79.083588287334805 0 0 0 0 -0.5933620396921242 0.81494714952613379 0 0.81494714952613379 -0.097504317411383212 0 0 0 0 -45.754093040137377 -65.632512086048507 0 -65.632512086048507 42.883074076021565 0 0 0 0 -4.0562942241740529 1.8741187977483946 0 1.8741187977483946 39.846541506377434 0 0 0 0 230.33823138194566 -53.000028768056609 0 -53.000028768056609 51.903946134178341 0 0 0 0 557.28892116586212 -24.307009722188582 0 -24.307009722188582 -76.474582561534135 0 0 0 0 229.77099023842311 -56.087031103384561 0 -56.087031103384561 39.176902041535868 0 0 0 0 619.26873669910128 -165.10168676746594 0 -165.10168676746594 56.84847650959 0 0 0 0 311.25648104094398 176.41754349443937 0 176.41754349443937 351.14132459861912 0 0 0 0 294.99771539402718 -9.29704404417555 0 -9.29704404417555 26.661206212251273 0 0 0 0 676.98499500530306 107.72775221751772 0 107.72775221751772 -73.477177424083123 0 0 0 0 239.98403380201489 -207.35187621337968 0 -207.35187621337968 -96.117009355315304 0 0 0 0 636.68375466966063 -69.515561275224243 0 -69.515561275224243 -98.601822814127217 0 0 0 0 5.8414418876302818 -0.44907637967800085 0 -0.44907637967800085 -0.061629427221904454 0 0 0 0 890.26666201347689 86.011568435534173 0 86.011568435534173 -96.201373895299866 0 0 0 0 530.91810307244305 384.53520103072975 0 384.53520103072975 134.89891854111988 0 0 0 0 499.69112108281115 107.37206399029515 0 107.37206399029515 -59.178036200821225 0 0 0 0 218.62238247667847 286.14540831043507 0 286.14540831043507 107.48497747079 0 0 0 0 20.844253584029502 22.749093488424876 0 22.749093488424876 -23.192060785833405 0 0 0 0 -67.139920941735909 77.855210696367749 0 77.855210696367749 53.660435633543671 0 0 0 0 224.1500007489667 79.622583563131087 0 79.622583563131087 41.577464258480745 0 0 0 0 130.88588584934769 32.560081992052631 0 32.560081992052631 53.378789833174778 0 0 0 0 343.68757823944543 74.452797339422858 0 74.452797339422858 40.123506794155219 0 0 0 0 379.34807805471064 -110.90449526904661 0 -110.90449526904661 -77.162278171678054 0 0 0 0 518.59915371341776 0.84312033697662514 0 0.84312033697662514 -71.564963451773906 0 0 0 0 506.29641272331355 68.716865535511999 0 68.716865535511999 78.30806817732298 0 0 0 0 392.0976874893604 128.91873259770978 0 128.91873259770978 69.433223254392487 0 0 0 0 570.13352974421286 15.046710867101012 0 15.046710867101012 -72.931893074329196 0 0 0 0 57.315241735253949 119.86911968157318 0 119.86911968157318 155.86386531503615 0 0 0 0 375.77733990944034 211.0036566760262 0 211.0036566760262 162.1471681166779 0 0 0 0 19.736345872850507 -24.694664749370162 0 -24.694664749370162 -84.940662529193787 0 0 0 0 64.48510851393803 36.789355419417006 0 36.789355419417006 61.900298013667225 0 0 0 0 2.9776327764178916 -0.56325531537329709 0 -0.56325531537329709 -0.18817662797728185 0 0 0 0 3.7815290179254646 0.83325149461628456 0 0.83325149461628456 0.80300347497771085 0 0 0 0 26.004954487009854 21.189190211517307 0 21.189190211517307 -32.948994050252736 0 0 0 0 70.612901087421051 49.67017887031642 0 49.67017887031642 32.843610513296767 0 0 0 0 23.583046740722978 17.974588807353918 0 17.974588807353918 18.934129207431624 0 0 0 0 69.106582770982641 101.85283427568754 0 101.85283427568754 67.60447832425649 0 0 0 0 23.766753530995572 56.917429395037907 0 56.917429395037907 92.753931884243116 0 0 0 0 79.824549298820784 115.76225002902402 0 115.76225002902402 -41.422645382514702 0 0 0 0 13.652680809386084 -1.7085043500693509 0 -1.7085043500693509 -0.30109357541541559 0 0 0 0 193.47073693745187 -58.744801176572082 0 -58.744801176572082 -215.65887321796595 0 0 0 0 -161.09596264510765 -170.2080181954027 0 -170.2080181954027 -165.09330721112769 0 0 0 0 724.13119347013708 195.73685369666765 0 195.73685369666765 -174.22206039519091 0 0 0 0 12.512791966176223 -0.61365280226230468 0 -0.61365280226230468 -0.51618624634807675 0 0 0 0 -469.40554371973121 400.22743348142319 0 400.22743348142319 543.7964278967147 0 0 0 0 601.0656023052361 221.61347555632278 0 221.61347555632278 -2.5480808830842534 0 0 0 0 45.26273898602085 68.191739236064222 0 68.191739236064222 23.502433023270896 0 0 0 0 102.53710059577861 77.259429774706632 0 77.259429774706632 23.318799110768623 0 0 0 0 -58.401137619548535 50.510371996259664 0 50.510371996259664 121.88418709443386 0 0 0 0 0.42319350665752609 1.502900798701134 0 1.502900798701134 4.9477405754839241 0 0 0 0 37.095239215384936 53.878728779503035 0 53.878728779503035 -28.42297221706167 0 0 0 0 -21.960199088687659 14.351659896466117 0 14.351659896466117 -13.891825169780759 0 0 0 0 51.912256819407048 112.31488039014198 0 112.31488039014198 112.50214788250832 0 0 0 0 -39.930271366083616 52.872905269836735 0 52.872905269836735 165.77090070323129 0 0 0 0 -42.306466456037015 62.83765617810559 0 62.83765617810559 128.53348471375989 0 0 0 0 -17.745421452986193 215.53337656559114 0 215.53337656559114 319.31205667421659 0 0 0 0 2.1683671267886382 -0.068039986342114389 0 -0.068039986342114389 -2.179226703491473 0 0 0 0 139.31650596350664 63.137959388581521 0 63.137959388581521 -58.053162590254942 0 0 0 0 57.045383328091702 21.132829235561076 0 21.132829235561076 -32.566024795920612 0 0 0 0 -9.4082720089409122 -43.135895036073066 0 -43.135895036073066 -18.339898638046179 0 0 0 0 5.9913778729387559 23.75445880314328 0 23.75445880314328 -51.429367611413909 0 0 0 0 18.080710301282409 6.8990650068401962 0 6.8990650068401962 -7.761775581654474 0 0 0 0 -18.336961829671054 -89.220309445624366 0 -89.220309445624366 -65.560500853841091 0 0 0 0 47.904988305745064 47.681558499737548 0 47.681558499737548 -34.46994861762505 0 0 0 0 14.391588069800491 11.978676340739753 0 11.978676340739753 -38.466538987035165 0 0 0 0 17.445026097688242 47.897288727077466 0 47.897288727077466 -26.519377936768251 0 0 0 0 4.8522636911098971 7.2123228361997462 0 7.2123228361997462 10.323332454965774 0 0 0 0 2.1571359949515312 -0.19315737323705662 0 -0.19315737323705662 -3.1020319685340105 0 0 0 0 6.4194211447029375 12.525694650578231 0 12.525694650578231 -36.762601524574848 0 0 0 0 0.83507405433192616 18.847629496922835 0 18.847629496922835 -24.988020108654325 0 0 0 0 -98.296892989426851 13.433993070275918 0 13.433993070275918 1.4160144618024901 0 0 0 0 -82.673879593981837 -32.504427812587807 0 -32.504427812587807 135.40997338419152 0 0 0 0 -0.79937810429328238 -106.16810470713767 0 -106.16810470713767 54.828104928779794 0 0 0 0 224.90346388041507 43.140495619226613 0 43.140495619226613 53.151932417704188 0 0 0 0 161.69681060414587 -76.917441063837941 0 -76.917441063837941 12.650641584345351 0 0 0 0 462.66919033809972 209.53426607214988 0 209.53426607214988 122.71569398537486 0 0 0 0 310.24643155884405 76.955005208702914 0 76.955005208702914 55.481013047676697 0 0 0 0 209.51684213778026 128.21146330974227 0 128.21146330974227 42.399468462793266 0 0 0 0 175.2057945481356 -46.648785448203441 0 -46.648785448203441 -178.77530087824499 0 0 0 0 85.979884419277369 -62.508369157045081 0 -62.508369157045081 -26.279153531141901 0 0 0 0 -50.440728625755582 7.4887051478669946 0 7.4887051478669946 -9.9153255611278723 0 0 0 0 -19.908342708760756 -43.019920792376155 0 -43.019920792376155 -58.900052044536494 0 0 0 0 27.915522343679186 -79.562790389461611 0 -79.562790389461611 7.8968261344709845 0 0 0 0 255.45722664362984 -44.484928486748174 0 -44.484928486748174 -74.831279833637183 0 0 0 0 4.6775665087081109 0.59219140205892984 0 0.59219140205892984 -0.28271381139222618 0 0 0 0 -15.922933958114299 -17.208282708015339 0 -17.208282708015339 -66.426475912369767 0 0 0 0 11.373869393446512 -2.3020452002944722 0 -2.3020452002944722 -0.55891779681168996 0 0 0 0 35.999717940154369 -92.983702956754371 0 -92.983702956754371 -141.89799559841845 0 0 0 0 -29.683246552143828 -81.316587631246875 0 -81.316587631246875 -99.52275424786356 0 0 0 0 -32.283685460490233 -29.701281210494102 0 -29.701281210494102 -53.23477152334317 0 0 0 0 223.44870759821788 -61.156829858357582 0 -61.156829858357582 -69.778920309212907 0 0 0 0 -31.378632823706084 -11.464382949276038 0 -11.464382949276038 -64.75487534788374 0 0 0 0 270.74200543723418 292.79289162685632 0 292.79289162685632 148.65058586685851 0 0 0 0 366.27155355540162 252.30554590925837 0 252.30554590925837 67.316059539618095 0 0 0 0 5.379036037560553 0.48266890135047902 0 0.48266890135047902 -0.3897756326779509 0 0 0 0 4.2837325567561493 -65.979734763554262 0 -65.979734763554262 -35.076015040431344 0 0 0 0 -2.4979313447234404 4.018741509799824 0 4.018741509799824 -4.611884507218007 0 0 0 0 311.1425236087689 242.77535179485346 0 242.77535179485346 69.725790267417892 0 0 0 0 59.983436437796627 191.01210518232756 0 191.01210518232756 132.39116576149763 0 0 0 0 329.00361390970647 224.87868985109731 0 224.87868985109731 51.480390841596318 0 0 0 0 -2.348798767695655 6.5181463860051565 0 6.5181463860051565 -7.4738120442329503 0 0 0 0 396.34185809997143 341.17175547127272 0 341.17175547127272 218.44415032383858 0 0 0 0 313.84711708099348 349.57653688337086 0 349.57653688337086 241.62545144994169 0 0 0 0 259.27692177270364 267.44349867330197 0 267.44349867330197 186.75494398201272 0 0 0 0 397.19912952629966 243.49896961681407 0 243.49896961681407 137.47270762467679 0 0 0 0 409.05679152601442 294.00590617276873 0 294.00590617276873 213.10888557610633 0 0 0 0 81.699149735235551 15.173334525887725 0 15.173334525887725 -87.40082219501079 0 0 0 0 285.53322681703867 211.22287890835196 0 211.22287890835196 211.63140081884603 0 0 0 0 -14.631822005248978 -34.988382625588883 0 -34.988382625588883 -24.327375380991612 0 0 0 0 -15.835307545232354 65.49786527526436 0 65.49786527526436 56.455894538441854 0 0 0 0 43.074134235836965 -13.900659850898199 0 -13.900659850898199 5.2332851105136973 0 0 0 0 121.14973894137074 63.498355783757901 0 63.498355783757901 -114.75937790759366 0 0 0 0 120.23400434114592 -62.854567864869438 0 -62.854567864869438 -223.50948034987749 0 0 0 0 100.85299037961522 135.4985250144662 0 135.4985250144662 20.60853308341683 0 0 0 0 75.650632933000452 18.984663883670066 0 18.984663883670066 63.017031181768147 0 0 0 0 140.75591037610138 42.437362637508528 0 42.437362637508528 -52.656846001275134 0 0 0 0 230.62987462239471 15.836304411974197 0 15.836304411974197 -11.98886325695895 0 0 0 0 220.1042805292127 -2.3930118195454639 0 -2.3930118195454639 253.28294717164681 0 0 0 0 -0.014619435845588669 1.349270401062455 0 1.349270401062455 -2.1460173843721875 0 0 0 0 433.23945620638915 260.88845992033157 0 260.88845992033157 45.126930727855893 0 0 0 0 219.68524114749653 247.69786815221704 0 247.69786815221704 152.66675818815645 0 0 0 0 214.15706887142733 302.50043276182623 0 302.50043276182623 214.51227771325088 0 0 0 0 449.34569977043429 82.752725564108118 0 82.752725564108118 -71.185404245111386 0 0 0 0 487.54880648115068 65.488635115014574 0 65.488635115014574 -69.540342029762769 0 0 0 0 482.81479304823733 189.76652298460868 0 189.76652298460868 31.800381100246 0 0 0 0 222.45864147442626 184.13755677334933 0 184.13755677334933 31.68294717040764 0 0 0 0 395.47072241490241 -12.286253395476336 0 -12.286253395476336 230.40260161688514 0 0 0 0 414.18783544997859 -76.383805233822073 0 -76.383805233822073 -81.719761390491612 0 0 0 0 14.714178584312322 120.18766502883848 0 120.18766502883848 294.30552777407667 0 0 0 0 170.38906407885224 37.02877643084657 0 37.02877643084657 2.4886031331942888 0 0 0 0 191.90422946951003 150.74795671200675 0 150.74795671200675 66.858715502180786 0 0 0 0 577.24444734003919 84.626268625545038 0 84.626268625545038 -77.510328094702601 0 0 0 0 134.1777505572536 285.47847659720236 0 285.47847659720236 137.46490823699068 0 0 0 0 77.542893774174445 -140.93140951879133 0 -140.93140951879133 263.65225901705509 0 0 0 0 97.222561358910752 -78.408950199504218 0 -78.408950199504218 59.914706375973587 0 0 0 0 360.51895673167019 -183.42752046131201 0 -183.42752046131201 84.165601413980625 0 0 0 0 229.05657866154797 86.918073368399121 0 86.918073368399121 -153.01288270930837 0 0 0 0 369.10305380909267 18.785172112305361 0 18.785172112305361 -223.91546164419515 0 0 0 0 3.8799601994153363 1.7252743601572516 0 1.7252743601572516 0.59858340270923294 0 0 0 0 342.95387670135824 -23.112600075080877 0 -23.112600075080877 -71.705708583000956 0 0 0 0 -39.623935118463123 22.036682664368584 0 22.036682664368584 30.874627504863838 0 0 0 0 10.295199108642521 -46.472456278664339 0 -46.472456278664339 -37.169070536442348 0 0 0 0 10.197786205921147 -38.323259822669613 0 -38.323259822669613 137.89372801265634 0 0 0 0 -12.098156173509778 -127.74838155371354 0 -127.74838155371354 -24.673084151372848 0 0 0 0 19.040872300007322 -71.681170870665198 0 -71.681170870665198 -56.320472145224585 0 0 0 0 4.8933661984337959 -64.474952337016873 0 -64.474952337016873 -35.17953857173579 0 0 0 0 258.73073455139092 -5.3766038508434377 0 -5.3766038508434377 -29.402220804237515 0 0 0 0 110.00443793906015 -118.01063833924536 0 -118.01063833924536 -35.426885597856568 0 0 0 0 47.740924888523296 -47.360757037839903 0 -47.360757037839903 -76.912621372141757 0 0 0 0 48.855103265778865 -25.74463752945675 0 -25.74463752945675 -1.0284056751914712 0 0 0 0 108.70025125745815 -128.75646895359756 0 -128.75646895359756 -174.48485989421096 0 0 0 0 54.392424646690046 -21.690993681040752 0 -21.690993681040752 -30.940201298527882 0 0 0 0 -586.39723957496244 -597.33773119666694 0 -597.33773119666694 948.99901022052563 0 0 0 0 143.63921461850623 354.0196105378825 0 354.0196105378825 -111.99640052254887 0 0 0 0 565.30060944762954 188.70561446889815 0 188.70561446889815 -276.56916746981506 0 0 0 0 40.263829511624344 -29.050029237770893 0 -29.050029237770893 -15.307546210315001 0 0 0 0 71.155115536872472 -18.767211221686466 0 -18.767211221686466 -34.60883122935229 0 0 0 0 29.50997297820868 -24.459302419926644 0 -24.459302419926644 -30.282418903636426 0 0 0 0 -18.203869121465686 61.388547270665754 0 61.388547270665754 19.804619103804583 0 0 0 0 -120.06784328346839 -208.17030050626079 0 -208.17030050626079 21.305947792238385 0 0 0 0 431.8317288857761 74.551308592386022 0 74.551308592386022 82.3856125275247 0 0 0 0 881.06535879287549 467.39397994091644 0 467.39397994091644 -34.412216967865106 0 0 0 0 528.19859584912592 -235.25762504150686 0 -235.25762504150686 -137.58309539866491 0 0 0 0 193.70893728701958 62.434229785738751 0 62.434229785738751 -13.047264897313198 0 0 0 0 361.32355978008309 -111.17411960954945 0 -111.17411960954945 -178.77063259823399 0 0 0 0 296.55326614977093 -194.56416433933759 0 -194.56416433933759 -128.2967764464438 0 0 0 0 -3.8374195300038991 -110.55567697074648 0 -110.55567697074648 -144.80461202480706 0 0 0 0 -15.702834535499278 -93.33952802743795 0 -93.33952802743795 -20.571064930950236 0 0 0 0 -5.3394605764218284 -10.785883263630765 0 -10.785883263630765 2.2086150334726469 0 0 0 0 -84.023207673944853 -72.868829204336492 0 -72.868829204336492 28.456218336623806 0 0 0 0 49.294191890192451 -59.143359065436925 0 -59.143359065436925 -38.033129610815195 0 0 0 0 51.326420353071711 -29.58793892155888 0 -29.58793892155888 -7.8697826618882791 0 0 0 0 -48.221420122037671 -81.598589191285896 0 -81.598589191285896 -28.274643059818573 0 0 0 0 11.833688145388642 -2.1752965893888927 0 -2.1752965893888927 4.0853213698618607 0 0 0 0 -55.273883831943294 -118.41908647011759 0 -118.41908647011759 -56.561379529857732 0 0 0 0 67.598548964640941 38.68852526762339 0 38.68852526762339 -37.755973676823146 0 0 0 0 45.342447181741591 -64.29736490233978 0 -64.29736490233978 -42.668468647485895 0 0 0 0 74.941581253480678 -7.292713712380344 0 -7.292713712380344 -3.2496923214256155 0 0 0 0 32.759469340973737 -55.023046628294082 0 -55.023046628294082 -0.14511473525362817 0 0 0 0 10.716555485400022 -41.683956808836001 0 -41.683956808836001 -4.0989290972131585 0 0 0 0 46.42918751592515 -46.175199142194288 0 -46.175199142194288 -22.193582724421503 0 0 0 0 74.602345954270277 -18.104132752541659 0 -18.104132752541659 -10.340299629304354 0 0 0 0 33.027578448905842 -33.292576978591569 0 -33.292576978591569 -33.840919644787391 0 0 0 0 46.817955286991491 -42.705016198709018 0 -42.705016198709018 -65.297844145211457 0 0 0 0 37.720120981532091 -52.704373202238912 0 -52.704373202238912 -41.910042071503085 0 0 0 0 14.557559302003938 -21.391330636167822 0 -21.391330636167822 -30.126786746768175 0 0 0 0 34.005702526677169 -48.766712908960415 0 -48.766712908960415 -17.045310748044358 0 0 0 0 29.746929284474163 -12.14640512385717 0 -12.14640512385717 3.8115749149752509 0 0 0 0 36.571052608866012 -21.095309952414482 0 -21.095309952414482 -33.909506267370489 0 0 0 0 13.713102202425944 -8.5495738286663254 0 -8.5495738286663254 -5.3635422778665998 0 0 0 0 22.109608582424698 -33.911106206547629 0 -33.911106206547629 -11.03637954723672 0 0 0 0 6.6104379092622025 -2.7280520262920476 0 -2.7280520262920476 1.825967126201828 0 0 0 0 630.71016699531174 517.76584795076133 0 517.76584795076133 428.35672178743005 0 0 0 0 15.325266542842655 -7.5253419988696848 0 -7.5253419988696848 116.08576436707881 0 0 0 0 447.65246776801359 221.79822859425553 0 221.79822859425553 236.45701965750504 0 0 0 0 390.43617103077122 226.36156245018481 0 226.36156245018481 243.07449840284971 0 0 0 0 518.8764828950807 273.55941883831701 0 273.55941883831701 211.32288543460936 0 0 0 0 421.8926874963945 492.82579200747136 0 492.82579200747136 543.3751308827741 0 0 0 0 0.041756331892713661 -0.078836668886253847 0 -0.078836668886253847 -0.001936563170227501 0 0 0 0 17.775991150934715 27.416327794597692 0 27.416327794597692 -3.1133198489360439 0 0 0 0 18.41288619991974 -24.853807512144158 0 -24.853807512144158 50.487583429548067 0 0 0 0 10.529009168861194 -58.874403468385339 0 -58.874403468385339 161.95673607033268 0 0 0 0 19.180251693484024 -29.930379272475648 0 -29.930379272475648 49.834350825559341 0 0 0 0 21.187948627659352 -127.31302938027534 0 -127.31302938027534 77.43382724573749 0 0 0 0 5.8826383510458982 -27.892108640798142 0 -27.892108640798142 58.029369541523465 0 0 0 0 10.300505457140389 -46.182590466272359 0 -46.182590466272359 28.602312744359097 0 0 0 0 124.3293102259122 -110.50461860792726 0 -110.50461860792726 -221.28198198261845 0 0 0 0 29.220613554483862 -45.962875996087291 0 -45.962875996087291 -60.608683797888204 0 0 0 0 25.711698886203521 -86.167375155302238 0 -86.167375155302238 -48.48322798752406 0 0 0 0 312.02317524485989 -3.4331166135580133 0 -3.4331166135580133 -209.36441891782567 0 0 0 0 28.359828460121207 49.961235548503169 0 49.961235548503169 72.9253503807372 0 0 0 0 82.364288027874807 -2.922361265545053 0 -2.922361265545053 -2.0966982203762501 0 0 0 0 -10.855404691326839 -88.969214598603344 0 -88.969214598603344 104.75150859588757 0 0 0 0 152.9169789116022 -68.106243562061479 0 -68.106243562061479 -103.9506955079712 0 0 0 0 -8.1479001605839585 -71.13472172003344 0 -71.13472172003344 -102.15385668715817 0 0 0 0 326.81703287798882 23.860744978117282 0 23.860744978117282 -282.50179692274401 0 0 0 0 24.769971384906967 -84.718296403670593 0 -84.718296403670593 -61.533655730129112 0 0 0 0 85.05945641717679 0.18925174283879187 0 0.18925174283879187 0.55074227311976021 0 0 0 0 1016.668438592922 270.22511299159532 0 270.22511299159532 -596.06577256844139 0 0 0 0 29.503327442826361 3.8385528788108836 0 3.8385528788108836 4.9939097551693061 0 0 0 0 781.44869519685744 1.8609671919775792 0 1.8609671919775792 -768.18558033010959 0 0 0 0 620.21080514701316 454.16313211639863 0 454.16313211639863 1875.3346948729741 0 0 0 0 -83.995845773657493 230.21237819311398 0 230.21237819311398 -89.310696161959868 0 0 0 0 33.633462838125112 33.391960033724402 0 33.391960033724402 29.985982110760549 0 0 0 0 -67.320398179210315 -118.3194677134104 0 -118.3194677134104 322.69412590554293 0 0 0 0 445.99023101646162 -310.11937568003759 0 -310.11937568003759 95.317434185310958 0 0 0 0 427.53908044598211 376.97268413906295 0 376.97268413906295 -50.668370662101552 0 0 0 0 719.82832392561249 496.53598832119587 0 496.53598832119587 349.35288831479056 0 0 0 0 448.64910727347888 -254.21254446629814 0 -254.21254446629814 160.49412640678872 0 0 0 0 839.01692230244225 216.01214767410204 0 216.01214767410204 113.66314297931604 0 0 0 0 283.30278196168365 -26.103345875512673 0 -26.103345875512673 106.7758292229928 0 0 0 0 10.056989637134393 155.44262730585552 0 155.44262730585552 60.48863131648659 0 0 0 0 2496.2429278218456 -927.81715995791797 0 -927.81715995791797 -49.563718381411746 0 0 0 0 417.54656909068763 -551.49902621684305 0 -551.49902621684305 -667.17303563109226 0 0 0 0 570.90579046212952 -63.16338553244583 0 -63.16338553244583 -76.552297661346699 0 0 0 0 -39.195629090345392 352.43920048974564 0 352.43920048974564 -226.19495891034853 0 0 0 0 381.7429643428186 -8.6989976637095197 0 -8.6989976637095197 -37.951781777214251 0 0 0 0 369.0094467435847 -75.25356101389545 0 -75.25356101389545 -880.30156923948175 0 0 0 0 84.158613820269238 -262.38484594778117 0 -262.38484594778117 27.908491914158844 0 0 0 0 23.906870916393416 -5.897470448295838 0 -5.897470448295838 0.18120187756996653 0 0 0 0 127.20893298499868 -221.20371843219078 0 -221.20371843219078 -75.927626293042067 0 0 0 0 29.09478676823565 -8.2698631602673327 0 -8.2698631602673327 0.57236433264667008 0 0 0 0 121.53368793460686 -199.33708157804097 0 -199.33708157804097 -512.85064603145736 0 0 0 0 -140.20522788654489 -373.64245450414154 0 -373.64245450414154 405.81661644706139 0 0 0 0 2494.9361131960454 -162.68707764144156 0 -162.68707764144156 -324.70027628740598 0 0 0 0 1050.4866640880209 653.25446371436988 0 653.25446371436988 -301.94759863811163 0 0 0 0 13.872686657908332 -4.9168796441344007 0 -4.9168796441344007 1.9053515565442016 0 0 0 0 35.918566311440372 -1229.2841684377481 0 -1229.2841684377481 1556.808956038637 0 0 0 0 1444.1753209416856 -1594.5695222616794 0 -1594.5695222616794 637.20730592034727 0 0 0 0 1258.7385043977374 -494.90856957492724 0 -494.90856957492724 510.08596310801079 0 0 0 0 1374.8740981454466 -306.51624922455358 0 -306.51624922455358 280.37316829635552 0 0 0 0 732.13908525155421 -761.50072873634076 0 -761.50072873634076 418.35017841274339 0 0 0 0 456.42877177264018 416.76655254061075 0 416.76655254061075 403.25572571352654 0 0 0 0 1008.5672421018389 211.07037549380823 0 211.07037549380823 35.997953683910396 0 0 0 0 198.19169373321347 277.60724301480468 0 277.60724301480468 578.06935241615577 0 0 0 0 7.587353669179322 0.39317277558175512 0 0.39317277558175512 3.192826191893027 0 0 0 0 230.33077140930254 -258.52607397673228 0 -258.52607397673228 336.94530636652553 0 0 0 0 1396.9218755494512 -83.597219092772718 0 -83.597219092772718 -130.21778771163719 0 0 0 0 8.2381647270703411 0.11605878485787002 0 0.11605878485787002 5.8715565391170239 0 0 0 0 55.184704318249715 22.983550272892899 0 22.983550272892899 13.979018586415833 0 0 0 0 25.510301750404921 17.46379111099349 0 17.46379111099349 14.874735445253116 0 0 0 0 57.373598214588128 17.696575884878257 0 17.696575884878257 18.748677095907624 0 0 0 0 24.431534043188094 4.1607741635446729 0 4.1607741635446729 4.8487240034213546 0 0 0 0 51.753260664074332 2.4242915418801658 0 2.4242915418801658 -51.193115737926291 0 0 0 0 78.707793029381719 13.184428280923839 0 13.184428280923839 -1.8658108259678556 0 0 0 0 15.853671639484674 -22.206361251638555 0 -22.206361251638555 -8.1403540014916871 0 0 0 0 69.670183029922583 3.6429004202378898 0 3.6429004202378898 -2.0058679282790672 0 0 0 0 -5.0404336107453958 -2.4713252890994113 0 -2.4713252890994113 2.7774287201479586 0 0 0 0 200.11732827259402 -3.6106740866007385 0 -3.6106740866007385 -33.451359916414731 0 0 0 0 0.078987173702444125 50.666745903889591 0 50.666745903889591 -32.079605143972003 0 0 0 0 242.41070015247533 32.345240826281042 0 32.345240826281042 -33.09578434935753 0 0 0 0 180.83007463109971 276.42475275221523 0 276.42475275221523 223.82043346250657 0 0 0 0 343.25921010391903 330.17154189057305 0 330.17154189057305 140.38830319787462 0 0 0 0 216.35416649263061 228.71965890090019 0 228.71965890090019 275.39050458733357 0 0 0 0 15.361194504701416 9.0049954120722759 0 9.0049954120722759 5.0225954817704732 0 0 0 0 -1.193064240536355 18.318758013130903 0 18.318758013130903 13.820676678252125 0 0 0 0 12.410324436838692 4.9936175371115326 0 4.9936175371115326 5.6135491340035717 0 0 0 0 -88.856856748476275 -38.20286307327558 0 -38.20286307327558 231.59026744857601 0 0 0 0 9.6836124394523608 -9.6969805195139518 0 -9.6969805195139518 -4.3502622831699229 0 0 0 0 30.431534998537245 -81.319548103020821 0 -81.319548103020821 -78.782102221488742 0 0 0 0 3.1785321819159975 -12.584184099931676 0 -12.584184099931676 -8.0024085038791721 0 0 0 0 117.91243476615455 23.062659140261218 0 23.062659140261218 -24.554003215544526 0 0 0 0 6.8119205433960133 1.5576343754414523 0 1.5576343754414523 1.1323610811145244 0 0 0 0 254.17686046355084 -10.101972381043197 0 -10.101972381043197 -55.830691197671513 0 0 0 0 83.282336746138753 -81.00141941799393 0 -81.00141941799393 -28.044397753750673 0 0 0 0 91.960041221170513 154.29660562270834 0 154.29660562270834 -215.26733163026074 0 0 0 0 23.832714295654654 -2.9841031332862045 0 -2.9841031332862045 -7.1125885226096948 0 0 0 0 -40.419760355202015 -53.271967212735177 0 -53.271967212735177 13.053243181070417 0 0 0 0 44.571522279484881 -25.40747297912668 0 -25.40747297912668 -18.553665533590266 0 0 0 0 -8.7744001583923819 -31.752785117367239 0 -31.752785117367239 -68.805570226049895 0 0 0 0 49.79648648352736 -23.330077051176332 0 -23.330077051176332 -26.594880341628539 0 0 0 0 -25.355048363871902 -42.362696490275539 0 -42.362696490275539 -18.275618646177463 0 0 0 0 368.9393595783622 -284.33621612518618 0 -284.33621612518618 202.0835314336091 0 0 0 0 17.247557990759105 0.49913671049447572 0 0.49913671049447572 -1.1138479851267347 0 0 0 0 93.002405610379355 -228.99347605529783 0 -228.99347605529783 246.44996450825784 0 0 0 0 688.89577644298697 18.449366602638293 0 18.449366602638293 -317.4393678496599 0 0 0 0 1845.0542307055439 -436.32147956245353 0 -436.32147956245353 -139.23924874965996 0 0 0 0 -10.450143929443897 18.348742786383887 0 18.348742786383887 9.5675934372281404 0 0 0 0 786.76520193104807 -943.98791040353183 0 -943.98791040353183 612.75455404932779 0 0 0 0 159.74751117062988 450.20823371187242 0 450.20823371187242 187.94067980423057 0 0 0 0 1284.5873658921118 -682.51075997139833 0 -682.51075997139833 -346.30504883924175 0 0 0 0 1074.0771203284967 372.92500427197774 0 372.92500427197774 -1079.6348930614793 0 0 0 0 37.342352858926347 -22.972192208359882 0 -22.972192208359882 -8.9777696342596922 0 0 0 0 -45.526049214957311 288.98343119412385 0 288.98343119412385 577.87111139748174 0 0 0 0 8.1291756914258997 8.2517675382755051 0 8.2517675382755051 4.2130427317672234 0 0 0 0 -11.298302424751455 30.722919438802705 0 30.722919438802705 -30.917504659640414 0 0 0 0 28.21318887801317 292.90323676548633 0 292.90323676548633 257.86267149662274 0 0 0 0 187.73412093626757 428.24420081850485 0 428.24420081850485 86.708773372414498 0 0 0 0 -35.351380446141775 24.894463463475205 0 24.894463463475205 96.207162102891516 0 0 0 0 -17.893486583854624 15.726481053690222 0 15.726481053690222 18.678814132555793 0 0 0 0 -603.92042366617534 324.28923603575822 0 324.28923603575822 182.58300221206082 0 0 0 0 859.84595020674897 2579.8185422948959 0 2579.8185422948959 997.33824923484644 0 0 0 0 139.6877662960469 546.90783292467904 0 546.90783292467904 -239.76788143700298 0 0 0 0 40.240384788645315 376.46942580782161 0 376.46942580782161 -133.95000836235351 0 0 0 0 348.95287770911455 348.27767785287728 0 348.27767785287728 -236.2291473393347 0 0 0 0 8.8366428606173031 -1.8861667093550523 0 -1.8861667093550523 0.40574598019420055 0 0 0 0 -138.77496648122906 14.873332209422529 0 14.873332209422529 323.88192743665957 0 0 0 0 -197.92564222247165 439.39592668544128 0 439.39592668544128 -85.558313794177366 0 0 0 0 -42.42438212295383 -78.718386680401636 0 -78.718386680401636 107.34376810605028 0 0 0 0 -1.8168908887528232 -262.84364103674909 0 -262.84364103674909 246.75230945732562 0 0 0 0 -23.285910405793402 188.90224325107454 0 188.90224325107454 -278.63516492506733 0 0 0 0 62.898731479258842 9.0510706258677232 0 9.0510706258677232 1.1825160528716583 0 0 0 0 627.52649808416027 105.98639151081261 0 105.98639151081261 -576.42580238103187 0 0 0 0 1425.7682569079188 -425.52163394154496 0 -425.52163394154496 -634.93594475929103 0 0 0 0 -202.22730790397327 163.15844388494213 0 163.15844388494213 -68.163944291916778 0 0 0 0 81.949758396439194 15.14509477967921 0 15.14509477967921 0.36210110932541489 0 0 0 0 600.26617995768902 -238.81044490915576 0 -238.81044490915576 -2.9067398251099803 0 0 0 0 3.2365876005136158 2.8869135834094308 0 2.8869135834094308 2.9369823066503402 0 0 0 0 -101.70272697687869 119.64276627217517 0 119.64276627217517 -81.30225331962356 0 0 0 0 -44.672070354870812 64.255902498486307 0 64.255902498486307 -81.536978673268322 0 0 0 0 699.94506279347843 -140.18514912290715 0 -140.18514912290715 34.169157956514482 0 0 0 0 17.742700251130465 -1.763131028132328 0 -1.763131028132328 0.22523807458742962 0 0 0 0 495.06133236987807 47.09488609280686 0 47.09488609280686 -95.161616321052406 0 0 0 0 -122.19878581169905 -29.465289350513785 0 -29.465289350513785 224.74440900604714 0 0 0 0 496.99532643480416 128.7362083408043 0 128.7362083408043 -256.71060301298576 0 0 0 0 -145.25834884042797 -318.83282307422758 0 -318.83282307422758 -221.77327831271919 0 0 0 0 -44.673741530459665 84.209230809223072 0 84.209230809223072 -86.710586943845783 0 0 0 0 -358.02685508133436 -442.05283002550726 0 -442.05283002550726 -210.37111313543983 0 0 0 0 302.82067258990719 -204.04123881658188 0 -204.04123881658188 -296.7111130758359 0 0 0 0 1.4436407895227887 -2.4619553096359326 0 -2.4619553096359326 -0.17731597871290639 0 0 0 0 134.99932216980596 -71.402397801933262 0 -71.402397801933262 -153.1247166015437 0 0 0 0 398.8099569813694 52.516129007588745 0 52.516129007588745 -228.99278445628056 0 0 0 0 108.11907854666788 -125.90742691497201 0 -125.90742691497201 -125.83770204776692 0 0 0 0 280.21966687365057 -76.392025814248655 0 -76.392025814248655 -113.84185459391387 0 0 0 0 198.05578629945467 46.685055141944304 0 46.685055141944304 -58.357302093706949 0 0 0 0 10.230897004785433 8.7660207776202235 0 8.7660207776202235 7.6756976380065716 0 0 0 0 213.74432390808943 7.0337184543280955 0 7.0337184543280955 -113.28563832458201 0 0 0 0 271.60769290300232 88.695185745675872 0 88.695185745675872 -107.10650164199575 0 0 0 0 362.86522357372814 80.707261110137608 0 80.707261110137608 -108.25745494248508 0 0 0 0 28.487023679957929 40.79995454721643 0 40.79995454721643 -41.549697928718274 0 0 0 0 18.647937702773561 -1.8308098901087533 0 -1.8308098901087533 -67.089861155924154 0 0 0 0 15.315697552020367 15.644421134933843 0 15.644421134933843 11.056350468123618 0 0 0 0 -6.6907857385776879 90.168708470089314 0 90.168708470089314 16.654583447893629 0 0 0 0 5.0638390953354815 5.859951176105838 0 5.859951176105838 -3.1984482457654582 0 0 0 0 927.7690244500991 -11.675439211027822 0 -11.675439211027822 69.331297417236328 0 0 0 0 20.614689439443737 4.2094840764131334 0 4.2094840764131334 -136.29707534761167 0 0 0 0 34.973161485471792 65.122101485043672 0 65.122101485043672 -169.6486121404929 0 0 0 0 -9.3839184479693358 103.72732731910301 0 103.72732731910301 -79.480270069981998 0 0 0 0 28.73225536494283 71.41965447007891 0 71.41965447007891 -89.719326479533422 0 0 0 0 24.291706276759214 75.333026502406938 0 75.333026502406938 -187.04533999787236 0 0 0 0 204.35958599671721 142.7522123484753 0 142.7522123484753 -134.38013609829233 0 0 0 0 27.756745033430889 99.199679147537523 0 99.199679147537523 -31.286488244042175 0 0 0 0 39.788153166627168 7.0812975270873233 0 7.0812975270873233 1.7800256983354299 0 0 0 0 -20.770746229140059 70.934482317155926 0 70.934482317155926 245.34528416273611 0 0 0 0 -181.39418731172191 -96.325610446199278 0 -96.325610446199278 496.84449013393595 0 0 0 0 2495.9328944277004 -160.25161584712703 0 -160.25161584712703 -324.52636578765981 0 0 0 0 885.38700001526558 -672.44972745224675 0 -672.44972745224675 809.72743299159197 0 0 0 0 116.09221856950899 63.108223917722626 0 63.108223917722626 385.85439961652673 0 0 0 0 174.18418953905348 633.49200681424634 0 633.49200681424634 1039.0758580969864 0 0 0 0 14.813725607682414 2.8686082362651639 0 2.8686082362651639 2.3434549724640861 0 0 0 0 2494.4759602809718 959.33319684141543 0 959.33319684141543 -394.46909590032226 0 0 0 0 986.18641785595264 717.29217411102036 0 717.29217411102036 -339.69049457079456 0 0 0 0 2430.065752048351 546.08658952420683 0 546.08658952420683 -340.25562192988025 0 0 0 0 2571.3802653042112 854.37238179509529 0 854.37238179509529 354.68374607925762 0 0 0 0 2501.4381209000312 440.68899509137225 0 440.68899509137225 -191.81179128162242 0 0 0 0 791.23404578761983 -180.83799115467929 0 -180.83799115467929 -3.3900055906011772 0 0 0 0 6.7656476686403551 4.5773902421328572 0 4.5773902421328572 3.7455803761060413 0 0 0 0 3103.045176502601 -258.91357796962149 0 -258.91357796962149 -119.38188393397002 0 0 0 0 -15.632911515600426 669.1495442349925 0 669.1495442349925 796.77730387025417 0 0 0 0 2015.4895846214349 993.54312725418185 0 993.54312725418185 234.5552714471707 0 0 0 0 2499.0597585693322 471.43824120272569 0 471.43824120272569 535.6263688107756 0 0 0 0 3.2300729546042177 4.6341096306383704 0 4.6341096306383704 1.0780101561366795 0 0 0 0 -101.13374231629496 -2.8922606386970529 0 -2.8922606386970529 35.014593221038922 0 0 0 0 5.5023963305691268 -156.93256025784697 0 -156.93256025784697 -118.35317401832526 0 0 0 0 566.68480176766025 187.28726306500329 0 187.28726306500329 -11.384480990893572 0 0 0 0 14.512354149138744 12.92632171360377 0 12.92632171360377 6.7939306283705481 0 0 0 0 27.552254483707657 125.54580327717952 0 125.54580327717952 -214.46809156558811 0 0 0 0 230.48856133543086 -171.70570596231255 0 -171.70570596231255 -125.97453486025574 0 0 0 0 362.9067748913476 304.2903274804346 0 304.2903274804346 275.05855642818653 0 0 0 0 444.57541964330812 42.31957606874596 0 42.31957606874596 -211.98473682115218 0 0 0 0 -33.203315001132069 -157.21080319916678 0 -157.21080319916678 148.94006621875155 0 0 0 0 -91.100280909584399 84.897548179861559 0 84.897548179861559 265.60147408477451 0 0 0 0 524.23563866478071 214.71686044915066 0 214.71686044915066 120.40136337335994 0 0 0 0 1033.3904830847732 -160.90546525169916 0 -160.90546525169916 -88.564128616274729 0 0 0 0 1285.7264465572698 151.4190242919932 0 151.4190242919932 -25.090993815353045 0 0 0 0 1.425734630537498 -1.2724305777096845 0 -1.2724305777096845 -0.40323957955278122 0 0 0 0 -251.07357005237827 82.167893579706842 0 82.167893579706842 308.13030355794933 0 0 0 0 2582.8977520969638 227.76560439090196 0 227.76560439090196 -231.85696670510305 0 0 0 0 1801.1112456025476 236.51321609302386 0 236.51321609302386 -173.94938321800805 0 0 0 0 1814.0966062594671 316.01666562609972 0 316.01666562609972 -2.5575422714745031 0 0 0 0 2500.3663257460448 261.50277195976417 0 261.50277195976417 -348.48168113330928 0 0 0 0 2801.7262954721755 171.47579686011741 0 171.47579686011741 -372.91816570777354 0 0 0 0 2499.7756056816852 175.69920104462412 0 175.69920104462412 106.51526923480702 0 0 0 0 2807.5655201551908 428.6580668502329 0 428.6580668502329 4.1746238927235026 0 0 0 0 2021.1606801383132 111.34376583433175 0 111.34376583433175 -297.19564984111236 0 0 0 0 2018.1843433828126 126.92602730615057 0 126.92602730615057 -378.32209537409278 0 0 0 0 721.61318884662251 194.18356014108252 0 194.18356014108252 23.414983314602559 0 0 0 0 1208.1822665749714 -504.06757072720063 0 -504.06757072720063 53.988973035543012 0 0 0 0 0.81540028192357283 -1.59650627458754 0 -1.59650627458754 -3.0051820831747991 0 0 0 0 411.02097932219112 -278.36711206421035 0 -278.36711206421035 -26.100479346201951 0 0 0 0 -157.21791357131588 -193.94714440916425 0 -193.94714440916425 3.0495077634279824 0 0 0 0 -128.43695254043269 49.604059606477676 0 49.604059606477676 271.02446174469691 0 0 0 0 2424.0288654508131 -520.80335105154347 0 -520.80335105154347 -191.18628244937446 0 0 0 0 528.95786119127831 -925.39979606590168 0 -925.39979606590168 697.2609359000669 0 0 0 0 16.110636373681928 1.0878471182973568 0 1.0878471182973568 0.74998913113082821 0 0 0 0 496.53213972628623 179.62553571981235 0 179.62553571981235 -146.00775279668562 0 0 0 0 179.53739232367661 21.936261023853888 0 21.936261023853888 -310.14522613492773 0 0 0 0 38.762933212407617 3.5560415478062968 0 3.5560415478062968 -3.6438829790122007 0 0 0 0 537.05021707095784 -193.04726633246074 0 -193.04726633246074 -277.93213682796357 0 0 0 0 1312.1696768697166 1254.7554149422817 0 1254.7554149422817 252.13830574690647 0 0 0 0 2897.8704096468027 192.74398320882926 0 192.74398320882926 -314.67126449808438 0 0 0 0 2500.0184694456693 244.41734118369203 0 244.41734118369203 97.53504474897241 0 0 0 0 2553.9902115044988 -93.377977996017677 0 -93.377977996017677 891.82692873333463 0 0 0 0 2578.2564627232314 502.10026350736615 0 502.10026350736615 575.33375580345148 0 0 0 0 41.22942306206096 36.04301507581738 0 36.04301507581738 -121.72270275715414 0 0 0 0 30.27425853807911 5.1503398622326948 0 5.1503398622326948 0.80577527050843134 0 0 0 0 25.615111984399846 88.681716318412157 0 88.681716318412157 8.0746514221796133 0 0 0 0 119.19988058783383 -96.646640074461232 0 -96.646640074461232 127.93262387186678 0 0 0 0 278.49363610370165 -65.902175650321226 0 -65.902175650321226 -91.299233433567565 0 0 0 0 82.1007257618312 -40.987999848144398 0 -40.987999848144398 -72.076727696417151 0 0 0 0 217.84280366676921 -97.529287259395687 0 -97.529287259395687 -52.655824948248664 0 0 0 0 -18.216164496854617 100.57013390773494 0 100.57013390773494 -94.47490388531827 0 0 0 0 -188.52921244075333 -316.1710027617209 0 -316.1710027617209 -140.63912912817398 0 0 0 0 9.3909860291753731 3.1407326693418938 0 3.1407326693418938 -5.7380931543903237 0 0 0 0 30.735579632131703 45.37037544491136 0 45.37037544491136 -52.732296202180351 0 0 0 0 42.38733092888701 6.2428168029035911 0 6.2428168029035911 -2.6579256571940224 0 0 0 0 130.15623441248317 -69.917235898981517 0 -69.917235898981517 -234.54130146301725 0 0 0 0 41.314167415037446 -32.469615288595264 0 -32.469615288595264 -50.115042827800153 0 0 0 0 -27.395466900853535 -163.97684512071385 0 -163.97684512071385 -62.923787252955208 0 0 0 0 12.453962565968332 3.1449073893115624 0 3.1449073893115624 -10.633665764005801 0 0 0 0 -42.294857929264253 -15.033606848305112 0 -15.033606848305112 13.036544900894278 0 0 0 0 329.27895059583534 43.045103014919157 0 43.045103014919157 -41.777095318758533 0 0 0 0 227.25900668472968 127.54256542332382 0 127.54256542332382 -307.87042549460455 0 0 0 0 37.201090609432867 121.22741274117129 0 121.22741274117129 14.747932968772375 0 0 0 0 385.10810120529641 275.25405325413317 0 275.25405325413317 51.8081291481042 0 0 0 0 347.5844126745742 241.12336155055038 0 241.12336155055038 148.53232964470089 0 0 0 0 255.1870439757131 -10.801485388276891 0 -10.801485388276891 222.11249118500348 0 0 0 0 1024.1931752546916 -218.23035123289947 0 -218.23035123289947 -39.222189825909481 0 0 0 0 8.4622244873605723 -3.8797542232692983 0 -3.8797542232692983 2.4302768149160485 0 0 0 0 850.36595715627118 546.43623152146074 0 546.43623152146074 329.00692306217343 0 0 0 0 -50.881066452384403 198.85016817258028 0 198.85016817258028 336.23774951062029 0 0 0 0 107.0714645811131 -267.66418311324963 0 -267.66418311324963 433.63607445640486 0 0 0 0 385.13427172991578 -56.460372700771359 0 -56.460372700771359 206.571062314573 0 0 0 0 1.1269406822544141 -1.3195096080131989 0 -1.3195096080131989 1.5042959569666929 0 0 0 0 214.27603100819033 -539.22313444970121 0 -539.22313444970121 112.05377746136651 0 0 0 0 -145.48574567723153 -101.26937881727224 0 -101.26937881727224 64.241742900665713 0 0 0 0 -0.28845933610844554 -1.9255651294185441 0 -1.9255651294185441 3.0307369067777445 0 0 0 0 150.85424002353466 221.54169327898114 0 221.54169327898114 -27.986854587619291 0 0 0 0 231.92068816357369 -37.539179260575963 0 -37.539179260575963 784.63856785075541 0 0 0 0 -14.832840951617982 131.96964905426762 0 131.96964905426762 150.72601357175978 0 0 0 0 249.11820625364635 152.16374242505992 0 152.16374242505992 -0.82868533588043647 0 0 0 0 17.544474714875832 -122.32474141769535 0 -122.32474141769535 351.54657169256143 0 0 0 0 725.39130240859913 -390.74079299232949 0 -390.74079299232949 179.8517415465999 0 0 0 0 931.60436290868893 260.80097404725552 0 260.80097404725552 -23.452531631302008 0 0 0 0 623.08952998936911 -216.19299904879034 0 -216.19299904879034 -61.153493860081198 0 0 0 0 414.23806431252888 197.81258355247178 0 197.81258355247178 -30.083061110295148 0 0 0 0 195.93087929504691 -138.7544322159672 0 -138.7544322159672 63.141874822895034 0 0 0 0 190.73905208784345 -121.82843591838949 0 -121.82843591838949 11.942635187506312 0 0 0 0 168.05358857750252 -119.40560998890714 0 -119.40560998890714 12.327426577593997 0 0 0 0 26.442916190368123 -47.09366477397225 0 -47.09366477397225 140.68656850898105 0 0 0 0 22.993292986560846 -20.001251186452691 0 -20.001251186452691 -6.6587994997862552 0 0 0 0 73.066276007193665 -25.549718516901294 0 -25.549718516901294 -15.782109498815785 0 0 0 0 13.010108278111147 -108.64881819624577 0 -108.64881819624577 -25.972031284073182 0 0 0 0 -50.432535959309462 -34.845271766381984 0 -34.845271766381984 -46.502597488743021 0 0 0 0 -47.242133796669805 -53.814869573824808 0 -53.814869573824808 41.45734022465831 0 0 0 0 1.6016498998211262 -3.4537770683654685 0 -3.4537770683654685 3.7412789142531766 0 0 0 0 -125.24230538309166 -106.87244390105207 0 -106.87244390105207 -36.128566879442587 0 0 0 0 -43.965825910450803 -20.586652681341775 0 -20.586652681341775 -50.190965711144145 0 0 0 0 -32.754372124503618 -6.5881045431240466 0 -6.5881045431240466 34.268711001849169 0 0 0 0 21.898121342052036 10.2280961600718 0 10.2280961600718 19.759940030278813 0 0 0 0 -31.50430712363891 -50.224553527213864 0 -50.224553527213864 -4.9542399956635563 0 0 0 0 -53.515320132639317 -8.4915347364117224 0 -8.4915347364117224 22.43788500122605 0 0 0 0 29.814481734661967 -37.39795039617502 0 -37.39795039617502 34.974787282060788 0 0 0 0 -5.7047377106282511 -37.795541164331098 0 -37.795541164331098 40.393671028034987 0 0 0 0 28.133955008284829 -15.746123750962397 0 -15.746123750962397 35.406697360245744 0 0 0 0 -17.715975528524723 -3.2002011326530919 0 -3.2002011326530919 32.446366543898876 0 0 0 0 32.711753350758713 -19.860670236941054 0 -19.860670236941054 11.674712478270704 0 0 0 0 22.678381874186016 -2.2201748200909606 0 -2.2201748200909606 22.06366999944612 0 0 0 0 39.537195590473857 -3.9386553213162188 0 -3.9386553213162188 19.934045644826369 0 0 0 0 343.78348233955649 268.45149498837043 0 268.45149498837043 -1.169446601446964 0 0 0 0 22.124705452065136 -12.343480953345569 0 -12.343480953345569 6.9806214834214675 0 0 0 0 39.255103141367726 -6.3775053901065348 0 -6.3775053901065348 5.3014610109953537 0 0 0 0 76.315334225851529 35.450488944764828 0 35.450488944764828 24.586961700627398 0 0 0 0 145.777881655893 -57.289000364296953 0 -57.289000364296953 -11.117871790696881 0 0 0 0 121.62615192285739 -67.190729342929899 0 -67.190729342929899 62.867175662580848 0 0 0 0 21.078562132411157 6.0433454741418089 0 6.0433454741418089 4.0912315912096773 0 0 0 0 113.37307994204821 -35.200151345719632 0 -35.200151345719632 36.511679897505019 0 0 0 0 72.410049765425356 10.207315722930616 0 10.207315722930616 38.346102802750465 0 0 0 0 33.18317561288859 -22.052198291399236 0 -22.052198291399236 3.1755998975909279 0 0 0 0 0.42141509016801137 -10.080207694805267 0 -10.080207694805267 21.10052165117304 0 0 0 0 4.3679054372834045 8.3651196733794961 0 8.3651196733794961 5.9121461612284314 0 0 0 0 47.308070172020962 14.625246365152634 0 14.625246365152634 24.218903000221871 0 0 0 0 20.789730621989293 10.598509601416026 0 10.598509601416026 27.265638217829405 0 0 0 0 36.460014830285218 24.348737650921521 0 24.348737650921521 37.798009237033511 0 0 0 0 0.0010331800346321529 -0.274730401353807 0 -0.274730401353807 3.0230650858509271 0 0 0 0 25.725341024470254 3.4734971525153924 0 3.4734971525153924 -0.03126603092005098 0 0 0 0 7.6711879352751566 13.268334337956446 0 13.268334337956446 92.963551652382193 0 0 0 0 156.85628956623623 -61.258356378053577 0 -61.258356378053577 82.355456950953709 0 0 0 0 352.14144143121666 54.659215343133212 0 54.659215343133212 -15.900564313760697 0 0 0 0 -33.550595642420831 -128.92887172732225 0 -128.92887172732225 50.637306341581279 0 0 0 0 -168.79650564378608 -93.283814920757663 0 -93.283814920757663 43.729656228377735 0 0 0 0 429.43703505416488 164.42606135579717 0 164.42606135579717 -117.07048225932431 0 0 0 0 0.99173141146215471 -1.0584705947820439 0 -1.0584705947820439 1.6974051076440535 0 0 0 0 19.246417363421642 -87.710478595030963 0 -87.710478595030963 12.760912882666162 0 0 0 0 113.22282582270418 -139.9234392308465 0 -139.9234392308465 31.729955750828594 0 0 0 0 5.9195043220509618 7.2070317265325841 0 7.2070317265325841 6.0355243499719009 0 0 0 0 218.88345034234226 -28.331329492468285 0 -28.331329492468285 -75.986911124107564 0 0 0 0 -3.3357191465329379 -8.6151677415837185 0 -8.6151677415837185 7.3442770464739624 0 0 0 0 2.1803723528378782 -0.29827536782316599 0 -0.29827536782316599 7.7429169239955833 0 0 0 0 20.090179376218657 -1.1242230953382659 0 -1.1242230953382659 5.4168698937046429 0 0 0 0 189.00010808901425 -124.97138781388537 0 -124.97138781388537 251.88714360304948 0 0 0 0 237.59638595169235 -8.9661488588062639 0 -8.9661488588062639 -48.654138396959752 0 0 0 0 -25.386945780806855 -43.940872288902028 0 -43.940872288902028 67.980312025085368 0 0 0 0 -33.24243879707501 21.300843018886098 0 21.300843018886098 20.411982711975725 0 0 0 0 226.65798269848892 -53.60842752681674 0 -53.60842752681674 -29.581284021567626 0 0 0 0 116.51818931629532 -28.80526772736448 0 -28.80526772736448 -28.777500828098709 0 0 0 0 1.399689337894138 1.0917140678282351 0 1.0917140678282351 -0.50532326424212926 0 0 0 0 239.49494297815545 -29.176450237629979 0 -29.176450237629979 -9.8144126725346723 0 0 0 0 220.57405869042123 -30.247279567925034 0 -30.247279567925034 4.1813161819745801 0 0 0 0 242.04319332584419 -59.142712447679514 0 -59.142712447679514 -64.133276880291305 0 0 0 0 222.0144239125384 -32.377265629024123 0 -32.377265629024123 5.915661460825504 0 0 0 0 250.42170901447571 -86.836334573997192 0 -86.836334573997192 26.528695508708552 0 0 0 0 219.99998109793387 -32.828292829242287 0 -32.828292829242287 29.204139499099256 0 0 0 0 239.19168453533348 -40.150760529378204 0 -40.150760529378204 26.985078172992871 0 0 0 0 186.00410248862499 -67.826033293523551 0 -67.826033293523551 12.607026187100928 0 0 0 0 244.1166052426197 -77.302095398434176 0 -77.302095398434176 -21.812899328261665 0 0 0 0 174.51413650159884 -32.814268979769167 0 -32.814268979769167 54.308057882513822 0 0 0 0 229.2175314956221 -9.6382994794316801 0 -9.6382994794316801 33.073742650540225 0 0 0 0 9.8556796123095722 0.34467755409740519 0 0.34467755409740519 0.26113392352809139 0 0 0 0 315.4855552490335 -360.19776042810281 0 -360.19776042810281 206.35783174026619 0 0 0 0 675.56947804769879 -359.49098075951497 0 -359.49098075951497 11.706636460872687 0 0 0 0 329.11554543042257 -205.70830363817663 0 -205.70830363817663 -52.506457938252424 0 0 0 0 326.66538167750696 -201.10708069677639 0 -201.10708069677639 -16.619648403602696 0 0 0 0 206.19657489484962 -129.7689317826198 0 -129.7689317826198 -13.074063747814762 0 0 0 0 291.46343024901216 -165.25082483155302 0 -165.25082483155302 -5.8116161955440475 0 0 0 0 287.0398649879935 -74.212216467030885 0 -74.212216467030885 -59.434911632157309 0 0 0 0 308.05344198993043 -104.9751501529156 0 -104.9751501529156 -111.62926214002073 0 0 0 0 428.69211963586713 -177.57681537088865 0 -177.57681537088865 -68.184715611178035 0 0 0 0 460.77090481964842 15.401836675511731 0 15.401836675511731 -208.90075227487068 0 0 0 0 188.4707042639202 13.567261460535519 0 13.567261460535519 -94.851108678543824 0 0 0 0 273.51769465788948 -9.3576121627702378 0 -9.3576121627702378 -92.245932566420379 0 0 0 0 1.1536917523294363 1.479867919770129 0 1.479867919770129 0.93866621596941613 0 0 0 0 54.639282409465523 79.205090517490589 0 79.205090517490589 -44.304518666864169 0 0 0 0 187.41504608979619 62.287325798407196 0 62.287325798407196 -73.595709944849659 0 0 0 0 -205.27124041215575 211.57497042372052 0 211.57497042372052 -121.16867118923437 0 0 0 0 412.4159711840548 86.00357317015596 0 86.00357317015596 -295.08928365691099 0 0 0 0 -236.76583078816475 116.16969695910302 0 116.16969695910302 185.31305047091701 0 0 0 0 338.10083138870687 -28.221729631501148 0 -28.221729631501148 -107.88461367437594 0 0 0 0 919.36976074340782 89.914328757009571 0 89.914328757009571 -122.29127461638382 0 0 0 0 170.11362986319 212.17649927455841 0 212.17649927455841 653.16110797974397 0 0 0 0 51.087118433955766 -48.346648621654822 0 -48.346648621654822 92.586434742965139 0 0 0 0 9.2470297500440211 -2.045151341319297 0 -2.045151341319297 17.580407333418407 0 0 0 0 -126.85282537482271 180.9759590238391 0 180.9759590238391 150.47199211567749 0 0 0 0 -330.76548794039263 67.432730872165848 0 67.432730872165848 95.056955293868668 0 0 0 0 -333.60002886974678 250.01993014059695 0 250.01993014059695 105.45493549287858 0 0 0 0 1.2015845359398725 1.1580741530565177 0 1.1580741530565177 11.956563464703542 0 0 0 0 -167.53455504283193 239.27210014634875 0 239.27210014634875 -116.02569658787979 0 0 0 0 -74.462814920472738 148.81609558708624 0 148.81609558708624 -237.04469881024124 0 0 0 0 0.26169184367595477 2.8130444687217633 0 2.8130444687217633 -0.27440121100021742 0 0 0 0 8.8803550673492282 4.0042341836599462 0 4.0042341836599462 12.187087402144243 0 0 0 0 3.0970597096505017 4.2711023605787446 0 4.2711023605787446 7.9550756615290048 0 0 0 0 0.94037192288303117 3.3187288154786927 0 3.3187288154786927 10.386634825747947 0 0 0 0 35.669171908397402 19.858914458926392 0 19.858914458926392 -42.754509373914971 0 0 0 0 3.7954743273309077 3.9902419912388041 0 3.9902419912388041 6.6790056303237577 0 0 0 0 13.367602231606725 -4.3031935050812535 0 -4.3031935050812535 0.062518823797290679 0 0 0 0 66.545417499626637 -19.332351364763781 0 -19.332351364763781 2.8594931128882308 0 0 0 0 44.234107737491286 -56.241489594179939 0 -56.241489594179939 29.941784468041078 0 0 0 0 33.579265850612501 -25.043621784220704 0 -25.043621784220704 11.192972619852299 0 0 0 0 5.6869795497616522 1.4265715741486957 0 1.4265715741486957 4.5814341686404632 0 0 0 0 28.619633594011248 -15.433975563867534 0 -15.433975563867534 2.8729390512148587 0 0 0 0 14.548270133390574 -13.627856421502663 0 -13.627856421502663 14.563418633771994 0 0 0 0 9.98978025240649 -5.3828732138408668 0 -5.3828732138408668 9.4569560785312206 0 0 0 0 -205.43609196815669 0.079323745652800426 0 0.079323745652800426 91.642010132287396 0 0 0 0 4.2228058231768273 -4.7639930776023434 0 -4.7639930776023434 11.29536986028727 0 0 0 0 0.1938718784094533 -5.2786184030624312 0 -5.2786184030624312 15.15326821891648 0 0 0 0 11.094845865427487 -11.992086101721384 0 -11.992086101721384 20.502723202705056 0 0 0 0 25.779859191763535 -13.143822187512342 0 -13.143822187512342 12.529358728301759 0 0 0 0 5.130674927796818 -3.6565642361445398 0 -3.6565642361445398 16.718787976760204 0 0 0 0 -90.796833187538141 5.2070159643171792 0 5.2070159643171792 -6.8819339334451115 0 0 0 0 25.626593785142177 -13.270522438790067 0 -13.270522438790067 12.50379368452559 0 0 0 0 45.394239531789935 -21.858541614996739 0 -21.858541614996739 13.967774870605353 0 0 0 0 -2.9916895777785442 -6.362112721692128 0 -6.362112721692128 28.690280188340829 0 0 0 0 11.982227340386821 -3.1385554791302042 0 -3.1385554791302042 1.7956109861379232 0 0 0 0 55.835247904098651 -110.82730721996995 0 -110.82730721996995 -2.6802420027542553 0 0 0 0 24.893177771762566 -123.60045097614329 0 -123.60045097614329 73.211358794011176 0 0 0 0 245.79132311905414 -134.97653523823556 0 -134.97653523823556 3.5462311198662064 0 0 0 0 25.965696332093557 -113.68379333875214 0 -113.68379333875214 70.484001136814186 0 0 0 0 -20.739841433169204 -129.07843674600372 0 -129.07843674600372 120.06591390211906 0 0 0 0 167.89534625462693 -163.25185883574341 0 -163.25185883574341 70.98600187703596 0 0 0 0 -28.609281211160123 -44.673145003027457 0 -44.673145003027457 26.269765408656895 0 0 0 0 -152.92761100105781 -77.376966286964944 0 -77.376966286964944 40.327742719844537 0 0 0 0 -194.42209646496485 158.19586594416251 0 158.19586594416251 -95.768624690288561 0 0 0 0 -121.62093047476264 -42.97312063618574 0 -42.97312063618574 289.84638748832003 0 0 0 0 130.70614034668688 -142.571875651136 0 -142.571875651136 94.052696823497172 0 0 0 0 471.1513227716423 -439.68172053781018 0 -439.68172053781018 417.75963306845279 0 0 0 0 352.03720125472319 43.932974892774382 0 43.932974892774382 -20.231244085816797 0 0 0 0 840.58805211158869 13.809745978341198 0 13.809745978341198 -18.505594034835667 0 0 0 0 173.54707859246992 -227.56195379654855 0 -227.56195379654855 151.95237604906657 0 0 0 0 130.66593471783773 -131.98890043087127 0 -131.98890043087127 149.28457727008572 0 0 0 0 519.89755248488655 -129.92901746049756 0 -129.92901746049756 -27.917610892045559 0 0 0 0 217.29078544940603 -78.877552236234351 0 -78.877552236234351 -36.231406471459195 0 0 0 0 316.72612382036459 -44.078813112610987 0 -44.078813112610987 -50.612309067439128 0 0 0 0 313.4982637380017 18.187044599517321 0 18.187044599517321 -32.906815527064282 0 0 0 0 230.35168278536912 158.86177386345548 0 158.86177386345548 76.092262385778668 0 0 0 0 293.33713781910774 41.333564234566438 0 41.333564234566438 -44.77090201669489 0 0 0 0 271.54313806570644 197.53302099614348 0 197.53302099614348 191.64712692458033 0 0 0 0 845.98444380978981 -525.40797724218407 0 -525.40797724218407 38.708868614985931 0 0 0 0 -12.432776760117122 350.69084137563414 0 350.69084137563414 742.46377448698797 0 0 0 0 349.86458338568445 558.86604402470925 0 558.86604402470925 299.12188712246461 0 0 0 0 11.702618215430697 2.4099161791428703 0 2.4099161791428703 0.40291280749429204 0 0 0 0 992.53745595123473 329.82922536882961 0 329.82922536882961 -122.36540351053191 0 0 0 0 283.34465032072694 204.51383904461829 0 204.51383904461829 -68.263930392087786 0 0 0 0 281.55459584643268 -232.72339201439618 0 -232.72339201439618 -149.34133728109794 0 0 0 0 18.40537401452093 -41.230778787613986 0 -41.230778787613986 -41.886621290264202 0 0 0 0 37.537667332275873 -27.510794721535017 0 -27.510794721535017 17.674379382497406 0 0 0 0 13.659998211714992 -27.928125748108187 0 -27.928125748108187 31.174171842791111 0 0 0 0 11.057888735282758 -5.2656625349946182 0 -5.2656625349946182 0.8154963197346774 0 0 0 0 58.735847032628953 -50.709091860461285 0 -50.709091860461285 25.11029019360501 0 0 0 0 -3.4692537354058004 -27.810911646041859 0 -27.810911646041859 18.635981168908984 0 0 0 0 -66.244169670531846 -199.82019815626086 0 -199.82019815626086 -1.6904935055745227 0 0 0 0 -122.92377876875798 -124.50772787035237 0 -124.50772787035237 196.33842572618141 0 0 0 0 -12.766716010515665 -9.5871200705410047 0 -9.5871200705410047 12.274616941216294 0 0 0 0 -27.052237104104279 92.667330972275522 0 92.667330972275522 275.07556843876853 0 0 0 0 -1.3008742316858672 1.4449424088082434 0 1.4449424088082434 -1.4891382278898782 0 0 0 0 -86.455666382200434 24.599426271218078 0 24.599426271218078 27.680891314141036 0 0 0 0 -151.58673236277536 -236.43266011457058 0 -236.43266011457058 -44.365563989429575 0 0 0 0 -29.721967019904696 126.12569947671381 0 126.12569947671381 161.10069379406059 0 0 0 0 -56.554007945449484 -0.16629845280090194 0 -0.16629845280090194 65.104482799720245 0 0 0 0 6.8002256067808329 -16.85075419900193 0 -16.85075419900193 22.415828472206044 0 0 0 0 12.967303969729983 -13.51997036671446 0 -13.51997036671446 17.989509918463682 0 0 0 0 -9.5623071790261918 3.9531235069998161 0 3.9531235069998161 2.6978405778467032 0 0 0 0 -0.52565027069249481 -7.7415152680100618 0 -7.7415152680100618 18.143765850364616 0 0 0 0 2.2073741146394434 -1.4104397726276261 0 -1.4104397726276261 12.594463792728149 0 0 0 0 4.0268335653057541 -4.3012899604857324 0 -4.3012899604857324 9.6861861916520553 0 0 0 0 3.3883211092825718 -8.6488292010334433 0 -8.6488292010334433 15.563764175708915 0 0 0 0 7.3696533279497771 -2.7851552363064158 0 -2.7851552363064158 3.9996295913439672 0 0 0 0 -1.532992608823406 16.627111669953536 0 16.627111669953536 -6.7519592820818843 0 0 0 0 3.2467795973836218 -1.0470977792634528 0 -1.0470977792634528 0.1958629831460974 0 0 0 0 219.35124738512604 -124.5413046166388 0 -124.5413046166388 -167.39324762073329 0 0 0 0 799.53570139172007 275.99531705581614 0 275.99531705581614 55.173500755486828 0 0 0 0 1133.0488330516382 206.94438719611526 0 206.94438719611526 -92.306361692625842 0 0 0 0 1031.61480990577 -199.30747343592259 0 -199.30747343592259 -136.79320088459772 0 0 0 0 528.03607669603298 -311.60728310553759 0 -311.60728310553759 58.209895244786622 0 0 0 0 460.52685350091451 -52.631178427325636 0 -52.631178427325636 -122.94615488191403 0 0 0 0 343.53481384222687 -78.112616824191321 0 -78.112616824191321 -116.50304152755621 0 0 0 0 382.26463112993406 23.388519827082803 0 23.388519827082803 -63.171954864704503 0 0 0 0 251.69546566035206 -24.506419612920695 0 -24.506419612920695 -55.632595650349003 0 0 0 0 257.97111355537345 41.933612152897467 0 41.933612152897467 -44.486187190881196 0 0 0 0 241.43926847068724 7.3571883121752535 0 7.3571883121752535 -17.879088572811725 0 0 0 0 167.44039884914127 68.849884412146935 0 68.849884412146935 46.885571428289495 0 0 0 0 4.1337425737983722 -7.4382583309070469 0 -7.4382583309070469 13.378349127441652 0 0 0 0 4.0419677809006256 -2.6341206869968907 0 -2.6341206869968907 13.74945395817619 0 0 0 0 26.853035932159401 14.190944177686674 0 14.190944177686674 39.966695542016168 0 0 0 0 10.461146170111533 -1.6167616729145493 0 -1.6167616729145493 17.537453480686963 0 0 0 0 11.986372591629333 -7.4778877055468911 0 -7.4778877055468911 12.196617902823164 0 0 0 0 2.8669129015344126 -5.8331264224109063 0 -5.8331264224109063 16.366447036997471 0 0 0 0 0.72762307761248124 1.7957715098813409 0 1.7957715098813409 0.38157051190403735 0 0 0 0 -21.122099968375551 29.902560776517021 0 29.902560776517021 2.9833115869405447 0 0 0 0 12.13891267272993 -6.930936463041462 0 -6.930936463041462 9.7994973724471492 0 0 0 0 -39.361018942938244 27.779644331541931 0 27.779644331541931 18.947366794918707 0 0 0 0 9.5604574496832839 -5.2960578020538946 0 -5.2960578020538946 11.592214322855936 0 0 0 0 15.819079684995813 1.5942673370172997 0 1.5942673370172997 23.387398912134813 0 0 0 0 10.857199785535183 -6.0426615487188755 0 -6.0426615487188755 14.632127712324493 0 0 0 0 68.591463837941774 -2.1492278956086466 0 -2.1492278956086466 14.352101799802767 0 0 0 0 2.5824596818828116 -13.693188335918808 0 -13.693188335918808 17.201244683376803 0 0 0 0 -149.94257066964883 11.123796297452259 0 11.123796297452259 28.306145391223254 0 0 0 0 -6.9471884569938993 0.39365436833577405 0 0.39365436833577405 7.2790604739348055 0 0 0 0 8.9075674649797989 1.4438971142989345 0 1.4438971142989345 6.9331796676516877 0 0 0 0 11.744099759312705 3.5684454349294654 0 3.5684454349294654 8.2531443202930355 0 0 0 0 4.3233665503414613 -5.5188421583787566 0 -5.5188421583787566 9.2587781203709376 0 0 0 0 10.904432846844429 -2.172128662963587 0 -2.172128662963587 10.608949457171548 0 0 0 0 1.2730313924493437 -1.0556802780684578 0 -1.0556802780684578 3.0799824411754426 0 0 0 0 17.506468611993114 -13.602590394338925 0 -13.602590394338925 -1.1693167910511875 0 0 0 0 161.28623403924576 -2.9709415626346072 0 -2.9709415626346072 -13.801388141794405 0 0 0 0 157.15352606986926 -17.822979786658607 0 -17.822979786658607 -6.7476874726937695 0 0 0 0 117.97264601626739 -2.0244843347431924 0 -2.0244843347431924 2.1819707391020415 0 0 0 0 245.39338157596103 -15.636175451496086 0 -15.636175451496086 -23.17617526420463 0 0 0 0 142.9113054385125 -40.948452757237874 0 -40.948452757237874 -4.5397320637673602 0 0 0 0 223.60755068530125 -67.304465778656208 0 -67.304465778656208 2.7867900875435225 0 0 0 0 30.789054878423485 11.289728987266813 0 11.289728987266813 44.136517133964389 0 0 0 0 0.77681073291349634 0.5433674942151363 0 0.5433674942151363 -0.0034772868969317194 0 0 0 0 -6.6005379595480917 -119.87524052476658 0 -119.87524052476658 -102.7264134671691 0 0 0 0 207.05872853284018 -57.351435263381177 0 -57.351435263381177 14.141445895178947 0 0 0 0 80.329908623332813 -16.951746582158194 0 -16.951746582158194 2.4472311163008271 0 0 0 0 76.392020950429469 12.832091708487951 0 12.832091708487951 10.730759741240036 0 0 0 0 9.2731832176932585 3.590227731786257 0 3.590227731786257 9.232193330901282 0 0 0 0 2.4867103605349534 3.485561520866284 0 3.485561520866284 9.6416570733423228 0 0 0 0 4.4557228274900673 5.0951532025770163 0 5.0951532025770163 8.0401685807663696 0 0 0 0 -0.8444166051293216 -0.41068115684262985 0 -0.41068115684262985 1.1499468177032526 0 0 0 0 141.77352362324154 -57.90989403773716 0 -57.90989403773716 -18.686526201468951 0 0 0 0 68.486709093623176 -0.33126915032471516 0 -0.33126915032471516 40.136644596327642 0 0 0 0 89.227672109414016 -29.049303050869639 0 -29.049303050869639 31.573776218503554 0 0 0 0 0.87590680148680899 1.3145922531221856 0 1.3145922531221856 0.62039706667210126 0 0 0 0 2.4587856071011522 -15.897418828392173 0 -15.897418828392173 20.664226319311418 0 0 0 0 4.9917189141755358 6.3769853890818702 0 6.3769853890818702 9.1454001667753673 0 0 0 0 4.4388061140701325 5.6209253417289542 0 5.6209253417289542 8.3836105858240941 0 0 0 0 78.77895722147332 79.566367682432855 0 79.566367682432855 112.05318698661691 0 0 0 0 5.4460047257998667 4.222518501636614 0 4.222518501636614 9.1898615663770329 0 0 0 0 16.507410756561512 -103.1976894391845 0 -103.1976894391845 95.951276694971568 0 0 0 0 211.34358966960554 -71.277977225476974 0 -71.277977225476974 59.367857922961321 0 0 0 0 153.93358645211629 -75.733808499391785 0 -75.733808499391785 65.925369238604276 0 0 0 0 156.1342559767732 -185.53789087397658 0 -185.53789087397658 96.783428567149144 0 0 0 0 356.11125569390288 -139.51297608026618 0 -139.51297608026618 -129.67055675688505 0 0 0 0 351.4198633521537 -186.5694436369804 0 -186.5694436369804 6.73313430138478 0 0 0 0 354.01203381449977 -89.160467887638106 0 -89.160467887638106 -109.73650396271523 0 0 0 0 331.28572037200411 -83.418998017093855 0 -83.418998017093855 -53.663086211220161 0 0 0 0 219.60785084217696 -54.360982648543853 0 -54.360982648543853 -12.24852614328347 0 0 0 0 269.85656425418347 -40.688906829283837 0 -40.688906829283837 -47.817231952669317 0 0 0 0 250.37737134655254 -86.708818058932252 0 -86.708818058932252 8.343805616801319 0 0 0 0 248.45556509173912 -104.39249043997268 0 -104.39249043997268 -57.991899168789928 0 0 0 0 28.618488470176647 3.8968667989935 0 3.8968667989935 -2.5661719851658376 0 0 0 0 126.99049680762619 30.97272542602343 0 30.97272542602343 -32.38161656639204 0 0 0 0 165.38050603139527 -348.30407265916165 0 -348.30407265916165 1464.9912221640989 0 0 0 0 497.39817919296547 303.29403666579083 0 303.29403666579083 -1048.9384368164501 0 0 0 0 210.77680304669411 31.541786501136471 0 31.541786501136471 -33.558414000235643 0 0 0 0 217.78700256472439 16.746094228229822 0 16.746094228229822 -31.688108352915151 0 0 0 0 222.05534842761699 22.950781496902437 0 22.950781496902437 -39.096686064745882 0 0 0 0 247.7400320633169 11.39846999188012 0 11.39846999188012 -34.434275487095874 0 0 0 0 206.84039974989901 17.315994190611718 0 17.315994190611718 -1.5707865825679619 0 0 0 0 260.39877133881964 -27.518342535418924 0 -27.518342535418924 -65.198380307202569 0 0 0 0 252.84508972020922 -27.962393846579744 0 -27.962393846579744 -54.56806630126448 0 0 0 0 187.576759109259 21.880641630934406 0 21.880641630934406 55.314444452194948 0 0 0 0 -150.37214329568815 -157.01504064508754 0 -157.01504064508754 190.14021702457831 0 0 0 0 7.2665960878537703 -5.3656604293868853 0 -5.3656604293868853 4.5855238713764521 0 0 0 0 -53.071100899273006 -87.447318829295909 0 -87.447318829295909 203.6275817809792 0 0 0 0 321.92489485203987 319.43102821826506 0 319.43102821826506 32.238433795348101 0 0 0 0 442.40842233167132 328.94659787014643 0 328.94659787014643 -280.21927055286869 0 0 0 0 -157.05643232339935 -76.349150485740211 0 -76.349150485740211 204.52526736765594 0 0 0 0 -0.85463023553013784 -1.0068245975345533 0 -1.0068245975345533 1.1644030007098376 0 0 0 0 45.769276142884337 -180.95929398691442 0 -180.95929398691442 -118.49331930207791 0 0 0 0 52.291231079440934 169.71039030378503 0 169.71039030378503 42.548504799324292 0 0 0 0 481.70630401319431 -94.019650733156595 0 -94.019650733156595 -101.43980038911877 0 0 0 0 56.481781278773269 -182.82851468376703 0 -182.82851468376703 186.25558639676137 0 0 0 0 19.678955716995574 -15.929832744742463 0 -15.929832744742463 12.151752847440655 0 0 0 0 73.240253233299882 -15.960181419130095 0 -15.960181419130095 -62.606057961643728 0 0 0 0 46.942624192000949 -100.38936629110958 0 -100.38936629110958 35.500310142326271 0 0 0 0 38.887743704392051 -44.517771601222194 0 -44.517771601222194 -46.030942073115511 0 0 0 0 26.42033105596056 26.782168129084312 0 26.782168129084312 -142.6709025054497 0 0 0 0 48.951522656177985 29.041394261422283 0 29.041394261422283 11.349607947528057 0 0 0 0 -0.90335680381079442 -0.43919407393586241 0 -0.43919407393586241 4.7774264172334124 0 0 0 0 -0.90556860515061999 -8.125132257266614 0 -8.125132257266614 6.69128521368566 0 0 0 0 -105.07818165372737 97.718258718686229 0 97.718258718686229 145.75297143116404 0 0 0 0 111.99558729499404 101.02192949323398 0 101.02192949323398 -108.96415459935042 0 0 0 0 22.479507923602796 209.97598257105437 0 209.97598257105437 244.44259160167167 0 0 0 0 129.96935919564567 -263.60575815962238 0 -263.60575815962238 121.26029287968777 0 0 0 0 -167.12161500158618 -135.83627807705034 0 -135.83627807705034 103.74867733242809 0 0 0 0 138.75417676314373 -32.604687369337171 0 -32.604687369337171 -36.666861863988743 0 0 0 0 147.84349771756024 -44.967513843967026 0 -44.967513843967026 -87.008029678220737 0 0 0 0 37.654750288205349 9.3543691462879721 0 9.3543691462879721 -4.8247837561196505 0 0 0 0 118.37472799078023 143.26549415623504 0 143.26549415623504 -63.734457860000362 0 0 0 0 421.63392184268378 -80.768182598526437 0 -80.768182598526437 -82.534561854267167 0 0 0 0 14.258220839761634 -307.24741794292504 0 -307.24741794292504 180.92628996611893 0 0 0 0 189.92129187473893 177.83965070082445 0 177.83965070082445 193.27405568949871 0 0 0 0 4.4717739651366628 -4.8415611390740096 0 -4.8415611390740096 0.52821375776355417 0 0 0 0 14.624832052520631 12.575302539048785 0 12.575302539048785 0.76995054377793304 0 0 0 0 -15.197624702897429 120.51161292010181 0 120.51161292010181 28.057567366136936 0 0 0 0 25.478564156954235 -21.806645409023986 0 -21.806645409023986 -47.95229167864818 0 0 0 0 45.255888423430264 24.524682113565433 0 24.524682113565433 4.1435507105340861 0 0 0 0 14.190095303768059 25.701133233980684 0 25.701133233980684 4.5946466307663627 0 0 0 0 85.733242753287186 33.186819788298635 0 33.186819788298635 -12.224819848809602 0 0 0 0 639.53190777555574 -473.80714835797426 0 -473.80714835797426 -624.93183300288911 0 0 0 0 70.716453962626218 24.587038980067121 0 24.587038980067121 2.1487254097228288 0 0 0 0 31.269513272031588 28.196544942251535 0 28.196544942251535 -2.265177372180915 0 0 0 0 29.602330817373616 4.9262432818857045 0 4.9262432818857045 -7.6455966482515709 0 0 0 0 36.915774955216989 17.679120559123362 0 17.679120559123362 13.616727168554462 0 0 0 0 34.159370606122494 4.9379986175449098 0 4.9379986175449098 -10.374071340732453 0 0 0 0 37.399069793891613 19.803012443048033 0 19.803012443048033 -15.078760169761154 0 0 0 0 42.722193654486091 25.573311873806233 0 25.573311873806233 22.390233350609378 0 0 0 0 36.860614149990852 -3.4710373723789871 0 -3.4710373723789871 -4.5377397646252575 0 0 0 0 67.058494254484685 7.1173120338735316 0 7.1173120338735316 -3.8641270558746328 0 0 0 0 26.234194155243131 3.4710018390628647 0 3.4710018390628647 -3.9997032280821259 0 0 0 0 67.745143403873954 -91.013892626240249 0 -91.013892626240249 -100.87393521596459 0 0 0 0 13.805820076285855 11.576233754406719 0 11.576233754406719 -9.4084203851384167 0 0 0 0 120.41810758151041 5.412842405621177 0 5.412842405621177 -14.57980174905515 0 0 0 0 51.666770212261326 -65.064993149253496 0 -65.064993149253496 -34.350245999734511 0 0 0 0 54.818628880257165 5.5358457686334077 0 5.5358457686334077 -4.3446949906956434 0 0 0 0 44.879079168854147 11.970313632589022 0 11.970313632589022 -8.3872570702150533 0 0 0 0 55.770996968942654 -13.694214770434655 0 -13.694214770434655 0.041813465007180639 0 0 0 0 54.047558569195644 -7.2763337201258764 0 -7.2763337201258764 -24.109576327098694 0 0 0 0 39.072384657772091 7.003462070315436 0 7.003462070315436 -0.26108869985046113 0 0 0 0 40.319794739377997 5.8209432279048361 0 5.8209432279048361 0.32058470843760389 0 0 0 0 33.57770705322951 -7.3174289236906152 0 -7.3174289236906152 -5.3691035177326434 0 0 0 0 42.615048354298324 2.5751517061165714 0 2.5751517061165714 4.6985802548429092 0 0 0 0 8.14567172993012 -4.6724603896704977 0 -4.6724603896704977 0.95152811515958646 0 0 0 0 34.884548343149163 2.2915976674277658 0 2.2915976674277658 13.908754792596483 0 0 0 0 45.186499745130277 -11.039128541801404 0 -11.039128541801404 16.031867997699123 0 0 0 0 50.409939070995165 16.441493750214136 0 16.441493750214136 -37.433171839532861 0 0 0 0 30.634505809777693 8.9806743026413187 0 8.9806743026413187 3.9945756015081031 0 0 0 0 34.318542845221899 7.3980961497238731 0 7.3980961497238731 0.97366337044915507 0 0 0 0 22.135122897881956 -3.5804295871687373 0 -3.5804295871687373 33.107144682505464 0 0 0 0 20.867638939695098 0.28825173265045123 0 0.28825173265045123 96.749995980449967 0 0 0 0 23.131936624195987 4.949376948742497 0 4.949376948742497 37.937922883121246 0 0 0 0 28.597115516582562 9.1653873410032247 0 9.1653873410032247 -13.029613897705758 0 0 0 0 46.266629860077956 10.480199343123104 0 10.480199343123104 -9.281984681173526 0 0 0 0 28.169116149076473 6.8233358424037709 0 6.8233358424037709 0.13000385520320146 0 0 0 0 12.374541935882007 10.939904083679494 0 10.939904083679494 8.6531342501932897 0 0 0 0 5.5579544801874619 6.460564106430013 0 6.460564106430013 9.2680434497183413 0 0 0 0 6.6028166184833523 7.6606768675584274 0 7.6606768675584274 10.099007441951088 0 0 0 0 68.531504984905041 -144.89627414264038 0 -144.89627414264038 57.399708437908984 0 0 0 0 185.99330417678175 25.739396511734185 0 25.739396511734185 305.2425826255274 0 0 0 0 211.20032366505484 -319.28928873720167 0 -319.28928873720167 322.98767541694241 0 0 0 0 123.30591882691078 -148.11752734161178 0 -148.11752734161178 38.376346862909656 0 0 0 0 135.60165037203114 -128.08526349856734 0 -128.08526349856734 70.733074026115659 0 0 0 0 -74.714360328006478 70.046798994830453 0 70.046798994830453 104.37760313599961 0 0 0 0 9.5430930538295797 15.479179219370508 0 15.479179219370508 35.577084512820875 0 0 0 0 56.269860332820826 -38.284761623488521 0 -38.284761623488521 27.98365906996537 0 0 0 0 10.285150606601661 -17.382619654301422 0 -17.382619654301422 20.953461069181468 0 0 0 0 13.051321234297575 3.4036511510453238 0 3.4036511510453238 79.046785623054348 0 0 0 0 84.770902913562168 -13.873529957992105 0 -13.873529957992105 0.67782046471620561 0 0 0 0 56.025154302984447 -4.7738828757319425 0 -4.7738828757319425 -1.624443623655452 0 0 0 0 58.448413062125837 -14.108085506054977 0 -14.108085506054977 14.305262039344598 0 0 0 0 26.459316943525664 -12.806709273324941 0 -12.806709273324941 16.511444020903582 0 0 0 0 46.713399418291033 -2.2761870852723547 0 -2.2761870852723547 -1.2835061743732845 0 0 0 0 34.560368508318007 -2.7113474613100053 0 -2.7113474613100053 -2.0914766716122064 0 0 0 0 31.263855844028551 -1.4845615062639368 0 -1.4845615062639368 0.53204755491853462 0 0 0 0 47.317216241477581 -10.794937565930923 0 -10.794937565930923 -4.4434986098006561 0 0 0 0 42.334174199979373 -11.998977530246464 0 -11.998977530246464 3.0831499609876118 0 0 0 0 44.842825232661198 -2.9996497678324658 0 -2.9996497678324658 8.0002435097092075 0 0 0 0 35.962949968215071 -8.8101345147593975 0 -8.8101345147593975 4.6119434962683954 0 0 0 0 53.619196576606555 -5.0168701570067924 0 -5.0168701570067924 -0.80242127220049042 0 0 0 0 36.006269364003472 12.188062562726602 0 12.188062562726602 22.28063892482578 0 0 0 0 5.9039256224264491 -3.5217688490666088 0 -3.5217688490666088 3.4091531978848266 0 0 0 0 122.61218697336608 -50.025738537995039 0 -50.025738537995039 -18.765483331881114 0 0 0 0 10.87925534083854 70.556656517757631 0 70.556656517757631 75.603212040221933 0 0 0 0 42.187586654547886 -7.6352730071898804 0 -7.6352730071898804 14.292724813565655 0 0 0 0 8.7432065756364619 3.6936383876265442 0 3.6936383876265442 12.465707969112767 0 0 0 0 11.234202141991773 -3.0104411588417861 0 -3.0104411588417861 6.5380048273701732 0 0 0 0 67.896384400881288 -123.61713531125361 0 -123.61713531125361 103.27880571915557 0 0 0 0 12.444818048394154 13.873830074316274 0 13.873830074316274 10.665211685929535 0 0 0 0 42.196099247021266 155.28714979447409 0 155.28714979447409 -14.017704906254437 0 0 0 0 8.2599382979376905 8.0965792272573012 0 8.0965792272573012 7.1782170159225327 0 0 0 0 -0.48547808846286244 5.8569245062868616 0 5.8569245062868616 7.2243614884894392 0 0 0 0 20.418978259359928 17.270668548844267 0 17.270668548844267 0.21173887019421223 0 0 0 0 -24.018903702750322 23.585131278029621 0 23.585131278029621 17.542956293429341 0 0 0 0 -3.2785429234768344 -18.35924664320919 0 -18.35924664320919 18.972148014912364 0 0 0 0 49.003667662647786 -86.21122518150878 0 -86.21122518150878 -246.85296827919228 0 0 0 0 2.4597719560097779 1.6694833494504238 0 1.6694833494504238 2.6205318057131244 0 0 0 0 171.80645063894735 75.855423565529691 0 75.855423565529691 80.75732132948383 0 0 0 0 26.89459990449177 24.893380983951602 0 24.893380983951602 67.435255603835685 0 0 0 0 150.60519516897693 -198.15522266917003 0 -198.15522266917003 240.12215081447584 0 0 0 0 250.56107635515218 -72.595709561225249 0 -72.595709561225249 -51.583091546053083 0 0 0 0 287.07704273055788 -77.585964740357667 0 -77.585964740357667 -58.671600270827639 0 0 0 0 38.065604593271928 -182.79097804797414 0 -182.79097804797414 419.75323217401035 0 0 0 0 204.80484404611434 -288.92899484400277 0 -288.92899484400277 125.65225585468951 0 0 0 0 295.00436152095244 -231.98679656514349 0 -231.98679656514349 119.55371312918652 0 0 0 0 2.6997624616779277 -0.40606811832418876 0 -0.40606811832418876 1.8284030453913451 0 0 0 0 557.21560910942753 -117.90401078208629 0 -117.90401078208629 13.725821022962691 0 0 0 0 439.35968736141331 -406.20694062254762 0 -406.20694062254762 177.22134636233304 0 0 0 0 6.1687250178934647 -3.2991945625807775 0 -3.2991945625807775 1.3658820135539451 0 0 0 0 -74.125761624412917 -513.25394565657587 0 -513.25394565657587 197.01931465255109 0 0 0 0 170.86918066414182 -351.36086859571839 0 -351.36086859571839 71.782520583349964 0 0 0 0 -146.29697187746115 -6.2412731432443707 0 -6.2412731432443707 33.578114585404705 0 0 0 0 73.0653794506743 -163.78228941077117 0 -163.78228941077117 391.61826101310828 0 0 0 0 187.19628319624735 -314.78957846459429 0 -314.78957846459429 302.16297017415866 0 0 0 0 426.4319985647362 100.1866204874508 0 100.1866204874508 66.594327560623356 0 0 0 0 365.70591671637135 -280.26378983388651 0 -280.26378983388651 430.08555490473987 0 0 0 0 376.61668946748068 -248.90444786726454 0 -248.90444786726454 392.96280789914039 0 0 0 0 28.698567778357756 -93.038949457320314 0 -93.038949457320314 355.65290943425578 0 0 0 0 -73.767255300059333 44.635298405011326 0 44.635298405011326 126.03565997120177 0 0 0 0 -24.199446315791647 -154.84777997051856 0 -154.84777997051856 176.75581806062837 0 0 0 0 24.760824913038903 -246.52779857779396 0 -246.52779857779396 501.78591235848296 0 0 0 0 -38.312570150243118 -10.415080567694076 0 -10.415080567694076 345.90034870804766 0 0 0 0 261.47175456818968 -273.75704131562179 0 -273.75704131562179 406.93819057209384 0 0 0 0 -138.06240473266735 -29.65339417723817 0 -29.65339417723817 333.08040203119572 0 0 0 0 446.4182550455107 -155.09785243145689 0 -155.09785243145689 408.00276445172949 0 0 0 0 177.60448428985273 -331.80906450426636 0 -331.80906450426636 690.38115951782538 0 0 0 0 442.91981555010807 -1072.9814230328809 0 -1072.9814230328809 1237.6618661718012 0 0 0 0 2305.0597756119964 -248.85266201169406 0 -248.85266201169406 1086.1345108790351 0 0 0 0 3038.5400214891506 -738.41950199645566 0 -738.41950199645566 288.55156310409615 0 0 0 0 2130.3997684777441 17.121323884991114 0 17.121323884991114 165.47498163134378 0 0 0 0 2117.1581351731525 -428.94765836423096 0 -428.94765836423096 4.3468213325719489 0 0 0 0 1207.9537475646966 -490.12468568851523 0 -490.12468568851523 282.48388015390572 0 0 0 0 1159.8048044285915 -349.64154716937452 0 -349.64154716937452 163.72925674147382 0 0 0 0 1219.288622241761 -552.54644388641418 0 -552.54644388641418 458.05133981863645 0 0 0 0 2411.8868026579203 -13.350559424840867 0 -13.350559424840867 190.82140711621597 0 0 0 0 2450.0347765589386 -152.53278285746455 0 -152.53278285746455 224.64490747640804 0 0 0 0 2346.8739706376359 -112.03184643795223 0 -112.03184643795223 513.81729958470305 0 0 0 0 2499.8661595211438 -124.36856744339097 0 -124.36856744339097 55.264213332934595 0 0 0 0 2362.236726932937 76.059514289042397 0 76.059514289042397 -180.9072826319761 0 0 0 0 2404.5572622213454 -53.182561062742408 0 -53.182561062742408 -316.86077988381498 0 0 0 0 2129.937502910012 -70.813839263225816 0 -70.813839263225816 -238.87806548397685 0 0 0 0 2500.0378444643584 -28.043596724815572 0 -28.043596724815572 -348.88403618685913 0 0 0 0 2357.9984567957881 71.710561438733563 0 71.710561438733563 -399.89546472377049 0 0 0 0 1251.8809691333174 -97.179599402225932 0 -97.179599402225932 69.65088475737906 0 0 0 0 1001.6384908691616 -58.250249449012244 0 -58.250249449012244 72.815057413551017 0 0 0 0 977.56694799894285 -291.59614853386176 0 -291.59614853386176 146.66107530582713 0 0 0 0 1985.1977613320905 152.24497776454112 0 152.24497776454112 -443.66645423412757 0 0 0 0 1969.5317782364718 -56.717653961671346 0 -56.717653961671346 -298.94650405088117 0 0 0 0 1203.0334081754272 711.32996511591682 0 711.32996511591682 -243.50201062290967 0 0 0 0 238.68527255709341 -388.20202283108136 0 -388.20202283108136 -16.716165253532608 0 0 0 0 8.5744208046119219 -2.1472233606817266 0 -2.1472233606817266 0.34316729438800098 0 0 0 0 2293.7980091342815 19.397287528415177 0 19.397287528415177 -393.37656029289894 0 0 0 0 2128.0132596120384 148.50140199048872 0 148.50140199048872 -196.5346594994233 0 0 0 0 2273.277994582475 259.52348096031841 0 259.52348096031841 -145.42094974483513 0 0 0 0 2273.7404266331414 232.44510830944654 0 232.44510830944654 -350.40266197914951 0 0 0 0 2499.7101058722837 151.71346327064154 0 151.71346327064154 -333.32127273429876 0 0 0 0 1779.2579031224541 511.46038231654086 0 511.46038231654086 -192.87466996136885 0 0 0 0 2500.1199900496558 304.6958564994946 0 304.6958564994946 -373.05736247954411 0 0 0 0 2553.6969518722822 576.13231670914752 0 576.13231670914752 -529.57703220304973 0 0 0 0 2600.1446105246741 66.999108178333699 0 66.999108178333699 -48.798501690694323 0 0 0 0 1808.6149010286408 75.009482015263302 0 75.009482015263302 -314.98056765881586 0 0 0 0 307.09037942942018 168.27938894169904 0 168.27938894169904 178.29789611920063 0 0 0 0 357.48148814448814 -38.56580108567686 0 -38.56580108567686 -513.63489856027354 0 0 0 0 -233.37355560561446 -66.247779229295134 0 -66.247779229295134 195.87320504323515 0 0 0 0 82.96856074786956 -29.832175969665514 0 -29.832175969665514 -285.03584549790247 0 0 0 0 -44.870759440754227 -206.59875510630701 0 -206.59875510630701 -165.41401346190105 0 0 0 0 258.42072415850453 -83.012977411966688 0 -83.012977411966688 -166.87980692694305 0 0 0 0 256.76436128294699 -120.70294407324042 0 -120.70294407324042 -54.250371815168421 0 0 0 0 283.91705455355077 -139.85938676892093 0 -139.85938676892093 -97.42799316527632 0 0 0 0 419.76051488930761 -138.27040248307469 0 -138.27040248307469 -121.84413159417159 0 0 0 0 245.26573355830442 -45.773938570621851 0 -45.773938570621851 -57.847536659091105 0 0 0 0 17.746691833306613 -98.917399681352464 0 -98.917399681352464 -54.220479594633957 0 0 0 0 21.880799764503536 -18.711782239935189 0 -18.711782239935189 -30.655308813656092 0 0 0 0 484.96069422500887 70.904476989690906 0 70.904476989690906 -162.41694259482989 0 0 0 0 587.73455177700271 -290.72300216196635 0 -290.72300216196635 -31.049808240433833 0 0 0 0 327.28131810808281 -371.48273176038072 0 -371.48273176038072 -638.74045214482646 0 0 0 0 14.719278242205476 -5.5950378262908806 0 -5.5950378262908806 1.1476794839548665 0 0 0 0 38.547697631648589 -50.651389098968124 0 -50.651389098968124 -209.67764453430695 0 0 0 0 63.829110322847555 95.730832985028911 0 95.730832985028911 35.10710106557589 0 0 0 0 59.617977988153143 -1.8598598997828049 0 -1.8598598997828049 -9.1853059972700066 0 0 0 0 18.170898436097787 4.4651631657262882 0 4.4651631657262882 -5.3766052696501188 0 0 0 0 61.38731834428836 3.9805048325383723 0 3.9805048325383723 -26.515698854499533 0 0 0 0 78.35175561125925 43.519871615125794 0 43.519871615125794 -7.7467711204089937 0 0 0 0 55.207727375810464 22.569995837251497 0 22.569995837251497 -10.925355933157334 0 0 0 0 44.711886442077684 10.713478045516695 0 10.713478045516695 13.271164110978134 0 0 0 0 40.98074280956962 2.0043349358689966 0 2.0043349358689966 -4.9323844283342169 0 0 0 0 37.380109788520357 -4.3749711185412696 0 -4.3749711185412696 -4.0595285524020781 0 0 0 0 40.55961743304988 3.4670395692463671 0 3.4670395692463671 -8.2850695100189569 0 0 0 0 86.132366456244199 -9.8728610316370577 0 -9.8728610316370577 -32.777772293070029 0 0 0 0 74.973583834059355 -25.27726929839173 0 -25.27726929839173 -8.6872098686629187 0 0 0 0 54.559025210935943 -3.3161101885496009 0 -3.3161101885496009 -10.350445190399569 0 0 0 0 37.844237085270947 -3.6857981693511661 0 -3.6857981693511661 4.3410291121748319 0 0 0 0 68.628065111542128 -21.822389591365209 0 -21.822389591365209 -15.622182936707759 0 0 0 0 68.245198844063452 -18.65137425067212 0 -18.65137425067212 -41.859126851961264 0 0 0 0 39.006263342696826 -1.1207413946870748 0 -1.1207413946870748 -8.2019918273344921 0 0 0 0 67.680113908721069 -5.1511460310025541 0 -5.1511460310025541 -28.233186960647799 0 0 0 0 76.866176280743275 5.4190518455006895 0 5.4190518455006895 -19.042599497198353 0 0 0 0 83.303739527745165 -5.2014752534896616 0 -5.2014752534896616 -49.018789070243656 0 0 0 0 68.499558907440587 0.85254237406206812 0 0.85254237406206812 -11.013696908391466 0 0 0 0 32.013640812131442 -5.228566872722638 0 -5.228566872722638 -11.063076332992303 0 0 0 0 98.131029245312675 10.501758028056429 0 10.501758028056429 -15.998051406354762 0 0 0 0 89.214210540500062 10.137163575691375 0 10.137163575691375 -15.679774103269665 0 0 0 0 41.198582029642097 6.0617611556582558 0 6.0617611556582558 -10.110269455909345 0 0 0 0 53.791845281036785 13.90891513261181 0 13.90891513261181 -16.38444266445731 0 0 0 0 77.694330307114797 13.959989289038276 0 13.959989289038276 -16.976887315246131 0 0 0 0 73.494976878598209 51.1934919006776 0 51.1934919006776 -11.764443401788867 0 0 0 0 66.21279974285315 24.967634758695034 0 24.967634758695034 0.029448007861500258 0 0 0 0 78.833103626882803 18.790801639343954 0 18.790801639343954 -11.548967613155128 0 0 0 0 89.925273124070372 13.95239345549146 0 13.95239345549146 -9.6660844138059474 0 0 0 0 72.910284246337994 23.329278445974971 0 23.329278445974971 -3.7468576386918571 0 0 0 0 72.167843304830058 36.780320476889756 0 36.780320476889756 -21.907876455648875 0 0 0 0 123.82309260461625 15.667227775751144 0 15.667227775751144 -23.064148483932968 0 0 0 0 125.19343246035714 23.393203432907285 0 23.393203432907285 -49.902318141748879 0 0 0 0 43.192373036645598 -27.353936703721633 0 -27.353936703721633 -49.972910615309047 0 0 0 0 64.208125330120225 -26.169097451161356 0 -26.169097451161356 -31.056761921078689 0 0 0 0 125.96629771970402 32.451801795659776 0 32.451801795659776 -9.9877249873038636 0 0 0 0 129.58227021043058 54.560229351464841 0 54.560229351464841 -42.901907030490975 0 0 0 0 120.31540258812129 49.71342438444708 0 49.71342438444708 -18.300957203130565 0 0 0 0 88.514044719495359 29.230363251894232 0 29.230363251894232 -26.742096580383532 0 0 0 0 -236.9581652248271 350.68804494121036 0 350.68804494121036 -18.266562155655535 0 0 0 0 -2.3341596957816364 -75.594849094502024 0 -75.594849094502024 -2.6840666889056592 0 0 0 0 -0.37161923847574485 -1.5694702479293294 0 -1.5694702479293294 2.0699857913680124 0 0 0 0 -12.429912454877922 -21.831192383209554 0 -21.831192383209554 -25.938674427197839 0 0 0 0 17.338703591340163 -9.7692008952252536 0 -9.7692008952252536 -54.161315177172128 0 0 0 0 43.192639113411133 -27.107508281436367 0 -27.107508281436367 -46.537792596122927 0 0 0 0 58.794967040906172 -31.271196135272124 0 -31.271196135272124 -24.332474651038819 0 0 0 0 82.107850625425272 -142.84501279930055 0 -142.84501279930055 -35.787707559837145 0 0 0 0 23.784738357397146 -64.647996199452791 0 -64.647996199452791 -20.862027405866577 0 0 0 0 9.7070565173708019 -35.840183647632784 0 -35.840183647632784 -20.985687921930548 0 0 0 0 23.917101711211217 -65.968115033035701 0 -65.968115033035701 -12.428282854032204 0 0 0 0 87.402069978124928 -92.012417917147332 0 -92.012417917147332 -16.847069059561363 0 0 0 0 35.786488264711807 -48.466239480934291 0 -48.466239480934291 -50.225302849903414 0 0 0 0 74.289007926125123 -33.93757790353402 0 -33.93757790353402 -44.963009165872336 0 0 0 0 3.929801556303687 -0.86298945879168976 0 -0.86298945879168976 -2.3563745537313059 0 0 0 0 -365.61919680611027 156.82845269307063 0 156.82845269307063 76.773375913541031 0 0 0 0 568.39324063137974 -150.43000185746041 0 -150.43000185746041 -124.36692317603092 0 0 0 0 272.85030494647799 -94.354011399434057 0 -94.354011399434057 48.854837203227362 0 0 0 0 115.41098153817074 -20.043036809631303 0 -20.043036809631303 100.08413776137604 0 0 0 0 189.56344919172989 -42.558019822764891 0 -42.558019822764891 18.236780360183275 0 0 0 0 277.22310953974841 -42.125781721837214 0 -42.125781721837214 -38.19086938599321 0 0 0 0 282.25560145057898 -19.852931690844343 0 -19.852931690844343 -43.456094029536928 0 0 0 0 278.86101565739591 -28.410075090143209 0 -28.410075090143209 -64.848114477218587 0 0 0 0 209.84731449073297 -3.0474591872762176 0 -3.0474591872762176 -46.956648249235059 0 0 0 0 252.918067781633 -3.7290310055677764 0 -3.7290310055677764 -64.508727677558454 0 0 0 0 273.16006427795219 -28.542738095482491 0 -28.542738095482491 -51.886716701910245 0 0 0 0 354.05042315790342 -62.682401391172334 0 -62.682401391172334 -28.592047626663771 0 0 0 0 316.34834885922055 44.953993200263199 0 44.953993200263199 -38.756563315469975 0 0 0 0 276.15412814763704 -24.003482291406925 0 -24.003482291406925 -46.822726808060906 0 0 0 0 66.593415886209698 -29.728393897774712 0 -29.728393897774712 -21.110469592428132 0 0 0 0 -109.05455305542 -203.57033088514527 0 -203.57033088514527 -74.478473345674502 0 0 0 0 194.84415466616883 65.490889799344131 0 65.490889799344131 -40.696511189584271 0 0 0 0 16.519956160249421 14.661402296422239 0 14.661402296422239 -3.3880394387301749 0 0 0 0 203.83139903912888 -20.929588873002785 0 -20.929588873002785 -23.143023460690983 0 0 0 0 5.9674133866103602 -84.686966985433372 0 -84.686966985433372 -24.09570988209407 0 0 0 0 -10.96565565092147 -14.202414175499735 0 -14.202414175499735 -0.52281675812948869 0 0 0 0 101.44257962160373 32.511055498740916 0 32.511055498740916 8.8445686881473193 0 0 0 0 97.197575851925649 45.606754661485638 0 45.606754661485638 -19.475364408722271 0 0 0 0 143.51893051331081 44.490035404667196 0 44.490035404667196 -2.016052632075116 0 0 0 0 142.96753102155708 12.30346574801024 0 12.30346574801024 32.719655031251932 0 0 0 0 137.06856883657747 26.471077214254365 0 26.471077214254365 9.3446440017942223 0 0 0 0 129.94281683800409 50.533911365951553 0 50.533911365951553 6.8773119804109228 0 0 0 0 191.31556706625634 11.255798596618206 0 11.255798596618206 -5.2994546287100093 0 0 0 0 205.82816216779611 8.1040962508095618 0 8.1040962508095618 -4.6713655987528 0 0 0 0 246.2500990442004 26.044385869479584 0 26.044385869479584 -39.517487564373823 0 0 0 0 176.99649978752313 55.43051696608984 0 55.43051696608984 1.5252584377913081 0 0 0 0 76.868005182068373 59.137162700938461 0 59.137162700938461 40.958845983758692 0 0 0 0 68.458521129628934 22.148939371122879 0 22.148939371122879 17.577072824453353 0 0 0 0 56.234692659175607 28.60545225117022 0 28.60545225117022 23.864545230690055 0 0 0 0 -3.587754010176468 -32.067683232900549 0 -32.067683232900549 6.7040112854256222 0 0 0 0 -73.02447216661858 88.904387127701426 0 88.904387127701426 127.21412032576262 0 0 0 0 132.85626626519843 84.104313769582859 0 84.104313769582859 39.549294461730824 0 0 0 0 87.04207126968322 67.665481037944119 0 67.665481037944119 39.872402158968789 0 0 0 0 162.25144896417623 54.997961662132184 0 54.997961662132184 2.0986131354744657 0 0 0 0 237.04128351247891 96.693192297161886 0 96.693192297161886 -4.7388512414408979 0 0 0 0 290.08969035279915 33.664529581303782 0 33.664529581303782 -48.682392280942622 0 0 0 0 260.24048765321277 93.138399025169974 0 93.138399025169974 -4.5109132134251695 0 0 0 0 349.37161225529417 153.05235832122048 0 153.05235832122048 6.1171281875604109 0 0 0 0 398.06238358162955 40.222134238860463 0 40.222134238860463 -37.195132800727151 0 0 0 0 313.12908322353906 112.16337027291138 0 112.16337027291138 62.80069809174438 0 0 0 0 162.01132486884671 161.40046054886523 0 161.40046054886523 56.408583649141747 0 0 0 0 117.33399026311599 125.28842487603174 0 125.28842487603174 58.791192147315627 0 0 0 0 37.838618585657059 208.34281929200827 0 208.34281929200827 132.15352657076551 0 0 0 0 366.4857749099865 49.930986990380688 0 49.930986990380688 82.338009569029268 0 0 0 0 4.2004847435753518 2.2623383750674266 0 2.2623383750674266 -1.3517935777760381 0 0 0 0 -348.10783042170442 249.67791530495006 0 249.67791530495006 -116.65770575020287 0 0 0 0 122.01993631892765 201.70279702869198 0 201.70279702869198 99.913767717355029 0 0 0 0 260.92494438578433 205.10015767717186 0 205.10015767717186 71.758436417550001 0 0 0 0 450.1403264029359 220.55458881299359 0 220.55458881299359 213.02702943684199 0 0 0 0 374.96684874305356 108.78614976454469 0 108.78614976454469 55.574709957350706 0 0 0 0 343.88878973797546 196.35389980095761 0 196.35389980095761 69.591757517513145 0 0 0 0 15.138521876609147 -24.107996411349546 0 -24.107996411349546 -14.959127780569668 0 0 0 0 64.553571073608794 -3.9655411208316949 0 -3.9655411208316949 -5.7655538589632975 0 0 0 0 38.098656359814839 4.0556272923982348 0 4.0556272923982348 -0.71148245782868269 0 0 0 0 3.9326005058883169 -7.6514454961737215 0 -7.6514454961737215 -1.8665538967747479 0 0 0 0 119.48746644775701 -254.89417752792593 0 -254.89417752792593 -79.261958115760137 0 0 0 0 -89.589966072308016 275.23586731488831 0 275.23586731488831 -613.22832078393822 0 0 0 0 10.262276055857001 -29.149254615485233 0 -29.149254615485233 44.490543083268221 0 0 0 0 64.561426168420439 -30.740160564133078 0 -30.740160564133078 -17.535844167982759 0 0 0 0 64.780420826941736 -35.373638614143317 0 -35.373638614143317 14.989095864523733 0 0 0 0 157.97128826681364 -62.082832536090791 0 -62.082832536090791 21.772255288161887 0 0 0 0 31.472705351985496 -42.916702922584477 0 -42.916702922584477 58.760707248451354 0 0 0 0 296.52694018574402 -98.501598181848749 0 -98.501598181848749 5.2582336485711494 0 0 0 0 298.60642645135522 -104.46612993533017 0 -104.46612993533017 -14.983467279078923 0 0 0 0 187.29869312058145 -106.03408029003185 0 -106.03408029003185 10.340246479089387 0 0 0 0 295.53065943067486 -23.454440650684433 0 -23.454440650684433 -52.330166591379566 0 0 0 0 239.96346268938214 -23.978901035993204 0 -23.978901035993204 -49.154219850534901 0 0 0 0 340.47788458718423 60.90694035900583 0 60.90694035900583 -41.554332554505436 0 0 0 0 334.58609116031585 -49.304380901093964 0 -49.304380901093964 -51.514301135858204 0 0 0 0 484.82213485960528 -37.960929318641547 0 -37.960929318641547 -52.787551363654075 0 0 0 0 412.14351942517533 59.810737616112647 0 59.810737616112647 -10.245329594751638 0 0 0 0 32.945596212826786 -154.16886471719283 0 -154.16886471719283 25.757350019176585 0 0 0 0 627.70959191223085 406.4600174806734 0 406.4600174806734 347.05924595106762 0 0 0 0 323.85753656469387 -148.05520645473803 0 -148.05520645473803 21.796670258720042 0 0 0 0 6.666032024692818 -0.91037888853249527 0 -0.91037888853249527 -1.2195968683620046 0 0 0 0 683.17834479123849 115.28115455365668 0 115.28115455365668 -19.524029565209418 0 0 0 0 587.84512541070035 -75.095647672629013 0 -75.095647672629013 -19.218654831666299 0 0 0 0 616.74411432510533 -260.01292510271469 0 -260.01292510271469 443.31095898644327 0 0 0 0 117.88750816968968 -143.70088348321826 0 -143.70088348321826 52.298567403608104 0 0 0 0 -40.668174410003303 9.5737111050226247 0 9.5737111050226247 44.660095433352467 0 0 0 0 32.385625884465298 -44.724068444597776 0 -44.724068444597776 46.132562968243292 0 0 0 0 342.19682063752225 -39.836302746322872 0 -39.836302746322872 -132.63229751625522 0 0 0 0 -157.52588627270234 541.5587159193567 0 541.5587159193567 369.71151108974345 0 0 0 0 141.05127099387391 60.242510179349665 0 60.242510179349665 -100.7600603775918 0 0 0 0 97.830631121300911 -12.935358169436579 0 -12.935358169436579 -20.005355657076326 0 0 0 0 115.23970272211227 19.619057826841072 0 19.619057826841072 24.6563761691732 0 0 0 0 24.446934199491807 -16.475177845108874 0 -16.475177845108874 135.31376005311449 0 0 0 0 96.93608622909808 -14.82334634131097 0 -14.82334634131097 -18.012578903023766 0 0 0 0 529.41419591897466 -569.78920217053155 0 -569.78920217053155 -14.72143358984664 0 0 0 0 -7.8125328531623381 -196.96613083453985 0 -196.96613083453985 -272.59568156879175 0 0 0 0 88.198741637083003 80.086845180227556 0 80.086845180227556 51.95458483031598 0 0 0 0 111.6947694540504 3.2948203213031775 0 3.2948203213031775 22.869163628086028 0 0 0 0 97.706917159062868 57.783619585638689 0 57.783619585638689 -91.352865893588614 0 0 0 0 30.94991786985338 5.6456401031109635 0 5.6456401031109635 23.210191861960453 0 0 0 0 50.654505006619729 26.899985902310391 0 26.899985902310391 -84.625503570587171 0 0 0 0 -24.633781418626313 -0.24293582160362348 0 -0.24293582160362348 -71.125324508127051 0 0 0 0 36.569504016064457 -50.514270907448918 0 -50.514270907448918 -34.172309354109643 0 0 0 0 20.790337733611523 -29.333094252734554 0 -29.333094252734554 -176.91998873519424 0 0 0 0 23.683211957944877 -36.098896124549242 0 -36.098896124549242 -50.450038740037598 0 0 0 0 -29.003607736638514 -19.094726251724296 0 -19.094726251724296 -23.945579925920242 0 0 0 0 34.313690862400108 31.316288743443693 0 31.316288743443693 -16.254160905498281 0 0 0 0 50.294271647479036 15.356759098395287 0 15.356759098395287 -114.35785827743166 0 0 0 0 46.927480126435512 37.484930261398375 0 37.484930261398375 -190.73357496955032 0 0 0 0 42.408933747916308 -32.842952852095095 0 -32.842952852095095 -24.926032875293458 0 0 0 0 -5.5974385401423206 -27.54770245763234 0 -27.54770245763234 106.38152190750316 0 0 0 0 18.989527541602783 7.7332635898988684 0 7.7332635898988684 3.1933394870925458 0 0 0 0 39.89147591402434 -69.405823644490965 0 -69.405823644490965 81.590357893059263 0 0 0 0 40.110282227768039 32.000045339216285 0 32.000045339216285 26.582131332230347 0 0 0 0 38.984070522517868 -49.679903288060132 0 -49.679903288060132 -4.2330656060232741 0 0 0 0 47.447299358627788 -0.36417176158329312 0 -0.36417176158329312 -6.2064284988796317 0 0 0 0 35.871632978127181 -5.6616297827582702 0 -5.6616297827582702 -2.1389479650697734 0 0 0 0 67.242974407738075 -102.75262440386382 0 -102.75262440386382 -79.622672960752197 0 0 0 0 -0.079035772094357526 -21.829152788670854 0 -21.829152788670854 -5.0028602419351955 0 0 0 0 43.141584381186519 -10.065765412409746 0 -10.065765412409746 -3.8842794349048133 0 0 0 0 41.256557007677657 1.675808776765507 0 1.675808776765507 9.3627386529385888 0 0 0 0 42.203771802352094 11.548584124776539 0 11.548584124776539 39.753936991504133 0 0 0 0 62.859129851725314 -1.5247702787333104 0 -1.5247702787333104 -1.6929267357991229 0 0 0 0 186.86487222091091 -29.929806213853681 0 -29.929806213853681 -137.2300955747819 0 0 0 0 180.75207135286473 48.245508101694213 0 48.245508101694213 -102.83704148069455 0 0 0 0 123.80432231408486 -65.155488896381939 0 -65.155488896381939 -14.253291186874776 0 0 0 0 -19.742811034884653 34.443476696072139 0 34.443476696072139 -50.687816382868277 0 0 0 0 62.322692844518315 -7.5896983748330058 0 -7.5896983748330058 37.272624146722137 0 0 0 0 172.41640193272906 -67.061381195048853 0 -67.061381195048853 -0.24260437941074997 0 0 0 0 162.38051467967989 53.578235610734311 0 53.578235610734311 -88.252747756832832 0 0 0 0 163.56790331362936 44.075718797102127 0 44.075718797102127 -70.079082643091169 0 0 0 0 385.59427349277757 -5.0129316899472087 0 -5.0129316899472087 -72.554527870424863 0 0 0 0 337.81197371875169 -255.18196404202445 0 -255.18196404202445 222.71319184881941 0 0 0 0 573.13468933135118 104.1685463033358 0 104.1685463033358 -5.3589179203545427 0 0 0 0 147.7235718199081 -111.34094414567221 0 -111.34094414567221 162.59287218984582 0 0 0 0 6.6844863067440059 2.0791039452623714 0 2.0791039452623714 1.0745314335253511 0 0 0 0 67.673201612142293 12.734839243742272 0 12.734839243742272 112.99106895336263 0 0 0 0 42.476205115308403 -34.756180025333606 0 -34.756180025333606 24.710164011548841 0 0 0 0 45.652349114199751 63.611661921054292 0 63.611661921054292 68.475300534324333 0 0 0 0 41.411423890400329 35.537243536801952 0 35.537243536801952 -56.975995965072798 0 0 0 0 204.82054664390307 167.18698072137886 0 167.18698072137886 277.77207116167619 0 0 0 0 414.37904611204431 15.658744867160294 0 15.658744867160294 -227.84406398413284 0 0 0 0 339.57909278637089 156.2790093033318 0 156.2790093033318 25.964424748013926 0 0 0 0 593.89478969447373 147.60022131502592 0 147.60022131502592 -135.81270902766846 0 0 0 0 618.26060715166795 -58.065278804123636 0 -58.065278804123636 -327.68006716445234 0 0 0 0 -117.07878058096804 -150.41485798953659 0 -150.41485798953659 -95.310308818878184 0 0 0 0 -113.09818480659305 38.378882699313863 0 38.378882699313863 562.97062716299661 0 0 0 0 6.5719432391508548 -1.8836638268391361 0 -1.8836638268391361 0.77215847095536994 0 0 0 0 -180.06493628890166 115.26819441045291 0 115.26819441045291 213.54318324190945 0 0 0 0 137.04770846449537 102.5871654509474 0 102.5871654509474 11.04982422206308 0 0 0 0 49.512751330878018 -0.072316362682158797 0 -0.072316362682158797 -6.4266394295286773 0 0 0 0 6.8676477988727918 10.765404052749759 0 10.765404052749759 -1.2853548879588743 0 0 0 0 37.642430593790777 3.9076692092921803 0 3.9076692092921803 0.41812038065290835 0 0 0 0 21.121126244764305 -5.862811283297944 0 -5.862811283297944 -4.983172763512691 0 0 0 0 2.69508373055465 -1.6723329571285106 0 -1.6723329571285106 -0.24370103485978056 0 0 0 0 10.199940480018995 -24.905261837623158 0 -24.905261837623158 -17.464171505871548 0 0 0 0 9.004538726327155 -289.1672163139433 0 -289.1672163139433 -174.02888932872702 0 0 0 0 33.281802923462237 -5.6702171805050057 0 -5.6702171805050057 -3.3335443911055336 0 0 0 0 36.698199942860811 -21.257346579347541 0 -21.257346579347541 -35.081795700562452 0 0 0 0 52.829858814460749 10.518893203688549 0 10.518893203688549 -21.674334169187659 0 0 0 0 55.585954760244931 -1.4889830357133178 0 -1.4889830357133178 -14.391857820987752 0 0 0 0 59.064461151607247 50.021617838209977 0 50.021617838209977 -3.5963317452915362 0 0 0 0 64.253242551763833 15.763828304026674 0 15.763828304026674 -30.863402374532598 0 0 0 0 -5.3667476156697376 24.774898238685182 0 24.774898238685182 -5.1005186215606955 0 0 0 0 31.501268643759886 18.661929599974201 0 18.661929599974201 -8.0604837767805293 0 0 0 0 43.960174972635286 6.7626972392727112 0 6.7626972392727112 -5.0179430889793366 0 0 0 0 32.974946267610903 12.758928029733852 0 12.758928029733852 -8.1874864206693019 0 0 0 0 52.932103452276351 3.7913867513302648 0 3.7913867513302648 -8.9157552811948335 0 0 0 0 25.293801096230609 8.2750569152175721 0 8.2750569152175721 1.7641610503566056 0 0 0 0 43.563871610000206 13.983708411989028 0 13.983708411989028 1.9216399060924232 0 0 0 0 37.369060026234365 1.9875961483903666 0 1.9875961483903666 -10.434905312773481 0 0 0 0 22.609131351499428 1.1659443111879426 0 1.1659443111879426 -7.9864038513469957 0 0 0 0 21.636419109157842 4.4895964282574177 0 4.4895964282574177 -4.1775640643119871 0 0 0 0 27.423780001216528 3.2695988828863563 0 3.2695988828863563 -15.978044024904193 0 0 0 0 24.873800424089495 9.4052766428449104 0 9.4052766428449104 -11.596090135918985 0 0 0 0 28.501351601531496 -5.4848738299060642 0 -5.4848738299060642 -5.3426290829283971 0 0 0 0 7.1304854809602674 2.6666290219329909 0 2.6666290219329909 -1.4292304339912363 0 0 0 0 80.657964808142424 31.689773819578477 0 31.689773819578477 0.0096317658338875844 0 0 0 0 26.319250270935299 21.639079927978855 0 21.639079927978855 0.65711203717182798 0 0 0 0 30.508045916913034 12.338688321428538 0 12.338688321428538 1.4699957599590103 0 0 0 0 49.658200018588104 -29.933506571142971 0 -29.933506571142971 -5.1147514328603378 0 0 0 0 41.84802250966095 -14.471557783410617 0 -14.471557783410617 -30.507388755393549 0 0 0 0 44.50459289277569 -6.2918398648607763 0 -6.2918398648607763 -12.427740217520295 0 0 0 0 22.87048225518447 17.261593243638345 0 17.261593243638345 -17.185992391843683 0 0 0 0 21.286719357832673 5.0367029635245011 0 5.0367029635245011 -5.0088610212138054 0 0 0 0 51.526507309932519 11.699833071232073 0 11.699833071232073 -3.359054599779451 0 0 0 0 54.951267855536571 -0.10528104393642934 0 -0.10528104393642934 -15.068751067882658 0 0 0 0 18.043756448157001 9.8047682381215751 0 9.8047682381215751 -2.9178182321056294 0 0 0 0 -6.249235430455883 57.769192745664895 0 57.769192745664895 -20.697063335842358 0 0 0 0 73.108714845118811 12.615121614489908 0 12.615121614489908 -48.404265830602526 0 0 0 0 -2.3541348642174853 154.6420212849298 0 154.6420212849298 26.174380405557486 0 0 0 0 8.1371204575014531 17.399628076944296 0 17.399628076944296 -4.9782534213577456 0 0 0 0 196.39342230360126 19.546055239433599 0 19.546055239433599 -88.416734914637345 0 0 0 0 154.29589833155478 30.417152011890266 0 30.417152011890266 -88.219781096906445 0 0 0 0 100.74917448691485 112.32333004143061 0 112.32333004143061 -85.460632825640459 0 0 0 0 66.916506400446451 11.809693746783068 0 11.809693746783068 -67.495471182603978 0 0 0 0 20.470097588833596 1.9509466263122022 0 1.9509466263122022 11.679755204482717 0 0 0 0 29.924568804785103 9.0173701376785296 0 9.0173701376785296 -1.3688730623225691 0 0 0 0 -5.6025392152951099 57.098876158990606 0 57.098876158990606 -74.148014042864816 0 0 0 0 16.223139557645482 13.434748072759248 0 13.434748072759248 1.3476622641755966 0 0 0 0 12.53433648018872 12.051047845902776 0 12.051047845902776 0.77317723368116686 0 0 0 0 3.2878389492530573 13.293333638895604 0 13.293333638895604 3.7088492782501081 0 0 0 0 97.528000586826238 15.493128969970712 0 15.493128969970712 -57.720639231835776 0 0 0 0 48.256908363634466 29.527169894176836 0 29.527169894176836 43.808435198706547 0 0 0 0 6.3542253988722308 -0.62295839578435874 0 -0.62295839578435874 -0.43472873555148439 0 0 0 0 58.991975457358421 -14.354493784799388 0 -14.354493784799388 74.042985494446839 0 0 0 0 78.472457569929247 24.877508965721063 0 24.877508965721063 120.27542773761706 0 0 0 0 184.22246405589613 108.35503361370365 0 108.35503361370365 186.05517388636463 0 0 0 0 364.11261622903476 83.167744298308662 0 83.167744298308662 -17.380090488367387 0 0 0 0 312.02339093748742 39.029224712458927 0 39.029224712458927 -50.029249513452669 0 0 0 0 300.55167570791491 74.782258989270417 0 74.782258989270417 -16.622228118669227 0 0 0 0 294.01477331569913 31.633411745659942 0 31.633411745659942 5.9576669772213791 0 0 0 0 295.01807761467535 59.215227135478926 0 59.215227135478926 21.654327547666071 0 0 0 0 139.57686230294894 -94.72790853445008 0 -94.72790853445008 -47.3665403514442 0 0 0 0 1.3925895815813973 3.6622310602208579 0 3.6622310602208579 2.4269649702784339 0 0 0 0 2.559921243624359 3.2044733773601242 0 3.2044733773601242 0.21154206477287829 0 0 0 0 56.731377230495127 -79.808825406252481 0 -79.808825406252481 -46.866214839532404 0 0 0 0 309.80227219187509 -106.21517394248076 0 -106.21517394248076 57.527190542321478 0 0 0 0 272.59672814449732 114.92632298793342 0 114.92632298793342 315.4716285927243 0 0 0 0 599.96495035061525 212.58193901183404 0 212.58193901183404 -58.035348882926598 0 0 0 0 160.42172968579325 -56.411236325272512 0 -56.411236325272512 -21.848140445876652 0 0 0 0 272.4072701016994 103.12276052496691 0 103.12276052496691 58.630244412623142 0 0 0 0 225.16539293653113 99.487552259813583 0 99.487552259813583 86.516115369915497 0 0 0 0 2.0148782762830564 0.76813391830301825 0 0.76813391830301825 4.1892353596825895 0 0 0 0 306.76253479360457 29.169157405263888 0 29.169157405263888 -25.634607131773464 0 0 0 0 329.17360504116004 119.22485209067486 0 119.22485209067486 27.491395892934179 0 0 0 0 15.768202974624728 -3.0891981905479042 0 -3.0891981905479042 133.8736320808755 0 0 0 0 7.4381964759693062 -1.5554863747881669 0 -1.5554863747881669 -1.9677981962217217 0 0 0 0 -56.886335320347825 -46.937486863167805 0 -46.937486863167805 102.90054199924452 0 0 0 0 70.239432124463747 -16.314765731690898 0 -16.314765731690898 -10.8225476835687 0 0 0 0 41.037848835833756 -12.434605176108334 0 -12.434605176108334 -2.461061885230265 0 0 0 0 8.4887344150329458 -11.484351237321203 0 -11.484351237321203 0.26583527119782246 0 0 0 0 51.387434682696039 22.223709147680438 0 22.223709147680438 17.193862518223341 0 0 0 0 62.632753735386359 -28.351473351714048 0 -28.351473351714048 -17.673680565533687 0 0 0 0 204.51329469589109 -40.964056257621451 0 -40.964056257621451 -72.583376625162146 0 0 0 0 11.719115205585727 -7.3669638759304306 0 -7.3669638759304306 -11.051579385884175 0 0 0 0 130.13773145915184 61.522401968268241 0 61.522401968268241 -27.584191620690262 0 0 0 0 214.68357171396929 -43.973539216604877 0 -43.973539216604877 90.441979326928049 0 0 0 0 261.58501815094496 75.627890567518989 0 75.627890567518989 43.236060303896011 0 0 0 0 454.22020269798713 -46.87030616194329 0 -46.87030616194329 118.32801078612829 0 0 0 0 485.76251012795456 203.95452661218928 0 203.95452661218928 81.417764292447828 0 0 0 0 194.74859311708133 223.59611725091781 0 223.59611725091781 243.65107403569709 0 0 0 0 167.68685599938908 122.99890363569011 0 122.99890363569011 61.232149492753706 0 0 0 0 327.26501250970614 46.818966257170359 0 46.818966257170359 -30.549908773354218 0 0 0 0 169.88284012077929 27.807897369007151 0 27.807897369007151 -40.947083143246346 0 0 0 0 182.79078989583604 46.194127600954857 0 46.194127600954857 -18.702086349485398 0 0 0 0 155.88957341716014 84.755016583347242 0 84.755016583347242 17.802801080009885 0 0 0 0 -9.9353074319527064 18.936714253801025 0 18.936714253801025 11.515734153830994 0 0 0 0 110.25154675867452 85.245355263713009 0 85.245355263713009 37.040643724923029 0 0 0 0 -12.642097096329962 -11.276473262274521 0 -11.276473262274521 27.74202756397608 0 0 0 0 167.86427483673265 138.21402574911474 0 138.21402574911474 81.186957833218912 0 0 0 0 77.650704849103192 26.485305570794267 0 26.485305570794267 -1.3636998487838312 0 0 0 0 55.815517107823325 33.375762537250921 0 33.375762537250921 -35.257742228444954 0 0 0 0 55.154495368152155 18.742334539740835 0 18.742334539740835 -4.706937462588229 0 0 0 0 102.91828361368607 87.022494421215924 0 87.022494421215924 -14.158660266655716 0 0 0 0 167.00797933438844 60.205041732451264 0 60.205041732451264 -13.335114277704633 0 0 0 0 176.42940872472172 -0.86435807944144472 0 -0.86435807944144472 -12.682648917987535 0 0 0 0 80.212674771701131 -37.771597511375148 0 -37.771597511375148 -17.907608249901386 0 0 0 0 248.47068453183238 -0.49845209659906686 0 -0.49845209659906686 -110.04426718328614 0 0 0 0 81.492879019293554 4.659230061120434 0 4.659230061120434 -8.5356674798594465 0 0 0 0 88.189190707513262 7.121232948224133 0 7.121232948224133 -22.82524649863899 0 0 0 0 22.098448191361349 -4.2582021885534509 0 -4.2582021885534509 -8.0924246415712453 0 0 0 0 20.352145983563076 -10.84278363369333 0 -10.84278363369333 -37.239765178098878 0 0 0 0 20.509700935694127 -40.461426800354729 0 -40.461426800354729 -25.15478788843393 0 0 0 0 62.264738960203879 -10.479247120590253 0 -10.479247120590253 -30.835697900948283 0 0 0 0 166.26770721075673 49.65188886507417 0 49.65188886507417 -29.701303413959977 0 0 0 0 -51.881192349159392 -23.35082207184314 0 -23.35082207184314 -28.839733657550823 0 0 0 0 -3.143355582996044 -9.7443894282347685 0 -9.7443894282347685 -6.4713367803959194 0 0 0 0 43.613501123042873 -0.68061356421342722 0 -0.68061356421342722 -9.0610448868310218 0 0 0 0 53.94152183296319 -74.276799457311881 0 -74.276799457311881 -86.186563678885022 0 0 0 0 40.037261865949404 1.291757596090747 0 1.291757596090747 -19.395295730829275 0 0 0 0 84.617668501141452 -28.206796533587294 0 -28.206796533587294 -71.127830441961692 0 0 0 0 33.844345889202657 -5.5348099392079604 0 -5.5348099392079604 -5.0471393696263647 0 0 0 0 22.971601211794564 -14.0400649478064 0 -14.0400649478064 0.60447163933349657 0 0 0 0 104.75448016056089 66.385600963315028 0 66.385600963315028 67.472005008642554 0 0 0 0 100.32147585032726 18.587731121047909 0 18.587731121047909 -9.4988182257040989 0 0 0 0 7.7592414983930738 -2.6988507588558122 0 -2.6988507588558122 0.75680405676531137 0 0 0 0 248.94429828119974 265.82415580024372 0 265.82415580024372 187.98796608470047 0 0 0 0 86.564392454072731 37.681557035242804 0 37.681557035242804 110.82230714315847 0 0 0 0 231.13980468886984 21.911102521034081 0 21.911102521034081 -73.957100554006956 0 0 0 0 39.409630429794781 16.630510370717559 0 16.630510370717559 1.7946354172113423 0 0 0 0 -51.196816706107711 -84.861787874447145 0 -84.861787874447145 -8.444517642311439 0 0 0 0 143.92286125404553 -8.5610441005753728 0 -8.5610441005753728 -50.763382718489083 0 0 0 0 68.15157728729082 7.4384321104935225 0 7.4384321104935225 -6.3624677173174859 0 0 0 0 85.843768325963993 17.830526420950491 0 17.830526420950491 -8.1366270608832565 0 0 0 0 49.436973988098202 21.427024799467887 0 21.427024799467887 1.1554961796527223 0 0 0 0 21.520302797060271 -6.7368163186528882 0 -6.7368163186528882 -4.4487230240714908 0 0 0 0 15.881619607514541 1.2756572242762303 0 1.2756572242762303 -1.3463939943703309 0 0 0 0 43.154978894468513 27.007793982568728 0 27.007793982568728 -2.1283336478800265 0 0 0 0 112.40101449851863 85.696328482049012 0 85.696328482049012 10.817716244042458 0 0 0 0 37.352395005465951 67.237960289196963 0 67.237960289196963 -4.9952184557308783 0 0 0 0 100.10029759144163 -0.82138042764563579 0 -0.82138042764563579 -17.149977325258988 0 0 0 0 149.62251443689706 -97.673599278291476 0 -97.673599278291476 -54.060827671199064 0 0 0 0 650.2669326393235 67.10216627188538 0 67.10216627188538 -47.774031746915171 0 0 0 0 -224.85034233598071 -65.724249340120878 0 -65.724249340120878 442.56657706459191 0 0 0 0 44.397124530810729 -19.4787928423513 0 -19.4787928423513 7.323273361454568 0 0 0 0 -114.70353672252713 -58.767806869419019 0 -58.767806869419019 -9.3987360662331412 0 0 0 0 -204.68271134692918 -28.19472059736313 0 -28.19472059736313 287.36253055367797 0 0 0 0 -201.44109914278511 211.63157117312792 0 211.63157117312792 19.992592042804063 0 0 0 0 -61.726119662323981 128.28842472987571 0 128.28842472987571 -95.756454707440753 0 0 0 0 86.005874915914731 25.442544541548092 0 25.442544541548092 -0.75914519590484009 0 0 0 0 9.9952955872558871 16.772259148277971 0 16.772259148277971 -2.1718223017742693 0 0 0 0 69.300340383964794 147.20433979879078 0 147.20433979879078 32.338324863850175 0 0 0 0 658.21274289392693 142.86850118055531 0 142.86850118055531 -219.70288427946889 0 0 0 0 133.32216260866872 20.418509498934526 0 20.418509498934526 -246.46830082903034 0 0 0 0 -206.36476799114052 171.75262945784107 0 171.75262945784107 475.7783964425056 0 0 0 0 -110.21996443870125 -43.226480167934142 0 -43.226480167934142 254.68892940346905 0 0 0 0 101.44031340509127 -134.25288624204995 0 -134.25288624204995 -191.54501160882592 0 0 0 0 -53.675285314972314 15.602460176503087 0 15.602460176503087 66.935246109924719 0 0 0 0 47.80383860245955 1.7406125981447076 0 1.7406125981447076 -2.6293551610836707 0 0 0 0 78.589596459346467 53.890622786774202 0 53.890622786774202 -10.980754696406393 0 0 0 0 20.180552675706629 1.2951829738609906 0 1.2951829738609906 0.26232139317533809 0 0 0 0 32.790353681836905 52.266355280948858 0 52.266355280948858 32.593301308148511 0 0 0 0 15.788318277792769 70.42848464666713 0 70.42848464666713 150.58856300076377 0 0 0 0 47.790452718157212 166.99135548391087 0 166.99135548391087 273.9924708698245 0 0 0 0 6.528448837017681 1.0573151499073195 0 1.0573151499073195 0.16762435884543703 0 0 0 0 101.59425716147604 149.59950517303866 0 149.59950517303866 83.772545966525286 0 0 0 0 21.522366790616715 -9.2958569350700735 0 -9.2958569350700735 3.4351746084826971 0 0 0 0 117.37991189298464 145.60699475259935 0 145.60699475259935 78.154112290159901 0 0 0 0 154.90654320296107 61.38024593908176 0 61.38024593908176 51.020800592945307 0 0 0 0 83.013255122238888 89.454020158983667 0 89.454020158983667 42.294552570381711 0 0 0 0 10.336488777391423 -111.96366281591145 0 -111.96366281591145 -143.41840467503062 0 0 0 0 68.603175199401448 -34.50760996842746 0 -34.50760996842746 -114.85315839777331 0 0 0 0 83.037591520725982 -15.645688720354883 0 -15.645688720354883 -80.390721617590316 0 0 0 0 10.587731781165035 -21.420210165957439 0 -21.420210165957439 -60.480154790289816 0 0 0 0 59.919442548594816 4.1242163326855916 0 4.1242163326855916 -21.447818954742615 0 0 0 0 49.963637516164454 -52.130612824858872 0 -52.130612824858872 -108.99453985251512 0 0 0 0 32.31683571876551 -16.494057127295555 0 -16.494057127295555 7.8876896291897438 0 0 0 0 35.370177107561631 -24.449242664036547 0 -24.449242664036547 -35.855797777014232 0 0 0 0 50.926044380641542 -8.9592961593207292 0 -8.9592961593207292 -32.91201297949101 0 0 0 0 88.847293463086316 21.332300859847237 0 21.332300859847237 -41.656627177050723 0 0 0 0 63.763785135222861 -22.52149957302754 0 -22.52149957302754 -54.507014690522283 0 0 0 0 80.481674140679161 35.693401266577894 0 35.693401266577894 37.166908395469363 0 0 0 0 88.813676324087055 9.2189373321660923 0 9.2189373321660923 -24.004076085528141 0 0 0 0 103.88808038347878 56.858120562394049 0 56.858120562394049 42.732112495757974 0 0 0 0 102.35134681441468 25.460728502354868 0 25.460728502354868 36.604190660904351 0 0 0 0 107.91386895432061 46.235366191299818 0 46.235366191299818 59.823637717353449 0 0 0 0 106.84374922272036 30.90600868664751 0 30.90600868664751 10.538812513419543 0 0 0 0 97.440768886751812 25.769779135798672 0 25.769779135798672 59.666114280487818 0 0 0 0 141.36815191058122 2.5112465492511546 0 2.5112465492511546 42.302528838469243 0 0 0 0 95.820647014349561 23.735624201704923 0 23.735624201704923 66.7094228988135 0 0 0 0 98.560174246897077 34.037815071962541 0 34.037815071962541 56.35457026401491 0 0 0 0 98.697057036110891 24.247224730776907 0 24.247224730776907 41.026392077721539 0 0 0 0 97.632984357169335 37.028216452576089 0 37.028216452576089 34.679036015110796 0 0 0 0 83.757726573585387 11.352318866844143 0 11.352318866844143 41.335367036439493 0 0 0 0 109.48102780547742 15.322551614484837 0 15.322551614484837 14.470569150624215 0 0 0 0 65.051404543255558 7.0274132842841937 0 7.0274132842841937 14.209055399539182 0 0 0 0 87.371015794929917 37.533653947743005 0 37.533653947743005 8.6696811058181993 0 0 0 0 23.757643217223631 -22.905462687972431 0 -22.905462687972431 -30.057190793355403 0 0 0 0 96.734339662888488 -15.421951315337992 0 -15.421951315337992 -34.742232856160626 0 0 0 0 115.71533934291438 2.3031644175553083 0 2.3031644175553083 -55.261844153976199 0 0 0 0 -48.534543416380984 -100.11153335186145 0 -100.11153335186145 -78.864265161375442 0 0 0 0 39.068096309431013 8.5293829974591855 0 8.5293829974591855 -4.1703928088553965 0 0 0 0 108.94326591285062 -54.345269513653875 0 -54.345269513653875 64.505485525451604 0 0 0 0 107.27412141662171 12.882762846120386 0 12.882762846120386 -6.9036131046777882 0 0 0 0 45.287096915793882 -44.523004458746072 0 -44.523004458746072 68.741727783214628 0 0 0 0 -2.8047916257452528 22.927871593424442 0 22.927871593424442 -0.19495319562854485 0 0 0 0 186.02633879982568 15.784657289724237 0 15.784657289724237 39.928385980343592 0 0 0 0 118.67461315662331 -80.651000890916293 0 -80.651000890916293 135.61501156944723 0 0 0 0 49.73283564781201 10.818694484795017 0 10.818694484795017 -0.80186994409683798 0 0 0 0 -9.5382393047912046 27.83588150206424 0 27.83588150206424 91.452096099471419 0 0 0 0 40.196506463136757 12.366465039417562 0 12.366465039417562 -20.570865873141884 0 0 0 0 114.00452305654971 -56.791908932703279 0 -56.791908932703279 5.3616622748686495 0 0 0 0 120.83613300979778 2.7022858080817969 0 2.7022858080817969 9.5510070128402731 0 0 0 0 -125.88457846749952 -15.148133300591326 0 -15.148133300591326 20.715746248406049 0 0 0 0 321.40801397863106 39.710460024607528 0 39.710460024607528 -16.530456021397868 0 0 0 0 21.961610003436476 6.4802054579535735 0 6.4802054579535735 -2.217600552627772 0 0 0 0 53.439576622506138 0.56217842936803208 0 0.56217842936803208 8.4681415902016397 0 0 0 0 42.722159482005807 9.3054390849114981 0 9.3054390849114981 -1.1841840287620116 0 0 0 0 61.189477174841159 -15.435590522519249 0 -15.435590522519249 16.877416709621684 0 0 0 0 61.036780832804652 -8.0499960193556035 0 -8.0499960193556035 10.0315947772649 0 0 0 0 52.780540981349759 -7.1700962598084743 0 -7.1700962598084743 17.745896184191224 0 0 0 0 50.765462888619396 -21.332805267979513 0 -21.332805267979513 3.962618011836625 0 0 0 0 99.369769537504908 -5.9525201922169799 0 -5.9525201922169799 35.337493706665555 0 0 0 0 12.590136932074557 -1.019214328088915 0 -1.019214328088915 -6.2883067524931917 0 0 0 0 126.5628308992309 63.095068755377724 0 63.095068755377724 51.148855170251409 0 0 0 0 92.110782749245573 26.740341964176196 0 26.740341964176196 64.890956014136464 0 0 0 0 93.790455112666677 -1.8615359604245896 0 -1.8615359604245896 73.430615730394493 0 0 0 0 80.918793810155393 28.870119648578079 0 28.870119648578079 -2.3650750455320662 0 0 0 0 92.371304217875149 27.918870922983842 0 27.918870922983842 67.785476347904478 0 0 0 0 100.26129904659319 12.086114975818418 0 12.086114975818418 93.833396634418023 0 0 0 0 173.41604395828472 32.159198848875349 0 32.159198848875349 -5.8216809938835468 0 0 0 0 93.862203561957358 -3.2174257701544775 0 -3.2174257701544775 69.548866343247937 0 0 0 0 98.202590283650352 15.138902127373512 0 15.138902127373512 50.65878049040839 0 0 0 0 98.956004988591303 20.868863397265159 0 20.868863397265159 91.723428282584791 0 0 0 0 131.4063849031445 24.932882904566213 0 24.932882904566213 64.236351091052711 0 0 0 0 138.43756018007116 43.601241025729905 0 43.601241025729905 73.957608010183321 0 0 0 0 -1.5112252168582927 27.149615138018817 0 27.149615138018817 110.88364467879092 0 0 0 0 3.1688604349183151 0.63807759037899814 0 0.63807759037899814 -7.5435249650690821 0 0 0 0 50.113200648200291 39.278946495833225 0 39.278946495833225 25.075989529063008 0 0 0 0 55.735958602024766 35.325837603618311 0 35.325837603618311 -13.22043745672454 0 0 0 0 -23.54505726644129 37.275088352977036 0 37.275088352977036 19.577041324550009 0 0 0 0 37.993128540787438 28.419053280400476 0 28.419053280400476 18.059528989335377 0 0 0 0 88.95392544024071 29.07062089965757 0 29.07062089965757 3.3445553296241997 0 0 0 0 -87.135719121870352 -15.022234318748815 0 -15.022234318748815 74.839619853079967 0 0 0 0 -0.45022140838107916 -0.51930288149181791 0 -0.51930288149181791 -0.40193224855010357 0 0 0 0 43.589245992883662 14.985460803542992 0 14.985460803542992 9.3798213380878224 0 0 0 0 41.791531375369232 -1.9743856922941632 0 -1.9743856922941632 1.2206997761991261 0 0 0 0 66.887205148731482 13.619634019843716 0 13.619634019843716 8.876713527539323 0 0 0 0 50.295633822208401 11.300299734909913 0 11.300299734909913 9.8335469469266172 0 0 0 0 489.76862642212654 687.82821471180068 0 687.82821471180068 791.62235527441953 0 0 0 0 36.506671211564857 16.563870142833682 0 16.563870142833682 0.47327948084870997 0 0 0 0 78.996727998188362 -94.735236432862393 0 -94.735236432862393 -236.63074801909352 0 0 0 0 -41.882450758772393 -134.08824084311345 0 -134.08824084311345 48.367116575496766 0 0 0 0 -762.05566222194466 -1106.4321859573611 0 -1106.4321859573611 -245.4576100390459 0 0 0 0 37.491029320590314 9.4229643576836679 0 9.4229643576836679 0.70708019944231637 0 0 0 0 44.448810238551232 7.1292461096309125 0 7.1292461096309125 1.0292114520277664 0 0 0 0 47.749757109319034 22.665252174008856 0 22.665252174008856 -24.059503621292606 0 0 0 0 34.436457725716537 58.511928295273719 0 58.511928295273719 -9.5991749332242762 0 0 0 0 6.9312334567221114 20.502449533846629 0 20.502449533846629 -24.05677852357212 0 0 0 0 -18.289362943251035 47.424333410522195 0 47.424333410522195 -10.703283690119406 0 0 0 0 -15.788535229075933 59.570655124301993 0 59.570655124301993 41.820407167402209 0 0 0 0 28.388621043028252 117.03796310498365 0 117.03796310498365 112.02796981148185 0 0 0 0 39.211525773713419 1.9548359686756918 0 1.9548359686756918 0.2209248758181368 0 0 0 0 47.705000261212263 6.651685185704082 0 6.651685185704082 -15.885289290179571 0 0 0 0 35.27505860054589 94.277359493324184 0 94.277359493324184 -70.561991919669708 0 0 0 0 19.092836355608597 119.96847005781365 0 119.96847005781365 -7.9052434238356 0 0 0 0 10.115215632534728 -4.8844459923855084 0 -4.8844459923855084 -72.991473220194166 0 0 0 0 175.96268712738311 23.076696102322785 0 23.076696102322785 -239.48146361894396 0 0 0 0 26.467612398331724 2.3378684100990412 0 2.3378684100990412 0.015867208619006146 0 0 0 0 13.784196293214336 -5.613107273418791 0 -5.613107273418791 -4.4624656265496014 0 0 0 0 258.32000840127876 95.442654824235433 0 95.442654824235433 -32.452083385554943 0 0 0 0 239.0657460637085 -150.75469395730579 0 -150.75469395730579 46.66323764360277 0 0 0 0 194.34674786996857 -101.65468186081716 0 -101.65468186081716 154.94279770993489 0 0 0 0 16.733703677200538 23.205307104553867 0 23.205307104553867 -53.425017346366985 0 0 0 0 75.246442143332388 -245.08408128418341 0 -245.08408128418341 154.01443345635016 0 0 0 0 296.95773976091732 -43.453596102720439 0 -43.453596102720439 -11.54413669652331 0 0 0 0 239.57816844506306 -40.403954532699572 0 -40.403954532699572 -6.9981467510906441 0 0 0 0 264.7623676018884 10.334685573962815 0 10.334685573962815 71.850545009436246 0 0 0 0 285.69528513389741 9.9364484768179864 0 9.9364484768179864 -27.355984161127708 0 0 0 0 296.61083315149153 -39.495906908686266 0 -39.495906908686266 -48.091468520410899 0 0 0 0 -1.7022593589790631 3.7350051441594587 0 3.7350051441594587 30.002280043568135 0 0 0 0 281.75891727962153 39.061961255945789 0 39.061961255945789 -5.8460413507878002 0 0 0 0 220.6800675532013 -68.941760219846856 0 -68.941760219846856 13.372449129573397 0 0 0 0 3.2006401893987686 -0.77173001190881507 0 -0.77173001190881507 -0.14492560581053127 0 0 0 0 0.5683294929258409 -13.506025992899595 0 -13.506025992899595 32.662982732361797 0 0 0 0 -1.0816857654672276 2.2851849506103008 0 2.2851849506103008 16.58442569878207 0 0 0 0 -87.511065564801356 -69.177538984470345 0 -69.177538984470345 -2.3689479519352972 0 0 0 0 28.223081372775596 -18.374446714819406 0 -18.374446714819406 11.084104293417072 0 0 0 0 224.07539905177691 -362.20478316121989 0 -362.20478316121989 -370.22033844263342 0 0 0 0 604.01850964282494 228.92263103393816 0 228.92263103393816 -311.74329853792028 0 0 0 0 -150.04558782671393 139.05927579636455 0 139.05927579636455 3.0436344694744548 0 0 0 0 397.4071421960216 -70.438854183899821 0 -70.438854183899821 -128.08412282708832 0 0 0 0 285.11029527722224 -23.552540363246607 0 -23.552540363246607 -64.023785118603882 0 0 0 0 686.75698726015617 -204.71929926963344 0 -204.71929926963344 -77.254946327875587 0 0 0 0 980.26069443467713 222.10126395334464 0 222.10126395334464 -273.84239484041018 0 0 0 0 352.14745607864461 320.05112996369689 0 320.05112996369689 -175.53590112333768 0 0 0 0 876.12673733713655 -348.43354786831947 0 -348.43354786831947 -132.1715142809735 0 0 0 0 205.47049932224036 -157.8835352803444 0 -157.8835352803444 118.82647545300779 0 0 0 0 263.28682140935052 -383.45230848414076 0 -383.45230848414076 511.23249746826241 0 0 0 0 59.497993635406601 -48.204953447424941 0 -48.204953447424941 91.899004307744235 0 0 0 0 247.00656853339024 -98.462763352395086 0 -98.462763352395086 -19.782820646906657 0 0 0 0 354.55802480853163 -177.85040405783639 0 -177.85040405783639 21.133884156960448 0 0 0 0 98.301607316952868 77.410594817109541 0 77.410594817109541 29.066774194971003 0 0 0 0 10.530665691340971 -2.7029599909168454 0 -2.7029599909168454 1.146398967616765 0 0 0 0 122.02702210879943 117.24713585087738 0 117.24713585087738 31.687717125675135 0 0 0 0 110.60113864875166 250.15446865244485 0 250.15446865244485 -68.240832908104153 0 0 0 0 136.79027040983783 74.957811114310971 0 74.957811114310971 -84.562631615152895 0 0 0 0 -7.3861628087215649 284.44753132024607 0 284.44753132024607 316.00164270469759 0 0 0 0 86.624739759296062 94.367350899470694 0 94.367350899470694 180.46724985952824 0 0 0 0 -66.69207275097142 141.10661214857373 0 141.10661214857373 472.75849018843292 0 0 0 0 5.7846025385034068 0.74247034171307735 0 0.74247034171307735 -0.19257555987686992 0 0 0 0 54.281327507895185 -71.661887495180054 0 -71.661887495180054 125.20043503063062 0 0 0 0 2.7544118009739407 1.0531059101056002 0 1.0531059101056002 -0.33642460680668052 0 0 0 0 -510.53256209837127 -212.24806903073113 0 -212.24806903073113 145.86121016456218 0 0 0 0 458.58929219971469 -145.34567080329725 0 -145.34567080329725 -166.58643078391833 0 0 0 0 17.410178053338313 -90.081390526411269 0 -90.081390526411269 -154.20239398542617 0 0 0 0 -208.63263025711058 -268.70003792688294 0 -268.70003792688294 -141.19085617065866 0 0 0 0 126.90369594044751 90.607075933588476 0 90.607075933588476 -69.549388505716706 0 0 0 0 356.96195968792745 43.928223212303237 0 43.928223212303237 -245.26669265622058 0 0 0 0 -224.80289063086116 30.536899342301297 0 30.536899342301297 -69.148944744010805 0 0 0 0 58.603053392649599 -152.32746433262946 0 -152.32746433262946 -124.59126439732609 0 0 0 0 10.159840472843911 -1.4220289834053501 0 -1.4220289834053501 -0.64137203030273149 0 0 0 0 15.944519415133982 0.91681979452550877 0 0.91681979452550877 -1.938825603055534 0 0 0 0 8.1556090550850371 -0.27458137984353748 0 -0.27458137984353748 -0.30780629405461335 0 0 0 0 -4.3809336496051401 96.292010733072402 0 96.292010733072402 -123.89317146351095 0 0 0 0 6.0811144865801907 -0.49981946506250097 0 -0.49981946506250097 0.61649628851682792 0 0 0 0 0.71837253056582995 -10.429361161454381 0 -10.429361161454381 10.253516806789776 0 0 0 0 7.2192578191243229 -7.1831012627926611 0 -7.1831012627926611 11.394859214030475 0 0 0 0 18.71172261269021 53.687574747043527 0 53.687574747043527 89.338381920928441 0 0 0 0 199.92117264665285 56.943885493870766 0 56.943885493870766 40.590553246638592 0 0 0 0 20.412988562234403 -11.791437361671569 0 -11.791437361671569 6.1503966982687945 0 0 0 0 139.5580431192684 -41.242467232402305 0 -41.242467232402305 -180.02584666957591 0 0 0 0 -32.33696188525937 252.32116712232164 0 252.32116712232164 12.03660222346025 0 0 0 0 255.59824419618235 152.91172501384426 0 152.91172501384426 34.854643105816649 0 0 0 0 -170.69650018600805 -10.941544930577038 0 -10.941544930577038 192.05574869616976 0 0 0 0 -11.005712063662941 64.060599568554608 0 64.060599568554608 -10.230442425829096 0 0 0 0 43.799971872576862 -78.887046736455886 0 -78.887046736455886 202.26955833147258 0 0 0 0 -38.971607759332983 33.885271123312123 0 33.885271123312123 -35.769776885344527 0 0 0 0 0.55927586793450246 1.4391442444971005 0 1.4391442444971005 0.46297714515360155 0 0 0 0 90.927051204973395 255.69909332220095 0 255.69909332220095 335.23384136944878 0 0 0 0 16.956653400409067 -7.1348552170795969 0 -7.1348552170795969 2.7163353128644516 0 0 0 0 13.129309250070463 -5.4904995167330526 0 -5.4904995167330526 1.7784564083467522 0 0 0 0 70.006767001075787 -51.550234729340445 0 -51.550234729340445 -86.625207489267723 0 0 0 0 138.15369525222923 173.34859315323774 0 173.34859315323774 114.53699652296746 0 0 0 0 18.696435984671325 -5.8584287379520816 0 -5.8584287379520816 2.611685212419097 0 0 0 0 12.63637932461279 -9.8721887394585792 0 -9.8721887394585792 -0.81297806582733756 0 0 0 0 125.8341103001585 73.075334299782298 0 73.075334299782298 110.78502909292001 0 0 0 0 15.796616730192909 -7.6634260579312468 0 -7.6634260579312468 -0.32691832116142905 0 0 0 0 74.116859651127015 0.59871354584083747 0 0.59871354584083747 -47.572016625255856 0 0 0 0 11.582823539856491 -5.6871143386769418 0 -5.6871143386769418 2.0214297859223507 0 0 0 0 19.467716011276934 -9.6519179651404556 0 -9.6519179651404556 -2.4707599219327676 0 0 0 0 10.412967956961964 -4.3970166331377385 0 -4.3970166331377385 2.84941964462244 0 0 0 0 -23.072997957686312 -0.76590635030879639 0 -0.76590635030879639 37.975353681198612 0 0 0 0 -1.3530125056644806 0.10304794773881554 0 0.10304794773881554 1.1807081056566844 0 0 0 0 -47.627097070413583 2.7360367451356069 0 2.7360367451356069 42.92015453939166 0 0 0 0 -40.978602992914603 -63.383725494487294 0 -63.383725494487294 -57.409353622157141 0 0 0 0 110.30361773786717 68.173992775665283 0 68.173992775665283 -29.081257113032734 0 0 0 0 -29.909318928606808 -24.276004941333667 0 -24.276004941333667 -32.43773361309286 0 0 0 0 7.4015360381017672 -30.021015613103373 0 -30.021015613103373 -57.883010269257284 0 0 0 0 -0.7837275509518804 -13.706910825039813 0 -13.706910825039813 -32.101792778417803 0 0 0 0 14.32620878922171 -26.416224168197004 0 -26.416224168197004 -42.109885418122303 0 0 0 0 23.437096716443193 -13.085745130423675 0 -13.085745130423675 -45.430099564950524 0 0 0 0 23.994759126289864 -15.584094227788228 0 -15.584094227788228 -36.026505676880333 0 0 0 0 30.083857912046369 -18.87123140013864 0 -18.87123140013864 -40.188934846246411 0 0 0 0 34.499775528536702 -10.19590730562777 0 -10.19590730562777 -24.031337587512098 0 0 0 0 21.031511551060248 -16.187779205346487 0 -16.187779205346487 -28.185520517268742 0 0 0 0 22.657979402749334 -24.775891171642797 0 -24.775891171642797 -28.781049464792886 0 0 0 0 24.930846198942163 -20.164791180462089 0 -20.164791180462089 -19.787935924054182 0 0 0 0 28.86442730743147 -23.361776191859462 0 -23.361776191859462 -23.933631455416617 0 0 0 0 27.440025968913687 -24.440365843245672 0 -24.440365843245672 -16.477423534659465 0 0 0 0 16.485646885965252 -15.581758724078099 0 -15.581758724078099 -8.6146943145758996 0 0 0 0 8.1139582391697331 -23.854613758736377 0 -23.854613758736377 -27.976972609058066 0 0 0 0 4.7534039641397783 0.61787495682754923 0 0.61787495682754923 -0.098644771721559721 0 0 0 0 8.17549177219189 -22.392901609567161 0 -22.392901609567161 -13.74182738817035 0 0 0 0 20.724377281734803 -8.8467179623433339 0 -8.8467179623433339 3.2554901987674363 0 0 0 0 48.053402555296998 -8.9688809280394253 0 -8.9688809280394253 -15.082214373768693 0 0 0 0 56.554138742223586 -4.9994626462439555 0 -4.9994626462439555 -13.272037465635549 0 0 0 0 42.850113702879753 -0.9594328940493142 0 -0.9594328940493142 -12.214252821206173 0 0 0 0 35.263483768823789 -10.840265787845055 0 -10.840265787845055 -25.082794264148106 0 0 0 0 31.000035080418456 -19.891851915827829 0 -19.891851915827829 -18.94460297797923 0 0 0 0 28.982579227304086 -19.968161445056467 0 -19.968161445056467 -11.187080697818601 0 0 0 0 33.919577913133253 -8.3603448874991955 0 -8.3603448874991955 15.274912095548643 0 0 0 0 -138.64462789961544 -148.35565483884966 0 -148.35565483884966 66.059317292794731 0 0 0 0 -332.78329401937435 65.540795517303195 0 65.540795517303195 45.816708713517073 0 0 0 0 -166.52995620438014 -64.639489478521682 0 -64.639489478521682 -56.601276671806772 0 0 0 0 -181.57565063033871 -135.31343945162087 0 -135.31343945162087 140.4774479748794 0 0 0 0 -311.27267325278626 -90.404691840692749 0 -90.404691840692749 147.25985624803798 0 0 0 0 -124.68268377117056 -12.762565434356475 0 -12.762565434356475 109.49634464854716 0 0 0 0 38.330739213168272 -39.468054755468984 0 -39.468054755468984 1.1308627006224015 0 0 0 0 14.612047386340095 2.417673911140497 0 2.417673911140497 -11.064111421708521 0 0 0 0 42.412990664950485 -24.354511828312752 0 -24.354511828312752 18.180147909555672 0 0 0 0 5.8849379948904641 -3.6658773182286097 0 -3.6658773182286097 1.9293006109420929 0 0 0 0 26.697425036021741 -15.670731068657915 0 -15.670731068657915 -17.478729804152863 0 0 0 0 2.5290591162192868 -11.913034574938138 0 -11.913034574938138 4.2772940307222598 0 0 0 0 4.3142190566868521 -11.082183962675117 0 -11.082183962675117 4.5802441600790189 0 0 0 0 12.663753603382276 -13.231719083647747 0 -13.231719083647747 3.3633133929627022 0 0 0 0 10.208789995469573 -15.782998507724528 0 -15.782998507724528 6.7276745730166283 0 0 0 0 -15.725807660026476 -92.403195796768159 0 -92.403195796768159 -33.643956551129122 0 0 0 0 1.5700441185987586 1.2263142165044201 0 1.2263142165044201 -2.6408448717080653 0 0 0 0 -16.191160032129119 17.372899288252256 0 17.372899288252256 75.653282718345508 0 0 0 0 32.723825531633338 -24.787306918628019 0 -24.787306918628019 -26.054049212800237 0 0 0 0 23.266719486928196 -51.419503088864076 0 -51.419503088864076 15.730373061178398 0 0 0 0 -15.34528212044097 -14.890588100201057 0 -14.890588100201057 11.62901521891763 0 0 0 0 1.1151527062882423 -1.4383844518985427 0 -1.4383844518985427 1.6461179797324803 0 0 0 0 -83.691409396840754 -96.678592134052906 0 -96.678592134052906 17.180954919176656 0 0 0 0 -84.701584252026805 -73.236519344604858 0 -73.236519344604858 -81.295811964992026 0 0 0 0 -94.34274539136095 -39.217200767478062 0 -39.217200767478062 68.910927127712057 0 0 0 0 31.670441622642102 -14.091185030414636 0 -14.091185030414636 -1.2642401320117642 0 0 0 0 27.260329150995929 -13.198662382742658 0 -13.198662382742658 1.6916818807334906 0 0 0 0 37.306577955677113 -14.741605118686596 0 -14.741605118686596 5.8674180124805559 0 0 0 0 821.09508205449674 -415.31843695592215 0 -415.31843695592215 -742.86688856756155 0 0 0 0 22.939720325870439 0.5334575296001276 0 0.5334575296001276 2.1619010865651944 0 0 0 0 10.734365729463093 -0.10165580974592103 0 -0.10165580974592103 3.5354389375629189 0 0 0 0 22.754769842208958 -6.5653917846629142 0 -6.5653917846629142 0.26947140960810856 0 0 0 0 56.944714354096504 -3.5546396169884247 0 -3.5546396169884247 -25.792255002244019 0 0 0 0 32.76511790272707 -9.7244277379872983 0 -9.7244277379872983 -7.2232396916151629 0 0 0 0 23.107604345963438 -3.1725215477870989 0 -3.1725215477870989 -4.3704823039203262 0 0 0 0 21.009761582522572 -6.6781215801918137 0 -6.6781215801918137 -2.6341860149497336 0 0 0 0 31.493560499278829 -15.070918932386121 0 -15.070918932386121 -8.931766282659737 0 0 0 0 20.75507418475172 -19.908090631070081 0 -19.908090631070081 2.755421469672001 0 0 0 0 8.6664260992693016 -8.7689930999313219 0 -8.7689930999313219 -2.8428066346023115 0 0 0 0 14.099933904682985 -5.3797327099382528 0 -5.3797327099382528 -10.650786996229726 0 0 0 0 19.761966300426138 -15.640263140354165 0 -15.640263140354165 3.500966680100845 0 0 0 0 26.426264454043121 -14.183758481096447 0 -14.183758481096447 -2.8951547408105398 0 0 0 0 20.982500469544902 -13.898942166390043 0 -13.898942166390043 4.7479924623585248 0 0 0 0 18.57079239782837 -15.633995291265805 0 -15.633995291265805 4.9392068143596823 0 0 0 0 25.633719421341084 -18.645262037447537 0 -18.645262037447537 -13.777769983467806 0 0 0 0 19.92707097044331 -17.688693798445456 0 -17.688693798445456 -0.8614397902492783 0 0 0 0 23.559836040862137 -18.932039024866754 0 -18.932039024866754 -1.0089270630742249 0 0 0 0 17.089434339091014 -22.700872904770563 0 -22.700872904770563 1.9902252603776809 0 0 0 0 4.5618532316671008 -27.881203842758197 0 -27.881203842758197 4.6737344607026898 0 0 0 0 25.962506174363668 -6.6311543658072694 0 -6.6311543658072694 -4.1356915362736331 0 0 0 0 21.907781714282464 -14.020817680902837 0 -14.020817680902837 -0.86647351406281814 0 0 0 0 18.168899849389291 -10.611852487031811 0 -10.611852487031811 -1.0145206197328172 0 0 0 0 19.976394806086319 -7.2267076795869798 0 -7.2267076795869798 -5.0481411768269027 0 0 0 0 23.619231529759418 -10.520904114275254 0 -10.520904114275254 -6.1570775752352347 0 0 0 0 41.805882143991766 -4.618338004227553 0 -4.618338004227553 -8.0723243131506024 0 0 0 0 57.715881717613755 -19.48103355393129 0 -19.48103355393129 -4.7778118354174666 0 0 0 0 43.750841679073346 -16.916588357109504 0 -16.916588357109504 -14.238745991195174 0 0 0 0 -27.758011884288862 -41.232831796762184 0 -41.232831796762184 0.11314006805878307 0 0 0 0 -1.8440362517285394 -17.031538172736873 0 -17.031538172736873 -9.0367307480955787 0 0 0 0 53.449524295701195 -29.148632065415356 0 -29.148632065415356 -1.1170924626136802 0 0 0 0 18.119924221529146 -15.917677497610711 0 -15.917677497610711 0.19831351399189145 0 0 0 0 15.222618813338727 -19.731367944648802 0 -19.731367944648802 -7.7152662597449364 0 0 0 0 56.00642307104539 -13.763531773439261 0 -13.763531773439261 -9.134754790179219 0 0 0 0 36.179920174450672 -26.039636971478103 0 -26.039636971478103 -15.501698115097497 0 0 0 0 55.397255525596847 -7.5355645341460331 0 -7.5355645341460331 15.505608656580534 0 0 0 0 33.461057303611597 -0.61474930370332004 0 -0.61474930370332004 -2.469058283945742 0 0 0 0 55.097540106537053 -7.2227303572271921 0 -7.2227303572271921 15.653467182894019 0 0 0 0 34.454737041118449 -4.0664696463448138 0 -4.0664696463448138 5.3659114871583817 0 0 0 0 776.41769006766845 614.6563788372805 0 614.6563788372805 374.66400735364005 0 0 0 0 55.156465120897337 -6.9809592381516268 0 -6.9809592381516268 15.237939441323761 0 0 0 0 36.501777266555848 10.427187232666032 0 10.427187232666032 1.7834793793783668 0 0 0 0 55.417166557417659 -7.3023900236539703 0 -7.3023900236539703 15.204339616213815 0 0 0 0 30.253716760013411 13.955803091626896 0 13.955803091626896 7.1713600393335 0 0 0 0 37.53599163664876 -0.75089955382122753 0 -0.75089955382122753 15.922860542335911 0 0 0 0 25.926593760335578 6.0474585061870734 0 6.0474585061870734 0.73071917669547304 0 0 0 0 37.056204401735158 1.2553959745910106 0 1.2553959745910106 7.5977030215817649 0 0 0 0 64.211593970714603 13.825720913139776 0 13.825720913139776 16.169368656359893 0 0 0 0 65.20236767240749 12.379611615120211 0 12.379611615120211 12.917286151121516 0 0 0 0 72.15615143627997 13.989105008433512 0 13.989105008433512 18.260980361566908 0 0 0 0 73.167625013400539 6.4882718686967564 0 6.4882718686967564 10.639970496282331 0 0 0 0 83.154313192877453 13.234178763433192 0 13.234178763433192 8.3527195565275179 0 0 0 0 -40.495724235137459 -70.3267546768393 0 -70.3267546768393 -47.258520201121428 0 0 0 0 37.274455383128611 -23.862079718997776 0 -23.862079718997776 -9.3497487420059251 0 0 0 0 43.921645158323926 -11.23805706827779 0 -11.23805706827779 -9.436835136660207 0 0 0 0 34.339376889256528 -23.41384622782698 0 -23.41384622782698 -12.933762794629729 0 0 0 0 85.150738944626937 3.0820103947544339 0 3.0820103947544339 -3.981837456145513 0 0 0 0 -15.786047780209628 -24.220131512070793 0 -24.220131512070793 -17.485177594618108 0 0 0 0 -47.078902768334956 -159.08393797370081 0 -159.08393797370081 -107.496635389635 0 0 0 0 9.9484824859776495 -6.6840582124619274 0 -6.6840582124619274 4.7826256420616513 0 0 0 0 37.228394042491374 -22.744699348644545 0 -22.744699348644545 -4.7962267951782422 0 0 0 0 -6.2306183031760156 -22.350441574681099 0 -22.350441574681099 -22.578170832937758 0 0 0 0 -197.8406054727966 -172.69713124348891 0 -172.69713124348891 23.085987676809054 0 0 0 0 56.591985188296619 -16.057949206932719 0 -16.057949206932719 -6.7999691357905689 0 0 0 0 101.90551955611591 -72.07687428018653 0 -72.07687428018653 -69.689201495573798 0 0 0 0 304.12085644252147 22.065754108505644 0 22.065754108505644 -110.73354551639204 0 0 0 0 44.555328093755797 -19.825254168422035 0 -19.825254168422035 -8.4765375877526949 0 0 0 0 -83.4095771455668 -88.485093455414244 0 -88.485093455414244 72.523603029132573 0 0 0 0 44.815816969086882 -86.157879051604141 0 -86.157879051604141 -5.4168039011228757 0 0 0 0 97.672281628016208 18.57485592580997 0 18.57485592580997 -0.26303246174029482 0 0 0 0 114.78273326947965 14.313170338082273 0 14.313170338082273 -0.1755098819048726 0 0 0 0 130.44791823413107 75.746273156088137 0 75.746273156088137 71.018227994769404 0 0 0 0 79.416431325356825 -6.5851895190853611 0 -6.5851895190853611 31.200454230136756 0 0 0 0 87.074209123340552 28.096466642947235 0 28.096466642947235 22.758560889362343 0 0 0 0 102.50448541397054 -6.7131694448999042 0 -6.7131694448999042 16.467176769085654 0 0 0 0 178.10523202234981 -14.62427457335798 0 -14.62427457335798 17.275645467598224 0 0 0 0 80.564083179266163 2.6103118615492349 0 2.6103118615492349 96.205694550417775 0 0 0 0 -5.4556345835177353 -7.5779569395091215 0 -7.5779569395091215 -1.1308910231877221 0 0 0 0 145.75021132633992 68.770725993644191 0 68.770725993644191 49.350602708818769 0 0 0 0 72.948171010499209 31.990046474696101 0 31.990046474696101 31.479238356798305 0 0 0 0 85.564989299185982 18.871424579710947 0 18.871424579710947 -9.868736604710648 0 0 0 0 131.98822661426675 37.665935428121884 0 37.665935428121884 -2.4467135099102961 0 0 0 0 98.27808681777671 23.992672578342024 0 23.992672578342024 -15.452478746774432 0 0 0 0 78.903898282504997 15.068511910059897 0 15.068511910059897 -1.6912406714400277 0 0 0 0 22.168697125410084 -12.771740200387416 0 -12.771740200387416 -5.1395128449179381 0 0 0 0 56.900823742555076 -26.605183286802458 0 -26.605183286802458 -2.727921389162475 0 0 0 0 80.93007734451021 10.726676491368835 0 10.726676491368835 -3.0376013352406517 0 0 0 0 97.083742618513497 40.994671629276581 0 40.994671629276581 7.3589902386315771 0 0 0 0 30.437837889285653 -13.943400929787209 0 -13.943400929787209 -1.2436022398327466 0 0 0 0 22.978924373939662 -5.8876436947443835 0 -5.8876436947443835 23.386288017188008 0 0 0 0 24.138671534168679 -22.636530671329638 0 -22.636530671329638 4.2530603733339376 0 0 0 0 54.662786423888974 14.46799286423402 0 14.46799286423402 18.368172648602922 0 0 0 0 99.069425040939109 16.727725144167845 0 16.727725144167845 -11.271792273012039 0 0 0 0 10.034898997574146 85.923310635653735 0 85.923310635653735 -3.6987515281022638 0 0 0 0 203.84753403895593 99.672419873736544 0 99.672419873736544 -218.88194921446802 0 0 0 0 147.54178478650283 115.07881073149201 0 115.07881073149201 -213.49914577881736 0 0 0 0 5.1988535094751569 70.781981145539618 0 70.781981145539618 28.102473077373361 0 0 0 0 33.410260003740404 47.119469618611049 0 47.119469618611049 13.811178780376281 0 0 0 0 22.727587826791932 64.936906437434686 0 64.936906437434686 -6.0959055613321311 0 0 0 0 19.385529500322676 2.8413521003246078 0 2.8413521003246078 -4.3002237984445744 0 0 0 0 179.47340318511851 -71.707991467242437 0 -71.707991467242437 4.2476720873794358 0 0 0 0 17.649213906328235 1.2475945935457773 0 1.2475945935457773 -2.7738019425756981 0 0 0 0 46.754823803014006 -21.800312303369651 0 -21.800312303369651 -57.44019951633075 0 0 0 0 39.339386344067407 -23.004658172882237 0 -23.004658172882237 -21.358215163606289 0 0 0 0 55.591303162054828 -41.761344478371257 0 -41.761344478371257 -41.247928175855122 0 0 0 0 75.12773658793958 -3.7031727929377212 0 -3.7031727929377212 -24.635609356348141 0 0 0 0 57.174466952907096 -44.919039359498129 0 -44.919039359498129 -41.153279879515267 0 0 0 0 36.698929937719299 -12.032187642976119 0 -12.032187642976119 -9.9420238244662116 0 0 0 0 59.467052554724432 -34.833260842277696 0 -34.833260842277696 -41.124578696551907 0 0 0 0 61.32623314940065 15.41536057734811 0 15.41536057734811 -17.376741661814549 0 0 0 0 33.930805239030207 -1.8499613636275143 0 -1.8499613636275143 -14.839547843721157 0 0 0 0 -0.61737638693011831 -16.818501293890222 0 -16.818501293890222 -12.782877433674003 0 0 0 0 85.872747188832903 36.808734438387717 0 36.808734438387717 1.2542375836346764 0 0 0 0 52.52407915511003 -22.429343179657451 0 -22.429343179657451 1.2005612087971222 0 0 0 0 18.417891345859971 -12.69342206300098 0 -12.69342206300098 -46.268610259434354 0 0 0 0 21.677438906334942 -4.7522104779705501 0 -4.7522104779705501 -9.341373133401131 0 0 0 0 67.537218978857709 17.129923230630084 0 17.129923230630084 5.0802382292395123 0 0 0 0 36.936487385672081 -22.864606641329374 0 -22.864606641329374 -44.09512392945544 0 0 0 0 31.968010836896383 -14.51925613715121 0 -14.51925613715121 -4.7855144315889007 0 0 0 0 73.55713705252856 -147.32840766960726 0 -147.32840766960726 -8.9885855101410925 0 0 0 0 13.558951401413651 20.121268343844349 0 20.121268343844349 -106.86722969702168 0 0 0 0 142.83749445373542 -152.06242828366521 0 -152.06242828366521 -339.45902973827833 0 0 0 0 511.51221217362036 74.093977887008805 0 74.093977887008805 -336.95951028405574 0 0 0 0 77.506878211515726 -18.144655507816836 0 -18.144655507816836 -6.7107926558935631 0 0 0 0 306.70344449269851 -161.38689449822516 0 -161.38689449822516 -3.7620628638196649 0 0 0 0 168.75439502961672 91.691816621153521 0 91.691816621153521 133.41131633839723 0 0 0 0 140.12503522521001 -88.914449019608583 0 -88.914449019608583 160.75002550241697 0 0 0 0 3.1394161436550405 -2.3986554283449735 0 -2.3986554283449735 1.7304030733732851 0 0 0 0 -164.4030248499912 -430.58143217441557 0 -430.58143217441557 108.46119075781462 0 0 0 0 286.54764118342428 -74.667330990343544 0 -74.667330990343544 -172.13541585308485 0 0 0 0 50.502376367614488 118.88164738104206 0 118.88164738104206 56.033561389832698 0 0 0 0 -48.708003258499957 -171.82311872856144 0 -171.82311872856144 -36.983917612022196 0 0 0 0 104.12134719332244 23.052332297918838 0 23.052332297918838 -103.46563783622514 0 0 0 0 258.05658157799189 -84.461458221241628 0 -84.461458221241628 -96.085998797107095 0 0 0 0 322.60358901794098 -25.889496503658847 0 -25.889496503658847 -76.755679819055331 0 0 0 0 205.44952325623126 53.202030775502863 0 53.202030775502863 116.53086118891406 0 0 0 0 214.12801931776266 53.554249961564665 0 53.554249961564665 28.290123398943251 0 0 0 0 181.10747337170324 -66.378648361767773 0 -66.378648361767773 -88.178057405189975 0 0 0 0 76.52738218772356 -64.687173762581551 0 -64.687173762581551 60.801739361762884 0 0 0 0 278.88985622757355 30.364919950141939 0 30.364919950141939 26.878240044793529 0 0 0 0 222.17385891111189 103.1010110505149 0 103.1010110505149 55.746219097320136 0 0 0 0 421.43227539400687 164.05164416930347 0 164.05164416930347 11.744577635141468 0 0 0 0 237.75430538477667 97.909527435277141 0 97.909527435277141 -11.911122681212873 0 0 0 0 448.22493141812447 366.23253413287648 0 366.23253413287648 219.53526382428208 0 0 0 0 76.946940783433092 133.6610737687497 0 133.6610737687497 142.70630960969083 0 0 0 0 114.90253326778475 -11.220443813836823 0 -11.220443813836823 -46.453502673879484 0 0 0 0 76.904926893592346 -115.35470936859565 0 -115.35470936859565 4.3498548526904415 0 0 0 0 99.330630266165826 -185.60225138880378 0 -185.60225138880378 42.579454457001702 0 0 0 0 431.20620417270402 -17.751327436611973 0 -17.751327436611973 -85.531177353899011 0 0 0 0 344.88591260994144 43.732134436654633 0 43.732134436654633 -60.635566043665676 0 0 0 0 868.82315581727744 122.49299309289836 0 122.49299309289836 -53.835958378126179 0 0 0 0 698.78903023682506 -314.07700581337849 0 -314.07700581337849 63.168848977781636 0 0 0 0 46.397689138895657 -90.723469999694316 0 -90.723469999694316 26.094694066252487 0 0 0 0 -148.78915723794489 488.83307304391383 0 488.83307304391383 -72.560692812797242 0 0 0 0 9.14195396886862 -296.54957549012545 0 -296.54957549012545 552.90833754000778 0 0 0 0 -158.58747699206288 354.18569587923184 0 354.18569587923184 508.362240013639 0 0 0 0 660.90300783516341 40.651821616401435 0 40.651821616401435 -320.97218136320771 0 0 0 0 18.378405285334608 9.0945939663184845 0 9.0945939663184845 -9.2509044393191964 0 0 0 0 28.766615819581943 -2.6892940799666647 0 -2.6892940799666647 0.42871494425027512 0 0 0 0 79.397006581340975 -50.10546076171795 0 -50.10546076171795 1.9574990876208176 0 0 0 0 86.696185494860401 -57.785414141600995 0 -57.785414141600995 -18.349419290470678 0 0 0 0 10.473731700707674 -1.1759969452383032 0 -1.1759969452383032 0.46573338651525686 0 0 0 0 156.92596748185315 -306.79500425835613 0 -306.79500425835613 392.94667292471274 0 0 0 0 568.12379176689046 -357.13370184092173 0 -357.13370184092173 -33.364169691860297 0 0 0 0 204.83133903886483 -114.46450744497361 0 -114.46450744497361 16.451172945232429 0 0 0 0 266.8575816139637 -72.268376860919489 0 -72.268376860919489 -110.13185369081657 0 0 0 0 322.3103391436307 -110.8099175856305 0 -110.8099175856305 -83.344292947655958 0 0 0 0 322.8231930310285 -141.0574468451232 0 -141.0574468451232 -176.5309101517305 0 0 0 0 208.87940156385594 -133.74750218148574 0 -133.74750218148574 -92.990460287054702 0 0 0 0 78.428657814820326 -70.610250381630294 0 -70.610250381630294 113.81841665170668 0 0 0 0 347.3554882185681 -158.36411617645317 0 -158.36411617645317 -88.907883710265196 0 0 0 0 21.221225345793286 9.6920794815789293 0 9.6920794815789293 -11.745106252785622 0 0 0 0 392.18296069005737 -97.008154913370618 0 -97.008154913370618 -140.26532526197752 0 0 0 0 318.87804643147683 -136.60361325790836 0 -136.60361325790836 73.705952650486324 0 0 0 0 357.28578365548947 -47.998429636803934 0 -47.998429636803934 69.281312987046476 0 0 0 0 400.8388640240737 -237.04531269574437 0 -237.04531269574437 40.527664019879921 0 0 0 0 406.89031431562034 -205.65248537210095 0 -205.65248537210095 55.693914669179406 0 0 0 0 356.57228377376669 -144.86789146238698 0 -144.86789146238698 20.280830232281005 0 0 0 0 410.08016022812808 -248.82759761151874 0 -248.82759761151874 104.46311644301704 0 0 0 0 8.6921072954474141 0.59534462622883666 0 0.59534462622883666 -0.43280337275112046 0 0 0 0 14.205335810276608 13.505357258891493 0 13.505357258891493 4.8490912749552484 0 0 0 0 614.25745854183333 -142.48177086351143 0 -142.48177086351143 60.757991484122613 0 0 0 0 27.891683132000253 21.105472395616943 0 21.105472395616943 -31.919564279703991 0 0 0 0 3.1150203002471386 6.8012305436362794 0 6.8012305436362794 -15.84943424697699 0 0 0 0 28.32891405349892 30.244871859790933 0 30.244871859790933 -53.346554144423862 0 0 0 0 29.155360484976882 1.3870699728819105 0 1.3870699728819105 -6.7456757012961361 0 0 0 0 31.009474274615059 8.9853548118020399 0 8.9853548118020399 -53.175754187778317 0 0 0 0 383.56682821550203 -261.43915023011743 0 -261.43915023011743 184.41059322803039 0 0 0 0 29.960068386324565 17.428024736402676 0 17.428024736402676 -11.094437044136157 0 0 0 0 11.193085958162555 12.961489782416265 0 12.961489782416265 -13.797244988616285 0 0 0 0 13.041927459518774 18.267419267409423 0 18.267419267409423 -7.5413804919421636 0 0 0 0 23.246952687870362 22.196866653863708 0 22.196866653863708 -8.5054926476004766 0 0 0 0 28.178152763211983 19.525613529788643 0 19.525613529788643 -16.182896572795471 0 0 0 0 18.811085415058187 19.362543885546984 0 19.362543885546984 -20.582869963057419 0 0 0 0 18.365286508371355 17.8078527565267 0 17.8078527565267 -14.454295367036138 0 0 0 0 46.433141776782577 19.97693846973425 0 19.97693846973425 -20.614836029817525 0 0 0 0 29.691226801412995 24.258835934401759 0 24.258835934401759 -8.6656242867052242 0 0 0 0 35.122205632816986 18.349322379838895 0 18.349322379838895 -20.41092102186667 0 0 0 0 35.259183629092149 18.785338618593642 0 18.785338618593642 -19.242718376328412 0 0 0 0 14.435254878437263 24.688355835730363 0 24.688355835730363 -16.3021286617859 0 0 0 0 17.937524468929041 12.503631593628597 0 12.503631593628597 -17.868256839877176 0 0 0 0 106.33938184341969 240.30525145508363 0 240.30525145508363 -248.1486607166014 0 0 0 0 21.169426079292677 10.296987024799051 0 10.296987024799051 -8.933779941968389 0 0 0 0 37.462041141400277 12.647041628313048 0 12.647041628313048 -22.414565530367327 0 0 0 0 37.399908755708566 13.141532046701968 0 13.141532046701968 -18.22734992277401 0 0 0 0 45.465827359250397 3.09549114156016 0 3.09549114156016 -13.189888371575648 0 0 0 0 46.683274951545172 2.3056097918997693 0 2.3056097918997693 -32.821010284021213 0 0 0 0 42.842491916679137 0.895537471091302 0 0.895537471091302 -32.92833234023783 0 0 0 0 57.471542306764604 9.4468331305429274 0 9.4468331305429274 -36.165401148995443 0 0 0 0 50.016657437183312 13.8013251652701 0 13.8013251652701 -23.191709747861751 0 0 0 0 50.626278263800486 13.60827836627459 0 13.60827836627459 -28.683932003459631 0 0 0 0 23.954057818533329 -8.4948153679556526 0 -8.4948153679556526 -52.392735573481332 0 0 0 0 24.817512004981836 -11.935150627728035 0 -11.935150627728035 -43.604619053505303 0 0 0 0 44.605127071990864 -4.6776967542546117 0 -4.6776967542546117 -45.717364545560486 0 0 0 0 43.446851475368021 2.7246520799822065 0 2.7246520799822065 -33.089139490762136 0 0 0 0 49.624958032713039 0.01950950079390168 0 0.01950950079390168 -43.429508081974745 0 0 0 0 14.847251862724079 -14.568640293945464 0 -14.568640293945464 -30.869556214572185 0 0 0 0 34.451788608879724 -10.23328114726246 0 -10.23328114726246 -9.7695675598724847 0 0 0 0 57.093988156368141 -13.029500466308491 0 -13.029500466308491 -31.295356662946347 0 0 0 0 67.645020640207804 6.6446602966079809 0 6.6446602966079809 -33.369932932594907 0 0 0 0 51.751038738637362 5.0125478324044934 0 5.0125478324044934 -20.847030058568635 0 0 0 0 86.160070802943665 -6.2115893580730699 0 -6.2115893580730699 -18.302394877500205 0 0 0 0 62.505561003341427 -13.637429953821311 0 -13.637429953821311 3.6903982972762606 0 0 0 0 74.947963638471265 -26.295872326837753 0 -26.295872326837753 -4.8503760360636079 0 0 0 0 46.309766220088932 -27.596484679181685 0 -27.596484679181685 15.378079188963966 0 0 0 0 61.025205215839378 17.504952314473485 0 17.504952314473485 -27.938756229094793 0 0 0 0 49.074247550815926 24.222925965986406 0 24.222925965986406 -16.304407893288044 0 0 0 0 57.345943008542235 13.727896771465339 0 13.727896771465339 -20.965098170802776 0 0 0 0 64.483527834556298 22.162347866094933 0 22.162347866094933 -7.6033112107397756 0 0 0 0 82.579455366518232 19.061912365556054 0 19.061912365556054 -20.404262930457435 0 0 0 0 66.379775865701959 22.358197142876634 0 22.358197142876634 -16.860151954260118 0 0 0 0 39.62056251627655 30.974922572205969 0 30.974922572205969 1.1097322887444534 0 0 0 0 36.524910483345593 21.202557491636753 0 21.202557491636753 -0.54155377756978851 0 0 0 0 53.178733562963316 43.036434563827925 0 43.036434563827925 13.468618321340728 0 0 0 0 100.46788191086307 11.663404786548426 0 11.663404786548426 -6.7094259244831846 0 0 0 0 110.36477439149894 19.076125553623342 0 19.076125553623342 -1.4662777764920065 0 0 0 0 159.53699019795749 -5.4240669991745563 0 -5.4240669991745563 10.006246850248317 0 0 0 0 92.269412998510234 54.773203979092386 0 54.773203979092386 20.146378458142863 0 0 0 0 227.82246133244189 0.26532631167037835 0 0.26532631167037835 0.69684989203642544 0 0 0 0 181.77051772344566 11.671306707803524 0 11.671306707803524 21.839955889322482 0 0 0 0 199.266845771519 39.287687172707365 0 39.287687172707365 17.722016755007274 0 0 0 0 81.22316539559688 35.785760157693062 0 35.785760157693062 8.0740954774846614 0 0 0 0 -15.170612357644131 28.31211133806346 0 28.31211133806346 62.188736126008962 0 0 0 0 58.122307542784256 90.290135717458156 0 90.290135717458156 64.391671074632086 0 0 0 0 62.495379289845005 -51.275300712036369 0 -51.275300712036369 42.801021424273131 0 0 0 0 80.865696295482849 -54.174482630621583 0 -54.174482630621583 31.90213526961179 0 0 0 0 102.02989363671804 -74.440916377441908 0 -74.440916377441908 55.783532582022872 0 0 0 0 136.31451259009918 -45.283401589652385 0 -45.283401589652385 16.050250734706424 0 0 0 0 92.788062732557592 -18.844112667859008 0 -18.844112667859008 0.19258524634642527 0 0 0 0 183.30488596048963 -93.035277261421129 0 -93.035277261421129 65.128254545519667 0 0 0 0 101.49928383214865 -44.687951096556844 0 -44.687951096556844 31.720722619000753 0 0 0 0 168.35764189797192 -73.9187093962571 0 -73.9187093962571 42.027644648929709 0 0 0 0 101.30022188882867 -82.519180124746526 0 -82.519180124746526 87.215132427238132 0 0 0 0 103.13467881102406 -95.119323867776529 0 -95.119323867776529 86.335261121389294 0 0 0 0 63.112578765514627 -80.65583216165362 0 -80.65583216165362 84.598202995828615 0 0 0 0 67.172872145936708 -72.976788928931683 0 -72.976788928931683 72.773086715161298 0 0 0 0 5.8535891662177164 -14.319709551996425 0 -14.319709551996425 105.24981037883447 0 0 0 0 15.099633121659281 -47.112153181889653 0 -47.112153181889653 173.92809433559165 0 0 0 0 39.451067024143413 -64.420082312829436 0 -64.420082312829436 118.34558594942905 0 0 0 0 17.140046800777782 -58.888621149372511 0 -58.888621149372511 138.81192853604466 0 0 0 0 22.396368835296016 -69.017582108403076 0 -69.017582108403076 129.78030720105335 0 0 0 0 56.99472334640086 -82.450477131242025 0 -82.450477131242025 102.99765451033545 0 0 0 0 54.911359876205097 -89.959094281073448 0 -89.959094281073448 130.5782409878143 0 0 0 0 83.885181832418311 -91.974785371929556 0 -91.974785371929556 123.73724320846964 0 0 0 0 83.930689960810241 -105.03529216381816 0 -105.03529216381816 181.26656272653781 0 0 0 0 82.641456932804431 -89.418263056588671 0 -89.418263056588671 176.02194027674111 0 0 0 0 41.215155886357024 -83.146124997738099 0 -83.146124997738099 159.00471147663461 0 0 0 0 67.679950085585006 -65.144295011801944 0 -65.144295011801944 147.52534096391571 0 0 0 0 124.41147306711355 -79.154880121420348 0 -79.154880121420348 161.78730658726218 0 0 0 0 173.92521326077986 -120.93720403099701 0 -120.93720403099701 107.39244529141104 0 0 0 0 169.6466402285223 -80.531132618705811 0 -80.531132618705811 72.353618170766367 0 0 0 0 314.1782290762203 -195.30610425921873 0 -195.30610425921873 163.49777128980332 0 0 0 0 124.30520431684954 -101.09838708991123 0 -101.09838708991123 290.69101090475243 0 0 0 0 141.86881151408306 -36.954057489938435 0 -36.954057489938435 174.23982301456238 0 0 0 0 41.259680869945441 -5.3542045462839951 0 -5.3542045462839951 -17.821212108965369 0 0 0 0 34.574801446404138 5.4185403558107055 0 5.4185403558107055 -1.3837870473943721 0 0 0 0 153.03043814022385 -3.9109125092198269 0 -3.9109125092198269 234.4680379396932 0 0 0 0 41.393503914383473 -6.1154905089748581 0 -6.1154905089748581 0.96333359268442109 0 0 0 0 -1.0963426105445251 -78.005827669662722 0 -78.005827669662722 189.79642848309231 0 0 0 0 54.314617227442795 -71.759729611975445 0 -71.759729611975445 189.27054922946155 0 0 0 0 40.772727402225428 -3.688115039733475 0 -3.688115039733475 -8.472634707905172 0 0 0 0 37.14173195316107 32.076524742557353 0 32.076524742557353 1.4688191394054684 0 0 0 0 27.720257457869593 -36.388922223463396 0 -36.388922223463396 51.104129458882426 0 0 0 0 6.8719370531654818 -8.2246270323503339 0 -8.2246270323503339 -4.2632537284971557 0 0 0 0 -71.939250205788994 -171.52290020275788 0 -171.52290020275788 129.05010770235441 0 0 0 0 106.63081585838518 -337.00616287635603 0 -337.00616287635603 -1.0755532227294253 0 0 0 0 223.85992407238518 86.687061106077067 0 86.687061106077067 51.763950321786211 0 0 0 0 0.96864218467425189 -1.7646763843017652 0 -1.7646763843017652 1.3962089983148371 0 0 0 0 375.54273109421774 -20.022355238542673 0 -20.022355238542673 17.883820663775609 0 0 0 0 24.202006898837396 2.5542563961926135 0 2.5542563961926135 -0.97487702964411982 0 0 0 0 230.15888173620624 -231.83769259516583 0 -231.83769259516583 59.135146312501291 0 0 0 0 107.69204526137037 -334.85147831986058 0 -334.85147831986058 359.17174599762382 0 0 0 0 128.6574898086692 -376.73719805183907 0 -376.73719805183907 255.7619381064942 0 0 0 0 235.19612214649533 -148.56363415076729 0 -148.56363415076729 263.43200176070059 0 0 0 0 210.06259401010175 -234.59676860613274 0 -234.59676860613274 110.34663945045574 0 0 0 0 148.272682072522 -211.1180466418308 0 -211.1180466418308 193.25233095728544 0 0 0 0 -249.23658495215204 -70.152087301249281 0 -70.152087301249281 181.25496694883367 0 0 0 0 85.529983931119204 -65.214544765170359 0 -65.214544765170359 -458.25726705090034 0 0 0 0 -0.97003695716557559 46.510572336353789 0 46.510572336353789 -277.37070211444268 0 0 0 0 57.357664769733674 -136.14102900591428 0 -136.14102900591428 -354.00165093512624 0 0 0 0 -231.3095491437125 -309.46099073237383 0 -309.46099073237383 -314.27197159190433 0 0 0 0 -0.11122356317378035 1.0568950497328728 0 1.0568950497328728 -1.6235511970826728 0 0 0 0 16.987002413941809 35.541902301654453 0 35.541902301654453 -59.613103565830784 0 0 0 0 72.819902416020341 -150.78773234124969 0 -150.78773234124969 -296.72800562204884 0 0 0 0 289.6234244124571 -106.61928461007651 0 -106.61928461007651 13.883994226867145 0 0 0 0 285.19553370158246 171.38403824924799 0 171.38403824924799 -11.887302291053786 0 0 0 0 370.1739171717727 39.953346477473943 0 39.953346477473943 140.02121256938185 0 0 0 0 304.18282105954859 209.60836757338478 0 209.60836757338478 5.1808311067204329 0 0 0 0 234.25658803692204 175.6235583069963 0 175.6235583069963 -45.781618649670918 0 0 0 0 194.88301956277428 193.26058103091293 0 193.26058103091293 26.840539074482592 0 0 0 0 193.47456913059432 21.412795983141223 0 21.412795983141223 -124.94164568890116 0 0 0 0 90.50496135254798 67.520593871924746 0 67.520593871924746 -116.13637426387072 0 0 0 0 131.51564290984243 -37.291639862067598 0 -37.291639862067598 -264.43988315771526 0 0 0 0 113.79184270334372 22.869242298285826 0 22.869242298285826 -110.06259197327819 0 0 0 0 110.52199299963831 23.403933535454939 0 23.403933535454939 -109.29899106051954 0 0 0 0 10.624738553535224 7.9985527129300351 0 7.9985527129300351 4.9128323225955031 0 0 0 0 49.224223469249409 -10.250502088544678 0 -10.250502088544678 -35.025809873086928 0 0 0 0 73.064339171309257 9.3434832288554617 0 9.3434832288554617 -106.64621540166098 0 0 0 0 5.137260856683497 112.94523924525544 0 112.94523924525544 -138.50882188058449 0 0 0 0 0.20433233490442149 -0.46259041153788161 0 -0.46259041153788161 0.18267950407561573 0 0 0 0 19.532342843231163 -23.097799691504122 0 -23.097799691504122 -14.062946268194082 0 0 0 0 2.1129413422168 -7.7258282275776651 0 -7.7258282275776651 -6.5783678781053823 0 0 0 0 0.28991063583931975 1.7170691719760214 0 1.7170691719760214 -9.0783127432234849 0 0 0 0 0.77331372511980589 2.9518988612026078 0 2.9518988612026078 6.6270431786122117 0 0 0 0 6.9085286328681832 0.5661060249316634 0 0.5661060249316634 -15.51117457848369 0 0 0 0 16.094678349239985 9.7669999337663285 0 9.7669999337663285 -8.5598657182133628 0 0 0 0 27.730278923576407 26.01549410495636 0 26.01549410495636 7.709390738807997 0 0 0 0 7.6242595172079746 -5.3111348640854885 0 -5.3111348640854885 -6.5352477887754503 0 0 0 0 3.3411629144167421 -2.6434669343752901 0 -2.6434669343752901 -0.3460698744209374 0 0 0 0 5.559234965199721 15.792250304939898 0 15.792250304939898 18.400839055923484 0 0 0 0 -0.35083518386446144 -1.6878999122816936 0 -1.6878999122816936 -0.72389849009668583 0 0 0 0 6.2845282754715299 -114.55875165938033 0 -114.55875165938033 -253.02142426736214 0 0 0 0 181.31321829287481 -64.420711094686339 0 -64.420711094686339 89.865447352990259 0 0 0 0 193.9166361924581 -36.697700766897015 0 -36.697700766897015 39.498871137404421 0 0 0 0 194.44289895477414 -19.73277401404448 0 -19.73277401404448 -21.302778131881496 0 0 0 0 188.54759707387711 -36.3155762847191 0 -36.3155762847191 39.873040666390807 0 0 0 0 167.39836031217419 -22.249231284142297 0 -22.249231284142297 67.658388743528576 0 0 0 0 190.46081000924096 -70.211796529099729 0 -70.211796529099729 -19.083350172348219 0 0 0 0 180.60560418105888 -62.968746010006726 0 -62.968746010006726 20.526792403729814 0 0 0 0 215.05456593759664 -76.928962297603903 0 -76.928962297603903 -199.40893297414186 0 0 0 0 21.074194778202141 35.117172230574951 0 35.117172230574951 30.343811691118837 0 0 0 0 -485.71614652458447 184.83025382634293 0 184.83025382634293 327.66462048554217 0 0 0 0 197.93880037199779 6.2601765446270292 0 6.2601765446270292 -355.14814463504808 0 0 0 0 197.52378967874392 -10.450455066042196 0 -10.450455066042196 -23.911486937893642 0 0 0 0 -259.01497712586206 -1554.0176407046076 0 -1554.0176407046076 853.47315616232845 0 0 0 0 219.24220938212238 -587.75861430522491 0 -587.75861430522491 -767.92388344583924 0 0 0 0 -331.04862839767156 -114.51513184631858 0 -114.51513184631858 1172.1134308484434 0 0 0 0 -52.428391495355754 -64.928364394980235 0 -64.928364394980235 344.16995252241395 0 0 0 0 12.228082982871115 -6.9356253124989209 0 -6.9356253124989209 5.0864538738492087 0 0 0 0 181.30313776467301 -473.64376910680767 0 -473.64376910680767 439.75840723729925 0 0 0 0 668.18493288620084 704.86659179558023 0 704.86659179558023 -46.426224195372015 0 0 0 0 9.1328415964361795 -2.165420684430039 0 -2.165420684430039 1.0218394865431684 0 0 0 0 140.9461523896789 387.83364647775966 0 387.83364647775966 23.79216053777327 0 0 0 0 -639.83175803665654 916.35058193270561 0 916.35058193270561 713.94320443556671 0 0 0 0 26.693154964163227 -18.177081054397277 0 -18.177081054397277 11.660880002474968 0 0 0 0 1068.5602354309085 -977.84748006503378 0 -977.84748006503378 435.19451357377511 0 0 0 0 11.045642063807463 38.947372616132725 0 38.947372616132725 39.604742492270816 0 0 0 0 -72.554830671142554 1.9788465467959213 0 1.9788465467959213 204.51157876602701 0 0 0 0 78.026502526656259 -206.03066782299311 0 -206.03066782299311 282.41997994778285 0 0 0 0 124.20756543015887 -302.72794621807134 0 -302.72794621807134 -71.83048134002911 0 0 0 0 44.014806881656114 -110.37552217840221 0 -110.37552217840221 49.993836601006478 0 0 0 0 254.92007796665712 12.863122039860173 0 12.863122039860173 23.014012152753821 0 0 0 0 73.308076354316995 36.257091326416031 0 36.257091326416031 73.375039072516302 0 0 0 0 70.825928127393126 -52.015384242743494 0 -52.015384242743494 129.26643233673531 0 0 0 0 -120.95510628676857 -428.36633967449052 0 -428.36633967449052 -68.329535263965226 0 0 0 0 -12.719192596458015 -160.50733390280584 0 -160.50733390280584 -129.12259398097558 0 0 0 0 374.7213664251758 217.94599611652484 0 217.94599611652484 180.39290442097081 0 0 0 0 -60.684908286767495 75.357513925529588 0 75.357513925529588 432.91974017155189 0 0 0 0 -287.93752475543442 -259.95275880202917 0 -259.95275880202917 349.5975070062359 0 0 0 0 227.82032923797669 470.53843117507404 0 470.53843117507404 587.72076156589173 0 0 0 0 5.3443883264308454 -1.959863786119989 0 -1.959863786119989 1.3732241090390325 0 0 0 0 238.48841635609278 -174.9303650727561 0 -174.9303650727561 -53.037156010848776 0 0 0 0 182.48189445894968 -65.565012440551072 0 -65.565012440551072 6.2162074443031088 0 0 0 0 481.38113930537656 -60.274548115575271 0 -60.274548115575271 -74.184750591546617 0 0 0 0 232.84087845036993 -63.782871934446121 0 -63.782871934446121 -6.0464478516132658 0 0 0 0 171.13722814848734 -48.83046865186725 0 -48.83046865186725 11.453475128243554 0 0 0 0 176.41872349892947 -58.072434845859789 0 -58.072434845859789 5.7780590427373681 0 0 0 0 197.83831466716947 -29.611798308903417 0 -29.611798308903417 11.705139041042457 0 0 0 0 184.48219861075631 -19.156256226439837 0 -19.156256226439837 9.8273700876416115 0 0 0 0 163.52767832904283 -38.21345949388683 0 -38.21345949388683 14.244001663684685 0 0 0 0 188.17074534546555 -28.36041385808312 0 -28.36041385808312 31.81789176811435 0 0 0 0 196.64473402050498 -27.752402723452178 0 -27.752402723452178 14.473094505458405 0 0 0 0 215.02197072157287 -30.859580738219847 0 -30.859580738219847 31.80083939535341 0 0 0 0 190.6526643962352 -8.9705997611199564 0 -8.9705997611199564 59.274456799509153 0 0 0 0 157.88695350712806 -33.96958130074745 0 -33.96958130074745 40.494320729603714 0 0 0 0 156.19584602973191 -29.842652698843267 0 -29.842652698843267 43.278200989684592 0 0 0 0 189.09763682448283 -26.908250923982564 0 -26.908250923982564 14.850809387251502 0 0 0 0 73.003601575714129 -46.859577964185974 0 -46.859577964185974 60.1339422388819 0 0 0 0 123.05504179224954 -44.526065805864164 0 -44.526065805864164 39.507737963268482 0 0 0 0 42.323709685161703 -54.549459046240429 0 -54.549459046240429 65.862343787726786 0 0 0 0 72.198622853829875 -52.23896278712391 0 -52.23896278712391 24.325484193382181 0 0 0 0 40.214886336958443 -44.905802905223027 0 -44.905802905223027 35.151727052611932 0 0 0 0 118.90371627662535 -59.539220073015258 0 -59.539220073015258 22.207492943872239 0 0 0 0 71.389794050774071 -43.99627900665746 0 -43.99627900665746 33.989865038653534 0 0 0 0 124.72208012486954 -89.888148634130175 0 -89.888148634130175 13.288218052995944 0 0 0 0 182.91444715323064 -76.038153426149151 0 -76.038153426149151 1.6278675481316895 0 0 0 0 -20.019694028800586 -83.353890494435291 0 -83.353890494435291 46.12716926057692 0 0 0 0 63.5539579201577 -3.2070771769876956 0 -3.2070771769876956 -85.979531566235892 0 0 0 0 120.27560253014963 -114.66927374837542 0 -114.66927374837542 -52.706545504090172 0 0 0 0 17.453660111801582 -115.81110783508484 0 -115.81110783508484 -77.996450401120455 0 0 0 0 52.027542264462681 -28.575374146650574 0 -28.575374146650574 -6.8785740684088523 0 0 0 0 74.174031795184419 -48.582680453981311 0 -48.582680453981311 -10.494610940297207 0 0 0 0 -25.020871664095466 -111.65205782529301 0 -111.65205782529301 -96.854432748246836 0 0 0 0 -1.207874363839295 0.39323906283982524 0 0.39323906283982524 1.232245166925626 0 0 0 0 149.0628678598332 88.178185910076763 0 88.178185910076763 2.5568303440722957 0 0 0 0 35.477944068436045 -30.693079896789641 0 -30.693079896789641 19.540632807247675 0 0 0 0 -0.4893344301453908 -39.319951703742845 0 -39.319951703742845 -74.361362838855712 0 0 0 0 16.223296066053081 -11.801482170879353 0 -11.801482170879353 -56.514202946327714 0 0 0 0 -24.900152273028652 -29.177520582897159 0 -29.177520582897159 -24.756251994142076 0 0 0 0 26.282886436639728 -22.324545595567287 0 -22.324545595567287 8.8079570580293876 0 0 0 0 40.221251130606106 -40.979940043149782 0 -40.979940043149782 -24.921527219468771 0 0 0 0 42.358798421970278 -31.745662526867818 0 -31.745662526867818 -13.825056520773614 0 0 0 0 43.694358799257316 -50.685514156196859 0 -50.685514156196859 38.139681193275919 0 0 0 0 23.440479984979902 -52.322836958378048 0 -52.322836958378048 40.933039809147886 0 0 0 0 45.833877067314461 -51.789122376825162 0 -51.789122376825162 32.875642651066755 0 0 0 0 41.124726028469013 -45.895695340331031 0 -45.895695340331031 40.726371391325301 0 0 0 0 43.053334914860898 -62.969061446250407 0 -62.969061446250407 69.029935177993366 0 0 0 0 55.938532281070366 -66.877298888626228 0 -66.877298888626228 62.744386788018801 0 0 0 0 34.125879071907548 -55.891884561505321 0 -55.891884561505321 69.097603649851408 0 0 0 0 36.282559876650339 -56.947772041511598 0 -56.947772041511598 80.457553831201949 0 0 0 0 36.540450342974509 -61.737498736432826 0 -61.737498736432826 68.423402577638342 0 0 0 0 33.567332275997614 -56.731875280523809 0 -56.731875280523809 80.449024198736822 0 0 0 0 36.392259609336179 -54.523420496974303 0 -54.523420496974303 80.269214826891584 0 0 0 0 33.439481604940283 -54.301674185484146 0 -54.301674185484146 80.260857021674383 0 0 0 0 28.414841901663749 -55.972089304878978 0 -55.972089304878978 84.587542131221653 0 0 0 0 25.894964759136201 -61.274773685987384 0 -61.274773685987384 88.162588400748632 0 0 0 0 37.977333127491875 -67.096102893652414 0 -67.096102893652414 83.969451077663962 0 0 0 0 33.799412965090596 -71.24356275240234 0 -71.24356275240234 98.558501312601493 0 0 0 0 34.9889372460093 -70.215029490249947 0 -70.215029490249947 96.371191448339687 0 0 0 0 20.960985336263548 -52.758029167975849 0 -52.758029167975849 93.64908369065904 0 0 0 0 26.207431647912017 -68.190990419187358 0 -68.190990419187358 115.19237088906584 0 0 0 0 16.696323037409456 -53.077327814903583 0 -53.077327814903583 96.99065720340559 0 0 0 0 15.027155888339621 -54.855771144407512 0 -54.855771144407512 95.159278565400655 0 0 0 0 18.176162761155865 -55.863308787580024 0 -55.863308787580024 90.186810100563434 0 0 0 0 14.300999550905544 -42.706261151684885 0 -42.706261151684885 87.332002413161604 0 0 0 0 12.864323747126036 -32.294230146737391 0 -32.294230146737391 77.356586869571231 0 0 0 0 13.438208627747372 -37.225442992095367 0 -37.225442992095367 95.797899678512749 0 0 0 0 34.027633980047256 -14.720697935581413 0 -14.720697935581413 2.9964242945099735 0 0 0 0 18.677836045098957 -43.482638513284428 0 -43.482638513284428 27.71439572002032 0 0 0 0 18.250081791164121 -41.819074067724728 0 -41.819074067724728 51.195921271370935 0 0 0 0 -0.80727097616181709 -23.668921364587277 0 -23.668921364587277 44.423216511252576 0 0 0 0 22.298077678162372 -13.951359161074379 0 -13.951359161074379 -6.1865688462344224 0 0 0 0 22.564180983994447 -29.120569267828159 0 -29.120569267828159 39.43736389303649 0 0 0 0 27.760626674484229 -41.237383874762202 0 -41.237383874762202 28.44566618584372 0 0 0 0 8.8737852402264252 -25.353679794220284 0 -25.353679794220284 54.983586869341821 0 0 0 0 41.022818233424914 -37.770317512426914 0 -37.770317512426914 42.908136801479486 0 0 0 0 18.170723375071248 -34.107684128734888 0 -34.107684128734888 64.689040503812123 0 0 0 0 23.05304544144019 -45.114136348030001 0 -45.114136348030001 70.857831420241382 0 0 0 0 22.024323042060132 -50.481679399448353 0 -50.481679399448353 87.004251411491111 0 0 0 0 18.524086824541882 -42.726220907464523 0 -42.726220907464523 74.251257279953506 0 0 0 0 33.597958098100207 -44.001173687463989 0 -44.001173687463989 68.971235421279346 0 0 0 0 33.760466049119714 -45.167450548714442 0 -45.167450548714442 73.92626535530826 0 0 0 0 57.658869003600557 -43.005415104395553 0 -43.005415104395553 61.64190709142963 0 0 0 0 74.701322599881678 -50.123997894382455 0 -50.123997894382455 64.074019257901909 0 0 0 0 56.553200107980956 -39.844892968574463 0 -39.844892968574463 53.552589307891367 0 0 0 0 37.578632424672833 -34.922214745993983 0 -34.922214745993983 52.283172026058253 0 0 0 0 65.754300024724216 -33.068862218953313 0 -33.068862218953313 32.072186860630381 0 0 0 0 44.769519694382325 -35.405805114496843 0 -35.405805114496843 33.281431253568599 0 0 0 0 71.203403816274658 -23.824439641764343 0 -23.824439641764343 16.424851694669087 0 0 0 0 49.466182414980722 -32.984380167576546 0 -32.984380167576546 10.021825085349974 0 0 0 0 98.171229937004682 -14.560321606913362 0 -14.560321606913362 16.797233046214387 0 0 0 0 112.07186398547492 -26.306271089685424 0 -26.306271089685424 18.118970298430213 0 0 0 0 74.052808438675129 -29.331354344075407 0 -29.331354344075407 26.979608388083307 0 0 0 0 88.385306843207218 -23.264647924768951 0 -23.264647924768951 27.549391275433663 0 0 0 0 65.931853574627894 -35.570695608565075 0 -35.570695608565075 41.666856378504804 0 0 0 0 121.95578652096447 -22.873195379883214 0 -22.873195379883214 17.764943154076263 0 0 0 0 100.31357626948738 -33.604969497838169 0 -33.604969497838169 31.086448448849126 0 0 0 0 122.10006006607728 -45.513121060062588 0 -45.513121060062588 39.737403842515505 0 0 0 0 98.094230693015561 -30.747115553442882 0 -30.747115553442882 31.912838134161291 0 0 0 0 78.055482202675194 -32.870684097377534 0 -32.870684097377534 40.647799423008451 0 0 0 0 84.900155354043818 -42.61612707784974 0 -42.61612707784974 50.962240242218286 0 0 0 0 90.254180428571999 -40.445654125015835 0 -40.445654125015835 49.74509308965628 0 0 0 0 91.742829001836071 -43.474711966694201 0 -43.474711966694201 52.612491350352229 0 0 0 0 116.42017203738214 -56.257273543045358 0 -56.257273543045358 59.119274599901644 0 0 0 0 98.470985890649899 -44.616168141195431 0 -44.616168141195431 65.255134398648352 0 0 0 0 84.576504332624609 -43.24594028612546 0 -43.24594028612546 76.559780236997881 0 0 0 0 84.249883761433011 -56.361461731336931 0 -56.361461731336931 73.245586769548026 0 0 0 0 53.048610915368045 -54.759338469368458 0 -54.759338469368458 76.735312987389079 0 0 0 0 68.615747472227667 -43.343113162264672 0 -43.343113162264672 67.939789705311568 0 0 0 0 49.441690077597741 -48.409566524486763 0 -48.409566524486763 74.550295288882126 0 0 0 0 61.085032326955115 -47.631512256135466 0 -47.631512256135466 75.24577748138995 0 0 0 0 71.805229144330951 -56.40832672778356 0 -56.40832672778356 73.587973869241068 0 0 0 0 48.192668725670956 -58.99091909282879 0 -58.99091909282879 71.164110787774916 0 0 0 0 61.075699803201132 -50.208973596772921 0 -50.208973596772921 65.515406821513125 0 0 0 0 61.272956083350437 -48.014570016421914 0 -48.014570016421914 75.586927651805127 0 0 0 0 94.842638852947857 -53.390830390347219 0 -53.390830390347219 53.333129878321643 0 0 0 0 105.04324151930632 -33.299424657340523 0 -33.299424657340523 73.903994517303545 0 0 0 0 101.36734249752772 -53.94057816835425 0 -53.94057816835425 70.302638596656834 0 0 0 0 130.70221938456234 -46.735406112954934 0 -46.735406112954934 83.372198245540289 0 0 0 0 154.21111018772353 -21.267203930504365 0 -21.267203930504365 73.876411133243437 0 0 0 0 122.94588099787507 -46.672604272572016 0 -46.672604272572016 58.650095679755395 0 0 0 0 157.69935284286476 -30.30518962028907 0 -30.30518962028907 85.639429113782171 0 0 0 0 198.22311129436275 -46.429911687169579 0 -46.429911687169579 58.169839321837571 0 0 0 0 293.43261288619033 -43.8672421471299 0 -43.8672421471299 57.336524209127674 0 0 0 0 205.72498622870989 16.005704412233626 0 16.005704412233626 171.36965739892457 0 0 0 0 183.98881300321955 -31.613048582313695 0 -31.613048582313695 79.072737316339044 0 0 0 0 196.46832465659827 -102.08712728917089 0 -102.08712728917089 144.91042833739715 0 0 0 0 306.90544298837631 -40.756271458873698 0 -40.756271458873698 16.759884851314382 0 0 0 0 181.97230365897485 -64.679409306417256 0 -64.679409306417256 48.438518714101519 0 0 0 0 141.56830585518765 -70.111957067645108 0 -70.111957067645108 108.21183823574211 0 0 0 0 150.41286354896147 -20.109264883803462 0 -20.109264883803462 111.64578431680366 0 0 0 0 112.21436509852356 -61.428484160448534 0 -61.428484160448534 83.935169497424198 0 0 0 0 119.0941480841866 -35.053919989719361 0 -35.053919989719361 82.220425650232301 0 0 0 0 137.32894642361498 -55.805974271032483 0 -55.805974271032483 60.083107764511169 0 0 0 0 116.97018926768214 -50.992466421081872 0 -50.992466421081872 58.986974356504106 0 0 0 0 146.87218511033279 -57.205332727504356 0 -57.205332727504356 41.525912232240557 0 0 0 0 154.70845592609112 -47.143821273011895 0 -47.143821273011895 20.519046668556484 0 0 0 0 160.23767662490718 -59.90589512382337 0 -59.90589512382337 48.480413392261916 0 0 0 0 169.30701011269412 -35.376066535799886 0 -35.376066535799886 0.35133397001956723 0 0 0 0 151.7392288052215 -43.361682125231425 0 -43.361682125231425 22.007411849217078 0 0 0 0 146.14038910105592 -35.691791219989796 0 -35.691791219989796 15.937431136712036 0 0 0 0 121.85837204067775 -40.864457448043268 0 -40.864457448043268 31.204616419167223 0 0 0 0 122.24677031889223 -24.037811473989933 0 -24.037811473989933 17.410838766616962 0 0 0 0 141.09621077554766 -31.154867409649569 0 -31.154867409649569 16.629879433211755 0 0 0 0 152.18121141198208 -21.011371998756431 0 -21.011371998756431 9.0905997497329736 0 0 0 0 144.29602042255283 -23.22007324004062 0 -23.22007324004062 10.755975543483828 0 0 0 0 155.40874702377187 -23.550071853858469 0 -23.550071853858469 2.0019050194278805 0 0 0 0 155.20169358133171 -25.662086344429696 0 -25.662086344429696 12.561309601639095 0 0 0 0 154.19561284975862 -20.38264984746553 0 -20.38264984746553 1.5102611061374773 0 0 0 0 143.99763116927352 -21.208175702657172 0 -21.208175702657172 11.305676849617157 0 0 0 0 122.29317774766969 -13.369291295802441 0 -13.369291295802441 11.791381375918718 0 0 0 0 161.83114013455634 -15.907265582068703 0 -15.907265582068703 8.1105498798478699 0 0 0 0 161.71141266950872 -11.552759363409493 0 -11.552759363409493 -14.162221950748858 0 0 0 0 163.98838648372475 -9.1614266959582693 0 -9.1614266959582693 -18.554667198228572 0 0 0 0 13.426908079780844 21.316020022660879 0 21.316020022660879 -2.0230894215790967 0 0 0 0 85.506592997255211 5.6935441432252816 0 5.6935441432252816 36.883909833696919 0 0 0 0 96.574664566098363 -39.807273472939983 0 -39.807273472939983 5.004442589361588 0 0 0 0 136.75199348761112 -80.024409454257025 0 -80.024409454257025 -67.352981029153966 0 0 0 0 17.084868917842272 4.3472518338070572 0 4.3472518338070572 -6.8672642970628139 0 0 0 0 165.35009611416899 -8.7472418754525734 0 -8.7472418754525734 -18.716098086710474 0 0 0 0 170.98488889662258 -18.538834994792182 0 -18.538834994792182 -40.812163210064227 0 0 0 0 175.09886101374286 -29.85020191755757 0 -29.85020191755757 -10.190032800295739 0 0 0 0 168.27456187057396 -32.432026460704009 0 -32.432026460704009 -7.9396828187548181 0 0 0 0 191.35593768316994 -21.984032161751422 0 -21.984032161751422 -7.6481012099579857 0 0 0 0 192.85512138198828 -62.484812612015332 0 -62.484812612015332 4.8442614842729199 0 0 0 0 140.75292141348473 -10.062808865162424 0 -10.062808865162424 14.583736221298295 0 0 0 0 137.37721788330236 -44.092903621536607 0 -44.092903621536607 -10.889930034411236 0 0 0 0 8.3635157128665014 63.034760013173695 0 63.034760013173695 6.500694887157664 0 0 0 0 22.131708536797419 27.005381512834163 0 27.005381512834163 3.953815369433161 0 0 0 0 98.644833347683857 61.877671552749099 0 61.877671552749099 38.256510454279123 0 0 0 0 35.212308067151753 12.145976881492516 0 12.145976881492516 -5.2268483546334323 0 0 0 0 -125.13359487787238 -14.953090839925835 0 -14.953090839925835 16.46367240950903 0 0 0 0 5.8309367722255274 6.2244502485290809 0 6.2244502485290809 -4.1018734705612001 0 0 0 0 -123.19454573644907 158.57061784915277 0 158.57061784915277 251.78244561852421 0 0 0 0 259.80386772068516 193.45748563629621 0 193.45748563629621 -1.6973790604284886 0 0 0 0 10.579821385035757 67.994059034838699 0 67.994059034838699 -57.673590471702255 0 0 0 0 105.51209031786493 54.250855912158357 0 54.250855912158357 -124.03826935466731 0 0 0 0 -29.122330733360286 -83.020398548652935 0 -83.020398548652935 -33.315923312871178 0 0 0 0 16.264487241755972 2.8289775164828974 0 2.8289775164828974 1.8230833944804552 0 0 0 0 226.35473330133391 95.40470294084696 0 95.40470294084696 1.9158081511827731 0 0 0 0 7.2374757774797445 11.402568241253235 0 11.402568241253235 2.0794866643927947 0 0 0 0 148.69157332726536 -61.791779663874195 0 -61.791779663874195 101.60372551184446 0 0 0 0 191.35761907012056 -124.80218547527693 0 -124.80218547527693 135.45406838516783 0 0 0 0 23.046002021372445 27.188589034901554 0 27.188589034901554 17.466670864113098 0 0 0 0 -182.47004678594749 -19.355297636141131 0 -19.355297636141131 51.91654202985319 0 0 0 0 10.929187710527913 47.935529494248954 0 47.935529494248954 107.74527543088163 0 0 0 0 1.9267934804711899 1.5760271533867751 0 1.5760271533867751 0.959602566533446 0 0 0 0 10.773117256438127 28.983992105108882 0 28.983992105108882 -35.237695859057453 0 0 0 0 128.55619092084817 108.07619332736959 0 108.07619332736959 -10.43224278389539 0 0 0 0 38.282673272165994 53.381252581108697 0 53.381252581108697 -40.574255133062252 0 0 0 0 111.45760453589901 -60.192927059533645 0 -60.192927059533645 -162.62490584479838 0 0 0 0 -1.5660268497631478 -134.21021124623255 0 -134.21021124623255 49.666789226342772 0 0 0 0 197.05346922906756 12.111836458972249 0 12.111836458972249 -124.13037831783549 0 0 0 0 11.958304360603506 8.9620691561467538 0 8.9620691561467538 3.8815855416664817 0 0 0 0 12.763554040338931 18.824398920595456 0 18.824398920595456 -26.856954628612584 0 0 0 0 23.133689616086059 3.4492004706598749 0 3.4492004706598749 -8.3433750802807474 0 0 0 0 -9.02627631985888 -78.70838140360371 0 -78.70838140360371 29.242076127077326 0 0 0 0 496.73452571701637 31.848158251459324 0 31.848158251459324 -34.828170347711421 0 0 0 0 15.365303905680776 -9.8138009710386882 0 -9.8138009710386882 -12.730713805485067 0 0 0 0 0.3868154493684699 0.096341982959216921 0 0.096341982959216921 -2.4973049503069751 0 0 0 0 26.250864894871484 13.225404140266392 0 13.225404140266392 -5.3553725862942656 0 0 0 0 9.0239351531236025 4.9814305292888719 0 4.9814305292888719 -8.9846937619570326 0 0 0 0 29.385344195983635 13.243873083649987 0 13.243873083649987 -13.01756903904743 0 0 0 0 36.307373187737539 4.6068503058895658 0 4.6068503058895658 -13.715709744515607 0 0 0 0 55.460987663827837 24.214130003758328 0 24.214130003758328 -54.892341197405813 0 0 0 0 36.118640690234315 1.9490757280539128 0 1.9490757280539128 -5.7319232315687714 0 0 0 0 59.6580932686702 12.147937050721794 0 12.147937050721794 -24.26324686895282 0 0 0 0 31.894304427879803 5.4611461513971022 0 5.4611461513971022 -9.2098727415320649 0 0 0 0 14.366169347496282 20.155091588359554 0 20.155091588359554 -3.9223003765125029 0 0 0 0 30.478511427856574 14.353012139037219 0 14.353012139037219 -12.526584109432179 0 0 0 0 151.33899794099852 -28.840130210151301 0 -28.840130210151301 10.37113895509674 0 0 0 0 7.1957051433699206 0.78126826688675521 0 0.78126826688675521 -0.23866704720705734 0 0 0 0 131.61081011339411 -12.55603076856255 0 -12.55603076856255 -18.502563050666595 0 0 0 0 114.34844478362356 -16.962710344694642 0 -16.962710344694642 7.6429516207354027 0 0 0 0 53.85970492132509 16.901417854556986 0 16.901417854556986 -18.069964581744987 0 0 0 0 25.317428661785527 13.383192483934849 0 13.383192483934849 -13.451227989956255 0 0 0 0 146.95055705850973 -2.2725961474523046 0 -2.2725961474523046 5.3530763565959205 0 0 0 0 135.50916611346474 -17.82058645395 0 -17.82058645395 7.990305865563414 0 0 0 0 168.25164075207431 1.9514988193113822 0 1.9514988193113822 6.1674202765352675 0 0 0 0 153.78169819973118 -35.651682703982033 0 -35.651682703982033 11.764474748328212 0 0 0 0 165.49833028396824 -26.498538648724661 0 -26.498538648724661 4.7384930154312315 0 0 0 0 218.12553662192659 -84.943774822439991 0 -84.943774822439991 13.577547061126097 0 0 0 0 143.57264558161842 16.71426992457873 0 16.71426992457873 40.983615869587084 0 0 0 0 189.07694336698478 14.916388779798808 0 14.916388779798808 5.0041637455469754 0 0 0 0 247.94798924974748 -16.450500033998651 0 -16.450500033998651 1.4448997390418299 0 0 0 0 5.0245265916867083 4.7081560329199981 0 4.7081560329199981 -3.152583039252284 0 0 0 0 114.28136521430358 -20.868267499329516 0 -20.868267499329516 7.6269684797898663 0 0 0 0 114.2417377866368 -8.275215456334081 0 -8.275215456334081 29.794296658404164 0 0 0 0 126.03120042376759 -38.450465336939374 0 -38.450465336939374 -8.0573985032924611 0 0 0 0 18.316562509502575 11.814383941528376 0 11.814383941528376 -6.9603192856521998 0 0 0 0 142.69361244967149 -10.649959672106434 0 -10.649959672106434 -13.434886123362958 0 0 0 0 130.69861529661284 -4.7630332632561476 0 -4.7630332632561476 3.3412806154861983 0 0 0 0 113.51386120868847 -9.8134733495312503 0 -9.8134733495312503 1.7387485651306633 0 0 0 0 14.831434009822402 7.5888746334749584 0 7.5888746334749584 -6.0093278238069825 0 0 0 0 69.566943629935849 -28.740265243829072 0 -28.740265243829072 -2.0970826175571347 0 0 0 0 48.758702985374839 -5.6607461649541619 0 -5.6607461649541619 -4.0059664282835001 0 0 0 0 15.128628765541094 16.230843063687999 0 16.230843063687999 -10.850996773966813 0 0 0 0 28.709314877924044 31.073069339572584 0 31.073069339572584 10.094614364241089 0 0 0 0 40.967347211080778 44.572073926505254 0 44.572073926505254 -12.661895768513205 0 0 0 0 3.0786239329726754 3.1791489895303755 0 3.1791489895303755 -2.8587320335293218 0 0 0 0 10.890449758844625 23.904701014783484 0 23.904701014783484 7.216482645039207 0 0 0 0 11.852308839118123 -1.0117412011382356 0 -1.0117412011382356 -3.0633665400128534 0 0 0 0 3.8671325987443694 3.5676939419745821 0 3.5676939419745821 -0.19961879877419175 0 0 0 0 60.090505813139316 -7.968656706802534 0 -7.968656706802534 -3.2737881092205612 0 0 0 0 44.537735324921982 4.6309497505389317 0 4.6309497505389317 -12.496704449405014 0 0 0 0 33.869081695971545 -7.936589933117375 0 -7.936589933117375 10.123244560046487 0 0 0 0 36.681667455581191 -17.271745230780567 0 -17.271745230780567 -0.25270409725499121 0 0 0 0 44.815237468559644 -32.790182871065269 0 -32.790182871065269 12.715874246418139 0 0 0 0 52.438565353993909 -28.019481178327027 0 -28.019481178327027 6.9268275890364066 0 0 0 0 75.452604720761883 -36.749741734920917 0 -36.749741734920917 -7.0221384677042806 0 0 0 0 40.119839649130881 -12.140213152921547 0 -12.140213152921547 3.2226744061674708 0 0 0 0 13.291792695188715 -14.768068396849259 0 -14.768068396849259 6.705015916750126 0 0 0 0 32.54055678929177 -17.748538008224706 0 -17.748538008224706 7.4645170823268616 0 0 0 0 88.426345600862987 -43.143991629230413 0 -43.143991629230413 -18.707952743417991 0 0 0 0 52.290977770957397 -31.208924470487545 0 -31.208924470487545 -7.2689236566979503 0 0 0 0 -33.091230711826938 -53.592515388723314 0 -53.592515388723314 -0.40308798162095627 0 0 0 0 64.474031685982482 -59.493970513897239 0 -59.493970513897239 -30.590147554499708 0 0 0 0 72.462019025580958 -19.829069547502513 0 -19.829069547502513 -8.3328115044328115 0 0 0 0 85.337229518539971 -11.936221558955822 0 -11.936221558955822 10.116156112185763 0 0 0 0 76.983993228015606 -37.159286874152713 0 -37.159286874152713 -0.53300818305160647 0 0 0 0 55.713624123760383 -18.683265602173833 0 -18.683265602173833 -16.581671109298441 0 0 0 0 72.851829130049737 -12.949753895282811 0 -12.949753895282811 7.1002788015275655 0 0 0 0 108.71345495933201 -2.5306816306606379 0 -2.5306816306606379 15.451022969515179 0 0 0 0 90.944470869158977 -25.979624775754473 0 -25.979624775754473 14.140070226300509 0 0 0 0 46.99105645850068 -43.36033159187582 0 -43.36033159187582 -33.920289203155335 0 0 0 0 31.975492182929884 -46.915480242245394 0 -46.915480242245394 12.825342502322371 0 0 0 0 50.266773970193753 -25.902441414072428 0 -25.902441414072428 -2.6716336516174124 0 0 0 0 54.893148636518163 -36.032257660858363 0 -36.032257660858363 15.856760174713145 0 0 0 0 35.652253480700892 -48.967298067721913 0 -48.967298067721913 -6.6456508526075595 0 0 0 0 43.733537242413945 -25.658589327410951 0 -25.658589327410951 9.9354465470527629 0 0 0 0 67.659125482492527 -45.228533973125678 0 -45.228533973125678 -33.761196980628938 0 0 0 0 41.949085641579586 -25.898891144628692 0 -25.898891144628692 14.257298386993796 0 0 0 0 15.117883960204818 -1.7089280094633494 0 -1.7089280094633494 -0.71482513568876804 0 0 0 0 42.006602622801438 -24.668817562657352 0 -24.668817562657352 4.3099014794649975 0 0 0 0 41.327879843884148 -23.788171933327192 0 -23.788171933327192 5.3565428704977762 0 0 0 0 18.097012651342084 -31.89832695851419 0 -31.89832695851419 -3.2218212776551809 0 0 0 0 40.558213802921898 -19.776426963717356 0 -19.776426963717356 5.6350914842497426 0 0 0 0 25.998928749251718 -61.210385619799069 0 -61.210385619799069 -25.33961760949478 0 0 0 0 41.405124356005899 -22.023100448041085 0 -22.023100448041085 -2.843997162149094 0 0 0 0 40.370099528263381 -28.503472678546771 0 -28.503472678546771 7.8755006753618204 0 0 0 0 42.748012564174132 -29.596849197775228 0 -29.596849197775228 8.0493352387053392 0 0 0 0 41.54836402417277 -30.030132914978026 0 -30.030132914978026 8.6588971715218861 0 0 0 0 42.480164010979934 -30.535255396649205 0 -30.535255396649205 8.460657567501503 0 0 0 0 42.58116472495476 -29.842262012020015 0 -29.842262012020015 7.6443599426467017 0 0 0 0 65.798298355897714 -50.207171191342276 0 -50.207171191342276 26.821681698867593 0 0 0 0 37.142562830755196 -31.163829047075538 0 -31.163829047075538 14.390232370700744 0 0 0 0 34.134473017991695 -17.230299976101506 0 -17.230299976101506 12.597775340268754 0 0 0 0 0.17345069713729799 0.021066516688961201 0 0.021066516688961201 0.054567960431197715 0 0 0 0 35.147489075796329 -24.24744523334725 0 -24.24744523334725 23.655815626125531 0 0 0 0 40.217042734140705 -22.356454796458671 0 -22.356454796458671 15.31488353593587 0 0 0 0 38.604341234791718 -29.327256076659999 0 -29.327256076659999 11.30033438408001 0 0 0 0 -0.0032310345684152253 -0.020443653839265608 0 -0.020443653839265608 -0.0024517337760917215 0 0 0 0 38.768435202256114 -30.461590084233677 0 -30.461590084233677 18.364351205209211 0 0 0 0 1.9068171921680914 -1.0853979399091582 0 -1.0853979399091582 0.0065714038402773624 0 0 0 0 31.33890686131781 -28.843462486150148 0 -28.843462486150148 18.381604215143874 0 0 0 0 0.57189571422918561 -0.64863011858001585 0 -0.64863011858001585 0.29599491214246038 0 0 0 0 8.2115783328772523 -9.0927826422535958 0 -9.0927826422535958 12.104313501336492 0 0 0 0 25.625808455793958 -8.9708461484463999 0 -8.9708461484463999 6.4773576371983665 0 0 0 0 3.6233262433961499 -2.9772362141670903 0 -2.9772362141670903 1.7277051278821176 0 0 0 0 10.798395142195659 -3.5959020999961671 0 -3.5959020999961671 0.0047385726793576707 0 0 0 0 0.67541481215518218 -0.37105012225620726 0 -0.37105012225620726 0.19142545044885309 0 0 0 0 2.1720527650272707 -0.089477818572490264 0 -0.089477818572490264 -0.088706325123307478 0 0 0 0 20.761321832378599 10.766173494047242 0 10.766173494047242 0.65175217669240837 0 0 0 0 2.9740360201743314 -0.34339476481343922 0 -0.34339476481343922 -0.005448174600275954 0 0 0 0 10.769675363539136 -3.7403542429211472 0 -3.7403542429211472 0.74990247493958151 0 0 0 0 16.603086406292277 -4.9904297507331137 0 -4.9904297507331137 0.81905401974771053 0 0 0 0 3.550362522302521 -4.6357290106657558 0 -4.6357290106657558 1.4038076412737084 0 0 0 0 29.334511026430846 -3.0166465163531342 0 -3.0166465163531342 -2.1839337714344786 0 0 0 0 8.4391441559852467 -0.82364566538571182 0 -0.82364566538571182 -1.4262299716115503 0 0 0 0 13.650465273496707 3.1130867289897282 0 3.1130867289897282 -2.6406486770873872 0 0 0 0 25.13733482146381 -3.9611379227430064 0 -3.9611379227430064 1.3029971223397752 0 0 0 0 38.219645530334674 -7.8102811034218007 0 -7.8102811034218007 1.6757785042600517 0 0 0 0 36.791199022831279 -7.8531687139013684 0 -7.8531687139013684 2.6019903353012523 0 0 0 0 7.585707634933641 -4.7469714888599697 0 -4.7469714888599697 2.2104887580582293 0 0 0 0 29.771529786739848 -23.038996006498422 0 -23.038996006498422 5.9398072273079521 0 0 0 0 15.905679016999784 -22.54574397787264 0 -22.54574397787264 14.802545854445441 0 0 0 0 53.878909952754839 -9.2897793594218854 0 -9.2897793594218854 -0.59311439889506801 0 0 0 0 1.7318091289379183 -13.493905808596892 0 -13.493905808596892 3.7638973685384629 0 0 0 0 6.7916172100944863 3.1968756549245256 0 3.1968756549245256 -0.91613525867181922 0 0 0 0 55.150159455093672 -10.223819627471471 0 -10.223819627471471 0.99319698178305771 0 0 0 0 14.468459323990828 2.7240017070088811 0 2.7240017070088811 -1.9621572911487988 0 0 0 0 38.044176764071381 -6.3378818822260712 0 -6.3378818822260712 0.8480951045121401 0 0 0 0 4.4260171630230616 6.0368181931532661 0 6.0368181931532661 -1.5963577607443824 0 0 0 0 30.377125034836354 0.033857262386447928 0 0.033857262386447928 0.21612608401231626 0 0 0 0 6.1729744134778173 2.2812235386781197 0 2.2812235386781197 -1.0409015964039012 0 0 0 0 43.719054649976897 -1.58729443932123 0 -1.58729443932123 -4.3598886658413782 0 0 0 0 8.9223785929498263 -9.2903332556058835 0 -9.2903332556058835 4.5487079869527971 0 0 0 0 4.9487628154407304 2.4810369756578865 0 2.4810369756578865 -2.5775398794328179 0 0 0 0 10.635835100413715 8.965224848385736 0 8.965224848385736 -5.4815593111478051 0 0 0 0 36.350190471188398 -6.9436282833199812 0 -6.9436282833199812 2.3776027477820207 0 0 0 0 16.514718371123308 3.5725183982878974 0 3.5725183982878974 -5.4272285689158934 0 0 0 0 7.1881379999043133 3.0386161745757363 0 3.0386161745757363 -0.24305100442952798 0 0 0 0 3.2871841542910261 7.4301200434648873 0 7.4301200434648873 1.0915792355463836 0 0 0 0 20.52666567650158 0.68151320877087151 0 0.68151320877087151 -3.8385933390332063 0 0 0 0 24.007060663505399 8.1556493314211824 0 8.1556493314211824 -3.3014210354085267 0 0 0 0 17.932885344142051 5.0015892323327913 0 5.0015892323327913 -0.0016058390528774381 0 0 0 0 27.021584429228824 4.3141149620914261 0 4.3141149620914261 -7.6844866050410356 0 0 0 0 53.650883571564918 2.7810665912239028 0 2.7810665912239028 -8.3380520781130159 0 0 0 0 20.392447804803396 -1.47092851790338 0 -1.47092851790338 -3.463159912656856 0 0 0 0 46.016714362847779 20.299403970967887 0 20.299403970967887 -14.548944893528173 0 0 0 0 101.83653210353805 20.508721525015314 0 20.508721525015314 -19.312330401926801 0 0 0 0 39.538955139010795 14.235223555284612 0 14.235223555284612 -0.011456838077650803 0 0 0 0 31.232164545857813 23.047717849895214 0 23.047717849895214 -9.2697351887560444 0 0 0 0 28.367221770444303 19.606931814675104 0 19.606931814675104 -0.012113650947163488 0 0 0 0 0.20378630451149604 0.22358238852700651 0 0.22358238852700651 -0.14507077872679119 0 0 0 0 145.51697477916605 24.792246572520568 0 24.792246572520568 -48.898661692025414 0 0 0 0 90.470628219256469 37.628624838355719 0 37.628624838355719 -39.262932745672714 0 0 0 0 126.08406046537857 -10.973405789552913 0 -10.973405789552913 -19.455234054206251 0 0 0 0 76.049886097127455 7.6827997911160111 0 7.6827997911160111 -25.546306741037128 0 0 0 0 53.467336767353117 -12.820430868527026 0 -12.820430868527026 -7.9979015226813601 0 0 0 0 83.795476084895199 -9.8314605297454989 0 -9.8314605297454989 -7.9695561809001498 0 0 0 0 100.8962614366028 -85.999095176478505 0 -85.999095176478505 79.566776595062464 0 0 0 0 86.011763839542255 -13.577631628479395 0 -13.577631628479395 -2.483325975860609 0 0 0 0 10.674640390381683 -35.71723853862953 0 -35.71723853862953 34.043271562867574 0 0 0 0 1.3884321391078061 0.66249614905053988 0 0.66249614905053988 -0.42426068363903841 0 0 0 0 181.10371325741289 -78.350293819782621 0 -78.350293819782621 -1.9782651386526311 0 0 0 0 175.06888433951826 100.04885127286948 0 100.04885127286948 5.2160015818612742 0 0 0 0 119.30996456213234 52.674373925060692 0 52.674373925060692 50.780225923949104 0 0 0 0 383.71654456078249 132.29733820899727 0 132.29733820899727 -35.624919291691015 0 0 0 0 128.09214911724121 12.847421801682628 0 12.847421801682628 14.070723927345171 0 0 0 0 81.667452755296836 30.307229392873921 0 30.307229392873921 17.070385092395341 0 0 0 0 100.74858594944817 31.15403382759672 0 31.15403382759672 42.067031312421236 0 0 0 0 223.80294073197001 83.46934747915904 0 83.46934747915904 17.961363001807641 0 0 0 0 282.43082179208795 10.675377388434697 0 10.675377388434697 -20.92532623913624 0 0 0 0 350.99322465595469 62.702917132277271 0 62.702917132277271 -23.996642893038498 0 0 0 0 432.50667342489032 -48.654776409289155 0 -48.654776409289155 -52.986443752480483 0 0 0 0 350.24842317226285 -116.47393931258053 0 -116.47393931258053 -9.982224196561674 0 0 0 0 536.06724895072693 -80.007676431780837 0 -80.007676431780837 -9.3850358603894506 0 0 0 0 426.19551636443794 -82.159811823429564 0 -82.159811823429564 308.65816743062737 0 0 0 0 505.4355788939647 -58.9201365929448 0 -58.9201365929448 13.252880437067716 0 0 0 0 394.74159702094039 43.201342190973321 0 43.201342190973321 398.83920804531147 0 0 0 0 418.85731721340562 19.76493062124699 0 19.76493062124699 139.29727261526568 0 0 0 0 325.08975859883867 239.23779729637283 0 239.23779729637283 46.417373592511069 0 0 0 0 571.3804039108436 81.618843794654723 0 81.618843794654723 118.00866849470657 0 0 0 0 411.66023115809548 -374.88004136015081 0 -374.88004136015081 644.03194226047333 0 0 0 0 62.266206770647841 1.3648183627178128 0 1.3648183627178128 317.42444390070125 0 0 0 0 4.6771619319007698 0.14866052320665801 0 0.14866052320665801 0.086356787365460486 0 0 0 0 51.135013904102379 186.52073512665606 0 186.52073512665606 -5.5670326817125897 0 0 0 0 38.250327781129272 -49.88854507604983 0 -49.88854507604983 -14.834832697645822 0 0 0 0 13.866066048270966 0.80455422295950285 0 0.80455422295950285 -0.66564320933313237 0 0 0 0 -49.912537800104474 -254.02021375039078 0 -254.02021375039078 665.8406410908101 0 0 0 0 38.152188734289666 32.077277295084144 0 32.077277295084144 -126.3026988434886 0 0 0 0 46.177258440722653 -25.147546601912666 0 -25.147546601912666 -51.199354124157367 0 0 0 0 33.285101752873743 11.390523803100962 0 11.390523803100962 -65.322470421207697 0 0 0 0 34.744717071524065 -34.833812912490998 0 -34.833812912490998 -23.410499346196843 0 0 0 0 35.36294897008338 -19.435998032798409 0 -19.435998032798409 -11.377964908140342 0 0 0 0 41.612121088575805 -15.449861946734018 0 -15.449861946734018 3.6314619468386127 0 0 0 0 43.233241057037958 -25.773706795405189 0 -25.773706795405189 -15.33379385664011 0 0 0 0 41.241772420959023 -11.84988283385826 0 -11.84988283385826 -16.670150101422109 0 0 0 0 42.015299712267733 -15.389217293204325 0 -15.389217293204325 -8.5328984987490912 0 0 0 0 41.242723881921847 -10.485951356626856 0 -10.485951356626856 -14.240472586985902 0 0 0 0 34.628001059914823 -19.095644625445829 0 -19.095644625445829 -16.031656096400013 0 0 0 0 45.988363917640527 -34.299557251566938 0 -34.299557251566938 -8.8658832132795169 0 0 0 0 41.671943503628427 -24.044852366210108 0 -24.044852366210108 0.84250063914453222 0 0 0 0 38.960432600601052 -28.558423495182737 0 -28.558423495182737 11.431494482528336 0 0 0 0 37.767420435877284 -30.263149320978386 0 -30.263149320978386 8.6922094318178438 0 0 0 0 40.478601695947873 -30.478449285684746 0 -30.478449285684746 0.65124385849489563 0 0 0 0 35.229565107605595 -27.44663370333339 0 -27.44663370333339 25.009265214798717 0 0 0 0 38.561998417586437 -29.962170307545065 0 -29.962170307545065 8.4782413323291337 0 0 0 0 34.326199529616133 -12.863772123652438 0 -12.863772123652438 36.237989488173156 0 0 0 0 57.015786148258485 -35.101108052291266 0 -35.101108052291266 -1.7266121850173306 0 0 0 0 101.37898341658729 -3.9703220709867111 0 -3.9703220709867111 17.049101650598573 0 0 0 0 146.05404667727271 -4.8524472143252346 0 -4.8524472143252346 5.0734603971956815 0 0 0 0 72.565714694115741 -3.0404286085176935 0 -3.0404286085176935 30.605213924113571 0 0 0 0 73.239931553454653 -27.960187877438699 0 -27.960187877438699 14.772061218746671 0 0 0 0 104.39039033191511 -26.688617540006689 0 -26.688617540006689 11.375827942110483 0 0 0 0 104.10713571259112 -21.906275962249957 0 -21.906275962249957 11.770168886787786 0 0 0 0 14.042168681939074 -6.3950371699874538 0 -6.3950371699874538 4.6676094547700231 0 0 0 0 47.263298167395988 -19.891763927176775 0 -19.891763927176775 25.014208364029983 0 0 0 0 40.181980977529747 -32.493006572224374 0 -32.493006572224374 14.666840021194673 0 0 0 0 40.750012483316823 -31.774870969896217 0 -31.774870969896217 18.920882653786656 0 0 0 0 0.47959690490776552 0.087715298175226053 0 0.087715298175226053 -0.025090862693503357 0 0 0 0 39.680174198911118 -6.4506077690118317 0 -6.4506077690118317 8.4020238075076925 0 0 0 0 37.158081805243 -30.640226285786923 0 -30.640226285786923 25.98736198922812 0 0 0 0 22.548782592846692 -12.074000414034517 0 -12.074000414034517 0.018152017560028221 0 0 0 0 30.03632123080024 -23.547234121096601 0 -23.547234121096601 16.705988109669079 0 0 0 0 41.873822034714976 -23.526900451898264 0 -23.526900451898264 0.045831675847906955 0 0 0 0 149.38221285234431 -8.4421183054996796 0 -8.4421183054996796 11.950321281549385 0 0 0 0 132.46628347368824 -61.274847090047558 0 -61.274847090047558 25.290706561460908 0 0 0 0 0.37280254783246392 0.00033061157733982327 0 0.00033061157733982327 -0.014938154185248909 0 0 0 0 168.33152456183598 -20.289524246869998 0 -20.289524246869998 0.10421277020049768 0 0 0 0 207.7039929061466 -23.102452444263935 0 -23.102452444263935 -0.035311014709411968 0 0 0 0 182.8836986545648 -2.2707559063552498 0 -2.2707559063552498 -5.6875952244576027 0 0 0 0 150.91584008258269 23.803776520103874 0 23.803776520103874 15.994450187151216 0 0 0 0 210.59983533921331 -8.1223618459556661 0 -8.1223618459556661 -10.330738799328461 0 0 0 0 215.36277035820422 0.71055384210630734 0 0.71055384210630734 -19.70407329797419 0 0 0 0 174.41339825926843 15.011593046093935 0 15.011593046093935 6.6683894643756219 0 0 0 0 328.34253989139506 -30.713554386803025 0 -30.713554386803025 -48.744398091100436 0 0 0 0 314.52125497202724 -87.463638544265777 0 -87.463638544265777 -31.916055255231356 0 0 0 0 294.96112359750987 14.319221820934033 0 14.319221820934033 -25.677602060060181 0 0 0 0 279.08137565884681 -40.192158971797141 0 -40.192158971797141 -41.795254548264666 0 0 0 0 278.02831514214631 -44.509249843595079 0 -44.509249843595079 -35.304807571876012 0 0 0 0 266.58505180335487 -76.487344193580299 0 -76.487344193580299 -46.036496705077923 0 0 0 0 248.9792554009764 -40.558935690962322 0 -40.558935690962322 -24.80466800606154 0 0 0 0 230.65812189728217 -42.459516798717523 0 -42.459516798717523 -16.826570974267952 0 0 0 0 251.91460338357138 -21.89055943920043 0 -21.89055943920043 -17.960132197342588 0 0 0 0 223.24646017264604 -16.479649345349049 0 -16.479649345349049 -18.905941196454009 0 0 0 0 220.40499440055282 -33.875655420491356 0 -33.875655420491356 -0.035376779170686823 0 0 0 0 228.15146565184841 -33.265412317424541 0 -33.265412317424541 -6.7035562922095684 0 0 0 0 192.24841064128486 -57.775325800679987 0 -57.775325800679987 8.9386513201049382 0 0 0 0 227.51468533564184 -85.372827424862621 0 -85.372827424862621 38.033942936335023 0 0 0 0 0.42158173488992645 -0.13037405557625448 0 -0.13037405557625448 -0.091550248809353529 0 0 0 0 155.55385063678114 -28.457252662190118 0 -28.457252662190118 0.067878306423146156 0 0 0 0 131.33281493849063 -66.837519174736528 0 -66.837519174736528 53.15233310010121 0 0 0 0 230.82369839757231 -70.627752561235468 0 -70.627752561235468 12.827940781957565 0 0 0 0 -1.232376193467644 -19.918976962181819 0 -19.918976962181819 24.228824143310952 0 0 0 0 53.52462146144353 -23.074559516093437 0 -23.074559516093437 3.2811193703873309 0 0 0 0 71.01968717687123 13.835017584555997 0 13.835017584555997 8.3943536581644622 0 0 0 0 184.11788432416506 -36.656062967939569 0 -36.656062967939569 0.12733330540036772 0 0 0 0 224.88596827244328 -69.317466716219357 0 -69.317466716219357 13.847097124672093 0 0 0 0 0.3998787228431695 -0.40389535618469097 0 -0.40389535618469097 0.12688153562671442 0 0 0 0 239.55307022823399 -46.729439551343319 0 -46.729439551343319 14.67716104350859 0 0 0 0 192.85927910689497 -12.637873342355732 0 -12.637873342355732 -9.8862134132832864 0 0 0 0 46.342802873856272 17.968497935168422 0 17.968497935168422 -0.63500816790144654 0 0 0 0 105.31777029624209 -4.3709540376118028 0 -4.3709540376118028 -17.993666840384549 0 0 0 0 74.684300412354787 -14.946739746046475 0 -14.946739746046475 1.8670697877681448 0 0 0 0 0.57320646454031987 -0.67660348767846301 0 -0.67660348767846301 -0.009124733245683192 0 0 0 0 38.915490710234735 -20.088188097659682 0 -20.088188097659682 3.0102237220535812 0 0 0 0 57.710809879506996 -4.2984836694523949 0 -4.2984836694523949 -7.6922508684575064 0 0 0 0 253.40132968417311 -89.595714946196068 0 -89.595714946196068 -9.3812886942503582 0 0 0 0 0.37407258647223784 -0.086624620596893465 0 -0.086624620596893465 -0.12625326615201471 0 0 0 0 138.23823414890649 -64.406509313811483 0 -64.406509313811483 -27.869709040968701 0 0 0 0 166.36600296666438 -70.245621848497336 0 -70.245621848497336 -34.399047020100596 0 0 0 0 -82.021524939547817 -94.346594506228172 0 -94.346594506228172 -10.749648041457753 0 0 0 0 132.63162687176373 -92.479646396439122 0 -92.479646396439122 -12.21910432295698 0 0 0 0 294.28649448268698 -101.72139193044616 0 -101.72139193044616 -25.104223599122541 0 0 0 0 235.81368328612007 -114.6607849049043 0 -114.6607849049043 -27.524628066096057 0 0 0 0 265.08346606680425 -68.626858034631397 0 -68.626858034631397 -38.685162655054739 0 0 0 0 289.50732802716811 -101.20920535629978 0 -101.20920535629978 -2.4582446943518335 0 0 0 0 278.14677526794549 -89.355150341673777 0 -89.355150341673777 -8.2130647971354733 0 0 0 0 303.93193636176875 -88.928919477522413 0 -88.928919477522413 -8.2232879398605334 0 0 0 0 280.86855269144871 -240.58654260183613 0 -240.58654260183613 163.1527323611578 0 0 0 0 28.926642284131958 -16.896996551039805 0 -16.896996551039805 62.929028094669476 0 0 0 0 43.084934554688516 -18.965561704162354 0 -18.965561704162354 7.8166131553777092 0 0 0 0 1.6695358524783046 -0.42703941528043288 0 -0.42703941528043288 -0.71207667165269961 0 0 0 0 0.20030184790023497 -0.33979830390534005 0 -0.33979830390534005 -0.039648331174438889 0 0 0 0 295.31955525058584 -96.652474736692284 0 -96.652474736692284 -9.0378408469412079 0 0 0 0 -2.5938217114453437 -19.129887569873205 0 -19.129887569873205 -2.2242069823145627 0 0 0 0 9.1504204566590488 -29.241292499137614 0 -29.241292499137614 -42.531420071191576 0 0 0 0 2.4665094869378663 -18.752148919289994 0 -18.752148919289994 -51.30461152133114 0 0 0 0 0.36783241472704731 -0.32402045525667234 0 -0.32402045525667234 -0.18834335121125756 0 0 0 0 -0.66598811325093266 -31.262489049346271 0 -31.262489049346271 -36.305684492615285 0 0 0 0 -13.46454071206972 -15.778611797398923 0 -15.778611797398923 -48.244837024731737 0 0 0 0 -11.412775793124638 -3.4071640325959329 0 -3.4071640325959329 -60.741672035095576 0 0 0 0 -3.2110092354705557 -25.183936780169162 0 -25.183936780169162 -46.066807344834615 0 0 0 0 -16.606886400477379 -34.772113846994074 0 -34.772113846994074 -40.943381131241821 0 0 0 0 12.817996331883478 -12.796602685695689 0 -12.796602685695689 15.106682554746726 0 0 0 0 4.3947522142499622 -0.72776097977986964 0 -0.72776097977986964 -0.44252400925845703 0 0 0 0 32.08279662336281 -3.9143345270225041 0 -3.9143345270225041 -4.7559620429057077 0 0 0 0 1.5043607184488792 -0.083731432958373375 0 -0.083731432958373375 -0.83965515049782602 0 0 0 0 6.6641218050208408 -27.955486848065107 0 -27.955486848065107 31.724250018080397 0 0 0 0 47.226335750623548 -10.700827970480546 0 -10.700827970480546 -7.7974000736505786 0 0 0 0 96.775408197427168 -75.865741867728985 0 -75.865741867728985 36.530250280720338 0 0 0 0 178.71459866134683 -45.892898226007901 0 -45.892898226007901 1.1183067692322801 0 0 0 0 -0.12984341988195069 -0.033947795246703549 0 -0.033947795246703549 0.16860782336945246 0 0 0 0 79.4643168287148 37.044816266579808 0 37.044816266579808 -41.716568411901861 0 0 0 0 199.99500889706542 160.22785776517796 0 160.22785776517796 82.161812432296614 0 0 0 0 79.370528594670759 11.318785981876232 0 11.318785981876232 13.235397008674468 0 0 0 0 248.03531114236466 227.48584612297822 0 227.48584612297822 84.613233327430351 0 0 0 0 2.0566025310752138 -0.075687487199800785 0 -0.075687487199800785 0.14335579615880567 0 0 0 0 4.5784306608751422 -0.42478652691805907 0 -0.42478652691805907 -0.39552359590199221 0 0 0 0 -14.763186680298531 -61.726510001397614 0 -61.726510001397614 -29.624766396527605 0 0 0 0 82.825312850422051 23.489281783268098 0 23.489281783268098 -46.087628117017459 0 0 0 0 84.760459094599355 9.0411805389033759 0 9.0411805389033759 5.0448785441938639 0 0 0 0 0.002260654886775626 -0.082284992674104274 0 -0.082284992674104274 3.5248375617693579 0 0 0 0 74.23256595069688 2.2900217952819446 0 2.2900217952819446 1.27869224334313 0 0 0 0 80.874834546360944 -23.26569728038595 0 -23.26569728038595 10.013030760275797 0 0 0 0 42.590703027934069 -1.1838523748815533 0 -1.1838523748815533 -5.0406307281318732 0 0 0 0 56.974803223623894 12.221670378803822 0 12.221670378803822 5.4414447492381264 0 0 0 0 63.792616894177627 1.867506807111738 0 1.867506807111738 4.8139055955385999 0 0 0 0 61.632484213580028 12.902486827056691 0 12.902486827056691 1.603937310616077 0 0 0 0 61.72005936934147 13.30578974026821 0 13.30578974026821 -14.421092123517923 0 0 0 0 -59.892600685445359 9.4362499133353452 0 9.4362499133353452 22.408676002238053 0 0 0 0 93.218850547038528 16.245578352806817 0 16.245578352806817 -19.876182114173957 0 0 0 0 -0.18007654408197027 0.44917635334863348 0 0.44917635334863348 3.203425520777635 0 0 0 0 25.490496167542005 36.945710728904345 0 36.945710728904345 -31.910077104755203 0 0 0 0 76.170760742243147 -37.060163073122737 0 -37.060163073122737 2.8924558936298368 0 0 0 0 104.51371092417685 -77.34050228821053 0 -77.34050228821053 19.524899866035405 0 0 0 0 71.925716399025987 -41.030909346992672 0 -41.030909346992672 0.6513016255569255 0 0 0 0 1.6590041268987079 -0.3308116603344069 0 -0.3308116603344069 0.038488354082315768 0 0 0 0 78.439018142249552 -110.04316830510766 0 -110.04316830510766 125.56647976562942 0 0 0 0 194.1290333927609 -88.742977308812272 0 -88.742977308812272 6.2930046957875447 0 0 0 0 39.721750111159054 -48.165977361301486 0 -48.165977361301486 -19.014415116576174 0 0 0 0 -64.493947054514138 -29.405834288856198 0 -29.405834288856198 100.70436191640363 0 0 0 0 93.858060036007373 42.199669155771005 0 42.199669155771005 84.695032109093063 0 0 0 0 44.739905708091101 17.949075867916292 0 17.949075867916292 -43.852157209426082 0 0 0 0 109.00300747342408 -99.173219053950845 0 -99.173219053950845 118.21088237972324 0 0 0 0 103.8210148573271 -52.857180410073283 0 -52.857180410073283 -48.016446695607158 0 0 0 0 113.64915752524394 24.435087918173963 0 24.435087918173963 -76.257371378310893 0 0 0 0 211.74909053475858 -17.200066959187552 0 -17.200066959187552 -77.117284083606592 0 0 0 0 172.50145462068031 -5.2380517821834474 0 -5.2380517821834474 -66.559860577019123 0 0 0 0 187.08700864962157 23.077908586306364 0 23.077908586306364 -47.778391692986816 0 0 0 0 166.32345140969846 25.381308725796146 0 25.381308725796146 -21.41453503381274 0 0 0 0 125.37400941070518 -2.9360672993379922 0 -2.9360672993379922 -38.52374814366965 0 0 0 0 71.111956833454315 -53.66765813568162 0 -53.66765813568162 -23.97465428891087 0 0 0 0 23.166560942700016 -15.35930480031692 0 -15.35930480031692 0.62872107539828903 0 0 0 0 0.23976952935027285 -0.54133718382117024 0 -0.54133718382117024 2.6495886747598032 0 0 0 0 133.69894225276948 -15.737990608727642 0 -15.737990608727642 -39.314430813518356 0 0 0 0 78.207174987328472 -11.492155653125678 0 -11.492155653125678 -16.116244413058666 0 0 0 0 113.71746182069182 -9.1141441326587085 0 -9.1141441326587085 -17.904353321525178 0 0 0 0 109.97776263140986 11.887261220912137 0 11.887261220912137 -2.1073941154173212 0 0 0 0 84.356529634154867 11.87981519410846 0 11.87981519410846 8.9324771906084521 0 0 0 0 95.777697226090822 18.468347113785967 0 18.468347113785967 7.1342805929273823 0 0 0 0 84.409436601261405 9.9712972377139053 0 9.9712972377139053 5.8513505690610828 0 0 0 0 85.514944303682569 5.4942625838113486 0 5.4942625838113486 4.3248666707290795 0 0 0 0 48.87099690035393 19.968478240934346 0 19.968478240934346 3.7605219859651697 0 0 0 0 0.026092007170660736 0.16650945129212857 0 0.16650945129212857 0.28433859182785981 0 0 0 0 107.95203374441189 3.9977881500770707 0 3.9977881500770707 0.32064996023541426 0 0 0 0 83.750111144625407 6.840125872572699 0 6.840125872572699 6.6984225023999215 0 0 0 0 72.607435827890185 -0.87559019738351296 0 -0.87559019738351296 21.289199386836572 0 0 0 0 91.940564984222874 -9.5683462812579592 0 -9.5683462812579592 9.4641369043058603 0 0 0 0 46.583320233883569 4.5724433176228558 0 4.5724433176228558 13.306508263853061 0 0 0 0 65.681406485644402 -0.20969759501781482 0 -0.20969759501781482 14.453628557690053 0 0 0 0 71.620755633690351 8.4783013500039424 0 8.4783013500039424 7.6670863107217428 0 0 0 0 53.527391091061872 3.4384408941640459 0 3.4384408941640459 13.025942752393519 0 0 0 0 64.699316923504739 6.9736246884159669 0 6.9736246884159669 8.3773509856265491 0 0 0 0 69.838441380430595 4.9787412179661032 0 4.9787412179661032 10.265221782884254 0 0 0 0 69.577770681935363 8.4997783798260969 0 8.4997783798260969 8.7059976033396538 0 0 0 0 69.862999615987064 10.574646010561722 0 10.574646010561722 7.5196149211744654 0 0 0 0 70.340261678938987 8.1209420766932681 0 8.1209420766932681 9.4948252071483097 0 0 0 0 54.226922266403562 10.502552271827994 0 10.502552271827994 11.936567811679225 0 0 0 0 50.641762312327046 14.349342047966964 0 14.349342047966964 11.336643217925285 0 0 0 0 82.622366784125916 14.811314497550597 0 14.811314497550597 5.7695347054818171 0 0 0 0 87.257530790520832 10.717324534316276 0 10.717324534316276 6.015238598859554 0 0 0 0 86.068955468857894 12.886860953412224 0 12.886860953412224 4.2556021656492788 0 0 0 0 71.013579497099272 12.171716868985435 0 12.171716868985435 7.5101823300180541 0 0 0 0 87.169018063606927 18.505150783265371 0 18.505150783265371 3.472502748991019 0 0 0 0 70.394155530281751 15.073948451864364 0 15.073948451864364 5.6531147795019763 0 0 0 0 49.167179303462035 14.854084594899888 0 14.854084594899888 8.8183825145217725 0 0 0 0 116.56372249987908 12.127860594600719 0 12.127860594600719 8.3885461300194493 0 0 0 0 94.704618790769018 3.5156594843066671 0 3.5156594843066671 5.4306552144074232 0 0 0 0 120.46857054197608 0.17675926584537649 0 0.17675926584537649 -0.34150559512547751 0 0 0 0 95.372253296874987 0.53764603424184543 0 0.53764603424184543 -0.20979195649488247 0 0 0 0 90.643771484275931 15.157132231169243 0 15.157132231169243 6.6819793622331645 0 0 0 0 0.23460761745779735 -0.33653834425774676 0 -0.33653834425774676 2.1822739080810951 0 0 0 0 84.751006959166261 -8.9474005113322619 0 -8.9474005113322619 -0.097989068145068359 0 0 0 0 96.805915938915859 13.595999834549225 0 13.595999834549225 -0.50746921214980034 0 0 0 0 0.36506862125663275 -0.52346579252693459 0 -0.52346579252693459 1.3686913638235523 0 0 0 0 106.50295493596059 9.6593766590789727 0 9.6593766590789727 10.87262990954104 0 0 0 0 110.96034167262405 -7.0342974052627341 0 -7.0342974052627341 2.3463824025742781 0 0 0 0 164.50395755888894 11.209059673443569 0 11.209059673443569 -10.23248726697026 0 0 0 0 100.74223940154479 -9.7289020657165377 0 -9.7289020657165377 3.6436978201026768 0 0 0 0 101.58469335500558 3.6308474066339542 0 3.6308474066339542 -0.072846800796387612 0 0 0 0 92.273144168402723 15.729919954622462 0 15.729919954622462 -0.96625092621302855 0 0 0 0 183.9926596134319 0.94584077351157481 0 0.94584077351157481 -21.880963763604733 0 0 0 0 0.27775255314408298 -0.19713154269193467 0 -0.19713154269193467 0.44108630029612783 0 0 0 0 119.46021936235775 -4.7222090312427891 0 -4.7222090312427891 12.3987229265684 0 0 0 0 154.25650395301636 10.940133272031664 0 10.940133272031664 -0.014366288739378279 0 0 0 0 101.01506293780403 -12.22482594237562 0 -12.22482594237562 18.940770505893148 0 0 0 0 158.71790473473084 -22.007244853437708 0 -22.007244853437708 0.56709436051845685 0 0 0 0 74.764984525136242 21.170189500963126 0 21.170189500963126 0.083835626772611249 0 0 0 0 81.542712370195659 10.811171620585611 0 10.811171620585611 4.2663133332736818 0 0 0 0 83.753369666417711 21.314103250368081 0 21.314103250368081 0.022874550503436931 0 0 0 0 65.034295420424314 11.804816591308102 0 11.804816591308102 2.9895476678036097 0 0 0 0 52.078324866408366 23.553613841444164 0 23.553613841444164 -0.0089241435980965816 0 0 0 0 24.402954918364685 13.77617904817631 0 13.77617904817631 12.475694866286659 0 0 0 0 25.243627895775717 24.526764727834799 0 24.526764727834799 6.2967063043977305 0 0 0 0 31.681384044139122 14.380164825488761 0 14.380164825488761 -10.886152088766213 0 0 0 0 32.273574624836328 11.639804038997083 0 11.639804038997083 0.83799878523687732 0 0 0 0 -5.2082941826229217 16.689181203426479 0 16.689181203426479 -0.0014171384020875925 0 0 0 0 -6.0537857778399484 10.136135210479427 0 10.136135210479427 -16.59810490972086 0 0 0 0 -7.5928293824908906 0.57922927274260672 0 0.57922927274260672 -0.018080770772515915 0 0 0 0 -0.12873736879561193 0.10478443069472121 0 0.10478443069472121 -0.075843866219031608 0 0 0 0 -4.023465612102882 -5.5464954060631975 0 -5.5464954060631975 -18.30405455593187 0 0 0 0 4.8322856241575209 30.000726736850332 0 30.000726736850332 -0.80064958317823454 0 0 0 0 6.7965777835197514 12.740547676992712 0 12.740547676992712 16.990923943853474 0 0 0 0 11.90619072705158 10.782078447161226 0 10.782078447161226 15.002312376759619 0 0 0 0 14.883988198198495 19.923235034617889 0 19.923235034617889 13.032792327759068 0 0 0 0 8.2542993229508284 12.054032327146714 0 12.054032327146714 16.557374690726093 0 0 0 0 12.651644169789506 14.379165662330024 0 14.379165662330024 15.155911512512439 0 0 0 0 15.648590224987856 11.306000048152171 0 11.306000048152171 13.806880896695873 0 0 0 0 21.095392841059947 16.853229679517312 0 16.853229679517312 13.154055378452519 0 0 0 0 27.520165873254882 9.7121280500944209 0 9.7121280500944209 15.430814459477006 0 0 0 0 36.659228594377055 18.430009329020137 0 18.430009329020137 12.450674501711092 0 0 0 0 47.318021669474547 8.5743119046217515 0 8.5743119046217515 11.407251152299022 0 0 0 0 48.761241857981076 18.293339704340447 0 18.293339704340447 5.9847449220593347 0 0 0 0 25.301038818113739 12.118783482580824 0 12.118783482580824 14.497430250289142 0 0 0 0 26.632948263782964 16.248863831954399 0 16.248863831954399 13.747189654102442 0 0 0 0 6.0441800240660086 -5.8595301337301073 0 -5.8595301337301073 -7.9181077573841998 0 0 0 0 7.7324292779521784 -11.673159090725401 0 -11.673159090725401 -0.030437822126626393 0 0 0 0 2.3972093528809637 -6.1067102325798803 0 -6.1067102325798803 -5.9319038896915597 0 0 0 0 2.6987289382741437 -5.4110616893718584 0 -5.4110616893718584 -7.782831212163174 0 0 0 0 -3.5115946644655196 -4.0643803599118051 0 -4.0643803599118051 -6.5967771535171567 0 0 0 0 -3.6866796890099067 -5.0074747206376253 0 -5.0074747206376253 0.005004960080376584 0 0 0 0 -4.2480920151283499 -2.9965526162994669 0 -2.9965526162994669 -6.8907019936701035 0 0 0 0 -3.5107454317258089 -6.2013095227553814 0 -6.2013095227553814 -8.3006635274510536 0 0 0 0 -3.7647158577628943 -3.4263710896813153 0 -3.4263710896813153 -6.6024008395467133 0 0 0 0 8.1322985178076124 11.322376792398723 0 11.322376792398723 16.396673505260139 0 0 0 0 -0.28300423156682086 0.35733815669212277 0 0.35733815669212277 -0.32026019552584417 0 0 0 0 6.3386155546177179 10.112838380264037 0 10.112838380264037 15.672184368025356 0 0 0 0 7.8160889103382942 13.061643935111732 0 13.061643935111732 12.409751092548078 0 0 0 0 5.7479296764140599 13.251267583161216 0 13.251267583161216 16.833810244630172 0 0 0 0 7.6429600136325462 11.323591909357418 0 11.323591909357418 13.146845533726612 0 0 0 0 5.5763614563620649 10.89329105966641 0 10.89329105966641 13.093099868041122 0 0 0 0 1.1834372923913179 -3.855404395608943 0 -3.855404395608943 -9.0701423597926656 0 0 0 0 -0.16105445586435962 -5.1310968905548577 0 -5.1310968905548577 -9.1363543691019586 0 0 0 0 -0.6788879008981894 0.47551503163607833 0 0.47551503163607833 -0.44596620153659028 0 0 0 0 1.4781709252347355 -2.7983555012029804 0 -2.7983555012029804 -8.9715603091463976 0 0 0 0 5.8661940704914741 -2.1445483188262315 0 -2.1445483188262315 -9.096194190685658 0 0 0 0 -2.1907381672390329 -0.96921356086974697 0 -0.96921356086974697 -7.5241018269547197 0 0 0 0 8.1639840044590528 9.4577159426537492 0 9.4577159426537492 6.9217559239542652 0 0 0 0 4.9139226174593205 9.2653984478843086 0 9.2653984478843086 15.136918595146028 0 0 0 0 8.2073857936629793 6.1427676875221593 0 6.1427676875221593 -2.675260810378429 0 0 0 0 4.6778807021328248 1.8321954417452133 0 1.8321954417452133 0.565773830523284 0 0 0 0 0.99616437541405389 0.53485495335215205 0 0.53485495335215205 0.12527317071101385 0 0 0 0 0.17538740612403103 1.4744656590023197 0 1.4744656590023197 -0.70816779172975231 0 0 0 0 1.3185355568807395 0.33776832534127266 0 0.33776832534127266 -0.10019258012404728 0 0 0 0 3.6337648816333967 -2.0114766146470009 0 -2.0114766146470009 -10.758329335359768 0 0 0 0 12.470685893116752 -4.4687460850927962 0 -4.4687460850927962 -12.072745364835669 0 0 0 0 12.265733507010737 1.97415352132289 0 1.97415352132289 -13.889805752338091 0 0 0 0 5.6024460266071401 -0.73647288644136566 0 -0.73647288644136566 -13.827172291070212 0 0 0 0 14.197185304611452 6.999546786640451 0 6.999546786640451 -1.2439563527402286 0 0 0 0 32.208332132715441 1.5345786778723394 0 1.5345786778723394 -3.8805242401074196 0 0 0 0 26.336818965344719 -0.27252323766211006 0 -0.27252323766211006 0.46748406417191291 0 0 0 0 3.2796000475692502 0.027189367041117407 0 0.027189367041117407 0.91682195244155729 0 0 0 0 5.1047787765091925 7.4334625173549185 0 7.4334625173549185 3.4383116324799516 0 0 0 0 5.9028237823076779 13.769014961223036 0 13.769014961223036 5.6342895482267181 0 0 0 0 12.036547114509204 4.0077721823005845 0 4.0077721823005845 -0.39880775983748107 0 0 0 0 11.769575448817221 2.6312826688532311 0 2.6312826688532311 -0.66589677469048947 0 0 0 0 9.5661324643006083 -1.3786859536247391 0 -1.3786859536247391 0.18053773396536599 0 0 0 0 14.728157806879608 3.296448219943116 0 3.296448219943116 -1.5333781480859443 0 0 0 0 17.420288378722034 3.057061540356699 0 3.057061540356699 -1.9433269127276844 0 0 0 0 1.1968983832269942 0.62074592915855931 0 0.62074592915855931 -0.81480009847764179 0 0 0 0 2.0126443068101167 3.1030095102657924 0 3.1030095102657924 0.44474955221710244 0 0 0 0 9.635189225882641 0.94302281224913997 0 0.94302281224913997 -1.9679848443655032 0 0 0 0 6.2251284846570343 14.86184661431102 0 14.86184661431102 2.2540825998568721 0 0 0 0 4.6101796132061281 17.525134817314211 0 17.525134817314211 -3.2336795337558613 0 0 0 0 2.8661506461139652 13.362254229160754 0 13.362254229160754 1.6235838248732932 0 0 0 0 6.0848293201197521 11.177348991777649 0 11.177348991777649 -4.9659808801915801 0 0 0 0 6.2035942544898717 14.56434274851074 0 14.56434274851074 1.2626109294615731 0 0 0 0 6.6536331241368316 11.734099820750373 0 11.734099820750373 7.9702770535001832 0 0 0 0 5.5273479340230551 10.82160220461434 0 10.82160220461434 7.4725119998865921 0 0 0 0 8.187737611362536 12.057588812448756 0 12.057588812448756 6.424710751496832 0 0 0 0 5.8611817699065796 11.466899032623111 0 11.466899032623111 6.3091239346075554 0 0 0 0 10.073811873633531 16.264856554121849 0 16.264856554121849 -3.4101031094635346 0 0 0 0 4.3600359928459511 14.835109778692527 0 14.835109778692527 -3.2636461451690195 0 0 0 0 11.453649152739672 15.236027919054578 0 15.236027919054578 -13.125385998444074 0 0 0 0 15.355943739408843 7.0882750320406558 0 7.0882750320406558 -0.98072550153869553 0 0 0 0 10.354523758040159 21.346777340840049 0 21.346777340840049 -13.076787452768068 0 0 0 0 19.518662796479475 -0.88125265097076522 0 -0.88125265097076522 1.2788750578308026 0 0 0 0 4.5097122955014584 21.39946411039811 0 21.39946411039811 -11.89041866595835 0 0 0 0 15.350004556076016 6.9491601562863821 0 6.9491601562863821 -1.1644292732222277 0 0 0 0 20.609082191537709 -3.6165989191646704 0 -3.6165989191646704 6.963557873495887 0 0 0 0 21.830066421825904 16.043234663165606 0 16.043234663165606 -2.857427701369005 0 0 0 0 23.458064940841723 -4.6876924832062521 0 -4.6876924832062521 5.7520590267315015 0 0 0 0 51.543085637291369 0.87866441346616853 0 0.87866441346616853 -3.2822104638303529 0 0 0 0 -0.40633091750872907 0.19790622014656378 0 0.19790622014656378 0.25575355704515845 0 0 0 0 17.196832917892607 17.445244339837416 0 17.445244339837416 11.28920247819339 0 0 0 0 24.14457758113349 14.219552740691213 0 14.219552740691213 6.9161131434838126 0 0 0 0 22.593335183926683 12.526462006178008 0 12.526462006178008 12.11433728325801 0 0 0 0 26.846631471562432 18.461748785516363 0 18.461748785516363 8.2824519855418259 0 0 0 0 45.410723615821553 12.848092942528989 0 12.848092942528989 8.6622312412952169 0 0 0 0 37.286602641848731 5.1335094217968447 0 5.1335094217968447 12.785115937179739 0 0 0 0 35.625154819601448 14.242121940163145 0 14.242121940163145 10.046201106479799 0 0 0 0 32.557695950075868 8.6097025230645698 0 8.6097025230645698 14.273814970964565 0 0 0 0 50.990730789097142 11.422218926791402 0 11.422218926791402 11.148333618806305 0 0 0 0 51.561494397232309 6.2075139975905529 0 6.2075139975905529 11.626284427279643 0 0 0 0 39.188294998341007 14.562423846197873 0 14.562423846197873 12.817173325700239 0 0 0 0 25.754835890060349 16.677483763412567 0 16.677483763412567 12.455213745225763 0 0 0 0 21.062964804004878 11.919972011563985 0 11.919972011563985 11.548078789466842 0 0 0 0 17.419543460637215 17.101796640347743 0 17.101796640347743 10.318031734966553 0 0 0 0 9.6513756160020421 10.299321370799802 0 10.299321370799802 10.059444400718007 0 0 0 0 10.265469345740485 12.793045613340873 0 12.793045613340873 -0.26425772248404655 0 0 0 0 13.308500310471572 17.546168431324787 0 17.546168431324787 6.1338666301095799 0 0 0 0 13.46467564173372 15.048656217030082 0 15.048656217030082 10.013853457119126 0 0 0 0 17.601918719214154 16.744925772937989 0 16.744925772937989 1.1619410270903927 0 0 0 0 16.749765970133012 21.117193662180512 0 21.117193662180512 1.2254757029384482 0 0 0 0 18.663251496458543 21.464701006084653 0 21.464701006084653 -6.1105994940671735 0 0 0 0 16.315032105179853 18.052096403241904 0 18.052096403241904 -7.5413817373245138 0 0 0 0 13.864335320140526 20.474788350024994 0 20.474788350024994 -2.7440893889444311 0 0 0 0 21.425543170233141 18.391510036978048 0 18.391510036978048 -17.349105929019515 0 0 0 0 19.896772343621706 23.209568927986425 0 23.209568927986425 -13.499595830787882 0 0 0 0 19.791663705314932 23.299985119217631 0 23.299985119217631 -5.7096191064496224 0 0 0 0 13.108808805831359 33.806605064054338 0 33.806605064054338 -20.391691153299888 0 0 0 0 10.109108829196884 16.701688174413611 0 16.701688174413611 -4.3352601223090232 0 0 0 0 21.262876547676569 13.415110549552907 0 13.415110549552907 4.5702892748983004 0 0 0 0 15.850031487396336 20.992918417111923 0 20.992918417111923 4.5220046436224948 0 0 0 0 24.113894028690993 19.941446754245987 0 19.941446754245987 -4.0079058279048354 0 0 0 0 33.58261558166123 5.8413599737869504 0 5.8413599737869504 8.3593031098580468 0 0 0 0 19.992111337924143 13.697468523596797 0 13.697468523596797 7.4840549586522158 0 0 0 0 -9.5833483825408621 39.027110849959911 0 39.027110849959911 -23.966872246415733 0 0 0 0 10.831806626731122 -10.659097690994642 0 -10.659097690994642 -23.299431954202873 0 0 0 0 69.407397703660536 23.989709252488865 0 23.989709252488865 -62.835466692300088 0 0 0 0 95.603524313286471 22.98607892944483 0 22.98607892944483 -10.34537672227907 0 0 0 0 4.479789404861549 47.489936616890347 0 47.489936616890347 -16.799436898052136 0 0 0 0 18.60402945921669 -17.302793177760122 0 -17.302793177760122 40.509555354588429 0 0 0 0 -4.3669773273722967 9.7100918874683089 0 9.7100918874683089 4.1451401180800076 0 0 0 0 -7.6122107696573948 8.7336996953875996 0 8.7336996953875996 14.654143741607413 0 0 0 0 -4.3444136540592808 -9.7504783452922226 0 -9.7504783452922226 7.1181367347894593 0 0 0 0 4.8984604322686209 -9.9809860482639863 0 -9.9809860482639863 -27.790253312896084 0 0 0 0 8.9938029129407369 -17.273909093173188 0 -17.273909093173188 -70.84347906985613 0 0 0 0 -1.2640105471771221 0.12812006055538916 0 0.12812006055538916 0.6282531820832864 0 0 0 0 17.420218021899927 20.557758764827213 0 20.557758764827213 -73.791892737715216 0 0 0 0 18.239733749297557 32.514812654483308 0 32.514812654483308 -30.608255945212932 0 0 0 0 22.161780283342523 5.7962074149716614 0 5.7962074149716614 -22.169457469221953 0 0 0 0 33.726911278601619 23.193828678584794 0 23.193828678584794 -27.543695367393639 0 0 0 0 29.590274928923463 14.073949273456719 0 14.073949273456719 -17.863817056877565 0 0 0 0 16.218422775513318 13.752754272155073 0 13.752754272155073 -13.319592101891089 0 0 0 0 22.02993799590331 6.5294374845778975 0 6.5294374845778975 -11.351922174393806 0 0 0 0 15.393246604399934 7.2302563845037753 0 7.2302563845037753 -1.3033186246744273 0 0 0 0 15.205880925940619 8.7837129124171121 0 8.7837129124171121 -0.70335384747613716 0 0 0 0 19.569047693512402 3.4411752225086616 0 3.4411752225086616 -1.6283291673488662 0 0 0 0 26.020460880186874 3.7638328245425328 0 3.7638328245425328 1.5174356463139702 0 0 0 0 5.543490080568418 1.0436767151999646 0 1.0436767151999646 -0.033795834787888168 0 0 0 0 40.51810440079862 17.037260085143231 0 17.037260085143231 -13.025828114632645 0 0 0 0 18.731761958198433 5.3745473094804481 0 5.3745473094804481 -0.24518688955305823 0 0 0 0 5.3700997375403574 4.8757769668628868 0 4.8757769668628868 -0.54549200979429391 0 0 0 0 42.762392200400427 3.9632250515692107 0 3.9632250515692107 -0.56902010223188881 0 0 0 0 40.168071340041934 9.9406272013985699 0 9.9406272013985699 4.1435207423896827 0 0 0 0 13.318687417868489 4.4207689658034042 0 4.4207689658034042 -2.1520713950822135 0 0 0 0 21.468364408021444 7.5647261032786162 0 7.5647261032786162 -0.50239269395331121 0 0 0 0 23.4921463605871 -1.817802636594422 0 -1.817802636594422 -2.5671917535764579 0 0 0 0 13.834216459876245 -3.8906198150962439 0 -3.8906198150962439 -2.4239361374168751 0 0 0 0 16.908431154828577 4.5886829130848241 0 4.5886829130848241 3.0085873644685535 0 0 0 0 22.773540286114439 2.6297718566681851 0 2.6297718566681851 2.8439996082632142 0 0 0 0 8.0139202937781988 0.41439666414977694 0 0.41439666414977694 -0.434694587356248 0 0 0 0 33.604496725951321 -0.97145931927934726 0 -0.97145931927934726 13.817929272301626 0 0 0 0 22.218678300501779 7.2936618544832754 0 7.2936618544832754 8.1695416049691971 0 0 0 0 36.385468390217284 3.9666255492319351 0 3.9666255492319351 -0.97956385520274125 0 0 0 0 4.669616387315898 -0.56799549131837068 0 -0.56799549131837068 -0.59264995731926362 0 0 0 0 44.926835734062479 -5.0540518591496948 0 -5.0540518591496948 -8.1113087395417551 0 0 0 0 39.671613800528576 4.8212279867599364 0 4.8212279867599364 -3.6196350176425085 0 0 0 0 39.610591986551299 5.3046452268526991 0 5.3046452268526991 -0.93114915940921605 0 0 0 0 38.818746432447369 7.6999239388635061 0 7.6999239388635061 -5.9853518507852641 0 0 0 0 75.345534280440916 8.5302608766513686 0 8.5302608766513686 -44.595953106650086 0 0 0 0 40.181129468088329 11.300472878658411 0 11.300472878658411 -15.740627340232095 0 0 0 0 56.373198526685883 82.025662346316381 0 82.025662346316381 -31.593131602705398 0 0 0 0 27.440841579186326 12.661092933568256 0 12.661092933568256 -1.7674408344067341 0 0 0 0 -19.883991996161058 22.987125141270894 0 22.987125141270894 62.111294796563755 0 0 0 0 -26.05665014348051 47.873970514735447 0 47.873970514735447 5.9920335658280308 0 0 0 0 29.97832553058592 13.470558789482681 0 13.470558789482681 -0.33643672667750568 0 0 0 0 37.875602977259405 0.20955091042232254 0 0.20955091042232254 0.097143829166270734 0 0 0 0 25.903155869320472 -6.8696484073241351 0 -6.8696484073241351 12.838095419055037 0 0 0 0 29.064181738263869 10.418269515511497 0 10.418269515511497 13.738565992701865 0 0 0 0 20.586194606898061 0.07860593195712795 0 0.07860593195712795 4.1114153055025895 0 0 0 0 20.623735070199473 -0.33742755694794369 0 -0.33742755694794369 2.775594057686968 0 0 0 0 11.398037218699756 10.30684562674432 0 10.30684562674432 2.321299626435092 0 0 0 0 21.439319598779548 0.23884749695582741 0 0.23884749695582741 3.0534752020859131 0 0 0 0 14.189677229443987 3.6538295191370906 0 3.6538295191370906 2.816727015563913 0 0 0 0 21.911071391322366 -1.1606885594122858 0 -1.1606885594122858 5.8978708223613694 0 0 0 0 22.249795562682266 1.116681826997592 0 1.116681826997592 4.0037962009418493 0 0 0 0 19.530328065183767 -7.4069239171369929 0 -7.4069239171369929 -0.41899671294686103 0 0 0 0 18.563800080271903 -5.9789682463338636 0 -5.9789682463338636 -1.9291687282692465 0 0 0 0 28.281131168878346 1.1974211093081522 0 1.1974211093081522 6.6870367856855069 0 0 0 0 24.402862360147992 29.357479597866131 0 29.357479597866131 -13.813757628846588 0 0 0 0 24.342797344987048 -3.6541247232502769 0 -3.6541247232502769 -3.6292138885514476 0 0 0 0 15.258309485132486 -3.7664365974532785 0 -3.7664365974532785 1.9767253548118333 0 0 0 0 27.968742221273715 -4.309222348284834 0 -4.309222348284834 6.0950610429331675 0 0 0 0 25.273154164780863 -3.4966340888647665 0 -3.4966340888647665 4.620506460872285 0 0 0 0 27.016741700572311 -2.4094101558179659 0 -2.4094101558179659 5.207205406058506 0 0 0 0 -41.845993564902074 17.819904448222658 0 17.819904448222658 11.433676355609805 0 0 0 0 16.781197057217724 4.6564976163532634 0 4.6564976163532634 1.924991937054239 0 0 0 0 124.40701737801282 -97.966060026181253 0 -97.966060026181253 73.843348117200804 0 0 0 0 -42.324250517867085 -15.157457346363501 0 -15.157457346363501 65.984603324631166 0 0 0 0 -82.709990713374282 149.55626962966903 0 149.55626962966903 37.178185966951332 0 0 0 0 23.852976993795892 5.2495767031656513 0 5.2495767031656513 -1.0673230829279419 0 0 0 0 16.859816986561782 7.4994828057049432 0 7.4994828057049432 1.2962644188809507 0 0 0 0 17.16356414284374 -10.490501943392772 0 -10.490501943392772 6.2283958952744616 0 0 0 0 22.850015883774176 -113.16631151894499 0 -113.16631151894499 -34.552720540166831 0 0 0 0 93.623761744995136 -42.877050842900644 0 -42.877050842900644 -68.803375798135221 0 0 0 0 -30.910377540625632 -48.576710597747876 0 -48.576710597747876 38.084962590795726 0 0 0 0 27.893893547239713 -83.40555969744247 0 -83.40555969744247 70.880138961769603 0 0 0 0 171.78341230258957 -42.133252944934725 0 -42.133252944934725 5.3917507994228231 0 0 0 0 -26.82480818276963 -22.096038807869093 0 -22.096038807869093 2.3939021649071606 0 0 0 0 -22.075292305278708 -14.40283699164894 0 -14.40283699164894 13.318319186325539 0 0 0 0 2.3385812430464341 0.69095896758383191 0 0.69095896758383191 -0.34098561909901015 0 0 0 0 22.988590132317768 -30.910307512292206 0 -30.910307512292206 9.7197334826223596 0 0 0 0 5.5215118099586107 -5.1207593012860571 0 -5.1207593012860571 26.378190825949787 0 0 0 0 31.436478383846406 -17.46587588863531 0 -17.46587588863531 11.746583736926368 0 0 0 0 32.010515598361962 -14.413747545675506 0 -14.413747545675506 -7.1649610638621652 0 0 0 0 17.426209385645052 3.707448695838707 0 3.707448695838707 7.8662230724066831 0 0 0 0 24.818660427772556 -8.5841549231497538 0 -8.5841549231497538 20.774127218521471 0 0 0 0 14.44759611444897 -7.8128425320708175 0 -7.8128425320708175 -7.3057392853452257 0 0 0 0 18.184140074528727 -9.1581491397853938 0 -9.1581491397853938 2.9986734190850237 0 0 0 0 15.850590309075244 -4.4789800935230915 0 -4.4789800935230915 2.2875525571770865 0 0 0 0 23.763483732407281 -17.754144173278156 0 -17.754144173278156 5.2539794013774177 0 0 0 0 17.908121973610832 -2.3549202734243408 0 -2.3549202734243408 -4.5122674279873536 0 0 0 0 16.210541196065122 -2.0783621407076396 0 -2.0783621407076396 -2.6675224740656844 0 0 0 0 19.940076815535093 -2.2586253961346969 0 -2.2586253961346969 -4.504899141002122 0 0 0 0 20.905806265363935 -4.9511397480446249 0 -4.9511397480446249 -3.2511071674598213 0 0 0 0 17.908121973508969 -2.3549202734054688 0 -2.3549202734054688 -4.512267427940742 0 0 0 0 48.827697389177047 -10.515892240815447 0 -10.515892240815447 -4.3843669672305623 0 0 0 0 22.274729213386308 -5.9696963431151744 0 -5.9696963431151744 -2.6082942150507051 0 0 0 0 17.90812197359628 -2.3549202734009214 0 -2.3549202734009214 -4.5122674279513149 0 0 0 0 32.855102865491062 -13.254604790095755 0 -13.254604790095755 14.215814189346929 0 0 0 0 7.1017485052129388 -2.4269804923992524 0 -2.4269804923992524 -3.6035337043668498 0 0 0 0 34.975579295525677 -10.355642912429175 0 -10.355642912429175 10.172459548934683 0 0 0 0 34.761045653664041 -11.263176444640749 0 -11.263176444640749 16.641454889839679 0 0 0 0 44.14980509999441 -12.967315450292062 0 -12.967315450292062 11.469031790988993 0 0 0 0 46.997060500863881 -17.890382465464654 0 -17.890382465464654 14.416193490098522 0 0 0 0 40.254575858802127 -15.510264764070371 0 -15.510264764070371 18.644319243567224 0 0 0 0 36.335844560489932 -15.354561666069344 0 -15.354561666069344 18.676866983324999 0 0 0 0 31.10571845098093 -16.120445684527169 0 -16.120445684527169 26.727042947023619 0 0 0 0 28.372935204068199 -15.468565148408288 0 -15.468565148408288 26.916629113520798 0 0 0 0 27.690617935095361 -16.559291658558028 0 -16.559291658558028 32.374921691582557 0 0 0 0 33.136585283737077 -19.335485962170111 0 -19.335485962170111 29.030058096488915 0 0 0 0 31.311588193522766 -15.93912503898764 0 -15.93912503898764 30.109563329083471 0 0 0 0 36.14550048296951 -16.213187917599043 0 -16.213187917599043 23.012084358050288 0 0 0 0 28.481636731215985 -19.932329254824481 0 -19.932329254824481 26.464034534576228 0 0 0 0 27.569926169118844 -22.272159773885505 0 -22.272159773885505 24.903948636527048 0 0 0 0 21.23562038691307 -19.139082816906239 0 -19.139082816906239 31.373023325175382 0 0 0 0 26.522594221794861 -21.006310926204605 0 -21.006310926204605 28.094625479226124 0 0 0 0 27.284449012113328 -18.758508483732214 0 -18.758508483732214 29.529940600670216 0 0 0 0 24.107627798148314 -25.619773690991451 0 -25.619773690991451 19.281443318729998 0 0 0 0 19.377000258638873 -26.139850579594167 0 -26.139850579594167 36.815975210199554 0 0 0 0 18.580841733099078 -20.712825450425385 0 -20.712825450425385 35.262081991820196 0 0 0 0 20.579946829751862 -18.536177490947637 0 -18.536177490947637 37.583522802420475 0 0 0 0 19.700163030036492 -13.216510714162723 0 -13.216510714162723 36.618352421952977 0 0 0 0 19.253804132909863 -12.564896314706743 0 -12.564896314706743 35.69173152006374 0 0 0 0 21.83988188427611 -11.23138741521575 0 -11.23138741521575 27.7752848725288 0 0 0 0 24.611906009929953 -6.7064482646570696 0 -6.7064482646570696 20.702987901002416 0 0 0 0 29.631092682553572 -12.639296631628042 0 -12.639296631628042 24.797344678788704 0 0 0 0 14.174261819774983 -3.4287151876028474 0 -3.4287151876028474 31.621780905501623 0 0 0 0 21.70373141883465 -13.415217266369268 0 -13.415217266369268 30.291744094763885 0 0 0 0 32.717762123182183 -16.804317686000786 0 -16.804317686000786 35.965105115677034 0 0 0 0 33.383764342928771 -10.871023350674704 0 -10.871023350674704 49.39410932817816 0 0 0 0 23.057902423548512 -16.613020171982299 0 -16.613020171982299 46.467600666059226 0 0 0 0 26.464833738751622 -5.2919275552269482 0 -5.2919275552269482 39.364084188453717 0 0 0 0 17.497916403241106 -10.563845885772771 0 -10.563845885772771 46.457643087289398 0 0 0 0 23.163620072009508 -17.759118293345409 0 -17.759118293345409 43.306073773606784 0 0 0 0 17.059976590084261 -20.75748133131674 0 -20.75748133131674 48.486733138418913 0 0 0 0 27.686962408712134 -21.155607226802658 0 -21.155607226802658 42.381376969869052 0 0 0 0 18.501106287367293 -30.86957542441678 0 -30.86957542441678 44.416759857614295 0 0 0 0 35.333619997851201 -28.801620650464429 0 -28.801620650464429 50.023096975825979 0 0 0 0 23.233406125903457 -18.807503398516744 0 -18.807503398516744 58.868789208137969 0 0 0 0 45.507156553561799 -8.4756742578269382 0 -8.4756742578269382 62.901642159811594 0 0 0 0 78.592105627903948 -40.766936907611807 0 -40.766936907611807 62.27631108782748 0 0 0 0 44.703554839423305 -15.364359656967224 0 -15.364359656967224 45.705133203834521 0 0 0 0 225.08432003940106 -10.577179724765074 0 -10.577179724765074 4.8357679416446899 0 0 0 0 188.72705291470629 -69.823710586652965 0 -69.823710586652965 54.986391799427793 0 0 0 0 83.580522810974799 -19.50412659007128 0 -19.50412659007128 32.067034000533567 0 0 0 0 33.447183478790976 -25.393209110688133 0 -25.393209110688133 121.15418163400508 0 0 0 0 58.18492223337671 -66.885038459993751 0 -66.885038459993751 127.06966374412355 0 0 0 0 36.840208961904864 -17.447560079747007 0 -17.447560079747007 56.059091449479183 0 0 0 0 68.048514529320528 -31.819986166521353 0 -31.819986166521353 82.55945115043346 0 0 0 0 54.793527407629881 0.27883080847846031 0 0.27883080847846031 49.142168339209661 0 0 0 0 23.766183994041057 18.321354058628913 0 18.321354058628913 67.895001489209506 0 0 0 0 49.058859444790869 11.945598193320166 0 11.945598193320166 28.743532273917936 0 0 0 0 68.229945046594366 -8.7159836495220588 0 -8.7159836495220588 18.287782591154382 0 0 0 0 94.983055961041828 17.948491656869351 0 17.948491656869351 27.341551839181193 0 0 0 0 -31.484996162238531 23.637750700658241 0 23.637750700658241 84.38136417068678 0 0 0 0 42.026523985128733 87.908670654481966 0 87.908670654481966 -14.956018808935255 0 0 0 0 50.996965129161254 6.6940011068950298 0 6.6940011068950298 -1.7010860639163639 0 0 0 0 42.252225076212198 3.1913878121478092 0 3.1913878121478092 -3.0149834981829144 0 0 0 0 48.542150863679126 5.732654582395412 0 5.732654582395412 3.4710867268131551 0 0 0 0 45.653653743327595 7.7051281952184354 0 7.7051281952184354 4.8068419080441345 0 0 0 0 46.560837076198368 12.079256948010993 0 12.079256948010993 8.5494037796611337 0 0 0 0 46.166484659450362 8.5716643176524485 0 8.5716643176524485 6.610874304339859 0 0 0 0 48.332644901413005 10.019007060395779 0 10.019007060395779 2.9998490817133643 0 0 0 0 67.161833830119576 10.926260491447465 0 10.926260491447465 5.6997347827588101 0 0 0 0 41.215428533047088 41.054979358509172 0 41.054979358509172 7.6300800358305878 0 0 0 0 6.5794560047184802 -3.5647377628241443 0 -3.5647377628241443 -6.0732795807400919 0 0 0 0 48.900302217167336 11.722716267987948 0 11.722716267987948 -10.17363769321878 0 0 0 0 47.741978172984091 5.0494762992770745 0 5.0494762992770745 -2.9595906978929634 0 0 0 0 44.07087547465926 10.897189951295672 0 10.897189951295672 -3.7825605796434729 0 0 0 0 46.94761249187286 5.8429473920809869 0 5.8429473920809869 -0.56053286046289941 0 0 0 0 25.225243432564184 12.002954747558011 0 12.002954747558011 -5.1730549928220171 0 0 0 0 26.657470779809955 33.150786722252533 0 33.150786722252533 -13.456422950418755 0 0 0 0 49.601565497097909 4.9765172701618781 0 4.9765172701618781 -10.557131574924142 0 0 0 0 41.685174610094691 -0.044309365785920818 0 -0.044309365785920818 -2.9581780282073851 0 0 0 0 10.642276486656115 7.6199561131069373 0 7.6199561131069373 -4.6093842469414792 0 0 0 0 35.982193628733512 4.0374146336637295 0 4.0374146336637295 -3.7760706658690992 0 0 0 0 11.819271962917938 -2.13163281984896 0 -2.13163281984896 -2.8426117244859075 0 0 0 0 29.655442392930127 -3.7999995629936123 0 -3.7999995629936123 -4.1879941508250056 0 0 0 0 42.601280047369073 -20.687291570412526 0 -20.687291570412526 19.327983013116636 0 0 0 0 18.558618104274501 11.395025648375537 0 11.395025648375537 -2.1560150423713971 0 0 0 0 32.343648865753494 -16.419845135742719 0 -16.419845135742719 24.253782406324262 0 0 0 0 21.585173804831584 1.7862675794231748 0 1.7862675794231748 -7.3338427607560845 0 0 0 0 52.860387184160572 -2.0769054117594266 0 -2.0769054117594266 -3.3016931831822376 0 0 0 0 16.790611932933459 6.6875035749926752 0 6.6875035749926752 -3.370511373616941 0 0 0 0 30.716541836503893 -0.82550167861635559 0 -0.82550167861635559 -7.7498617129613327 0 0 0 0 57.004581854183925 1.3690644405116927 0 1.3690644405116927 -0.50175823171502998 0 0 0 0 43.262518502480816 -6.4377296932602803 0 -6.4377296932602803 11.634156358060409 0 0 0 0 20.612027565613857 8.9011998032584216 0 8.9011998032584216 -4.9368181930510886 0 0 0 0 55.805785200587707 -12.17005981777379 0 -12.17005981777379 11.344515916739056 0 0 0 0 67.647567353851628 -23.164517144034733 0 -23.164517144034733 21.540733374844649 0 0 0 0 57.812651510967044 11.68980537761626 0 11.68980537761626 5.8686986780749066 0 0 0 0 24.090341783417401 5.8353644805495009 0 5.8353644805495009 -5.0194988120055228 0 0 0 0 39.276834432563192 -20.176311372512416 0 -20.176311372512416 24.733465852074232 0 0 0 0 41.696493777315482 -18.347662753804912 0 -18.347662753804912 19.315446273257294 0 0 0 0 37.242885426487192 -19.565538264596398 0 -19.565538264596398 19.191658510012303 0 0 0 0 45.553771408558532 -24.236802599168286 0 -24.236802599168286 26.82608752009844 0 0 0 0 35.189899631706794 -16.959096197011959 0 -16.959096197011959 25.990665826743339 0 0 0 0 40.041152308003802 -21.954003994776372 0 -21.954003994776372 30.620274694658747 0 0 0 0 50.348871075213538 -26.144798429390448 0 -26.144798429390448 39.996321181680969 0 0 0 0 43.203747896026471 -17.522882925776685 0 -17.522882925776685 29.628562740744655 0 0 0 0 43.949317712533229 -14.56229074217481 0 -14.56229074217481 31.647012886118773 0 0 0 0 53.577357339439914 -5.0310225090447602 0 -5.0310225090447602 41.078518092008025 0 0 0 0 38.159542792476714 -11.196881148440298 0 -11.196881148440298 35.478656344263868 0 0 0 0 128.67706597621145 -11.223381704253427 0 -11.223381704253427 -4.3330415424403554 0 0 0 0 4.2839529572835175 1.7845238751663786 0 1.7845238751663786 -1.4294781815028634 0 0 0 0 73.415636360048666 -44.282235947630909 0 -44.282235947630909 70.616728545282285 0 0 0 0 55.342449564108392 -15.624040276395249 0 -15.624040276395249 28.100757548103388 0 0 0 0 53.529404329281533 -3.2774571382392423 0 -3.2774571382392423 63.753166703851775 0 0 0 0 86.932758567942074 -8.5285425523046001 0 -8.5285425523046001 36.417507723455401 0 0 0 0 78.292566821968649 -35.128194852126398 0 -35.128194852126398 75.556931843495931 0 0 0 0 57.323598875022981 -9.1940360057535813 0 -9.1940360057535813 42.669707489742223 0 0 0 0 41.031152461269812 -1.9852927094755159 0 -1.9852927094755159 -10.680204266372357 0 0 0 0 58.779774102142255 -18.969353074106778 0 -18.969353074106778 -1.9908924850487892 0 0 0 0 33.634163154914859 -34.033725097089643 0 -34.033725097089643 83.701497400997255 0 0 0 0 6.7027935551910502 -0.010569684411393609 0 -0.010569684411393609 -1.6852506186664682 0 0 0 0 33.327560288590377 -1.8133359311641684 0 -1.8133359311641684 -3.2899793042108385 0 0 0 0 57.703130995985703 3.5057842413169169 0 3.5057842413169169 3.6310678753331516 0 0 0 0 55.864940136161749 9.4339603792522553 0 9.4339603792522553 4.8181365269525136 0 0 0 0 30.866881322584959 10.450865876708392 0 10.450865876708392 -5.8895297928499257 0 0 0 0 54.232463194472075 -0.87055647879151365 0 -0.87055647879151365 9.2704424693284864 0 0 0 0 22.509067350962141 0.98444570788433339 0 0.98444570788433339 -9.0127655227138348 0 0 0 0 53.165393373681582 11.095065676463719 0 11.095065676463719 5.8506857493198652 0 0 0 0 30.033462256046761 -4.1082884978988261 0 -4.1082884978988261 -6.8684139045480332 0 0 0 0 31.862566828387429 1.1424152221169592 0 1.1424152221169592 -8.603963087736723 0 0 0 0 41.592664955023793 5.6632185671367097 0 5.6632185671367097 -17.604593381131508 0 0 0 0 32.604483175317 3.7309613752645419 0 3.7309613752645419 -2.8085863039932519 0 0 0 0 32.010250041254238 8.0810084654722303 0 8.0810084654722303 -1.0377539550677497 0 0 0 0 43.725695887116672 29.854563172020164 0 29.854563172020164 -43.509195299669045 0 0 0 0 26.30101045727497 21.607016310071913 0 21.607016310071913 -23.331599169783203 0 0 0 0 32.309577749582786 8.204582150732854 0 8.204582150732854 -2.7422227948635909 0 0 0 0 30.361689354962436 17.476296273408479 0 17.476296273408479 -13.603496666869432 0 0 0 0 32.096708727201985 17.967935855875766 0 17.967935855875766 -12.832049034200509 0 0 0 0 11.483334752176518 10.705777223253861 0 10.705777223253861 -7.0051470536806653 0 0 0 0 25.13245463342173 10.903425863982193 0 10.903425863982193 -4.7522978228766988 0 0 0 0 28.471174385789823 13.257431919802229 0 13.257431919802229 -3.5627002546053141 0 0 0 0 -1.1176012130381423 34.561404926520254 0 34.561404926520254 -3.0674065185585278 0 0 0 0 -38.302054882035009 37.545034176104991 0 37.545034176104991 19.298084810478031 0 0 0 0 19.585441061855818 29.110590536155996 0 29.110590536155996 -3.6062075435661427 0 0 0 0 2.534210112880146 5.5495126332977947 0 5.5495126332977947 -2.4338796653751071 0 0 0 0 38.524671572231455 -11.264513783093889 0 -11.264513783093889 -35.861191535333091 0 0 0 0 38.16986979624744 -14.461127106875892 0 -14.461127106875892 -61.862195903626798 0 0 0 0 25.42213908129051 11.947665769899245 0 11.947665769899245 -5.033014004544432 0 0 0 0 1.510585469630314 35.767336844741294 0 35.767336844741294 17.631268991257912 0 0 0 0 1.9932408916502027 16.521419513301225 0 16.521419513301225 23.576618465686806 0 0 0 0 -6.0602258540893672 27.503201783888699 0 27.503201783888699 8.6630048355059444 0 0 0 0 10.828719972967519 27.215353121184762 0 27.215353121184762 -23.605727484286945 0 0 0 0 10.67770558479242 38.087030559480809 0 38.087030559480809 9.0669930993018113 0 0 0 0 41.325702602738602 59.817319686252176 0 59.817319686252176 -10.615423674566046 0 0 0 0 30.64535212384726 36.949202755231909 0 36.949202755231909 -22.410097814979963 0 0 0 0 12.404319777662749 27.907907486535805 0 27.907907486535805 -26.720706144702035 0 0 0 0 26.155617646405773 11.443070898057101 0 11.443070898057101 -3.6897786536718904 0 0 0 0 11.484112639649538 46.510750671471669 0 46.510750671471669 -25.905081363458578 0 0 0 0 24.958924121267046 20.80302086433494 0 20.80302086433494 -22.333315664143811 0 0 0 0 55.150263233241276 28.539410183058408 0 28.539410183058408 -36.018483285609818 0 0 0 0 29.867156013420583 7.3561545427108257 0 7.3561545427108257 -5.930998557863564 0 0 0 0 25.974342126791896 13.229226250979615 0 13.229226250979615 -2.5580191917129369 0 0 0 0 0.91913491633022204 34.932690374416779 0 34.932690374416779 -29.224400250501731 0 0 0 0 77.422402950600372 29.682749456725332 0 29.682749456725332 -67.325703947577495 0 0 0 0 66.473737142629034 11.008291967571267 0 11.008291967571267 -19.84806961283175 0 0 0 0 55.270360575523227 24.025514829658732 0 24.025514829658732 -34.943931245008571 0 0 0 0 67.922717648878461 27.290132114148946 0 27.290132114148946 -15.872766516009506 0 0 0 0 82.03616551473533 9.006320789932488 0 9.006320789932488 -18.364125104149934 0 0 0 0 81.843848351563793 12.559051093238395 0 12.559051093238395 -42.527855094058395 0 0 0 0 108.88908254557464 88.204828143004306 0 88.204828143004306 -32.444856871692537 0 0 0 0 151.5938813786488 54.699026001430866 0 54.699026001430866 -183.91388499047093 0 0 0 0 73.535445097644697 50.81743414183029 0 50.81743414183029 -59.32460623175632 0 0 0 0 286.40198351911749 -36.593945097884671 0 -36.593945097884671 -58.206798850496853 0 0 0 0 42.098537462086824 41.631525102478918 0 41.631525102478918 -17.203713112096921 0 0 0 0 -2.2925011721606978 2.0743893959733555 0 2.0743893959733555 -2.4159487695772945 0 0 0 0 60.245751828908396 -45.338397920368607 0 -45.338397920368607 -114.15677817459436 0 0 0 0 328.4147046642247 -64.979582963982921 0 -64.979582963982921 -223.23232785694972 0 0 0 0 147.55433213204378 90.566357003719304 0 90.566357003719304 -137.7207058060676 0 0 0 0 162.02595223059325 -158.94288258348092 0 -158.94288258348092 -5.2863229228828459 0 0 0 0 509.715937720699 -116.06393237105385 0 -116.06393237105385 -32.981750742657141 0 0 0 0 162.67200868246437 30.752213658354776 0 30.752213658354776 28.410583273503107 0 0 0 0 73.040098270719682 144.6324629828074 0 144.6324629828074 -65.799996601288512 0 0 0 0 267.74163407715241 19.438948344629125 0 19.438948344629125 89.040145864364149 0 0 0 0 316.02109070404549 49.337213231258829 0 49.337213231258829 25.962849139269565 0 0 0 0 1049.6989563236712 67.035804898383731 0 67.035804898383731 57.234608009844237 0 0 0 0 433.62988445344672 -316.64815537529989 0 -316.64815537529989 170.8636443456769 0 0 0 0 46.45913606153772 82.615504262013246 0 82.615504262013246 13.392138790140962 0 0 0 0 75.573939927613537 147.92596803716299 0 147.92596803716299 94.010444067570006 0 0 0 0 47.596764119545696 88.770402458697163 0 88.770402458697163 -30.869780514560205 0 0 0 0 198.22110921143394 165.96749022800691 0 165.96749022800691 88.254434455996943 0 0 0 0 -2.47385854643926 50.126735809488082 0 50.126735809488082 52.684019288047239 0 0 0 0 20.179462555963255 7.8967873059223166 0 7.8967873059223166 21.478635342433677 0 0 0 0 28.912938391829812 15.123055792974981 0 15.123055792974981 10.670985058904535 0 0 0 0 6.8565842047667616 1.102138402997582 0 1.102138402997582 0.084475659764343236 0 0 0 0 -54.784092334812158 21.932902952737322 0 21.932902952737322 203.73284928449937 0 0 0 0 32.545433891616995 85.79253877891685 0 85.79253877891685 -98.881401275626288 0 0 0 0 -27.080925451493385 -8.0556319549966702 0 -8.0556319549966702 116.80760029952455 0 0 0 0 -34.255435552510789 49.965861142653679 0 49.965861142653679 -2.181321376544247 0 0 0 0 1113.7875263803071 -367.56925740378949 0 -367.56925740378949 268.24319226310382 0 0 0 0 512.78507146590709 -507.02529901388846 0 -507.02529901388846 340.38715926430177 0 0 0 0 216.37040505198092 207.14253521725266 0 207.14253521725266 244.28389498521847 0 0 0 0 4.0268665599431301 -0.21206509591425871 0 -0.21206509591425871 -0.18018316368101317 0 0 0 0 1217.493711377625 -182.14853022191406 0 -182.14853022191406 -224.73754879054934 0 0 0 0 -1.8231593118325691 -45.313546400388759 0 -45.313546400388759 341.13713060339819 0 0 0 0 -199.76068593529999 211.4410158299047 0 211.4410158299047 17.524928509575091 0 0 0 0 5.0272345995116154 3.1780262539031696 0 3.1780262539031696 1.3074865300591427 0 0 0 0 112.81042895730138 292.16550092022396 0 292.16550092022396 37.709439735461387 0 0 0 0 423.02111586205137 349.06545727590049 0 349.06545727590049 -21.915122237529857 0 0 0 0 724.28898381892213 108.95742186361026 0 108.95742186361026 -63.500551120363326 0 0 0 0 469.56438165729924 -251.27060585564169 0 -251.27060585564169 146.21405603459357 0 0 0 0 106.64009662772878 -109.48418505250342 0 -109.48418505250342 112.68666939018951 0 0 0 0 108.15681142929316 5.2499212363507191 0 5.2499212363507191 -21.533906674715055 0 0 0 0 379.40277846658137 52.860771002124437 0 52.860771002124437 -28.261278135049949 0 0 0 0 313.99488977061628 176.55488096493318 0 176.55488096493318 -25.258232961076061 0 0 0 0 302.29975338406803 152.11445870561744 0 152.11445870561744 -67.905432544231459 0 0 0 0 59.920020637393463 -93.854322877713088 0 -93.854322877713088 82.22638756459996 0 0 0 0 91.041827243443549 -70.939668029354436 0 -70.939668029354436 36.661730383431447 0 0 0 0 -114.70920955536712 -127.78843714459666 0 -127.78843714459666 70.333913610734712 0 0 0 0 20.524237331883342 -50.674365855192761 0 -50.674365855192761 52.486801382157992 0 0 0 0 100.65789028958534 -99.681408186785717 0 -99.681408186785717 55.544761303315582 0 0 0 0 52.917014639933768 -42.884182020756917 0 -42.884182020756917 26.498169853225392 0 0 0 0 52.667108783702133 -46.24826758264517 0 -46.24826758264517 15.994292150589164 0 0 0 0 -0.64623764566204045 -4.896350125655843 0 -4.896350125655843 25.065074965964669 0 0 0 0 32.811206481812405 -39.127318440606501 0 -39.127318440606501 45.012490985576733 0 0 0 0 -6.3603664789552568 26.850569906952302 0 26.850569906952302 -13.136925199575444 0 0 0 0 -26.244567479807301 5.7429378866197567 0 5.7429378866197567 62.332732993856013 0 0 0 0 -9.573734673729632 15.797417454652027 0 15.797417454652027 0.91036779700971238 0 0 0 0 -14.243102206353797 23.158378336579744 0 23.158378336579744 12.055501444180351 0 0 0 0 3.6174484075163491 -3.4300662880397539 0 -3.4300662880397539 19.618580431013562 0 0 0 0 -1.3636220060579944 -14.107658832097371 0 -14.107658832097371 5.8060348854187112 0 0 0 0 13.36990521728876 0.96430956682645785 0 0.96430956682645785 -3.1985030002164159 0 0 0 0 66.072221006921609 27.578525071104252 0 27.578525071104252 7.6839279607468143 0 0 0 0 55.009280588943511 61.4720167553088 0 61.4720167553088 60.868095803431629 0 0 0 0 -18.866308880453289 12.040482988612439 0 12.040482988612439 3.4220036580595661 0 0 0 0 42.516143360488059 31.824528852114156 0 31.824528852114156 7.0447731788123065 0 0 0 0 0.34976906509392691 1.1973520227870011 0 1.1973520227870011 2.1446483659627704 0 0 0 0 1.2625926367933289 0.041732337182565971 0 0.041732337182565971 0.027228408308839658 0 0 0 0 25.05714254398481 -7.8518376058000285 0 -7.8518376058000285 1.0898445512590911 0 0 0 0 44.347351204572078 19.636758336929759 0 19.636758336929759 -73.069891815463507 0 0 0 0 44.240950375213288 20.48033264410401 0 20.48033264410401 -38.893548011697021 0 0 0 0 16.309681908318453 -27.371773485064523 0 -27.371773485064523 -78.043820579727253 0 0 0 0 17.852364342288638 -23.671604640234364 0 -23.671604640234364 -72.968484629705017 0 0 0 0 0.79890241484190483 0.98733820153945828 0 0.98733820153945828 -0.54571502203722311 0 0 0 0 -23.470040675681958 21.044322687357862 0 21.044322687357862 -15.768894527566999 0 0 0 0 24.642680435499642 -23.570863262241801 0 -23.570863262241801 -82.329898392033101 0 0 0 0 24.81990283588857 -22.383003552848692 0 -22.383003552848692 -82.606350170817677 0 0 0 0 -19.960631102963816 27.419120952444473 0 27.419120952444473 27.145618732379376 0 0 0 0 -2.7379346120794992 0.40661991080898474 0 0.40661991080898474 0.46119735782078219 0 0 0 0 45.320448527869303 -34.538007815260357 0 -34.538007815260357 -139.36063681984751 0 0 0 0 -6.9159415674803313 170.84894063272623 0 170.84894063272623 -162.28607626226847 0 0 0 0 2.655873756390065 -123.79098974985754 0 -123.79098974985754 -3.8152967511057341 0 0 0 0 -21.818772107450059 42.742876944321551 0 42.742876944321551 15.570876993411275 0 0 0 0 16.697575962782139 32.20723060396665 0 32.20723060396665 -47.975603116729872 0 0 0 0 4.9890774888109206 1.2212958814400388 0 1.2212958814400388 0.23192495762575316 0 0 0 0 6.6795769162708893 43.834493722041771 0 43.834493722041771 -74.911528574075987 0 0 0 0 -7.773111571019399 9.5460278524102478 0 9.5460278524102478 -21.760033974000237 0 0 0 0 -21.785454568911518 14.287155726737865 0 14.287155726737865 53.937877411768113 0 0 0 0 -10.781939360706019 16.846083946607678 0 16.846083946607678 -8.8947766527583099 0 0 0 0 -8.364867636555573 17.121740682725999 0 17.121740682725999 -11.731056537646396 0 0 0 0 -8.2652182347810594 13.775921040999606 0 13.775921040999606 -7.2235256721853602 0 0 0 0 -8.3416108658711892 15.658273370113307 0 15.658273370113307 -10.944113034767497 0 0 0 0 3.8117561924542542 1.6118307043571107 0 1.6118307043571107 0.36280561268291855 0 0 0 0 -358.06720124795538 -89.565860299172684 0 -89.565860299172684 147.36838737141534 0 0 0 0 218.2282059493009 19.772236521432092 0 19.772236521432092 -60.926652345526179 0 0 0 0 225.61178872757591 -75.043241897685675 0 -75.043241897685675 -106.89165630657828 0 0 0 0 194.45563067053081 -151.36567147742301 0 -151.36567147742301 -3.2343314977670161 0 0 0 0 154.89921714064258 -128.4093880385899 0 -128.4093880385899 115.86782381378589 0 0 0 0 168.43270179342653 -68.322998552646197 0 -68.322998552646197 -205.7448373885245 0 0 0 0 3260.1303052839066 -159.27311824370858 0 -159.27311824370858 29.30841459146432 0 0 0 0 2.4721164414752153 -3.2872827607176589 0 -3.2872827607176589 3.0310271113399967 0 0 0 0 2500.0277133818454 -631.72330643264024 0 -631.72330643264024 246.87732262098817 0 0 0 0 433.88263670011656 -508.08324600053732 0 -508.08324600053732 247.8451609902155 0 0 0 0 1880.9172695649177 -372.00486914665129 0 -372.00486914665129 -116.40979564858921 0 0 0 0 33.094978082357557 -353.18031642800327 0 -353.18031642800327 188.77406361932094 0 0 0 0 208.29204645680875 -4.2761356633419609 0 -4.2761356633419609 28.512883822212984 0 0 0 0 601.82653416466201 -39.207266843189416 0 -39.207266843189416 23.483073055637796 0 0 0 0 303.28757245048109 132.25926247739247 0 132.25926247739247 113.37697466371765 0 0 0 0 96.965426468952501 98.950614883987043 0 98.950614883987043 64.410095640090276 0 0 0 0 207.54824713806738 36.310806266967319 0 36.310806266967319 67.54948159740934 0 0 0 0 136.20208357235242 79.756993685979751 0 79.756993685979751 93.203770422439163 0 0 0 0 215.83505912677356 74.659104959411977 0 74.659104959411977 69.786606001133805 0 0 0 0 50.470959471203969 25.089977952797199 0 25.089977952797199 47.330692009031281 0 0 0 0 31.166624690347817 -17.954206078111667 0 -17.954206078111667 -15.379589914432529 0 0 0 0 10.193767203149037 39.46585004692389 0 39.46585004692389 80.10048102438418 0 0 0 0 92.307101787329884 47.370118099300271 0 47.370118099300271 80.713145365162632 0 0 0 0 132.15396879725449 64.221582122890482 0 64.221582122890482 66.867737820466118 0 0 0 0 77.455464430095162 75.384582894095047 0 75.384582894095047 89.801343820995385 0 0 0 0 27.188024968680111 39.041051000433185 0 39.041051000433185 91.916603346100601 0 0 0 0 26.744286502274917 53.528974078732972 0 53.528974078732972 -54.558538164774291 0 0 0 0 10.561547283409311 7.4726143320734408 0 7.4726143320734408 5.5212549129626511 0 0 0 0 -50.118728007197205 100.51869287977729 0 100.51869287977729 -82.318938834508117 0 0 0 0 -2.0327590265515028 130.62527984479675 0 130.62527984479675 -54.052077233245654 0 0 0 0 -47.31265237343905 106.25988608479065 0 106.25988608479065 -39.585089718007112 0 0 0 0 40.555572877427039 119.3457156526672 0 119.3457156526672 -72.272030333147995 0 0 0 0 -46.816393352700288 111.64757309809389 0 111.64757309809389 -51.043865303423445 0 0 0 0 -56.930083999817725 79.248047211303401 0 79.248047211303401 -82.176371255382946 0 0 0 0 -46.709142521234753 109.43727116893047 0 109.43727116893047 -52.871028551439849 0 0 0 0 -0.91394672713076375 0.20143505661363292 0 0.20143505661363292 1.3768485823073195 0 0 0 0 122.84174593894568 55.60429809352604 0 55.60429809352604 82.629106374714183 0 0 0 0 233.36972442101978 -5.1648520819800297 0 -5.1648520819800297 -11.186540322314158 0 0 0 0 220.63681549290413 -58.669641512027539 0 -58.669641512027539 6.5208659691634239 0 0 0 0 110.27023090948933 37.66663589439986 0 37.66663589439986 57.083249750723098 0 0 0 0 -39.667378548299894 88.327269852818972 0 88.327269852818972 -86.62465560743999 0 0 0 0 136.23003946778772 -62.290656535934204 0 -62.290656535934204 52.765452586492302 0 0 0 0 -65.446880132629303 118.52151510484043 0 118.52151510484043 -121.75177636049739 0 0 0 0 5.1052443916123593 67.11667675043941 0 67.11667675043941 -196.96448584492714 0 0 0 0 -1.0448524284693121 32.957538313407071 0 32.957538313407071 -101.43388747754034 0 0 0 0 7.115300225572895 2.4838517131277413 0 2.4838517131277413 -4.069267688434504 0 0 0 0 -172.86060883883329 65.834918545257096 0 65.834918545257096 -27.204351041325026 0 0 0 0 -49.576025924106943 77.739581481402411 0 77.739581481402411 -97.506785530622437 0 0 0 0 4.1323287330257585 -1.8925100479829382 0 -1.8925100479829382 1.1797568786655157 0 0 0 0 33.478307519471855 -13.091493650205848 0 -13.091493650205848 1.1672057497880814 0 0 0 0 33.27749577301347 -3.7418549450781988 0 -3.7418549450781988 9.0913126838731841 0 0 0 0 45.780529614268744 -2.4258593216918598 0 -2.4258593216918598 -5.4905110254223928 0 0 0 0 22.980344245832384 -11.175939142771739 0 -11.175939142771739 8.828174360752655 0 0 0 0 24.98248425804195 -19.954195860689538 0 -19.954195860689538 1.5821814788008624 0 0 0 0 21.464543479740598 -9.9015023217038873 0 -9.9015023217038873 2.0757807459401834 0 0 0 0 20.848146564618332 -6.3707495690298543 0 -6.3707495690298543 0.48889961202782029 0 0 0 0 36.815968623503068 -8.28384566822211 0 -8.28384566822211 9.145724554469723 0 0 0 0 36.500051545081078 -3.0906528617577465 0 -3.0906528617577465 3.8728368952588426 0 0 0 0 -2.7234052794374293 94.372770079432939 0 94.372770079432939 -22.450757827952657 0 0 0 0 24.034215629213861 7.3504229331138475 0 7.3504229331138475 -2.7216835080045136 0 0 0 0 76.223675675268169 -9.2589144237124401 0 -9.2589144237124401 -52.321259296214521 0 0 0 0 10.574587711948002 -13.647279351900337 0 -13.647279351900337 5.3217789029476803 0 0 0 0 19.809511201521673 -107.9716010685359 0 -107.9716010685359 -161.9597611413995 0 0 0 0 29.629646063588098 8.2809057585896113 0 8.2809057585896113 -2.5180031052482965 0 0 0 0 534.67024533898802 -28.806186557578485 0 -28.806186557578485 -406.15559452772141 0 0 0 0 -2.8349542445939733 89.30257246755059 0 89.30257246755059 -145.8971961445186 0 0 0 0 241.43897953664418 229.6269008449724 0 229.6269008449724 -69.477478937988053 0 0 0 0 3.7780105431143056 2.4104433334053894 0 2.4104433334053894 1.5508792921583145 0 0 0 0 -69.675968524265045 161.58552030648093 0 161.58552030648093 447.66086395980892 0 0 0 0 201.4835756396933 -297.0126544318382 0 -297.0126544318382 45.599097781884552 0 0 0 0 10.264562225769623 188.59816668230724 0 188.59816668230724 -35.381498889328668 0 0 0 0 -86.110696870107859 66.539420660441152 0 66.539420660441152 -108.8650352662803 0 0 0 0 258.85936095312354 -259.29166235855291 0 -259.29166235855291 -88.748838689221884 0 0 0 0 2500.5311504141064 -105.60347864706746 0 -105.60347864706746 -170.10296820544772 0 0 0 0 2361.2493326338226 -66.678507594251144 0 -66.678507594251144 26.015172722648774 0 0 0 0 3.3423257112048539 -9.9822900750798311 0 -9.9822900750798311 7.0067504921771295 0 0 0 0 1386.6758278176785 -385.62638516769908 0 -385.62638516769908 208.02794768783394 0 0 0 0 1591.4946855953458 -214.80975885335224 0 -214.80975885335224 -100.64574389253825 0 0 0 0 2497.112569720317 -469.0893892498226 0 -469.0893892498226 -38.691746284353187 0 0 0 0 11.148024973177769 1.2440554006504954 0 1.2440554006504954 2.4040090400987344 0 0 0 0 2011.8243557198875 -948.46104586521926 0 -948.46104586521926 390.36717343781811 0 0 0 0 38.480579565388325 -3.6925831009155274 0 -3.6925831009155274 1.3482158037218142 0 0 0 0 36.061912037752336 -4.4622450620635448 0 -4.4622450620635448 3.9472531242669788 0 0 0 0 6.7092275947321554 -6.7452563206328904 0 -6.7452563206328904 0.1849388020445335 0 0 0 0 41.878794615957304 -3.5289284991014078 0 -3.5289284991014078 0.52086551498268818 0 0 0 0 115.73964534791594 125.87745947698238 0 125.87745947698238 219.84268349256064 0 0 0 0 408.84252980590736 -393.88712744117402 0 -393.88712744117402 383.24411225781807 0 0 0 0 2488.7994941712459 224.92920461469902 0 224.92920461469902 -544.33742592885255 0 0 0 0 44.151182938716374 -5.4108526212532411 0 -5.4108526212532411 2.2912679385533465 0 0 0 0 5.2122490367341534 -6.6485536197609321 0 -6.6485536197609321 2.785086885138639 0 0 0 0 38.901082180404046 -2.3436487820534353 0 -2.3436487820534353 3.2038631178282913 0 0 0 0 36.316769599186955 -7.6467170537379161 0 -7.6467170537379161 5.6051736169220021 0 0 0 0 32.131426942156395 -4.5990123710118462 0 -4.5990123710118462 -7.8349764789191862 0 0 0 0 26.332528704389603 -6.7621271242236851 0 -6.7621271242236851 -1.3320310550093279 0 0 0 0 14.458269568654799 -9.5957625379702733 0 -9.5957625379702733 -1.1166299648753286 0 0 0 0 22.21731738068047 -5.8517922773428817 0 -5.8517922773428817 -0.032905624281846096 0 0 0 0 15.486808805427508 -1.3642843754414429 0 -1.3642843754414429 -0.29150202812704712 0 0 0 0 225.46190412334272 -3.4815048060688114 0 -3.4815048060688114 0.78349266350559632 0 0 0 0 2484.86648897946 351.9472570238521 0 351.9472570238521 3.7883778063929316 0 0 0 0 5.4766567328260294 -2.1824579241588609 0 -2.1824579241588609 1.5215361700211152 0 0 0 0 45.756227542922716 -26.420924874170787 0 -26.420924874170787 -30.732154181109912 0 0 0 0 15.685783983193687 -10.150232292901697 0 -10.150232292901697 0.064658393272789563 0 0 0 0 20.182153015892254 8.2829084066614413 0 8.2829084066614413 -29.321697030632652 0 0 0 0 78.413522388902493 326.85882016866594 0 326.85882016866594 20.09256855076033 0 0 0 0 9.9305606809971607 3.3845375830164812 0 3.3845375830164812 0.71288262550554127 0 0 0 0 23.503627702768426 -9.8774403518422247 0 -9.8774403518422247 49.005425507435582 0 0 0 0 4.5658445948793087 -1.6888466759184411 0 -1.6888466759184411 1.1893192520619635 0 0 0 0 14.700585552370768 2.0189731118128549 0 2.0189731118128549 -1.1325460574868309 0 0 0 0 11.757624193364535 -0.38211523089513832 0 -0.38211523089513832 0.05024847477076215 0 0 0 0 35.039555106279295 -3.3004662674546239 0 -3.3004662674546239 3.9720595482267527 0 0 0 0 34.440438504814665 -2.6126915386210356 0 -2.6126915386210356 2.8734113398962791 0 0 0 0 35.481398600997636 -4.9183142411233121 0 -4.9183142411233121 5.6190902373379004 0 0 0 0 8.8795965950430826 4.2262323409544962 0 4.2262323409544962 -1.138960890181981 0 0 0 0 11.679413213769664 5.3701785641273716 0 5.3701785641273716 -0.7600082977082997 0 0 0 0 16.966996832183213 2.4962790190932935 0 2.4962790190932935 -3.2934347482315616 0 0 0 0 8.9379922323535794 4.9587082214066243 0 4.9587082214066243 -1.027449827203927 0 0 0 0 26.943629084555141 -3.4616901872144297 0 -3.4616901872144297 3.2992445891304101 0 0 0 0 36.172982171287003 -5.6749258220446848 0 -5.6749258220446848 1.119103437651134 0 0 0 0 35.534276097117981 -4.4899287910244112 0 -4.4899287910244112 1.185396934307164 0 0 0 0 37.032065637176856 -1.9749993443509197 0 -1.9749993443509197 4.7403473223967865 0 0 0 0 25.026429527159053 -6.3453548800730246 0 -6.3453548800730246 -0.4335806992494895 0 0 0 0 25.875037417241401 -0.31613449590558673 0 -0.31613449590558673 1.7362517612994566 0 0 0 0 27.011605328501901 -1.6411480927657749 0 -1.6411480927657749 6.4381589403949988 0 0 0 0 9.8453908632964726 2.9215639000073423 0 2.9215639000073423 -3.009652120421086 0 0 0 0 16.794661984982667 8.9914521484799934 0 8.9914521484799934 0.71280696637495566 0 0 0 0 18.404631985918968 10.228034300760271 0 10.228034300760271 -0.19742487437656564 0 0 0 0 -3.2416193061716143 4.7223608339352694 0 4.7223608339352694 1.0498441482359848 0 0 0 0 68.577782685275452 12.989983574284615 0 12.989983574284615 23.483172180157567 0 0 0 0 19.212430808911449 12.089286727851118 0 12.089286727851118 1.3610023071664159 0 0 0 0 16.391998305976813 10.912280541768865 0 10.912280541768865 2.8805826630332376 0 0 0 0 8.7913900272721719 5.7583035279308632 0 5.7583035279308632 2.9895989219743253 0 0 0 0 7.2873791842139326 5.4078258520930262 0 5.4078258520930262 7.3816903265929028 0 0 0 0 6.6088602438063333 -0.52192986932658414 0 -0.52192986932658414 0.49402759092680659 0 0 0 0 22.78523360460531 6.7874707386606872 0 6.7874707386606872 -3.7261947526197901 0 0 0 0 14.192859306485616 4.4531642678957724 0 4.4531642678957724 -1.2885160262441646 0 0 0 0 23.902584527808358 -0.23233298221164489 0 -0.23233298221164489 -0.6940788795236017 0 0 0 0 16.682280179171357 10.674492153251521 0 10.674492153251521 -3.2230446164661615 0 0 0 0 8.7137947745213751 1.8422397490503499 0 1.8422397490503499 4.8755525583786152 0 0 0 0 15.196672446181765 -0.33848822741821993 0 -0.33848822741821993 -0.33926481419792909 0 0 0 0 14.38829075578542 3.8657419583402066 0 3.8657419583402066 -4.4658198793298327 0 0 0 0 16.208562261086627 3.3638328595187899 0 3.3638328595187899 1.3085917553528414 0 0 0 0 14.297631658188038 -1.8969532269877107 0 -1.8969532269877107 -0.027213330601301957 0 0 0 0 14.874895953427767 -4.2512755298056231 0 -4.2512755298056231 -8.8246731470599737 0 0 0 0 4.1590916562490747 -1.4450972032566685 0 -1.4450972032566685 0.0099208380756272314 0 0 0 0 1.7853884316544963 -0.22438176794976528 0 -0.22438176794976528 -0.10839885219034173 0 0 0 0 9.9083725839591352 1.0479431648046547 0 1.0479431648046547 -0.45618111647528403 0 0 0 0 9.9435264573257882 0.13071178858222821 0 0.13071178858222821 -0.30811774288965665 0 0 0 0 3.1163201396073532 -1.3365788303977126 0 -1.3365788303977126 0.1106054037682907 0 0 0 0 302.01419639758933 66.860963167164016 0 66.860963167164016 -1.6821248943552902 0 0 0 0 312.36722975103476 111.96608969322411 0 111.96608969322411 42.857052243330308 0 0 0 0 239.78251848043874 90.589242073913766 0 90.589242073913766 -8.8472160442376264 0 0 0 0 302.78518935731699 10.233275365306788 0 10.233275365306788 -23.811991113923028 0 0 0 0 156.72215843127924 78.103825925879249 0 78.103825925879249 35.501106574758424 0 0 0 0 80.412296521448297 18.404314496300913 0 18.404314496300913 3.9032566838204446 0 0 0 0 77.854711802996462 24.116244341063563 0 24.116244341063563 25.989705276109476 0 0 0 0 179.80811471870402 49.232342056081791 0 49.232342056081791 -0.84215406137741411 0 0 0 0 198.5433840923215 30.528414610221205 0 30.528414610221205 -2.6275337513219483 0 0 0 0 148.6657708666753 36.910965770494045 0 36.910965770494045 8.8385985721751581 0 0 0 0 150.0706681003212 33.333733145387782 0 33.333733145387782 9.3099668387480961 0 0 0 0 1.6292760347569128 0.84819446694538669 0 0.84819446694538669 0.38105194657537206 0 0 0 0 76.927713954501087 74.885595190019586 0 74.885595190019586 14.109438047749734 0 0 0 0 92.841258325657691 22.119841019943465 0 22.119841019943465 14.943116783294755 0 0 0 0 -1.413900076903019 0.48162107114997355 0 0.48162107114997355 1.359213608957023 0 0 0 0 173.65752343006898 34.686748337385723 0 34.686748337385723 4.0625694604729006 0 0 0 0 173.5082661838951 36.127021351933948 0 36.127021351933948 1.4619071455483095 0 0 0 0 219.79396692098817 34.005459215614223 0 34.005459215614223 -17.403870416592412 0 0 0 0 174.51977942354279 4.8432269470913525 0 4.8432269470913525 1.4640771888526842 0 0 0 0 222.21172656747149 25.826015517053484 0 25.826015517053484 -18.640357777533666 0 0 0 0 361.75406448610011 -5.8697748688559699 0 -5.8697748688559699 -44.494702070532711 0 0 0 0 199.55485304957438 -11.300036959413603 0 -11.300036959413603 -27.871063967682403 0 0 0 0 -0.53769732889297561 -0.1565348555983519 0 -0.1565348555983519 -0.0042461842206006351 0 0 0 0 367.10369651736255 -35.593120625361394 0 -35.593120625361394 -34.928576366084741 0 0 0 0 260.07558387674749 -61.102024889493109 0 -61.102024889493109 0.53675816639949403 0 0 0 0 83.751344172975223 -4.8057686863732556 0 -4.8057686863732556 -17.063435406570335 0 0 0 0 70.361588210478658 2.4258180553787554 0 2.4258180553787554 -14.762561479525516 0 0 0 0 79.000436303591414 16.854158360771279 0 16.854158360771279 -17.602720799595318 0 0 0 0 191.52526163295261 -31.103707563298258 0 -31.103707563298258 -8.0417691744340942 0 0 0 0 90.964641273457346 20.233138258700073 0 20.233138258700073 16.83671769044571 0 0 0 0 93.454595981361308 42.613597992614018 0 42.613597992614018 -13.852218843475953 0 0 0 0 51.160648968434543 10.332855630877418 0 10.332855630877418 -1.6834822142492953 0 0 0 0 5.55601462675817 8.3929782617721429 0 8.3929782617721429 -4.5964719737388782 0 0 0 0 42.724907317053294 6.9751845096405987 0 6.9751845096405987 0.39610937090446896 0 0 0 0 13.664422945718982 10.776976297340269 0 10.776976297340269 0.58974709537276659 0 0 0 0 21.649790170005872 11.0379263439022 0 11.0379263439022 -0.0045476735989495864 0 0 0 0 8.3544565723918964 0.63286549889140531 0 0.63286549889140531 -1.1703670989666159 0 0 0 0 60.237293071411841 -19.938972781224948 0 -19.938972781224948 14.193010705218512 0 0 0 0 83.911483934301941 11.211698968189694 0 11.211698968189694 -2.5688124527595164 0 0 0 0 71.465624095089879 178.1119041161277 0 178.1119041161277 -107.33609408068514 0 0 0 0 32.055249535857001 34.043648654625883 0 34.043648654625883 0.66546978011082558 0 0 0 0 21.6762989576183 15.958892483347 0 15.958892483347 -5.5900089600276397 0 0 0 0 9.1523564027156681 31.546533932382999 0 31.546533932382999 6.4184668770720634 0 0 0 0 -50.541069244241953 -345.02047024737743 0 -345.02047024737743 209.28199838726505 0 0 0 0 43.989709231507732 6.8597915947092645 0 6.8597915947092645 -14.540728009755696 0 0 0 0 24.16143703474232 16.513111573050182 0 16.513111573050182 -7.8751040207173553 0 0 0 0 -0.24348814673935237 0.42782897455425939 0 0.42782897455425939 -4.0496361376807588 0 0 0 0 209.21502570642406 -56.848989002815443 0 -56.848989002815443 -108.54083204858443 0 0 0 0 -297.42859289312764 163.20444959158033 0 163.20444959158033 -16.193759700075589 0 0 0 0 271.5209661561239 185.19136114675757 0 185.19136114675757 -324.50745777764951 0 0 0 0 7.6126118262296671 -0.91794492714321052 0 -0.91794492714321052 0.49633594999942687 0 0 0 0 190.72046177883749 355.17144337818036 0 355.17144337818036 -283.60361206052357 0 0 0 0 4.8181508393463446 -42.954574666527151 0 -42.954574666527151 -15.268620287831027 0 0 0 0 -85.601173490060319 -30.73651927940432 0 -30.73651927940432 11.185474615302837 0 0 0 0 6.9318585244764108 -24.656006868116492 0 -24.656006868116492 86.139963859054205 0 0 0 0 86.040570959332399 -21.417705747181799 0 -21.417705747181799 -58.282198412655816 0 0 0 0 82.020664149924414 49.170626087719029 0 49.170626087719029 -5.0352732287356048 0 0 0 0 -21.076980059267953 -85.460401898463942 0 -85.460401898463942 52.204753293905924 0 0 0 0 0.15902865643603548 -0.3256705305023786 0 -0.3256705305023786 -0.72042461904671562 0 0 0 0 163.04856112736161 -5.5009570057009114 0 -5.5009570057009114 12.803248848358635 0 0 0 0 -103.44072847323696 -201.74951485711574 0 -201.74951485711574 117.91499716192834 0 0 0 0 8.3523472063668152 6.2048289134385755 0 6.2048289134385755 -11.081801421740733 0 0 0 0 5.3574601938889828 23.069112170267545 0 23.069112170267545 -83.55898476166476 0 0 0 0 48.527291767779388 41.046352791242498 0 41.046352791242498 -86.930537797726402 0 0 0 0 18.083106791366987 14.015557601433997 0 14.015557601433997 5.7715846935351953 0 0 0 0 -52.601450077156187 32.467213591320132 0 32.467213591320132 10.432634734441621 0 0 0 0 22.759867874781776 21.789026648188042 0 21.789026648188042 7.2644615991594037 0 0 0 0 -34.165825101983501 53.390206500123668 0 53.390206500123668 13.051180934064291 0 0 0 0 4.9328258994646603 46.743268008916857 0 46.743268008916857 -13.129763663975609 0 0 0 0 37.147205827655853 67.213547401364536 0 67.213547401364536 17.526465933414144 0 0 0 0 21.303196873806883 40.645834379724732 0 40.645834379724732 -14.627739788244043 0 0 0 0 60.275002228561789 57.581583169487203 0 57.581583169487203 90.905620840141637 0 0 0 0 63.944884694268694 30.713647045773072 0 30.713647045773072 -14.628946741909857 0 0 0 0 27.207400529381545 19.230595228068822 0 19.230595228068822 -4.6860359960211735 0 0 0 0 70.005990830323299 10.783467722314068 0 10.783467722314068 -9.7042817672808752 0 0 0 0 108.81511745537864 56.028058314626833 0 56.028058314626833 -2.142590310518699 0 0 0 0 52.513084849910229 75.913956872021572 0 75.913956872021572 105.67436046259263 0 0 0 0 91.292890252112556 10.519829389050258 0 10.519829389050258 -12.460853088181693 0 0 0 0 289.57247531991743 -139.7367243762867 0 -139.7367243762867 36.327312515094775 0 0 0 0 61.730856600857805 -57.83688851920035 0 -57.83688851920035 77.565154985543884 0 0 0 0 8.4630899550311565 0.15119935217177272 0 0.15119935217177272 -0.37179172071845745 0 0 0 0 309.14750845413801 -16.955315563576825 0 -16.955315563576825 -37.225084866885936 0 0 0 0 38.305446476122597 27.275342471879426 0 27.275342471879426 -14.942604546575405 0 0 0 0 41.388698004491744 0.039011353454796449 0 0.039011353454796449 12.954657951502618 0 0 0 0 136.61542013965664 -87.322522307792497 0 -87.322522307792497 -28.985641927949473 0 0 0 0 449.33039443607413 -12.280735518257913 0 -12.280735518257913 16.107885443808499 0 0 0 0 365.4476833325898 -99.834401834909087 0 -99.834401834909087 -7.8539117298807763 0 0 0 0 446.59343074618664 -23.190276070541927 0 -23.190276070541927 -15.620045567589976 0 0 0 0 626.28124540520366 -36.238660685972675 0 -36.238660685972675 -46.245095644111586 0 0 0 0 470.73034701611323 -61.089908148917999 0 -61.089908148917999 -6.0884556711071696 0 0 0 0 736.89971191265795 213.09878388996202 0 213.09878388996202 5.0225087219903912 0 0 0 0 5.9166893721634608 0.23832703282293721 0 0.23832703282293721 0.82324495227054606 0 0 0 0 736.74113348334504 -1.6882236455591055 0 -1.6882236455591055 -3.6382500340475303 0 0 0 0 619.62459594417305 -64.507329763284673 0 -64.507329763284673 19.679257043444832 0 0 0 0 631.10979681695051 130.97872043276894 0 130.97872043276894 166.65439429808771 0 0 0 0 577.5695207536628 10.636907308115489 0 10.636907308115489 -91.513607994629851 0 0 0 0 656.39881892692938 164.71690764001744 0 164.71690764001744 -73.085463679364992 0 0 0 0 497.41701905974332 7.5576687328324006 0 7.5576687328324006 -94.951514897264431 0 0 0 0 488.36188706362736 5.072565327468233 0 5.072565327468233 -91.812291189575063 0 0 0 0 477.53075201297179 8.0977062393272234 0 8.0977062393272234 -88.676731775628269 0 0 0 0 482.31058630157349 -26.658181622774883 0 -26.658181622774883 -72.611212023334815 0 0 0 0 493.48253119291985 -91.490700064006617 0 -91.490700064006617 -27.004341537560805 0 0 0 0 368.3774761781242 -26.575355119211451 0 -26.575355119211451 -44.778752555996931 0 0 0 0 363.52807891393422 4.3945727355696 0 4.3945727355696 -67.011757757342579 0 0 0 0 468.58710852010699 17.093023386416377 0 17.093023386416377 -74.044719995139189 0 0 0 0 477.9701104889391 0.24650370123258014 0 0.24650370123258014 -63.101098308166399 0 0 0 0 379.12665758159346 83.516667538985516 0 83.516667538985516 -16.4675732091779 0 0 0 0 457.24906700504653 4.2989361614340806 0 4.2989361614340806 -20.589457891202084 0 0 0 0 471.85521132634312 11.6324550872781 0 11.6324550872781 -19.480889981531782 0 0 0 0 504.44818194786785 -17.826735869185072 0 -17.826735869185072 0.43664561138014624 0 0 0 0 678.92158872885921 219.72249282412304 0 219.72249282412304 59.370350991030897 0 0 0 0 447.07948066237805 -13.74831820689198 0 -13.74831820689198 -0.066811071987556869 0 0 0 0 433.84271518652531 -11.124649935720296 0 -11.124649935720296 32.545668881758914 0 0 0 0 461.21534528000484 -1.6341704420189096 0 -1.6341704420189096 10.133285110835743 0 0 0 0 465.87561623105285 41.758056211911864 0 41.758056211911864 30.429291496719358 0 0 0 0 460.27585944136808 19.965047243455082 0 19.965047243455082 -35.125709414090977 0 0 0 0 465.02053366415657 9.2626328290187381 0 9.2626328290187381 -43.496546597199909 0 0 0 0 467.91441539255175 19.108626090526442 0 19.108626090526442 -57.439797939966788 0 0 0 0 476.56080923811896 1.9372432382430445 0 1.9372432382430445 -85.846766954310482 0 0 0 0 489.31147015110764 11.491976967221941 0 11.491976967221941 -90.98214530637398 0 0 0 0 501.15991056158055 27.298871315903245 0 27.298871315903245 -87.372482139551238 0 0 0 0 419.22777067444986 51.496076949310726 0 51.496076949310726 -82.267649564856796 0 0 0 0 229.14530571263458 -21.29820426654031 0 -21.29820426654031 -37.303772488534975 0 0 0 0 411.46446386089519 -10.791477299967839 0 -10.791477299967839 -47.387720556840002 0 0 0 0 151.44148108038098 21.460389663660813 0 21.460389663660813 -1.6395589087241262 0 0 0 0 177.65871694334419 -71.065614450715756 0 -71.065614450715756 7.2461880025277914 0 0 0 0 548.68483317367645 -121.63778574035793 0 -121.63778574035793 14.138273004339492 0 0 0 0 1.6793738711814399 0.65148032658966315 0 0.65148032658966315 0.090881185141545584 0 0 0 0 -17.702703228924292 86.604751243434649 0 86.604751243434649 -1.4116894589166264 0 0 0 0 -6.9852092470573552 -4.1456078583055191 0 -4.1456078583055191 -23.289771940746739 0 0 0 0 83.99470218116403 8.0651884113423549 0 8.0651884113423549 -21.655051236434758 0 0 0 0 54.829066386449995 95.282106948691464 0 95.282106948691464 -0.42599708777732559 0 0 0 0 423.15515309959301 -30.124457159067632 0 -30.124457159067632 -0.069255426959084668 0 0 0 0 15.606261167420598 -7.3181542473516377 0 -7.3181542473516377 -13.042122331341321 0 0 0 0 27.295541078550741 -20.003208073750393 0 -20.003208073750393 0.080650487958639425 0 0 0 0 24.325399765744805 -4.1515096431290068 0 -4.1515096431290068 -41.537278684906227 0 0 0 0 11.82920924226346 -7.6348630135801159 0 -7.6348630135801159 -13.049409706713792 0 0 0 0 14.625725073008653 -0.93519410585954255 0 -0.93519410585954255 -17.33494562349339 0 0 0 0 12.496892149812993 -4.4387911833742457 0 -4.4387911833742457 -18.659901762644616 0 0 0 0 13.35034855039703 0.87656900022541961 0 0.87656900022541961 -11.152223955668553 0 0 0 0 -0.75662208331050351 19.571802670287525 0 19.571802670287525 -35.451769625297239 0 0 0 0 2.921564976150222 1.8121883235810259 0 1.8121883235810259 0.44843689724816438 0 0 0 0 39.897758468345273 -33.331418428614121 0 -33.331418428614121 9.2845535693654178 0 0 0 0 6.4794503431912744 22.203820255681254 0 22.203820255681254 8.0387039763465822 0 0 0 0 13.77724763705919 3.2587030657950038 0 3.2587030657950038 -10.887766409847215 0 0 0 0 15.136938584277232 -0.5453163795273035 0 -0.5453163795273035 -0.96168788515390702 0 0 0 0 5.208649338875091 0.99125840407077703 0 0.99125840407077703 0.47251002817886234 0 0 0 0 11.444848546491642 -4.5911037478980319 0 -4.5911037478980319 -0.27932914538525533 0 0 0 0 8.8329685528173059 -0.045918514390763221 0 -0.045918514390763221 -0.86115250396745413 0 0 0 0 22.898265659576282 0.94019743384950516 0 0.94019743384950516 3.8032536902527738 0 0 0 0 22.932650951885989 0.69410949416209 0 0.69410949416209 2.5564442162801697 0 0 0 0 18.363378943002317 1.1863047054379479 0 1.1863047054379479 2.7968931545300819 0 0 0 0 35.452698692944978 44.875060734403107 0 44.875060734403107 12.484522913926842 0 0 0 0 -17.470538200512237 -26.369326990498081 0 -26.369326990498081 11.672704846564713 0 0 0 0 180.32294839280075 36.547173028094932 0 36.547173028094932 -7.6802971222280974 0 0 0 0 99.691375896363752 4.505457726516191 0 4.505457726516191 1.3844001426423125 0 0 0 0 405.66926771232829 89.548186644691611 0 89.548186644691611 -63.786233600783234 0 0 0 0 297.2916387879668 84.179234320635018 0 84.179234320635018 -49.342220295732261 0 0 0 0 269.64655773629056 116.27195629709036 0 116.27195629709036 4.6649112645717921 0 0 0 0 32.100741089583607 59.787142765415638 0 59.787142765415638 95.453032196535744 0 0 0 0 11.753486191642878 -61.812468983704534 0 -61.812468983704534 -2.1696226045854807 0 0 0 0 13.970542777504306 0.84603114945871027 0 0.84603114945871027 -2.2493890954511926 0 0 0 0 85.570450318693474 -15.699155174654038 0 -15.699155174654038 -22.868587087172386 0 0 0 0 119.85057584599417 198.53806447523715 0 198.53806447523715 207.71255394426069 0 0 0 0 11.240438597778507 -2.6752026505918707 0 -2.6752026505918707 -2.5967346594758696 0 0 0 0 14.013006208871957 1.6084999544908811 0 1.6084999544908811 4.0920572819923677 0 0 0 0 19.156964252171747 -0.36439584449998108 0 -0.36439584449998108 1.5777700996814019 0 0 0 0 23.520948594901711 -1.7108346978114355 0 -1.7108346978114355 1.1455120347628167 0 0 0 0 19.319248882544343 0.036604498613314718 0 0.036604498613314718 0.047267459833676639 0 0 0 0 16.068116922870104 -2.2455400427171099 0 -2.2455400427171099 0.74794694167042053 0 0 0 0 9.1321857582517509 -5.0278119403362211 0 -5.0278119403362211 -1.0745998438685087 0 0 0 0 59.10999853423391 174.81248375390052 0 174.81248375390052 -95.150226792913259 0 0 0 0 17.065351545153959 6.7280810274283169 0 6.7280810274283169 0.21166240490073251 0 0 0 0 17.181616378977196 11.002318162007583 0 11.002318162007583 9.9968092163525739 0 0 0 0 17.6265647753753 11.528478043784958 0 11.528478043784958 -0.83898995734120518 0 0 0 0 15.912646766853868 1.25139931967027 0 1.25139931967027 14.416377547301039 0 0 0 0 16.370227196310225 1.4557474401735924 0 1.4557474401735924 1.4908370186889783 0 0 0 0 41.641302196519973 29.82030574537913 0 29.82030574537913 -106.82403960963768 0 0 0 0 37.133188030605197 -2.339928244724657 0 -2.339928244724657 -191.32954951227788 0 0 0 0 16.421815461655996 2.8850416656065079 0 2.8850416656065079 -1.94514672481316 0 0 0 0 24.529954382800497 -52.172344427687221 0 -52.172344427687221 34.272484221206923 0 0 0 0 -333.26095650715797 -2.7977926671435398 0 -2.7977926671435398 128.12351302017532 0 0 0 0 243.79495007603327 40.812082692728154 0 40.812082692728154 -34.031745754077747 0 0 0 0 -30.696995982005319 361.5002778445982 0 361.5002778445982 127.06794711692555 0 0 0 0 -957.68595078292128 224.14488781388195 0 224.14488781388195 314.41882942304801 0 0 0 0 -0.28117314128419224 -1.8721979230126919 0 -1.8721979230126919 3.2678910046951879 0 0 0 0 749.1692150758754 -221.71500145817663 0 -221.71500145817663 8.2740343912167305 0 0 0 0 108.90763670668093 -249.4695388523686 0 -249.4695388523686 232.54889114627974 0 0 0 0 232.43579851285904 2.5463179761930519 0 2.5463179761930519 81.597129356083315 0 0 0 0 325.68502017128048 -140.90108591631719 0 -140.90108591631719 72.785671003222973 0 0 0 0 165.97822473219821 -19.333076418486641 0 -19.333076418486641 -16.459990014945447 0 0 0 0 -2.1101331899901083 -7.2463067353567396 0 -7.2463067353567396 7.2314969817287018 0 0 0 0 479.41461389301548 -138.0353376993705 0 -138.0353376993705 -115.82651067516167 0 0 0 0 -993.71460346577123 105.73018556520988 0 105.73018556520988 156.51357814879248 0 0 0 0 450.65119572660114 -77.248795424938692 0 -77.248795424938692 -228.63741914392213 0 0 0 0 448.12127524070092 -59.451261328169906 0 -59.451261328169906 -44.937259010219407 0 0 0 0 158.95955655338912 70.725486407314463 0 70.725486407314463 -40.892618047559367 0 0 0 0 54.74725330093861 -141.35626625547494 0 -141.35626625547494 128.69715532190526 0 0 0 0 6.7892416228136483 -3.5420347381953761 0 -3.5420347381953761 1.9951578809057102 0 0 0 0 446.76405994415109 199.51957750490655 0 199.51957750490655 -10.061054863868094 0 0 0 0 -126.23742936423514 151.6220568428098 0 151.6220568428098 -163.60463439877435 0 0 0 0 5.2040710562790409 -8.9523610622056111 0 -8.9523610622056111 2.5752152535866633 0 0 0 0 -147.5221999316127 -179.9391592138214 0 -179.9391592138214 626.35291049983664 0 0 0 0 597.44283977957093 105.64684258553797 0 105.64684258553797 -337.84592794471143 0 0 0 0 -635.08030088512578 -165.30791460570015 0 -165.30791460570015 119.98883436193637 0 0 0 0 463.69888347978122 -1103.0759172337346 0 -1103.0759172337346 278.49368790548647 0 0 0 0 2.1469240919018944 1.8961272307498547 0 1.8961272307498547 -0.89500012713137278 0 0 0 0 547.55539590006811 -23.370048420081901 0 -23.370048420081901 -104.12692341655907 0 0 0 0 351.74481129868946 10.528958342621763 0 10.528958342621763 -108.64398246435417 0 0 0 0 275.96608826525335 -91.695828370995969 0 -91.695828370995969 0.43848484660429676 0 0 0 0 187.81905201340851 -82.911226982658377 0 -82.911226982658377 -0.37794179100819747 0 0 0 0 408.97195697360439 -230.58607400064182 0 -230.58607400064182 58.61351854095949 0 0 0 0 354.58208513437421 -147.69690242199439 0 -147.69690242199439 -131.83609546060313 0 0 0 0 27.390448103695235 -415.04271326099985 0 -415.04271326099985 65.185870418924992 0 0 0 0 -232.99463283411023 -145.86293822477131 0 -145.86293822477131 -86.501159837666023 0 0 0 0 -280.59116308730881 -252.61742842577337 0 -252.61742842577337 -30.630645807086921 0 0 0 0 -276.25246120985685 -173.00349248426369 0 -173.00349248426369 128.82700101997023 0 0 0 0 18.253173504890583 -158.95578047211063 0 -158.95578047211063 -82.65498500394915 0 0 0 0 103.70509574220341 -412.51701612896221 0 -412.51701612896221 632.48399462502539 0 0 0 0 -611.54957760996331 -288.43980290229615 0 -288.43980290229615 415.12636430246732 0 0 0 0 -295.43745228361513 255.59291331547058 0 255.59291331547058 -105.16753437544412 0 0 0 0 125.82281776985837 385.13032834195349 0 385.13032834195349 675.77493243897288 0 0 0 0 -90.38734098112036 -26.466160319157552 0 -26.466160319157552 114.02086662635446 0 0 0 0 10.896467063413326 7.7164809131599625 0 7.7164809131599625 7.3471151720442256 0 0 0 0 1893.1769299296066 -735.38164855489663 0 -735.38164855489663 153.28099339365508 0 0 0 0 1706.8096230046649 630.16371586011655 0 630.16371586011655 463.61931469556316 0 0 0 0 1353.4272890717912 -579.97745387945065 0 -579.97745387945065 262.75754403199323 0 0 0 0 469.54171295380365 -185.92143517509408 0 -185.92143517509408 190.09427088254347 0 0 0 0 465.02960356249241 -62.971089375417932 0 -62.971089375417932 1425.176635354391 0 0 0 0 816.3666484346686 -95.943670912354335 0 -95.943670912354335 -173.48334388976411 0 0 0 0 674.48863764378621 -59.53882190821048 0 -59.53882190821048 -209.86414030052083 0 0 0 0 407.65047667345061 -166.72511326618735 0 -166.72511326618735 -168.03255783497906 0 0 0 0 0.28593775669088473 2.8474716135815186 0 2.8474716135815186 7.0998992946625759 0 0 0 0 -17.445425145975605 376.96691522040055 0 376.96691522040055 -137.98472379814507 0 0 0 0 25.249827260420716 248.82810306779038 0 248.82810306779038 37.981547309933347 0 0 0 0 673.59000490714971 138.78705481675956 0 138.78705481675956 -221.86241258711243 0 0 0 0 148.12057882763474 40.673962166703177 0 40.673962166703177 16.425724109640015 0 0 0 0 176.1236726973375 149.26551995350198 0 149.26551995350198 -203.50120478867507 0 0 0 0 995.09063683997374 646.87502373421626 0 646.87502373421626 413.56836231786383 0 0 0 0 -174.90530569694965 1.9337678051874718 0 1.9337678051874718 889.19629862968986 0 0 0 0 -113.41492765519979 51.463571341831766 0 51.463571341831766 267.25683423168812 0 0 0 0 -217.06398676367098 286.48592056364441 0 286.48592056364441 218.89344157817868 0 0 0 0 29.796491879326368 22.588293089298404 0 22.588293089298404 17.876431523357095 0 0 0 0 472.07961397582403 -186.63648296438146 0 -186.63648296438146 -12.725652897737746 0 0 0 0 -18.726165055064484 153.47871087676867 0 153.47871087676867 151.76059679691025 0 0 0 0 -13.099142027102062 -5.7013565175170697 0 -5.7013565175170697 164.18436413853078 0 0 0 0 630.02694945856638 5.9796429412710381 0 5.9796429412710381 186.2630070494904 0 0 0 0 1167.1515057799552 -266.1295168991868 0 -266.1295168991868 75.802751340243191 0 0 0 0 625.94236807097332 87.637884893323644 0 87.637884893323644 -38.246879740421264 0 0 0 0 627.06030144398426 -270.14784076148402 0 -270.14784076148402 -15.420115019986497 0 0 0 0 1336.523806678495 -206.85206746472284 0 -206.85206746472284 -83.506269735649425 0 0 0 0 397.43851782182173 164.61538240529057 0 164.61538240529057 36.966240517716528 0 0 0 0 769.24088962777751 -44.540044568795338 0 -44.540044568795338 78.200929774422093 0 0 0 0 1237.5039995929328 -353.13062596756021 0 -353.13062596756021 -238.97677295242192 0 0 0 0 27.583918970638479 -478.90102278158793 0 -478.90102278158793 -249.41671852592575 0 0 0 0 4.7078145699566676 -3.0103644088508332 0 -3.0103644088508332 1.5672048332803334 0 0 0 0 835.33465069091471 282.16785116084731 0 282.16785116084731 73.638193640300017 0 0 0 0 1733.8052644430936 310.99427475771876 0 310.99427475771876 6.2079162131691419 0 0 0 0 75.582126383349532 111.07178994832563 0 111.07178994832563 -63.360163505967733 0 0 0 0 408.57659327753936 -80.20463783583034 0 -80.20463783583034 22.577980358213438 0 0 0 0 12.778778714717873 -6.8089957732460817 0 -6.8089957732460817 2.6802678397351505 0 0 0 0 821.06475020281505 204.85993756126612 0 204.85993756126612 -3.2784347320898064 0 0 0 0 507.62684958418686 241.84988686207748 0 241.84988686207748 105.27452510695286 0 0 0 0 753.34114132110699 128.75945179210649 0 128.75945179210649 36.373140597204042 0 0 0 0 970.95054609514773 -24.789809512427283 0 -24.789809512427283 -76.604794078799898 0 0 0 0 233.36026544761989 -307.42115828762599 0 -307.42115828762599 230.42738720225225 0 0 0 0 139.03428177850037 39.063492289659351 0 39.063492289659351 -5.5296064362066772 0 0 0 0 2.6772301414927711 0.027392402377230951 0 0.027392402377230951 1.2702816587824377 0 0 0 0 13.006837254226753 12.472951930027875 0 12.472951930027875 2.1711958179609891 0 0 0 0 0.47813436008209464 -0.043977249433837073 0 -0.043977249433837073 0.36970766929114918 0 0 0 0 597.8578984032938 11.826425006407646 0 11.826425006407646 69.418790206993549 0 0 0 0 1085.6606303878943 -148.9842322202523 0 -148.9842322202523 52.824015943161271 0 0 0 0 1228.9484671419632 -38.916067668869687 0 -38.916067668869687 83.704940766973635 0 0 0 0 29.689410545353894 32.016075129386991 0 32.016075129386991 -14.216535527921678 0 0 0 0 18.716582018441841 81.211683962414781 0 81.211683962414781 -3.6124765848398965 0 0 0 0 24.675259392384589 19.692038909828092 0 19.692038909828092 11.327272663980036 0 0 0 0 9.7294338633504296 14.460705590792045 0 14.460705590792045 -1.3881760881193852 0 0 0 0 -5.7561113053459678 13.970638928783501 0 13.970638928783501 8.1157690605480646 0 0 0 0 29.431612575586769 25.477756091449692 0 25.477756091449692 7.7903803736379018 0 0 0 0 46.81963964899478 20.381970529850378 0 20.381970529850378 0.62791196168109309 0 0 0 0 31.155428524769377 21.408790477116781 0 21.408790477116781 17.2454822729851 0 0 0 0 10.336797259762534 32.731995002805661 0 32.731995002805661 7.1651845534063625 0 0 0 0 20.180435625836253 6.5506621638847946 0 6.5506621638847946 3.7023226181354403 0 0 0 0 6.842041504161898 4.7013485957354533 0 4.7013485957354533 99.354947794460173 0 0 0 0 37.047491112481111 17.62863391074168 0 17.62863391074168 -10.018490087483769 0 0 0 0 11.196189938476484 11.488073817121474 0 11.488073817121474 -4.3333951908819444 0 0 0 0 15.154842465498291 12.722461242725288 0 12.722461242725288 1.2390125182996541 0 0 0 0 37.871236862389196 13.112707459714898 0 13.112707459714898 -8.7988892132270848 0 0 0 0 53.690598896268057 6.7803633451516703 0 6.7803633451516703 -12.798494442163189 0 0 0 0 11.912884304263571 29.516669280814881 0 29.516669280814881 -9.275843490425018 0 0 0 0 48.085069840165261 11.990749352124475 0 11.990749352124475 -17.622284399670775 0 0 0 0 60.796822619242448 35.899051498631877 0 35.899051498631877 -19.37605144759516 0 0 0 0 62.133188548817998 41.069916839000143 0 41.069916839000143 -36.817170868020185 0 0 0 0 28.193723265273903 18.960591345710384 0 18.960591345710384 6.6691558243756646 0 0 0 0 -11.983724665115005 30.610820355497097 0 30.610820355497097 -14.426985576167695 0 0 0 0 15.622526215345715 52.997673682380992 0 52.997673682380992 -18.606874855791233 0 0 0 0 430.66690590854705 207.40106326019713 0 207.40106326019713 -127.3548492041765 0 0 0 0 6.4957310113231479 4.9461219092362825 0 4.9461219092362825 -13.993002180571487 0 0 0 0 -410.18860361105908 -45.446013656851292 0 -45.446013656851292 211.0804106108541 0 0 0 0 359.14999553902089 47.428745763416032 0 47.428745763416032 35.989815168011319 0 0 0 0 61.603823179266328 42.915382791408547 0 42.915382791408547 -20.793161229328689 0 0 0 0 -7.2819594397660694 40.366549833907357 0 40.366549833907357 17.668459086818984 0 0 0 0 43.087346865446307 13.38813816491438 0 13.38813816491438 -28.512055979384058 0 0 0 0 46.715077034998103 27.399161552221813 0 27.399161552221813 18.057507407636876 0 0 0 0 54.563880922571116 44.785308736739353 0 44.785308736739353 14.190719576878109 0 0 0 0 43.974519426963525 37.353129468919178 0 37.353129468919178 34.252440582538838 0 0 0 0 68.681993772319402 8.3794075640453229 0 8.3794075640453229 12.082113833509311 0 0 0 0 70.975666770165844 55.115433134455088 0 55.115433134455088 3.6616328654235986 0 0 0 0 54.062369120802032 46.60142567420553 0 46.60142567420553 33.570367068478618 0 0 0 0 40.091775835076987 50.291037898735794 0 50.291037898735794 81.219897484090325 0 0 0 0 -0.81451085598193984 2.2749078599844523 0 2.2749078599844523 -10.639431978052798 0 0 0 0 102.95622141365311 25.572313771971494 0 25.572313771971494 5.2542979140944226 0 0 0 0 131.49123025861263 70.092917196182043 0 70.092917196182043 -43.459964037843747 0 0 0 0 323.7692628159657 82.316115896000042 0 82.316115896000042 -13.963651726377066 0 0 0 0 -105.27978317427915 -318.68663768822989 0 -318.68663768822989 -371.57461459464321 0 0 0 0 84.546515055757482 129.80880719774723 0 129.80880719774723 -86.65204819029077 0 0 0 0 -3.1681544043930785 1.3606723760822348 0 1.3606723760822348 -2.3748974936224201 0 0 0 0 49.286190791328409 108.77802041587438 0 108.77802041587438 68.05330163146391 0 0 0 0 -253.4449380869919 -588.57150835788889 0 -588.57150835788889 -819.11853205456373 0 0 0 0 47.768004483325058 122.28717948902704 0 122.28717948902704 -1.5732030550298077 0 0 0 0 362.1543720105692 -174.85810384085016 0 -174.85810384085016 -1021.1077536067187 0 0 0 0 7.7191110592157486 -1.7162769298942209 0 -1.7162769298942209 -0.60980466617949958 0 0 0 0 -258.0185908646672 65.682674270728967 0 65.682674270728967 -290.89318883653686 0 0 0 0 -659.42954143321549 -287.42695492633902 0 -287.42695492633902 -109.50459120665346 0 0 0 0 -2.1132156348030549 67.260363547828092 0 67.260363547828092 56.158386846356734 0 0 0 0 538.30449002217938 -386.3234732107112 0 -386.3234732107112 -641.29157462799685 0 0 0 0 2.9384874695552696 17.749619048202902 0 17.749619048202902 -2.1442897110493604 0 0 0 0 43.306711351098784 28.907186688889851 0 28.907186688889851 43.554975974358968 0 0 0 0 45.719405509024 62.877440182408662 0 62.877440182408662 14.146868262485441 0 0 0 0 -32.662031035870314 23.634253860618628 0 23.634253860618628 11.710364820806717 0 0 0 0 -17.22761397112663 145.16591438807853 0 145.16591438807853 22.139371605971519 0 0 0 0 -24.05967539051926 388.28924857453694 0 388.28924857453694 -117.6082819676617 0 0 0 0 -14.562821930669088 11.825613498167172 0 11.825613498167172 13.465786640984334 0 0 0 0 39.492780931539528 36.246682845474993 0 36.246682845474993 22.997693678200569 0 0 0 0 32.31189449093182 34.136407144286707 0 34.136407144286707 6.5188077573134393 0 0 0 0 5.3795383672955168 3.9103777159154305 0 3.9103777159154305 0.12996381633345777 0 0 0 0 67.594310719163786 42.799873611570092 0 42.799873611570092 37.087683078541886 0 0 0 0 98.241976251119922 -23.920566426073492 0 -23.920566426073492 -11.323778590953225 0 0 0 0 361.75363174347149 82.859474062798654 0 82.859474062798654 196.05476743497513 0 0 0 0 410.00557956880948 216.80595401572009 0 216.80595401572009 168.12067619479603 0 0 0 0 349.95543335652474 125.78544215799229 0 125.78544215799229 400.09330900652276 0 0 0 0 205.64426090195775 235.44107833982889 0 235.44107833982889 319.84329019862071 0 0 0 0 384.79880958130434 274.13979414046923 0 274.13979414046923 327.72471670682717 0 0 0 0 206.06878930772837 322.49839610780936 0 322.49839610780936 464.2566399886482 0 0 0 0 308.14582429404982 444.11352772072439 0 444.11352772072439 256.23881358042536 0 0 0 0 -438.16509464988485 187.30452125516751 0 187.30452125516751 536.00055451553362 0 0 0 0 -62.086953598762193 184.00203407277513 0 184.00203407277513 517.67858626471025 0 0 0 0 -1.0912217181877963 0.83926812692773467 0 0.83926812692773467 5.3585249854774979 0 0 0 0 439.13082524821948 244.70199377563847 0 244.70199377563847 -45.860709908833542 0 0 0 0 294.959770352747 362.61982854406403 0 362.61982854406403 58.417864710258073 0 0 0 0 203.56713786960609 276.77174729945455 0 276.77174729945455 55.073605045968634 0 0 0 0 171.00388402424869 243.75467230393645 0 243.75467230393645 12.846553699473475 0 0 0 0 137.04399842632847 295.63325071108471 0 295.63325071108471 69.282039376136254 0 0 0 0 -131.69108884080197 134.06682676475862 0 134.06682676475862 -31.416982355342668 0 0 0 0 82.213558895113238 27.191522766986026 0 27.191522766986026 -55.026077214703633 0 0 0 0 307.51158448020578 423.6304356128926 0 423.6304356128926 88.327160234699477 0 0 0 0 534.40189947219915 386.76743140841972 0 386.76743140841972 47.848130197305636 0 0 0 0 514.46003476524493 287.14964592468914 0 287.14964592468914 -134.5167928031774 0 0 0 0 654.11963122978341 466.48400886497461 0 466.48400886497461 -92.604483077437408 0 0 0 0 338.01177143758832 110.23733826979746 0 110.23733826979746 916.91582351925547 0 0 0 0 838.28177142498316 165.72251906221015 0 165.72251906221015 253.14678293657039 0 0 0 0 237.69741039419023 335.48729731100303 0 335.48729731100303 607.73473929447812 0 0 0 0 656.39268863637699 559.10816362659887 0 559.10816362659887 62.054662335355829 0 0 0 0 -1.0572722950164462 394.5039764715641 0 394.5039764715641 185.65715548791025 0 0 0 0 215.88642722389341 395.37297829283352 0 395.37297829283352 106.46766475819732 0 0 0 0 319.630219299288 388.60525502913879 0 388.60525502913879 90.018301552736375 0 0 0 0 325.29075827008637 366.19644903342987 0 366.19644903342987 88.554993923381517 0 0 0 0 241.76997446246241 389.0300985913841 0 389.0300985913841 189.26905329582587 0 0 0 0 252.3563275376946 376.90395249808353 0 376.90395249808353 96.078395983122391 0 0 0 0 272.26095088140573 336.48900723660108 0 336.48900723660108 154.8219772660168 0 0 0 0 257.51114051052718 292.49018653915391 0 292.49018653915391 83.400211548044808 0 0 0 0 323.4195024980063 348.55893129186131 0 348.55893129186131 49.431069093207952 0 0 0 0 375.3048270844738 307.7893365650134 0 307.7893365650134 81.200961427570974 0 0 0 0 398.09415979749974 200.00867210441169 0 200.00867210441169 41.170602381208482 0 0 0 0 543.56105903990829 223.28514370811399 0 223.28514370811399 -26.322684819768256 0 0 0 0 346.51913828412944 185.87915690623777 0 185.87915690623777 57.709726792666515 0 0 0 0 236.8647156330735 149.04346894256014 0 149.04346894256014 65.556240837415316 0 0 0 0 70.734572032473807 122.21290746363684 0 122.21290746363684 138.00170986887224 0 0 0 0 166.82157219150395 231.48698483440421 0 231.48698483440421 170.95636361463767 0 0 0 0 193.69181259944526 231.75029277751651 0 231.75029277751651 119.47792382010084 0 0 0 0 169.62170023962972 208.58480985288588 0 208.58480985288588 97.792455079039428 0 0 0 0 276.70710316849727 266.09073909852987 0 266.09073909852987 119.18504024312097 0 0 0 0 129.45083796355175 227.46107729835876 0 227.46107729835876 171.9889095328399 0 0 0 0 113.34358663923194 212.94617163278326 0 212.94617163278326 159.4653252061853 0 0 0 0 219.64052486352739 328.24526679640712 0 328.24526679640712 229.73075520097427 0 0 0 0 204.96148624356283 278.13325456569044 0 278.13325456569044 194.30677335695327 0 0 0 0 219.42894361629442 314.99928479102437 0 314.99928479102437 146.08091757966849 0 0 0 0 162.21190098721127 233.79944317512127 0 233.79944317512127 169.9963443995839 0 0 0 0 182.19115943730867 286.47728517193809 0 286.47728517193809 306.82463031230873 0 0 0 0 208.95828617472216 324.9690092974264 0 324.9690092974264 229.4586180756869 0 0 0 0 159.6398784162011 171.72468120348003 0 171.72468120348003 185.81597264638867 0 0 0 0 140.17669018525339 172.25727664803526 0 172.25727664803526 287.82640606717632 0 0 0 0 -318.99175525721512 -210.35424129515195 0 -210.35424129515195 55.770352242477202 0 0 0 0 -254.90805980384175 -212.80393268196985 0 -212.80393268196985 51.710163194144116 0 0 0 0 -0.38740201940750651 2.019419014350504 0 2.019419014350504 -3.7257766961743854 0 0 0 0 9.9917739871016238 -178.3853181583072 0 -178.3853181583072 -218.78174878795471 0 0 0 0 20.454566672259972 -9.6889701788818883 0 -9.6889701788818883 4.7635231489116965 0 0 0 0 -98.258705773827387 -75.007378369376966 0 -75.007378369376966 -16.088433299548342 0 0 0 0 -79.796407909896516 -250.55930704263301 0 -250.55930704263301 -151.97802037366819 0 0 0 0 524.49185618163028 -426.67610325692476 0 -426.67610325692476 -238.94448913700762 0 0 0 0 197.45505104129552 101.33700264605886 0 101.33700264605886 -65.21335719387298 0 0 0 0 175.59307260959031 51.961076498018429 0 51.961076498018429 -170.03590117014937 0 0 0 0 142.31244316531593 64.433332092785804 0 64.433332092785804 -29.372831872840834 0 0 0 0 110.26379889150849 60.255265852860703 0 60.255265852860703 -21.013468309300151 0 0 0 0 35.590954330527893 6.0809170429575943 0 6.0809170429575943 -12.018022328572442 0 0 0 0 26.978082697612933 5.8874646714750938 0 5.8874646714750938 -23.648681164317239 0 0 0 0 143.69059409799956 -29.524570337782279 0 -29.524570337782279 -85.151376086118034 0 0 0 0 39.550727800759091 -20.672523184389895 0 -20.672523184389895 6.0891665248140399 0 0 0 0 200.75046918423504 -56.35280120947175 0 -56.35280120947175 7.1431131121571525 0 0 0 0 -398.96897062266362 120.32786640196719 0 120.32786640196719 -93.294515514546219 0 0 0 0 153.29617844783752 -65.71171737223483 0 -65.71171737223483 -196.46851136460646 0 0 0 0 537.89488422530849 18.602796857063822 0 18.602796857063822 -12.882442813834132 0 0 0 0 -2.2968710942295729 291.68918653837272 0 291.68918653837272 -161.37620526661885 0 0 0 0 357.17150079316343 -13.95477512751313 0 -13.95477512751313 5.1372797251015641 0 0 0 0 5.7501349332589911 -5.5170144263355354 0 -5.5170144263355354 0.13841562751880243 0 0 0 0 67.240788179646188 -98.696621167308777 0 -98.696621167308777 -398.78094284563576 0 0 0 0 20.009540483675664 -5.3885002530607835 0 -5.3885002530607835 -10.643996595013718 0 0 0 0 24.299186552435287 -4.397415270365542 0 -4.397415270365542 -7.9315245026696672 0 0 0 0 -4.2851382384542376 113.85218884976268 0 113.85218884976268 -143.27740082407684 0 0 0 0 277.54094248183537 28.40933102199628 0 28.40933102199628 -130.49543518304904 0 0 0 0 126.74593642792024 306.71869852880951 0 306.71869852880951 245.12766085630005 0 0 0 0 447.05206275093951 365.98968978608713 0 365.98968978608713 -149.1074680610769 0 0 0 0 399.09331716761517 84.918872939112418 0 84.918872939112418 210.88798920589417 0 0 0 0 2497.3081433547559 1373.3501587149428 0 1373.3501587149428 417.09294335615181 0 0 0 0 -671.39371252659475 -1185.8333272511447 0 -1185.8333272511447 -259.38926687817502 0 0 0 0 8.5733147407783861 -0.19275890317103261 0 -0.19275890317103261 -0.44772695922237282 0 0 0 0 123.00881711787224 84.975505548290968 0 84.975505548290968 -294.1937256342859 0 0 0 0 14.732821078855011 -4.2167071361792097 0 -4.2167071361792097 -2.2549645830928933 0 0 0 0 202.37855330832826 -379.52892743700801 0 -379.52892743700801 -814.812469845338 0 0 0 0 5.5211054849526207 -0.73371973561989989 0 -0.73371973561989989 -2.8471615896842017 0 0 0 0 28.223968541533395 2.5816264593839264 0 2.5816264593839264 -4.6263471981928888 0 0 0 0 1861.1337134222722 578.25136218292846 0 578.25136218292846 -42.225595221263177 0 0 0 0 1628.6169056228755 537.62062991454138 0 537.62062991454138 -46.434155533248976 0 0 0 0 1082.6627930922623 -143.92799947805634 0 -143.92799947805634 68.389193587484613 0 0 0 0 11.75503595027557 0.1214068584100545 0 0.1214068584100545 -12.443982768847258 0 0 0 0 1073.4396972174363 159.78690958092244 0 159.78690958092244 15.308225412424498 0 0 0 0 13.116225241157238 14.412094921583332 0 14.412094921583332 0.45403629307563165 0 0 0 0 2499.7921705081353 95.415648086343936 0 95.415648086343936 -423.95321993780487 0 0 0 0 2276.9205982828498 162.39948703035611 0 162.39948703035611 -173.25288956852057 0 0 0 0 5.8585935072843967 3.590073068511515 0 3.590073068511515 3.0528539296739625 0 0 0 0 1824.6933627992894 -770.87051342483392 0 -770.87051342483392 34.019657619947537 0 0 0 0 2500.2805550354678 -115.73502215910432 0 -115.73502215910432 167.53466407175034 0 0 0 0 3167.0636485998007 -728.32681573417426 0 -728.32681573417426 -19.820493586109237 0 0 0 0 2363.4421334484141 -89.392598585633507 0 -89.392598585633507 -114.04861592601725 0 0 0 0 3024.8421192136184 523.64920648976556 0 523.64920648976556 409.58257646576595 0 0 0 0 -150.93597764289734 481.83327865967817 0 481.83327865967817 -40.562568583729096 0 0 0 0 1589.9889749847353 774.21452108751669 0 774.21452108751669 -23.438002876320354 0 0 0 0 507.1742213459147 -13.817259477330751 0 -13.817259477330751 -6.3130900218346824 0 0 0 0 201.54569854236615 -73.314184332638476 0 -73.314184332638476 -169.18220990923044 0 0 0 0 23.378162872169924 4.8284626041921115 0 4.8284626041921115 -197.83664628465664 0 0 0 0 3.0206255711828192 13.123341567868721 0 13.123341567868721 -29.991409926448959 0 0 0 0 173.50421017410554 38.826923500880639 0 38.826923500880639 56.397593496203626 0 0 0 0 157.33631460767356 96.438468565251924 0 96.438468565251924 -13.41546109481078 0 0 0 0 165.2789121511596 34.35718183656445 0 34.35718183656445 51.911414648439177 0 0 0 0 -2.578297248996833 5.1889629126819869 0 5.1889629126819869 -14.97884055822723 0 0 0 0 187.27110624324268 135.29389504569576 0 135.29389504569576 32.85370799671955 0 0 0 0 -49.808201818588714 9.5573578888687365 0 9.5573578888687365 -2.9019410817215316 0 0 0 0 -195.98616861348091 -313.032815158375 0 -313.032815158375 -64.865276101623294 0 0 0 0 528.67234605884005 -10.765849139565375 0 -10.765849139565375 -130.27037443630758 0 0 0 0 38.041599589112593 -26.131803846095963 0 -26.131803846095963 3.5629889358057198 0 0 0 0 79.961034999010735 -72.568240343254971 0 -72.568240343254971 -266.17018204641823 0 0 0 0 553.80382339887728 -149.78259429134482 0 -149.78259429134482 -90.473338888145122 0 0 0 0 -0.89165252048039179 1.5458529617525301 0 1.5458529617525301 -3.6793471749296902 0 0 0 0 -490.89254148124019 -405.46506012391472 0 -405.46506012391472 -49.079670840755284 0 0 0 0 -469.8803439675612 -56.824995099061312 0 -56.824995099061312 46.868432362949363 0 0 0 0 -140.35752915374178 -315.49564772328841 0 -315.49564772328841 -331.0511512655554 0 0 0 0 -241.93561366364884 -141.34366245731781 0 -141.34366245731781 2.8581578579554048 0 0 0 0 14.18039578335447 -55.514629702322623 0 -55.514629702322623 -81.376039970050215 0 0 0 0 31.217364270196413 10.979224554380892 0 10.979224554380892 -103.34493581788126 0 0 0 0 25.720313843543408 -21.072577373046634 0 -21.072577373046634 34.630814820454205 0 0 0 0 -130.94350922410376 -65.579333166148785 0 -65.579333166148785 -4.5425023376473206 0 0 0 0 -57.909263474561158 -39.337976760190514 0 -39.337976760190514 -292.57810698722369 0 0 0 0 576.90860266570235 -83.322397379473898 0 -83.322397379473898 -6.1419287846578641 0 0 0 0 203.78304735686834 100.82612538005665 0 100.82612538005665 47.504499301521719 0 0 0 0 47.502363077212067 -118.70191247243172 0 -118.70191247243172 28.52192556836485 0 0 0 0 200.36375595873687 86.337554996055275 0 86.337554996055275 9.531002651672452 0 0 0 0 236.20203753217538 -15.379987087507654 0 -15.379987087507654 176.44630092409955 0 0 0 0 664.60446446740389 78.978025958600327 0 78.978025958600327 49.530890546158275 0 0 0 0 1195.54321907337 -300.21952457579113 0 -300.21952457579113 -111.13101297032873 0 0 0 0 1895.8596744538179 -104.45662330726577 0 -104.45662330726577 -210.49435061642282 0 0 0 0 1990.3785386371455 -221.9115468540611 0 -221.9115468540611 -219.94852717429214 0 0 0 0 1925.4877259094646 -97.195126526832809 0 -97.195126526832809 -280.0926859089368 0 0 0 0 2499.4295277159295 -36.10418598867129 0 -36.10418598867129 -524.29499458732732 0 0 0 0 1562.6996009598952 -118.25961557729556 0 -118.25961557729556 -199.79130452958032 0 0 0 0 2131.7661214683176 275.0103242431673 0 275.0103242431673 -414.04979280424118 0 0 0 0 542.09371036717494 200.52985531244207 0 200.52985531244207 70.532342080682781 0 0 0 0 1402.2593123867191 113.69199092174379 0 113.69199092174379 -121.28823130974251 0 0 0 0 447.09486474157893 -403.19857060269311 0 -403.19857060269311 -129.27591976603128 0 0 0 0 964.15473520198429 387.97917800642966 0 387.97917800642966 -435.49439739460661 0 0 0 0 11.22557042689548 -2.6678879057268334 0 -2.6678879057268334 0.22502911147527729 0 0 0 0 551.16449621064021 -1046.8799071103404 0 -1046.8799071103404 102.59499193949868 0 0 0 0 2492.900054743769 831.59018380910402 0 831.59018380910402 -470.49732636132586 0 0 0 0 380.29475442167313 -21.254377625698091 0 -21.254377625698091 -686.26323195594784 0 0 0 0 20.087780631217534 -5.1904054566931741 0 -5.1904054566931741 0.052101623559045018 0 0 0 0 127.26594206810205 185.09246710824164 0 185.09246710824164 -0.5246541670934306 0 0 0 0 290.12965825409628 377.42210369780582 0 377.42210369780582 -78.383895502273589 0 0 0 0 8.7918782197634897 -2.5902380345201514 0 -2.5902380345201514 0.42755637367258026 0 0 0 0 681.93646544160583 400.73488087655022 0 400.73488087655022 -132.72912091954532 0 0 0 0 -134.15251036817779 -417.57037829616019 0 -417.57037829616019 126.87808956196241 0 0 0 0 279.99372040367598 -604.80909478354431 0 -604.80909478354431 -30.25815145331751 0 0 0 0 -105.35640133275956 -111.06977952762378 0 -111.06977952762378 20.933164433465251 0 0 0 0 446.77371879387647 -253.11011778437131 0 -253.11011778437131 -759.55004818277121 0 0 0 0 243.39110895686463 -416.80706057260869 0 -416.80706057260869 280.12265765572374 0 0 0 0 284.11343725409824 -309.0453279810169 0 -309.0453279810169 154.78581650076902 0 0 0 0 362.34904339631976 -32.795720770392563 0 -32.795720770392563 155.07233416126815 0 0 0 0 -10.290199685667176 -168.47878156715285 0 -168.47878156715285 112.85336332209613 0 0 0 0 10.190465413395497 2.3646803404460144 0 2.3646803404460144 3.0148715434403606 0 0 0 0 -12.21573611393876 -195.06239857127591 0 -195.06239857127591 512.57688832063945 0 0 0 0 -154.11118979857565 14.741897934693498 0 14.741897934693498 383.13333581519237 0 0 0 0 438.64862888344851 -93.288560772535476 0 -93.288560772535476 31.006265843992196 0 0 0 0 116.13924792499893 -447.91600399005597 0 -447.91600399005597 854.14309355877754 0 0 0 0 1250.4696415861708 -569.86122304891205 0 -569.86122304891205 406.420397062397 0 0 0 0 581.32654511602777 -46.475297630152482 0 -46.475297630152482 83.221004897072817 0 0 0 0 1372.5773781327116 -377.74074897392234 0 -377.74074897392234 -128.13663369537755 0 0 0 0 2502.0468614791207 -210.53917419472515 0 -210.53917419472515 -395.9899541072773 0 0 0 0 2494.729234876002 -1099.1064708304809 0 -1099.1064708304809 245.62435082281166 0 0 0 0 1019.0758257735142 1479.4972005915697 0 1479.4972005915697 1742.6392478145599 0 0 0 0 15.040596506315282 0.098395018305602155 0 0.098395018305602155 2.6355856871154448 0 0 0 0 1080.8558352694054 -1362.2626745074949 0 -1362.2626745074949 1383.4509843684002 0 0 0 0 274.16304897608643 303.6172916927793 0 303.6172916927793 273.28838456365361 0 0 0 0 36.178374755647312 0.055099098915904476 0 0.055099098915904476 2.1334814732599909 0 0 0 0 302.79786528035584 706.34244776310254 0 706.34244776310254 1171.4064368937861 0 0 0 0 441.32282271984695 205.25850945664331 0 205.25850945664331 305.56625771274958 0 0 0 0 377.57775389928429 460.36265706251788 0 460.36265706251788 622.06079122301071 0 0 0 0 1365.8889284017132 642.17707140869788 0 642.17707140869788 229.77297302264117 0 0 0 0 2495.2496261387273 1230.4265670250572 0 1230.4265670250572 530.99431005507779 0 0 0 0 1231.0727185948417 697.78738683198719 0 697.78738683198719 217.72582054925385 0 0 0 0 2500.938908500551 275.77674500902322 0 275.77674500902322 -204.77053507186017 0 0 0 0 446.08357226916996 316.82805361509702 0 316.82805361509702 320.48499105791268 0 0 0 0 1021.2182332987577 453.16308513662773 0 453.16308513662773 334.55032085629455 0 0 0 0 1091.0371061645201 249.43069748409121 0 249.43069748409121 171.60313830586142 0 0 0 0 262.25838972162819 45.210500761689168 0 45.210500761689168 135.14547514148813 0 0 0 0 650.29998703111778 175.17993822308281 0 175.17993822308281 -286.42026702180164 0 0 0 0 2494.3779414411351 -499.37767257609801 0 -499.37767257609801 -492.98400113284436 0 0 0 0 645.94142699429358 -1094.2551461283688 0 -1094.2551461283688 -255.02793510431144 0 0 0 0 964.19928342496132 -39.151982718609503 0 -39.151982718609503 -268.71239978892243 0 0 0 0 760.79185868165951 978.81192569710856 0 978.81192569710856 809.82887933810093 0 0 0 0 823.36050379936933 594.91684409396498 0 594.91684409396498 314.63097062212393 0 0 0 0 522.33916122118535 371.51713571548942 0 371.51713571548942 401.50627911337142 0 0 0 0 334.31027701593121 535.59605635161915 0 535.59605635161915 551.49744433875514 0 0 0 0 387.89799592947202 280.64130189323674 0 280.64130189323674 215.22812383978373 0 0 0 0 470.43584038360859 402.80526462673532 0 402.80526462673532 55.23319021205532 0 0 0 0 315.17828972752613 332.85334502575199 0 332.85334502575199 318.62179795985958 0 0 0 0 375.32428180383431 500.71811255041973 0 500.71811255041973 368.37066375580173 0 0 0 0 382.91080923744448 460.96623865763769 0 460.96623865763769 415.97968506957307 0 0 0 0 499.70235896946542 439.67671431127428 0 439.67671431127428 363.07920944893135 0 0 0 0 364.9825520202503 422.52470493490381 0 422.52470493490381 409.45311781972117 0 0 0 0 52.982450812010939 71.324463724980205 0 71.324463724980205 7.8821236553003473 0 0 0 0 -2.2182270051142083 0.92719617540920751 0 0.92719617540920751 4.994326011319064 0 0 0 0 50.471524875589239 34.04285602413438 0 34.04285602413438 15.912900245699802 0 0 0 0 124.33450660901144 62.479425440227942 0 62.479425440227942 333.24511953789408 0 0 0 0 8.8824907984998305 3.8886373291378291 0 3.8886373291378291 5.1311853920979837 0 0 0 0 329.07734868468833 247.15724994297909 0 247.15724994297909 184.7038475134807 0 0 0 0 81.80558651332467 37.649853525775939 0 37.649853525775939 -27.994670977391706 0 0 0 0 674.46650486089493 -423.3284749419563 0 -423.3284749419563 -350.48528588777231 0 0 0 0 58.467937760141439 0.83146066821555253 0 0.83146066821555253 0.51437292926482225 0 0 0 0 61.858826690204296 156.30008847448312 0 156.30008847448312 45.928885648281266 0 0 0 0 63.381782764427982 1.7889410788818603 0 1.7889410788818603 -0.75828610480806902 0 0 0 0 115.46181766557129 12.362311851229379 0 12.362311851229379 -96.146257997374875 0 0 0 0 8.3328875052975491 183.83204875762794 0 183.83204875762794 -206.68184637203854 0 0 0 0 -401.96570829080702 356.37788811946689 0 356.37788811946689 237.21262990323748 0 0 0 0 83.737826004969975 54.29930724618589 0 54.29930724618589 -35.789340899332728 0 0 0 0 39.300063233124092 -12.801020530930714 0 -12.801020530930714 16.982984876224236 0 0 0 0 170.01884720013913 97.342299950175402 0 97.342299950175402 -71.79590709049171 0 0 0 0 123.84071554782713 -11.175990156948274 0 -11.175990156948274 14.153346672829116 0 0 0 0 151.97129554717162 -81.02935742988862 0 -81.02935742988862 121.10370978096444 0 0 0 0 4.2284775529886502 3.9769061044372762 0 3.9769061044372762 4.0470854398959588 0 0 0 0 -22.055790450276618 338.6019094527727 0 338.6019094527727 319.94634478552211 0 0 0 0 249.84542691297975 562.42109894149235 0 562.42109894149235 295.56700353619192 0 0 0 0 -29.614571391226491 -229.00873713507144 0 -229.00873713507144 1333.585672537296 0 0 0 0 0.90538165789607206 0.21485367825639656 0 0.21485367825639656 1.2259787590004123 0 0 0 0 301.74499614143861 -243.06549074602736 0 -243.06549074602736 118.30535486849541 0 0 0 0 -140.27724904564093 1016.6452455690855 0 1016.6452455690855 -108.69525631323063 0 0 0 0 395.08335351901042 -83.334104760214188 0 -83.334104760214188 -78.827874516059978 0 0 0 0 -51.107387534622831 27.188374121995551 0 27.188374121995551 -62.306157219953889 0 0 0 0 -137.753879911892 74.56805372499025 0 74.56805372499025 96.005044433954708 0 0 0 0 19.834634999690024 90.449182818879081 0 90.449182818879081 -165.51414835563855 0 0 0 0 88.601137353802187 -96.771302869867213 0 -96.771302869867213 85.62369503330774 0 0 0 0 12.587040306724134 11.683200880112508 0 11.683200880112508 8.9493826307737301 0 0 0 0 -62.518773859475914 137.85126474181379 0 137.85126474181379 -173.25836770080423 0 0 0 0 -39.152432657745521 84.08273619834938 0 84.08273619834938 -118.86914806448931 0 0 0 0 72.15901495106209 -54.646217785029563 0 -54.646217785029563 -3.2814214304539746 0 0 0 0 67.557572247023927 136.6004846646847 0 136.6004846646847 -149.60138549865769 0 0 0 0 33.810926405552891 10.975275040991917 0 10.975275040991917 9.4378626076488175 0 0 0 0 51.3338019729199 17.4941265808975 0 17.4941265808975 35.947539361572581 0 0 0 0 16.579140229932818 67.349471308934426 0 67.349471308934426 129.36899940854991 0 0 0 0 62.5959570198509 0.68308396540229532 0 0.68308396540229532 -0.60770865100983329 0 0 0 0 104.99638715826222 -35.359424356876389 0 -35.359424356876389 -97.724674705208145 0 0 0 0 -22.194686706206994 42.758329062985922 0 42.758329062985922 198.47987584698285 0 0 0 0 62.592954072334464 4.4349286090036708 0 4.4349286090036708 3.3554127311370663 0 0 0 0 26.959331704390934 92.930782463799233 0 92.930782463799233 -157.25123504409248 0 0 0 0 25.953612346758746 24.488542527678703 0 24.488542527678703 -2.8498214980227203 0 0 0 0 77.417348692730229 -13.264366750873791 0 -13.264366750873791 6.6778072949859961 0 0 0 0 4.0683813605900383 4.6149381054283651 0 4.6149381054283651 -1.5909288695530188 0 0 0 0 -2.4757033857749775 16.370990791597251 0 16.370990791597251 15.300684032277331 0 0 0 0 70.849665670160903 -27.040339923121792 0 -27.040339923121792 -196.60020647069587 0 0 0 0 -13.409000570154603 28.690997484855643 0 28.690997484855643 -94.972927753513432 0 0 0 0 -0.05368514687003767 1.3274739077616395 0 1.3274739077616395 4.7678472100447546 0 0 0 0 -0.49659765195247019 -0.71110146277851527 0 -0.71110146277851527 -61.251583157245477 0 0 0 0 4.8136360549397068 23.116190136879368 0 23.116190136879368 -90.890698967992421 0 0 0 0 17.090933563757233 -11.373200915538781 0 -11.373200915538781 22.571834514369836 0 0 0 0 22.23576513088463 1.297326659887974 0 1.297326659887974 -3.9236412538229217 0 0 0 0 18.880137898901012 -7.2863015598613856 0 -7.2863015598613856 -8.4077150352031822 0 0 0 0 -52.65393765619956 -10.051909034409618 0 -10.051909034409618 -126.29604508807824 0 0 0 0 32.993343405521472 6.1768588028288391 0 6.1768588028288391 -12.23744377089421 0 0 0 0 2.5034203950766063 0.79141845619408713 0 0.79141845619408713 0.22113094243232467 0 0 0 0 35.841534607228823 4.0971678975711256 0 4.0971678975711256 -163.86161186556274 0 0 0 0 5.4050503679391113 40.261053772389005 0 40.261053772389005 -105.9876100305828 0 0 0 0 2.266328059573425 -17.55667832230165 0 -17.55667832230165 -144.49222860193549 0 0 0 0 -1.1189983187759935 42.8100407018635 0 42.8100407018635 -78.895818911272727 0 0 0 0 51.900613211484597 51.321277677415765 0 51.321277677415765 -85.464760920893355 0 0 0 0 91.491029250400061 61.495569077148531 0 61.495569077148531 -10.251468459713124 0 0 0 0 48.30523653840828 54.601684239893302 0 54.601684239893302 -113.50851696765312 0 0 0 0 14.901059492836794 43.762835696765023 0 43.762835696765023 -13.006109342570198 0 0 0 0 -26.43251443574627 65.602666193171672 0 65.602666193171672 -22.220053530054429 0 0 0 0 43.33859138707021 94.316355993671749 0 94.316355993671749 -63.051211028362559 0 0 0 0 5.0150089409126295 3.4210130057877528 0 3.4210130057877528 1.930632193334668 0 0 0 0 -76.386529461560713 14.689746599678529 0 14.689746599678529 171.54894295531903 0 0 0 0 356.00801096248148 -146.72552882450586 0 -146.72552882450586 -63.87129601154993 0 0 0 0 141.08926961039833 -156.68537528576189 0 -156.68537528576189 -72.59318774558804 0 0 0 0 351.00311882858659 -250.56660070512666 0 -250.56660070512666 -62.738123232683904 0 0 0 0 13.786791119034113 7.652964458635072 0 7.652964458635072 8.1112933256187283 0 0 0 0 191.87899614926539 355.19645541977019 0 355.19645541977019 7.6516142721084179 0 0 0 0 -122.2622332270621 136.56153214648737 0 136.56153214648737 -104.43092053317855 0 0 0 0 13.568433192722296 72.835802628233637 0 72.835802628233637 -72.577267274817132 0 0 0 0 -166.09609913959775 -164.72927633952665 0 -164.72927633952665 292.91465734532915 0 0 0 0 32.555685264427666 -128.54005964793271 0 -128.54005964793271 -48.054923738721413 0 0 0 0 120.92079797346742 125.26879700615899 0 125.26879700615899 635.02512174313267 0 0 0 0 1118.0678522403869 -37.165482872155508 0 -37.165482872155508 -62.817661759816076 0 0 0 0 868.50576338825158 -316.98843517431607 0 -316.98843517431607 124.3768784566476 0 0 0 0 291.32264777492674 -57.654767386068869 0 -57.654767386068869 -103.65478251437466 0 0 0 0 109.91634327259453 57.59879288610756 0 57.59879288610756 -52.923309931414224 0 0 0 0 89.148309533184602 -47.415255015932416 0 -47.415255015932416 31.157393615461842 0 0 0 0 49.282114564837684 -50.830442866257727 0 -50.830442866257727 37.244189402916163 0 0 0 0 46.886545306181645 2.2893074814376391 0 2.2893074814376391 -18.799674844926979 0 0 0 0 13.857625724628861 45.584790531819372 0 45.584790531819372 -15.945766331797586 0 0 0 0 14.097973401489734 -22.661074823586951 0 -22.661074823586951 39.234998721255224 0 0 0 0 -221.59313310131256 81.739660006691679 0 81.739660006691679 -77.968459142041866 0 0 0 0 47.919195075592143 46.782298113896559 0 46.782298113896559 23.8807789175778 0 0 0 0 96.159066726442688 80.893244550914233 0 80.893244550914233 -124.88706625281301 0 0 0 0 13.649017580726365 23.188232499419861 0 23.188232499419861 21.388415233256183 0 0 0 0 49.50815327185046 30.263043073377958 0 30.263043073377958 -55.265697096417398 0 0 0 0 154.24565670011543 53.654622464699969 0 53.654622464699969 -73.265075072832872 0 0 0 0 52.107835989084002 7.4690845739889618 0 7.4690845739889618 -19.510558473144439 0 0 0 0 124.15523553256207 -169.00747993416041 0 -169.00747993416041 52.05174857746124 0 0 0 0 -100.97347529484614 179.07636093174563 0 179.07636093174563 -104.99510707224064 0 0 0 0 -0.8094899285770083 0.98660636083784681 0 0.98660636083784681 -1.1539729346494214 0 0 0 0 -57.015340617152106 30.347276437955657 0 30.347276437955657 -45.399323647520532 0 0 0 0 25.007928795257612 60.728292489708338 0 60.728292489708338 -77.188113122675986 0 0 0 0 68.560099501908553 3.5501730250423407 0 3.5501730250423407 -69.651632292282557 0 0 0 0 66.084301804930874 16.531598043052441 0 16.531598043052441 -1.0505813411928102 0 0 0 0 13.768595110599563 47.94501840338944 0 47.94501840338944 -35.317284690847316 0 0 0 0 113.69296502847101 -50.873203215133799 0 -50.873203215133799 -2.5626720735083381 0 0 0 0 63.360025752932415 -27.027803723514353 0 -27.027803723514353 -17.116040251977893 0 0 0 0 259.4911722222314 -47.752349828421757 0 -47.752349828421757 24.656053049292893 0 0 0 0 101.91202516946123 122.31594218891394 0 122.31594218891394 149.90779033874878 0 0 0 0 63.486908967848649 -4.134346009265073 0 -4.134346009265073 14.950138355407944 0 0 0 0 66.841387977223349 -63.056867654104963 0 -63.056867654104963 98.049399194873786 0 0 0 0 85.828657609414222 -114.64941416310717 0 -114.64941416310717 94.472830737540335 0 0 0 0 2.0125923949134119 -0.3571416964532812 0 -0.3571416964532812 -0.097832633950428516 0 0 0 0 86.199581313296221 -272.45360148099917 0 -272.45360148099917 -216.06404876221018 0 0 0 0 -0.77885068820364722 -366.53719563289656 0 -366.53719563289656 173.89561339335023 0 0 0 0 52.81375998501062 40.854358616127229 0 40.854358616127229 24.615728730005685 0 0 0 0 29.312085527228191 62.675010269332915 0 62.675010269332915 63.091641810398187 0 0 0 0 3.6287807683269193 0.016780175632659322 0 0.016780175632659322 -0.86000548739609739 0 0 0 0 60.462397144212446 211.44681315329331 0 211.44681315329331 -34.571345660637462 0 0 0 0 53.470272492835647 -109.46028208957296 0 -109.46028208957296 -296.52481153661188 0 0 0 0 83.397328168886816 -116.01880535316786 0 -116.01880535316786 191.98547620240561 0 0 0 0 20.379237132463651 -8.3979975695669395 0 -8.3979975695669395 -5.7544341627379856 0 0 0 0 105.67288270750784 8.9199744365200644 0 8.9199744365200644 0.56431858888936426 0 0 0 0 246.21849945094073 -51.424848193171329 0 -51.424848193171329 -84.360599317079959 0 0 0 0 44.941277612175327 3.9301817694924921 0 3.9301817694924921 177.31951627492936 0 0 0 0 273.79241439438192 268.86824620542257 0 268.86824620542257 -149.64421409998931 0 0 0 0 65.039885491867608 112.33050374449749 0 112.33050374449749 -266.58355374723163 0 0 0 0 -99.153786720762582 70.320032211040143 0 70.320032211040143 -98.111319466278076 0 0 0 0 -163.70862057535123 196.63023774098593 0 196.63023774098593 -91.244865486630516 0 0 0 0 596.01517730335036 103.20889222186514 0 103.20889222186514 -230.66206635051685 0 0 0 0 -0.57866877929599525 0.67470792282726677 0 0.67470792282726677 3.8765177802109383 0 0 0 0 352.31054287420193 -43.429258681077442 0 -43.429258681077442 -156.82742862548935 0 0 0 0 202.04197876826584 -217.97889434421398 0 -217.97889434421398 -144.60561077478337 0 0 0 0 280.1458673816378 -98.614396546302487 0 -98.614396546302487 -189.81764187532417 0 0 0 0 450.14859439752036 187.64005779891932 0 187.64005779891932 -58.965911988383596 0 0 0 0 155.16443631557195 -58.145831007280776 0 -58.145831007280776 -159.64273202551794 0 0 0 0 108.56212415357732 -122.97700602605255 0 -122.97700602605255 -180.04524598033163 0 0 0 0 224.57942160693347 -48.331521758800591 0 -48.331521758800591 -442.51781739274611 0 0 0 0 156.92935619318814 -103.95058897452117 0 -103.95058897452117 -184.94049121617445 0 0 0 0 240.47630790145013 -106.35265137379088 0 -106.35265137379088 -47.85392341359784 0 0 0 0 92.06678386052954 5.8071873301188361 0 5.8071873301188361 -132.58840509887068 0 0 0 0 122.97986409536929 5.1325842957908563 0 5.1325842957908563 -1.3325696235934004 0 0 0 0 125.94886583060179 48.70070762709895 0 48.70070762709895 -54.678991866330307 0 0 0 0 137.1586297963222 -49.211190104451362 0 -49.211190104451362 -185.41828572051963 0 0 0 0 63.902515911475348 -30.430041046648284 0 -30.430041046648284 -46.764621200965621 0 0 0 0 67.614316048420733 -89.436469916017813 0 -89.436469916017813 -90.07454405054682 0 0 0 0 103.94472716703604 -78.745736352413587 0 -78.745736352413587 -134.55623061453798 0 0 0 0 53.488550806483545 3.0457165052648634 0 3.0457165052648634 -203.03313596839052 0 0 0 0 56.439451681362698 -35.942880551681355 0 -35.942880551681355 -115.29425293286386 0 0 0 0 185.26981856544808 -110.94744965619748 0 -110.94744965619748 -386.62944476934035 0 0 0 0 94.692515443544835 -124.44199874947299 0 -124.44199874947299 -85.913869307970458 0 0 0 0 143.25049278000006 -155.95746578622106 0 -155.95746578622106 -283.12301255758393 0 0 0 0 113.58609902251692 -42.377853085568461 0 -42.377853085568461 -246.90102716679212 0 0 0 0 88.593901416294102 21.784432007909345 0 21.784432007909345 -239.28018326318499 0 0 0 0 87.550791217516235 0.53820623574432602 0 0.53820623574432602 -15.779363442901172 0 0 0 0 93.469089815589328 -6.8806588678574236 0 -6.8806588678574236 -3.4443635366399739 0 0 0 0 45.724695802816768 -16.055070934819227 0 -16.055070934819227 -16.98200277519954 0 0 0 0 12.431981378649652 -150.32669638446919 0 -150.32669638446919 -164.21564685155158 0 0 0 0 133.96172196509724 -118.43954958562244 0 -118.43954958562244 -243.23150485311271 0 0 0 0 136.93846479395404 3.1545703614400797 0 3.1545703614400797 -6.2571080896431832 0 0 0 0 123.64673368891818 -172.51721073704184 0 -172.51721073704184 -166.39049245589604 0 0 0 0 -210.9810963135169 -277.82458112159009 0 -277.82458112159009 -45.687535313924855 0 0 0 0 2.4942006273049628 -127.20154335850441 0 -127.20154335850441 -141.34459334937515 0 0 0 0 325.90188568602753 52.739770538373136 0 52.739770538373136 -45.608997339665166 0 0 0 0 452.75998057372635 -32.342957614958777 0 -32.342957614958777 -121.40425222938916 0 0 0 0 391.87467683856812 -50.811387293453663 0 -50.811387293453663 -102.94084422806327 0 0 0 0 4.570047856623848 18.132051354520343 0 18.132051354520343 -1.2132397576591618 0 0 0 0 -84.14155101263168 -64.855478507784937 0 -64.855478507784937 156.46763423585071 0 0 0 0 26.292138209874622 -21.499825947904839 0 -21.499825947904839 -16.207015607568589 0 0 0 0 109.49148800250623 23.270868166338005 0 23.270868166338005 -6.365323455544285 0 0 0 0 244.56707900982292 -413.10236633370823 0 -413.10236633370823 347.22947204216234 0 0 0 0 86.029738489298325 3.5704949320262358 0 3.5704949320262358 -4.0018917951672321 0 0 0 0 405.07331592735045 -353.66857824246188 0 -353.66857824246188 264.34117708815029 0 0 0 0 7.5464340065162219 -1.2306708101334856 0 -1.2306708101334856 -1.4048274584930702 0 0 0 0 471.48863098108268 256.04193724092829 0 256.04193724092829 -198.52897167382798 0 0 0 0 120.87323372613847 -24.415914212097771 0 -24.415914212097771 -2.3307210623934487 0 0 0 0 299.73283513474962 -50.035633725458865 0 -50.035633725458865 -178.82444045010561 0 0 0 0 -52.352748405734019 107.47808623379524 0 107.47808623379524 -14.428638709833649 0 0 0 0 26.714143084765546 12.455530213974512 0 12.455530213974512 -24.822274753026356 0 0 0 0 8.5087625688777067 -2.8734504236370313 0 -2.8734504236370313 0.1366424885874622 0 0 0 0 104.51822575066763 -186.50945065169071 0 -186.50945065169071 -285.55932185142137 0 0 0 0 -6.4352499905189688 -150.08922105886683 0 -150.08922105886683 -581.1413978184296 0 0 0 0 131.58893802589546 -40.568564141779802 0 -40.568564141779802 -809.49434559137262 0 0 0 0 -52.125093376176665 -163.02292581233633 0 -163.02292581233633 -186.46658132329958 0 0 0 0 83.982906637224005 76.644563404198834 0 76.644563404198834 -321.44634834943099 0 0 0 0 140.85537253459188 -193.1167289590403 0 -193.1167289590403 31.554343623409295 0 0 0 0 143.4212729779174 -116.0723031177522 0 -116.0723031177522 -176.40798544785912 0 0 0 0 95.494029585985118 -196.15342387318424 0 -196.15342387318424 -70.204618868600846 0 0 0 0 306.07302154736317 -28.375339345370321 0 -28.375339345370321 -580.01197759756633 0 0 0 0 365.24978072176964 -84.055298416411915 0 -84.055298416411915 -265.83151256070789 0 0 0 0 333.95388893133713 59.317623836965595 0 59.317623836965595 -220.66996414254584 0 0 0 0 264.11523670158476 78.395445680798503 0 78.395445680798503 -18.253777057652769 0 0 0 0 353.9405651630459 -270.55829431144957 0 -270.55829431144957 467.9319077793607 0 0 0 0 708.02955087094597 147.51332098612897 0 147.51332098612897 -14.353216841853282 0 0 0 0 305.4200273361057 -249.42862286216109 0 -249.42862286216109 164.09807072612875 0 0 0 0 471.96097964474211 236.39357959244393 0 236.39357959244393 349.07060763738809 0 0 0 0 587.32973525110265 -122.76409795056713 0 -122.76409795056713 36.180142740466181 0 0 0 0 211.79501478475504 61.212238300262698 0 61.212238300262698 151.97958236929799 0 0 0 0 237.66901839284947 -4.3766286320577592 0 -4.3766286320577592 112.42381925182485 0 0 0 0 55.541500867344439 -50.315732514248793 0 -50.315732514248793 288.90161753234884 0 0 0 0 195.32723672379871 -32.979807039621619 0 -32.979807039621619 112.68622891699169 0 0 0 0 150.12221786134978 -163.03406119201458 0 -163.03406119201458 83.812468719186654 0 0 0 0 80.855921216909337 -86.192653418293503 0 -86.192653418293503 13.798075861732059 0 0 0 0 38.402113304240629 -65.918078132370738 0 -65.918078132370738 72.87024668780964 0 0 0 0 65.110292408804526 -90.596661413778747 0 -90.596661413778747 91.108850746790949 0 0 0 0 119.91725735014188 -139.6029680045267 0 -139.6029680045267 -84.677852356608042 0 0 0 0 62.739490971631312 -76.665149306673072 0 -76.665149306673072 83.495317253040866 0 0 0 0 51.102170914175076 -106.983236035152 0 -106.983236035152 48.827329373305702 0 0 0 0 56.084486375748384 -76.869658759791946 0 -76.869658759791946 85.52292855332189 0 0 0 0 87.196192557017639 -52.601536459606677 0 -52.601536459606677 96.038234005947629 0 0 0 0 112.48261009644193 -0.8541309841743896 0 -0.8541309841743896 111.84692605076953 0 0 0 0 54.707195653116628 -50.901055114578973 0 -50.901055114578973 152.17145690520192 0 0 0 0 122.7277556897152 -18.335652121283601 0 -18.335652121283601 83.892519784623346 0 0 0 0 109.02499252038615 13.203844584640137 0 13.203844584640137 45.126173040725369 0 0 0 0 90.053926425651298 -39.410975819063424 0 -39.410975819063424 48.464733819275352 0 0 0 0 111.45346769399839 30.047553364319867 0 30.047553364319867 -46.11318530804914 0 0 0 0 97.865093496317058 -16.604143560364605 0 -16.604143560364605 -15.818132533029257 0 0 0 0 114.85762234145659 -6.887910081304824 0 -6.887910081304824 -11.036948051772271 0 0 0 0 154.4863838238216 -11.479512611000558 0 -11.479512611000558 -15.300372279143858 0 0 0 0 199.66026987057012 -32.945473948245194 0 -32.945473948245194 1.5260799115972077 0 0 0 0 190.16989527139958 -89.287233971390151 0 -89.287233971390151 -12.427867381906708 0 0 0 0 244.20544070350843 -25.429239531195378 0 -25.429239531195378 -35.614884801973858 0 0 0 0 303.81485297777817 -109.40649033896474 0 -109.40649033896474 1.64741059154494 0 0 0 0 319.76480041115747 48.997137883652215 0 48.997137883652215 57.154626334607656 0 0 0 0 240.5833196162821 -90.770507259411261 0 -90.770507259411261 43.539032843826021 0 0 0 0 193.5410983648253 37.389254246407404 0 37.389254246407404 45.685748960760748 0 0 0 0 96.59490235703197 -19.762179824302052 0 -19.762179824302052 -42.268970426607481 0 0 0 0 157.90782488896821 -58.621137290314664 0 -58.621137290314664 -55.704254719711514 0 0 0 0 188.4618642221867 -59.187767441696408 0 -59.187767441696408 -55.760584062269345 0 0 0 0 166.35968424223756 -40.15391532651779 0 -40.15391532651779 -38.29978443079176 0 0 0 0 173.18576950279021 -36.663936251747216 0 -36.663936251747216 -44.860440085406424 0 0 0 0 148.54864897393327 15.082885958167495 0 15.082885958167495 -47.814019517247175 0 0 0 0 56.75922782419002 17.758780705397157 0 17.758780705397157 -33.644891809682576 0 0 0 0 47.969921123354652 54.066042003155829 0 54.066042003155829 -55.017444173006879 0 0 0 0 75.069644574130507 6.4943968880291862 0 6.4943968880291862 -38.024266766229417 0 0 0 0 38.55864221932643 35.266565527876196 0 35.266565527876196 -51.849819536828676 0 0 0 0 111.57392057208381 0.2898273466877157 0 0.2898273466877157 -50.269961645500359 0 0 0 0 148.49081455109561 -147.56887134005228 0 -147.56887134005228 40.100157301681975 0 0 0 0 148.67998584037201 53.696446025661011 0 53.696446025661011 96.47132050415803 0 0 0 0 65.413596930220393 12.929128394357676 0 12.929128394357676 -18.34129022553174 0 0 0 0 94.452352178332148 -17.503105546811128 0 -17.503105546811128 -16.76168976054521 0 0 0 0 -28.348467809311842 62.164510230016049 0 62.164510230016049 -29.060754181860773 0 0 0 0 71.89025535345354 -36.298620949531823 0 -36.298620949531823 -28.816306889045492 0 0 0 0 147.53221784090965 -62.319187897213098 0 -62.319187897213098 -24.2683823162306 0 0 0 0 91.987282526748459 -63.069925146876813 0 -63.069925146876813 22.055648102489869 0 0 0 0 141.94679860732685 -123.65754370244326 0 -123.65754370244326 27.73818459601091 0 0 0 0 71.61267810067875 230.08958919853012 0 230.08958919853012 -134.30286935007052 0 0 0 0 10.091117613448205 -81.000078279413145 0 -81.000078279413145 77.619042472865658 0 0 0 0 69.34698201174858 15.551827404613856 0 15.551827404613856 -16.542822568599206 0 0 0 0 131.03252617040926 -59.038616959000024 0 -59.038616959000024 74.614319096098598 0 0 0 0 113.65466367835916 -56.722706518624818 0 -56.722706518624818 99.221743953909936 0 0 0 0 73.00376585076981 17.11042449789554 0 17.11042449789554 -16.477474864455566 0 0 0 0 128.15570158577611 -83.690057000826741 0 -83.690057000826741 110.85809298005779 0 0 0 0 126.20365142207402 -72.030086718069583 0 -72.030086718069583 53.55297895974536 0 0 0 0 105.36224055859157 -35.802630149677611 0 -35.802630149677611 51.564176738509786 0 0 0 0 109.46091843234717 -62.588640587265985 0 -62.588640587265985 67.877059103748195 0 0 0 0 123.5717935681555 -44.947204950243631 0 -44.947204950243631 28.397049613991328 0 0 0 0 45.968382925247624 17.252742674798128 0 17.252742674798128 -9.1905572866193381 0 0 0 0 94.117419616037353 -16.330904005894794 0 -16.330904005894794 -13.843297017292116 0 0 0 0 116.38828701562397 -36.866055583955358 0 -36.866055583955358 9.5817346009407629 0 0 0 0 124.30426202970557 -56.23454129549782 0 -56.23454129549782 27.77930868786941 0 0 0 0 78.853816616876884 -17.902493260731376 0 -17.902493260731376 26.889952495045918 0 0 0 0 168.65089433700791 -79.858731430102125 0 -79.858731430102125 57.220216561287771 0 0 0 0 101.16517348416539 -39.101796147018149 0 -39.101796147018149 39.359373594611043 0 0 0 0 109.63673500624827 -69.658271826790724 0 -69.658271826790724 85.99395001020639 0 0 0 0 118.90571216404851 -121.68553232286126 0 -121.68553232286126 140.14728739745857 0 0 0 0 91.890097625129329 -77.569992311133092 0 -77.569992311133092 109.90196159905076 0 0 0 0 221.62512976572384 -70.479570944193711 0 -70.479570944193711 56.994632773397825 0 0 0 0 113.52473100635939 -33.823541121497783 0 -33.823541121497783 72.966982785240816 0 0 0 0 101.14221561590875 -25.488796187128173 0 -25.488796187128173 88.982998531324256 0 0 0 0 198.93668762337938 -6.0659787840702393 0 -6.0659787840702393 92.031823720685679 0 0 0 0 54.091958537674891 9.3560006091673387 0 9.3560006091673387 25.314399291513837 0 0 0 0 55.981991962152449 -27.692727630414993 0 -27.692727630414993 86.576617667136816 0 0 0 0 50.6469919368825 -12.491615967151347 0 -12.491615967151347 -13.992145095973001 0 0 0 0 55.814424368777622 7.6853204552958232 0 7.6853204552958232 30.883102424842605 0 0 0 0 118.53769348429023 -9.9090122963725662 0 -9.9090122963725662 24.04726939274542 0 0 0 0 39.848432311770011 -6.9294135426779349 0 -6.9294135426779349 7.1931884434992099 0 0 0 0 128.59295840350507 -22.241222093544366 0 -22.241222093544366 -9.9431302455577679 0 0 0 0 -8.5672946154882084 68.083247463265252 0 68.083247463265252 126.23536428354964 0 0 0 0 43.931554003944484 48.740652935434952 0 48.740652935434952 -32.480465430285427 0 0 0 0 36.458615764265446 13.070768368447421 0 13.070768368447421 -9.4619810400969406 0 0 0 0 124.1994295471959 -19.477448177052793 0 -19.477448177052793 -28.798664955622144 0 0 0 0 -211.85618770956171 52.348418355407532 0 52.348418355407532 268.48879478650076 0 0 0 0 218.32844353569089 52.365563736525473 0 52.365563736525473 -67.260079449041768 0 0 0 0 -31.671276479959488 -103.67462310827386 0 -103.67462310827386 157.08950057199195 0 0 0 0 74.951600752028753 -176.09304250201353 0 -176.09304250201353 117.36178820888426 0 0 0 0 -92.216345693917901 -26.771243038550892 0 -26.771243038550892 121.59708758161787 0 0 0 0 83.621249295069902 21.051887775425939 0 21.051887775425939 20.062802749761431 0 0 0 0 118.37218999298238 -23.189737441191028 0 -23.189737441191028 -2.47761290849067 0 0 0 0 5.6033401359443307 0.49626380114577984 0 0.49626380114577984 2.8649898072458484 0 0 0 0 74.316973130942642 -62.654646974638126 0 -62.654646974638126 -4.1685455503438789 0 0 0 0 2.9988564050534174 -10.730473059069073 0 -10.730473059069073 13.065954575993967 0 0 0 0 90.269315334039675 -38.447977180193902 0 -38.447977180193902 -13.055627528207879 0 0 0 0 123.52052658257162 -197.97790114760937 0 -197.97790114760937 156.4094386563429 0 0 0 0 -0.30748766491820589 -5.2299689581517672 0 -5.2299689581517672 3.9388887606164884 0 0 0 0 35.002659008222963 -18.533131314051843 0 -18.533131314051843 2.6518259737374592 0 0 0 0 26.444033690948501 -7.2465072654653344 0 -7.2465072654653344 1.5464864963594436 0 0 0 0 41.463563665392485 -15.657002000602688 0 -15.657002000602688 3.351209075852239 0 0 0 0 32.378743345727571 -19.77554255779603 0 -19.77554255779603 24.341734110604193 0 0 0 0 32.510739491187678 -9.4084203461967491 0 -9.4084203461967491 20.733637443706812 0 0 0 0 36.451879576094861 9.7661972572314504 0 9.7661972572314504 -9.7847215072252958 0 0 0 0 14.264330695317994 46.042696016012258 0 46.042696016012258 -3.3932938544958233 0 0 0 0 35.369521745133852 -12.380884082232114 0 -12.380884082232114 1.3555946239683863 0 0 0 0 -16.665306034355126 16.598890965273313 0 16.598890965273313 29.868089838540072 0 0 0 0 9.0444853862212717 -0.67367933070180275 0 -0.67367933070180275 -0.43073683381177119 0 0 0 0 69.371211795107911 -0.52117089303351349 0 -0.52117089303351349 -13.514334397360471 0 0 0 0 17.801473583675619 6.4663135626878052 0 6.4663135626878052 4.3224084931039473 0 0 0 0 18.35397068597922 -1.4348262011949373 0 -1.4348262011949373 14.152236672865911 0 0 0 0 57.37221696432016 -43.12940317075828 0 -43.12940317075828 34.457993285252087 0 0 0 0 43.835136582957716 6.7402860484513667 0 6.7402860484513667 12.337036047651054 0 0 0 0 36.000281640704088 -4.876454607566302 0 -4.876454607566302 36.063128045674148 0 0 0 0 111.30926650202264 -89.655123897510293 0 -89.655123897510293 75.61711112726698 0 0 0 0 127.50036061422179 -17.798977250768644 0 -17.798977250768644 18.382572123946375 0 0 0 0 62.994649168052774 -37.889922235625818 0 -37.889922235625818 39.034832077271858 0 0 0 0 72.633466885122516 -72.824554298515977 0 -72.824554298515977 78.153581217767169 0 0 0 0 74.43535671520435 -78.392397523675072 0 -78.392397523675072 83.103176014052224 0 0 0 0 44.013565030621294 3.1895155638362667 0 3.1895155638362667 -0.52426602228797492 0 0 0 0 44.072994377629129 -40.834377646574467 0 -40.834377646574467 66.048486125965155 0 0 0 0 70.085866296973336 -43.822572831903472 0 -43.822572831903472 55.064513667544361 0 0 0 0 77.518589674607199 -73.637622717748286 0 -73.637622717748286 125.44037326967646 0 0 0 0 163.56403777764103 -143.45257726296813 0 -143.45257726296813 162.88231396410174 0 0 0 0 141.3106083242003 -94.656270712276182 0 -94.656270712276182 79.332217154082628 0 0 0 0 0.90051293553400624 1.6253256582907598 0 1.6253256582907598 0.011546289545897537 0 0 0 0 111.551949561745 -41.172890810042645 0 -41.172890810042645 202.27448987610114 0 0 0 0 122.28408330795557 -83.291148806561978 0 -83.291148806561978 68.6915672128398 0 0 0 0 18.929036778294851 -4.8915658690174357 0 -4.8915658690174357 6.3779711948161655 0 0 0 0 157.81632424512986 -37.605761450754471 0 -37.605761450754471 12.857542272451383 0 0 0 0 99.128856794632895 -78.853151026497471 0 -78.853151026497471 73.612388343328348 0 0 0 0 99.379350362213017 -75.673118941909706 0 -75.673118941909706 77.418076873846985 0 0 0 0 75.534393308894778 -19.390715000875389 0 -19.390715000875389 57.396478880848917 0 0 0 0 102.32936218109273 -64.91618777549138 0 -64.91618777549138 66.353914923392949 0 0 0 0 45.702268330194784 48.433740577892308 0 48.433740577892308 -68.2726106905709 0 0 0 0 59.882398835113094 9.386821967673928 0 9.386821967673928 -20.33206211755083 0 0 0 0 1.948076523221971 43.497363307159276 0 43.497363307159276 -48.495839018611491 0 0 0 0 58.008102282754749 50.862310862783005 0 50.862310862783005 -74.591333123681579 0 0 0 0 15.678013112276446 -6.1926657077371523 0 -6.1926657077371523 1.1609696329556964 0 0 0 0 -9.0701296030774756 76.852271872109782 0 76.852271872109782 -70.259733564226963 0 0 0 0 172.66956911400121 -22.364228124310102 0 -22.364228124310102 -23.523649807336369 0 0 0 0 55.574104429551518 10.214848632720983 0 10.214848632720983 -16.773726773318678 0 0 0 0 8.5761926942213904 30.332590097771686 0 30.332590097771686 -95.051173545360825 0 0 0 0 82.099887223686892 -32.431362109209203 0 -32.431362109209203 33.659325485344198 0 0 0 0 160.51143646455057 -53.38959957859106 0 -53.38959957859106 36.965596911942157 0 0 0 0 73.129005750027318 -78.499869341005251 0 -78.499869341005251 121.04558405032549 0 0 0 0 66.443975890312345 -27.336690447879391 0 -27.336690447879391 121.34046060846777 0 0 0 0 3.5740154130562516 -4.7634582255190114 0 -4.7634582255190114 6.2763864693750984 0 0 0 0 -2.3366525034480219 -26.274957198545053 0 -26.274957198545053 52.015427346624165 0 0 0 0 21.473271635310084 -11.103262650532088 0 -11.103262650532088 30.461355981230639 0 0 0 0 1.3430086200079714 -0.61284814016261713 0 -0.61284814016261713 -0.51705858720166964 0 0 0 0 54.037689665975904 32.271772187608349 0 32.271772187608349 50.548708282989921 0 0 0 0 60.606872864414981 -81.376406631067766 0 -81.376406631067766 141.54392351982113 0 0 0 0 5.114090151184655 -15.517556631837579 0 -15.517556631837579 66.756362577737491 0 0 0 0 11.051087682488347 -19.317326752289198 0 -19.317326752289198 30.122131917341534 0 0 0 0 14.600662096931046 -63.327193884456932 0 -63.327193884456932 3.1426903914245372 0 0 0 0 139.90421945168146 138.02612335698188 0 138.02612335698188 -31.244719155809179 0 0 0 0 448.95551269278712 256.87553185328142 0 256.87553185328142 9.2794470689993318 0 0 0 0 185.69299916417276 75.176137517010005 0 75.176137517010005 31.28372934447134 0 0 0 0 -20.978052540020144 -6.4621409253566355 0 -6.4621409253566355 20.494373449921966 0 0 0 0 -12.770801397564355 5.0386224933680523 0 5.0386224933680523 24.249143938240962 0 0 0 0 9.1113487790581331 -4.1660175072526799 0 -4.1660175072526799 6.7785050567298537 0 0 0 0 17.692938098617027 -13.367089186201309 0 -13.367089186201309 24.975444511067444 0 0 0 0 18.043155221675079 -13.513414927742133 0 -13.513414927742133 29.371571768067952 0 0 0 0 16.791913855351595 -4.3017689679320483 0 -4.3017689679320483 7.1388418776391518 0 0 0 0 24.227683256096498 -9.4579740206863789 0 -9.4579740206863789 31.977659489224607 0 0 0 0 12.333468695167456 -2.084569784182257 0 -2.084569784182257 10.206964011643446 0 0 0 0 15.00100025812397 -10.687515567037039 0 -10.687515567037039 12.910654889835339 0 0 0 0 18.245456208354586 -7.2070187040870675 0 -7.2070187040870675 6.7898894988991776 0 0 0 0 2.0112009731209888 1.9798724501850744 0 1.9798724501850744 0.049252320420862361 0 0 0 0 2.3178591090945702 -46.48178412022083 0 -46.48178412022083 63.503094250679325 0 0 0 0 -41.941333502922134 14.342478212684723 0 14.342478212684723 117.9143091537363 0 0 0 0 17.739764354222643 -44.897116617391305 0 -44.897116617391305 -32.128150096673501 0 0 0 0 40.462027018676139 -16.841808102262949 0 -16.841808102262949 5.9023892345131763 0 0 0 0 58.915728835704542 -26.915463260459944 0 -26.915463260459944 -18.629358902180229 0 0 0 0 11.617855156901053 -0.69759409502492442 0 -0.69759409502492442 0.23645830713138949 0 0 0 0 37.846282245740383 -1.5654963124767391 0 -1.5654963124767391 14.678473896551623 0 0 0 0 31.420304019338118 -3.3601364882683811 0 -3.3601364882683811 17.445063287980247 0 0 0 0 30.961158159576087 -0.17764087508717807 0 -0.17764087508717807 21.340020657299647 0 0 0 0 27.828398997739669 -3.769394577282128 0 -3.769394577282128 25.457967121846423 0 0 0 0 -0.15342252524684596 8.0728733238052399 0 8.0728733238052399 34.138275172028443 0 0 0 0 17.97613143724751 10.204932113581265 0 10.204932113581265 5.7639550734905551 0 0 0 0 20.835082357210922 9.7564056592564157 0 9.7564056592564157 9.6555688961234409 0 0 0 0 2.3989962477160418 -2.5236883281932236 0 -2.5236883281932236 31.284050189906338 0 0 0 0 2.3913547284196817 -3.3070175845682428 0 -3.3070175845682428 41.424870252219989 0 0 0 0 -0.13853880419602405 7.1559215503607234 0 7.1559215503607234 45.328706103236982 0 0 0 0 44.643534174360411 16.148716476217942 0 16.148716476217942 0.74106693790236022 0 0 0 0 13.430173443925014 34.215653551840205 0 34.215653551840205 4.3048463630121887 0 0 0 0 16.124377824670454 10.064894396820465 0 10.064894396820465 3.7460887232582216 0 0 0 0 28.166327109617214 -9.6582219421702575 0 -9.6582219421702575 28.85418535195231 0 0 0 0 24.818043923037749 -5.4101595895458559 0 -5.4101595895458559 27.817884540092962 0 0 0 0 19.949205746122971 -3.6522785692434354 0 -3.6522785692434354 27.857578549298978 0 0 0 0 21.288955619035733 -11.38979959485539 0 -11.38979959485539 6.4619626345001961 0 0 0 0 13.843058221360025 -11.301588755150988 0 -11.301588755150988 23.774831023919717 0 0 0 0 25.604798259685595 -5.5555355966027946 0 -5.5555355966027946 25.718104764980353 0 0 0 0 17.515912729791125 -11.725813691336953 0 -11.725813691336953 8.6370932185118932 0 0 0 0 24.800748945848227 -19.377683847477783 0 -19.377683847477783 9.5341438783243575 0 0 0 0 19.421290120846777 -3.3791620538056293 0 -3.3791620538056293 -1.0766564494065278 0 0 0 0 27.008359701484153 -11.341092607666241 0 -11.341092607666241 0.8733268603691613 0 0 0 0 4.4146494254900972 -16.085161617718768 0 -16.085161617718768 6.1744548427839163 0 0 0 0 25.258013243031655 -14.873784571195756 0 -14.873784571195756 -21.394471727804216 0 0 0 0 -22.113995763646017 -163.72978577590666 0 -163.72978577590666 231.97633598142818 0 0 0 0 348.10703204391211 93.813766815705208 0 93.813766815705208 20.215180058936994 0 0 0 0 20.738470660327128 -5.1230501058172022 0 -5.1230501058172022 0.68024651302122752 0 0 0 0 13.290043455876003 -63.095660802867087 0 -63.095660802867087 -52.983347668084321 0 0 0 0 -50.945278024948493 108.20244646659967 0 108.20244646659967 113.46210163877367 0 0 0 0 34.661243279595794 69.638191359184205 0 69.638191359184205 73.809575233976148 0 0 0 0 -147.46218732416264 -54.875450582115946 0 -54.875450582115946 658.44848009451209 0 0 0 0 3.4921129451386457 -2.2602646393520329 0 -2.2602646393520329 0.8425334840712535 0 0 0 0 12.00765131892576 -4.6489563203680504 0 -4.6489563203680504 0.98640846586417719 0 0 0 0 -54.49358406653846 -139.65883019576927 0 -139.65883019576927 225.13560043754421 0 0 0 0 -89.016368380333006 -133.31994889212012 0 -133.31994889212012 241.48270936011721 0 0 0 0 30.900708491969226 -1.8627609092741295 0 -1.8627609092741295 -32.167323616169824 0 0 0 0 38.445380649818958 -19.157643671694359 0 -19.157643671694359 -7.9904026920728484 0 0 0 0 23.818583964198282 19.70202362397697 0 19.70202362397697 10.839352892069428 0 0 0 0 114.6869122227064 10.258292055908896 0 10.258292055908896 9.0147046699783004 0 0 0 0 32.362695190365699 -14.380771561752454 0 -14.380771561752454 63.907443442594285 0 0 0 0 14.232060519136837 -3.6854539861984676 0 -3.6854539861984676 31.337470485394533 0 0 0 0 30.058590416720222 -4.3085068071727619 0 -4.3085068071727619 28.911902709852711 0 0 0 0 35.250127783677272 9.7695131742395915 0 9.7695131742395915 14.686912016644609 0 0 0 0 24.246779565617402 6.1244887703830955 0 6.1244887703830955 40.676108982568621 0 0 0 0 124.00995710814732 -11.311781578205512 0 -11.311781578205512 -17.656831774459079 0 0 0 0 36.240570710177309 24.453281681498538 0 24.453281681498538 52.751313129802838 0 0 0 0 -0.17071251983344526 0.9395440549195837 0 0.9395440549195837 1.2844679823611163 0 0 0 0 11.26486374338981 -19.232580661733209 0 -19.232580661733209 52.533980510287734 0 0 0 0 -4.3843262317373046 -55.458099800808668 0 -55.458099800808668 13.346861768433769 0 0 0 0 33.320076485196807 -10.515451956856181 0 -10.515451956856181 2.828183072203422 0 0 0 0 10.738523959523626 -0.24624583189633886 0 -0.24624583189633886 3.1907275559136377 0 0 0 0 60.318918953316711 38.599118757179895 0 38.599118757179895 -149.67276240563945 0 0 0 0 -21.172887040720184 -15.46596483171902 0 -15.46596483171902 14.488003347193398 0 0 0 0 -0.6474656862643875 -1.6185622684331957 0 -1.6185622684331957 6.7673773412936233 0 0 0 0 -203.25051809131196 -17.770525249487989 0 -17.770525249487989 257.95245401048078 0 0 0 0 75.480291937428262 43.77836174731101 0 43.77836174731101 29.813956605369128 0 0 0 0 61.973790392806137 6.4730667693631858 0 6.4730667693631858 -14.529324172664758 0 0 0 0 82.769245254282865 49.76216053971757 0 49.76216053971757 6.2080392806636837 0 0 0 0 144.10832339163949 -47.723333532977676 0 -47.723333532977676 20.653183306239328 0 0 0 0 -89.036928172585476 -66.103143880165959 0 -66.103143880165959 508.01076105626038 0 0 0 0 -76.848042788677617 100.38648701349382 0 100.38648701349382 445.88344659936831 0 0 0 0 2502.1355149251813 74.37513371596647 0 74.37513371596647 1015.4951321430259 0 0 0 0 2530.9038966969429 -94.521916662064939 0 -94.521916662064939 -241.6423686814453 0 0 0 0 1482.8748893579354 539.04295223999998 0 539.04295223999998 -152.78764938442731 0 0 0 0 0.69822156418422976 -1.293627150505553 0 -1.293627150505553 3.4661264052008849 0 0 0 0 409.78846583658697 -254.72763693924281 0 -254.72763693924281 296.49942477402885 0 0 0 0 946.26797174285912 49.411931479146702 0 49.411931479146702 461.05128612696979 0 0 0 0 159.03329960484689 111.29686143732198 0 111.29686143732198 45.197944033015688 0 0 0 0 1297.5257883944103 -339.15546279031275 0 -339.15546279031275 -31.592091931799018 0 0 0 0 2494.241072404534 -584.10295593938804 0 -584.10295593938804 -274.8809663872953 0 0 0 0 1256.9910665402097 -111.5856936278237 0 -111.5856936278237 -163.03627590344888 0 0 0 0 1347.2561193717529 -784.98523707207767 0 -784.98523707207767 315.69523947878821 0 0 0 0 14.45464801749992 -3.1779178079311561 0 -3.1779178079311561 1.9032148014549115 0 0 0 0 13.300694766634479 232.56378196452351 0 232.56378196452351 29.977861254850609 0 0 0 0 172.26415162715239 -379.07799924432652 0 -379.07799924432652 395.77997076059557 0 0 0 0 2495.1955326452239 1338.1669708156039 0 1338.1669708156039 547.12036031251614 0 0 0 0 2501.1259577959272 494.8535485438785 0 494.8535485438785 -172.71069830284821 0 0 0 0 1165.6245082637106 -20.126577372883879 0 -20.126577372883879 -110.84501725027495 0 0 0 0 840.7319435811005 430.83608380525834 0 430.83608380525834 74.35843890493463 0 0 0 0 407.21911853757592 265.967919368624 0 265.967919368624 225.0838233866607 0 0 0 0 841.91622265806723 201.57134513790916 0 201.57134513790916 44.151821387089171 0 0 0 0 179.30598870297945 -142.11010306307099 0 -142.11010306307099 -90.259102020611692 0 0 0 0 73.551547788792959 -35.614574177822909 0 -35.614574177822909 -32.546585683265505 0 0 0 0 13.916353000617299 0.13863212840011485 0 0.13863212840011485 -3.4757106488570004 0 0 0 0 85.346174345904728 -162.82658684860314 0 -162.82658684860314 97.788626223659662 0 0 0 0 46.236848525522419 78.896392118448247 0 78.896392118448247 231.19184986802068 0 0 0 0 712.90452507838927 121.9810439405563 0 121.9810439405563 81.2581078172243 0 0 0 0 1038.175549502268 330.14875396128679 0 330.14875396128679 50.724225308422845 0 0 0 0 402.62377381263741 65.248621589282124 0 65.248621589282124 360.5233670811657 0 0 0 0 607.83397278033272 293.16698227006509 0 293.16698227006509 338.98201939901696 0 0 0 0 312.40103116536193 412.97816318278865 0 412.97816318278865 348.78857568742342 0 0 0 0 205.66983705995153 -100.40545711425081 0 -100.40545711425081 103.69098329276724 0 0 0 0 3.5827369747668385 1.4620980381638844 0 1.4620980381638844 0.070161955723355471 0 0 0 0 590.78726226318577 158.55516552578766 0 158.55516552578766 -8.6366864639107632 0 0 0 0 25.200038049004434 93.907656498312818 0 93.907656498312818 144.69365515653089 0 0 0 0 785.35815254674708 -281.79198647049907 0 -281.79198647049907 238.17236596516449 0 0 0 0 2494.6233695506598 -672.47461318233218 0 -672.47461318233218 -321.67302712000657 0 0 0 0 1039.9012211642203 -182.64051654280115 0 -182.64051654280115 -105.24412769388356 0 0 0 0 146.05058391358125 -74.433262397070536 0 -74.433262397070536 -0.85682262790146524 0 0 0 0 147.71407040403392 -94.822569759247244 0 -94.822569759247244 7.2336673094325192 0 0 0 0 218.84767607401045 -79.540362734095652 0 -79.540362734095652 -68.016472479154118 0 0 0 0 130.88156577755581 15.305453332756315 0 15.305453332756315 -128.1472196360146 0 0 0 0 139.42888509964178 -29.708460472578281 0 -29.708460472578281 -63.723834650976414 0 0 0 0 103.44038048198126 -34.679961387852245 0 -34.679961387852245 -22.09504212470523 0 0 0 0 103.57100422026997 -35.099973168502629 0 -35.099973168502629 -23.493918548240117 0 0 0 0 74.577135050096331 -43.32584493429755 0 -43.32584493429755 13.526690409302546 0 0 0 0 56.533748963702237 -22.772781036538845 0 -22.772781036538845 -9.8771640322404437 0 0 0 0 42.748977583720261 -35.181070107412438 0 -35.181070107412438 53.966958491323112 0 0 0 0 56.170423523224599 -43.267907868733118 0 -43.267907868733118 14.037804769478328 0 0 0 0 33.937687620138604 65.793974319391992 0 65.793974319391992 -230.83272320818739 0 0 0 0 18.962799560637833 3.1837375311004803 0 3.1837375311004803 0.0073284153205417368 0 0 0 0 3.5875689405129378 100.70514848481608 0 100.70514848481608 -66.11194028343786 0 0 0 0 -9.0165609637124362 109.71004070725019 0 109.71004070725019 -138.27962016679624 0 0 0 0 -22.834037725386224 25.47276115737526 0 25.47276115737526 -76.414889567041484 0 0 0 0 76.877359404603794 -98.176207388319909 0 -98.176207388319909 149.16404598392785 0 0 0 0 12.295534141804993 2.0719722771402838 0 2.0719722771402838 0.16979184669408465 0 0 0 0 94.018679462147702 181.6433951883626 0 181.6433951883626 -87.385362581682784 0 0 0 0 4.1291738401526601 1.0735481697567835 0 1.0735481697567835 0.54836438848169777 0 0 0 0 118.24784686947169 128.27165048923518 0 128.27165048923518 291.46462619899017 0 0 0 0 475.2778385222482 -109.18383018190605 0 -109.18383018190605 153.64197801302188 0 0 0 0 288.21907167519203 -348.6938898230062 0 -348.6938898230062 362.43255335130732 0 0 0 0 479.19562749003308 63.059698970113402 0 63.059698970113402 3.1657798171870581 0 0 0 0 42.30779516047005 51.622677085091368 0 51.622677085091368 16.145052350426454 0 0 0 0 8.5904665724701772 40.210562095918647 0 40.210562095918647 94.036172947233553 0 0 0 0 50.546488249434333 91.170102568411835 0 91.170102568411835 160.24838386197933 0 0 0 0 131.9925230873032 116.28209553301529 0 116.28209553301529 35.47955557978014 0 0 0 0 56.498123277860941 95.028038153343573 0 95.028038153343573 30.575751416282628 0 0 0 0 39.482506753563939 141.13384502359941 0 141.13384502359941 13.586038614844071 0 0 0 0 54.584908966990042 132.9083696268965 0 132.9083696268965 -132.03605371475305 0 0 0 0 172.34660386691939 303.0702869400144 0 303.0702869400144 -195.28817358865217 0 0 0 0 89.245661197964623 25.507935875207629 0 25.507935875207629 -11.827367633554861 0 0 0 0 -59.190723871721275 97.150048812007299 0 97.150048812007299 -45.587829598953249 0 0 0 0 86.282249498048571 24.9913436349485 0 24.9913436349485 -14.593686095005225 0 0 0 0 -48.918202941102209 5.2809636198630869 0 5.2809636198630869 95.111513888213722 0 0 0 0 0.18959397220115193 1.5590755266455716 0 1.5590755266455716 3.0522973619428626 0 0 0 0 225.44923270202162 82.697741796864648 0 82.697741796864648 -353.09968628712863 0 0 0 0 15.249389400134532 -74.875616784244812 0 -74.875616784244812 -18.401992496994353 0 0 0 0 145.17312761974972 184.19285001215633 0 184.19285001215633 -212.35923663408494 0 0 0 0 106.72460048588982 -9.0849813216682378 0 -9.0849813216682378 -176.98002167506144 0 0 0 0 -60.361620231943562 113.96899816579429 0 113.96899816579429 -70.932527229382686 0 0 0 0 25.855084408807347 -0.82361807792339903 0 -0.82361807792339903 -4.2743343973821375 0 0 0 0 59.540444658812703 62.089757670489121 0 62.089757670489121 -49.183334910083659 0 0 0 0 54.166052139703467 19.685391203844205 0 19.685391203844205 -8.4353388950303536 0 0 0 0 70.164722907727992 14.463856004799709 0 14.463856004799709 -11.141535321582523 0 0 0 0 17.880919035971807 16.166090401666423 0 16.166090401666423 -20.549602671336828 0 0 0 0 78.170580015554151 25.927949238785914 0 25.927949238785914 -20.210831006916123 0 0 0 0 65.697104708800907 17.983925006788922 0 17.983925006788922 -8.9389464446721831 0 0 0 0 17.558339618735772 20.368061342150213 0 20.368061342150213 -17.977182153510512 0 0 0 0 46.440437717131786 5.8880196351266818 0 5.8880196351266818 -7.6954058574414432 0 0 0 0 31.539029497340735 23.025254410860356 0 23.025254410860356 -12.165247984819395 0 0 0 0 35.583844244536465 13.400349967290154 0 13.400349967290154 -2.4264905060105941 0 0 0 0 66.994962801800284 24.202393866112288 0 24.202393866112288 -28.640854104080972 0 0 0 0 42.708799151041603 24.588036156588714 0 24.588036156588714 -14.707591841994144 0 0 0 0 14.656452763627385 38.336986523054406 0 38.336986523054406 -10.262018901228657 0 0 0 0 44.719962542701978 -4.0538920529907045 0 -4.0538920529907045 -16.074412971764104 0 0 0 0 4.9510903028832445 4.5062167953545966 0 4.5062167953545966 4.3974163253000178 0 0 0 0 45.016836790699017 -30.966071433440902 0 -30.966071433440902 -1.8676771943983113 0 0 0 0 33.540219552480266 -11.921628394913569 0 -11.921628394913569 41.253814360857632 0 0 0 0 39.766330781894794 21.199339572810004 0 21.199339572810004 -11.124883240512645 0 0 0 0 43.678148304818052 -2.9990670603416625 0 -2.9990670603416625 -1.9685585016148437 0 0 0 0 95.838292066022404 17.357863293274477 0 17.357863293274477 -18.629377444369311 0 0 0 0 9.44508281709426 4.5034047042148302 0 4.5034047042148302 -8.353501015012899 0 0 0 0 74.424196391613805 12.87393947197188 0 12.87393947197188 -27.304341983397535 0 0 0 0 68.424399519150029 23.423439602604958 0 23.423439602604958 -40.619710934972318 0 0 0 0 56.158153223746922 3.2493654604045332 0 3.2493654604045332 3.3482042813884618 0 0 0 0 108.3499572010187 7.4922437456098123 0 7.4922437456098123 0.22927064765099203 0 0 0 0 102.0569520543504 -9.4772656364302748 0 -9.4772656364302748 -45.181166636528133 0 0 0 0 53.012873750070867 14.930551257633169 0 14.930551257633169 -18.84283191900613 0 0 0 0 12.554071664348157 47.170888233644973 0 47.170888233644973 -7.6083532499933426 0 0 0 0 54.828211835497186 14.858752878219818 0 14.858752878219818 -11.817877576036008 0 0 0 0 89.336799779383 7.9076186974962184 0 7.9076186974962184 6.1343856171879452 0 0 0 0 46.058093228570442 19.061781836292859 0 19.061781836292859 -15.501528108239594 0 0 0 0 88.819379826978547 11.034349198635937 0 11.034349198635937 -11.930653569674178 0 0 0 0 57.214637243450852 10.148253931522049 0 10.148253931522049 -11.189757278995103 0 0 0 0 76.05552967487165 12.653710028718706 0 12.653710028718706 -13.459384788018724 0 0 0 0 86.81161253641767 21.526760054732222 0 21.526760054732222 -15.470600196592386 0 0 0 0 23.551120266783983 65.007149518253755 0 65.007149518253755 -32.703498956359908 0 0 0 0 59.106029991235118 21.42852426920399 0 21.42852426920399 -15.19326034237406 0 0 0 0 55.188091753940171 26.165291520171536 0 26.165291520171536 -6.5745935538252525 0 0 0 0 49.598603086929245 19.064892343771184 0 19.064892343771184 -7.6007470215277255 0 0 0 0 79.842531162314117 34.317333251219679 0 34.317333251219679 -21.840161679552693 0 0 0 0 -14.329691567269862 10.169888724621593 0 10.169888724621593 5.6920110610904935 0 0 0 0 64.939426834855112 28.747186286948818 0 28.747186286948818 -6.1366958773469378 0 0 0 0 123.41157579774153 11.274938011412814 0 11.274938011412814 -22.44879757653689 0 0 0 0 43.702568524888193 16.460558240034516 0 16.460558240034516 -12.78345379611028 0 0 0 0 40.464415194655885 53.784459477943074 0 53.784459477943074 -45.055862509164399 0 0 0 0 28.651919017931505 -3.3950801070607213 0 -3.3950801070607213 -15.608931346493364 0 0 0 0 47.964899836675954 9.8497619066210618 0 9.8497619066210618 -2.1946370769646535 0 0 0 0 70.690720039018743 -27.588987107472263 0 -27.588987107472263 23.225131448411958 0 0 0 0 37.989990755391773 27.918345686209022 0 27.918345686209022 47.958630104903932 0 0 0 0 85.192026177915977 31.490895980244659 0 31.490895980244659 -7.7994391208940215 0 0 0 0 56.96495292590955 4.2362446139789789 0 4.2362446139789789 -10.71655223434313 0 0 0 0 48.028510146704008 12.199619183451492 0 12.199619183451492 -2.9865550412361457 0 0 0 0 44.16228534325478 8.8554213582491741 0 8.8554213582491741 -38.419622767870351 0 0 0 0 60.727461614566273 -0.63182808252763145 0 -0.63182808252763145 -2.8284062423707761 0 0 0 0 90.76483838328295 4.2244798954531007 0 4.2244798954531007 -28.326487136040214 0 0 0 0 94.345278706957288 5.0360335617950227 0 5.0360335617950227 -51.768357022900318 0 0 0 0 95.068070453338805 6.9173208986425152 0 6.9173208986425152 -47.237834455434722 0 0 0 0 53.617783905643137 35.570874458651105 0 35.570874458651105 -65.741572820771125 0 0 0 0 79.910266741848318 -26.229279036359912 0 -26.229279036359912 -23.377139024621556 0 0 0 0 80.860375321801257 -18.391916091826374 0 -18.391916091826374 -33.712700982776482 0 0 0 0 76.295782499906636 -15.402222943539527 0 -15.402222943539527 -29.734269484911579 0 0 0 0 75.461697334421842 -15.92024550482995 0 -15.92024550482995 -25.460729783254237 0 0 0 0 67.971940453710289 -13.779125393003687 0 -13.779125393003687 0.51901618127753257 0 0 0 0 70.135938917810563 -4.3211020448106865 0 -4.3211020448106865 -4.6011249826758132 0 0 0 0 66.577450508364564 -21.558084018754585 0 -21.558084018754585 -24.962700132329587 0 0 0 0 89.420213482226245 -23.590383597605978 0 -23.590383597605978 -4.5126944792175721 0 0 0 0 103.76692053323495 -59.523205239798699 0 -59.523205239798699 16.418884847793379 0 0 0 0 10.295028283013096 11.757259129395997 0 11.757259129395997 -9.5403663546169817 0 0 0 0 65.449771625157155 -13.945812319568859 0 -13.945812319568859 21.438183896941609 0 0 0 0 63.406156116117927 -20.265555599777144 0 -20.265555599777144 11.370998776228589 0 0 0 0 81.186379717313685 -9.8213349114225821 0 -9.8213349114225821 -1.8756844520848972 0 0 0 0 57.041730502809514 0.69479194092855323 0 0.69479194092855323 4.2780450243576524 0 0 0 0 55.96323472775839 -2.4237720927019382 0 -2.4237720927019382 -3.2473367124795232 0 0 0 0 59.794036088482244 -5.1269432808671809 0 -5.1269432808671809 9.1407143216811164 0 0 0 0 52.108809158278746 19.232335000916464 0 19.232335000916464 4.9729246263909772 0 0 0 0 32.916129659323246 9.8779384053787567 0 9.8779384053787567 -4.7321740557585148 0 0 0 0 55.218517353328934 -25.71084416017186 0 -25.71084416017186 23.006274661856779 0 0 0 0 55.401748316923658 -23.128606155040814 0 -23.128606155040814 1.7187529636644285 0 0 0 0 55.382467465353329 -25.904391154739073 0 -25.904391154739073 17.173570213767562 0 0 0 0 45.582937051360204 -26.159979278082574 0 -26.159979278082574 32.346873837925159 0 0 0 0 42.986022530385526 -31.459557032829252 0 -31.459557032829252 16.374380489886789 0 0 0 0 59.601930774637367 -28.934876254290657 0 -28.934876254290657 -3.0102998221964299 0 0 0 0 36.561268599078176 -8.9896869929830245 0 -8.9896869929830245 4.4018722557157162 0 0 0 0 47.843797513909522 -10.024899836969325 0 -10.024899836969325 18.721925897239089 0 0 0 0 61.452944635260792 -32.259145732513844 0 -32.259145732513844 34.682336476424325 0 0 0 0 65.759542047111609 -26.119809738910817 0 -26.119809738910817 12.894733250293484 0 0 0 0 67.784793452359736 -8.1116631783843332 0 -8.1116631783843332 40.033885978390572 0 0 0 0 56.832860186594189 -1.9378685091910484 0 -1.9378685091910484 37.541485704102627 0 0 0 0 75.975806420276058 -20.516815443827909 0 -20.516815443827909 22.46512510636876 0 0 0 0 48.314922283054329 -5.0640620624067196 0 -5.0640620624067196 16.508243137563113 0 0 0 0 58.75951051912125 -6.1206246922006358 0 -6.1206246922006358 16.165447219404996 0 0 0 0 49.045195212805993 0.98255969572710455 0 0.98255969572710455 30.816435625438658 0 0 0 0 49.686852326558437 4.0795230262733639 0 4.0795230262733639 13.614361261824001 0 0 0 0 45.499848800958716 -8.7336380292599642 0 -8.7336380292599642 16.285850966113685 0 0 0 0 47.005929398592343 6.8260498898159767 0 6.8260498898159767 -2.7139404751733309 0 0 0 0 50.354280512707192 -3.6512795596286196 0 -3.6512795596286196 0.79217668104956829 0 0 0 0 38.662674163664633 -10.637525157529581 0 -10.637525157529581 0.91911249038895448 0 0 0 0 64.000459223265352 -4.2071672090405627 0 -4.2071672090405627 1.6850957148699308 0 0 0 0 61.713314971058935 -11.646815338192141 0 -11.646815338192141 -30.394791535655713 0 0 0 0 24.167931635944115 -26.709714191804096 0 -26.709714191804096 20.536519730934742 0 0 0 0 36.66400843099774 -9.8063253390674987 0 -9.8063253390674987 1.1836509866896499 0 0 0 0 42.306083907852923 -5.7473973226562638 0 -5.7473973226562638 0.44909034498416878 0 0 0 0 40.221730035853398 -14.710945008658882 0 -14.710945008658882 -11.386699469902396 0 0 0 0 58.1670332959402 4.4217595613085905 0 4.4217595613085905 -11.740916298277625 0 0 0 0 37.637108522228118 -27.210151188357571 0 -27.210151188357571 -43.124276432647548 0 0 0 0 17.464846502638466 8.9908376101897716 0 8.9908376101897716 -29.814122655265237 0 0 0 0 39.642128760111518 6.6285882541983483 0 6.6285882541983483 -43.39277791500831 0 0 0 0 25.267559356232567 -10.501315434702141 0 -10.501315434702141 -6.4151260519621918 0 0 0 0 31.507183436334074 2.9319459478295862 0 2.9319459478295862 -7.3905043181919599 0 0 0 0 9.6236171096231899 -12.508079353982982 0 -12.508079353982982 -6.3343336515393585 0 0 0 0 44.450677336417357 3.7997158301818672 0 3.7997158301818672 -6.5704460862843916 0 0 0 0 41.760083067550113 -3.4616599630160181 0 -3.4616599630160181 -17.826632858320409 0 0 0 0 43.831737449306566 -13.804906989217811 0 -13.804906989217811 0.79188537618978216 0 0 0 0 61.349420544174791 -23.39516862639357 0 -23.39516862639357 -30.059481198837489 0 0 0 0 65.569860689882262 -8.7457484679998743 0 -8.7457484679998743 -22.211962399780077 0 0 0 0 37.906444193897187 -27.889572636707726 0 -27.889572636707726 -12.687356739140455 0 0 0 0 47.342517591863725 -26.214668293211616 0 -26.214668293211616 -12.393135392735985 0 0 0 0 34.71449551799742 -13.433922969659534 0 -13.433922969659534 -14.532259035817049 0 0 0 0 50.027781005948782 -17.317330308187593 0 -17.317330308187593 -13.648445899408728 0 0 0 0 36.947278023374608 -12.512185780079959 0 -12.512185780079959 2.2560080412866368 0 0 0 0 62.998283668712247 -15.328357710689318 0 -15.328357710689318 -28.608143824814988 0 0 0 0 56.574696743744425 -0.713568672821566 0 -0.713568672821566 -51.706128977909884 0 0 0 0 41.544842002108197 -5.0156944030818629 0 -5.0156944030818629 -0.094929741955736446 0 0 0 0 39.985234915952617 -9.7877527687734478 0 -9.7877527687734478 0.84309504881504194 0 0 0 0 12.54689329447865 -16.682371858250008 0 -16.682371858250008 13.554118155731885 0 0 0 0 56.660473903481034 -11.355287081176357 0 -11.355287081176357 -27.516235679329839 0 0 0 0 48.824941216691514 108.43840168133579 0 108.43840168133579 -48.840252561786428 0 0 0 0 32.662149112762563 -64.288941382832093 0 -64.288941382832093 -13.846929728266332 0 0 0 0 80.216636276483769 38.238290371942639 0 38.238290371942639 -6.6012797619596313 0 0 0 0 50.31761368997104 -36.172829615091359 0 -36.172829615091359 45.394226339137276 0 0 0 0 14.802044443596969 -26.53761503311739 0 -26.53761503311739 27.944717496615112 0 0 0 0 41.928594757766405 -22.719528731176297 0 -22.719528731176297 24.143937182594073 0 0 0 0 23.139325936346722 -29.371488608513573 0 -29.371488608513573 23.231663435577047 0 0 0 0 16.352968224338838 -22.986209317598878 0 -22.986209317598878 -7.2410680066641362 0 0 0 0 32.31278591233422 -37.521436695579041 0 -37.521436695579041 -3.8791780294041018 0 0 0 0 48.375115406277473 -48.396171460213736 0 -48.396171460213736 -69.949983311904361 0 0 0 0 17.872916631968309 2.2590228845915199 0 2.2590228845915199 -1.3232112622307692 0 0 0 0 41.360670991220104 8.053010024539617 0 8.053010024539617 -99.715637463405074 0 0 0 0 17.465828827538644 -3.210359514281663 0 -3.210359514281663 -19.452068005463389 0 0 0 0 26.870000352690113 -16.906283887639802 0 -16.906283887639802 -9.6551132393415173 0 0 0 0 40.758517404909071 -23.854096500565447 0 -23.854096500565447 -17.934888457307352 0 0 0 0 30.601251262385631 -22.638995014054217 0 -22.638995014054217 3.437960461747025 0 0 0 0 32.813366557646077 -27.610401768954034 0 -27.610401768954034 -31.247236958257645 0 0 0 0 26.732952986847522 -33.010829966599204 0 -33.010829966599204 -0.66717766859437688 0 0 0 0 20.978281899617286 -26.813293601908299 0 -26.813293601908299 22.533570002104625 0 0 0 0 30.539659429778112 -23.694547835689718 0 -23.694547835689718 19.475091619460045 0 0 0 0 32.965699738284457 -24.84251195805939 0 -24.84251195805939 4.7905303701563753 0 0 0 0 36.482224234045134 -16.857362665452911 0 -16.857362665452911 16.661696652305181 0 0 0 0 36.317777470700094 -14.307472110287108 0 -14.307472110287108 24.198516298418099 0 0 0 0 45.502567731477598 -8.9787129919418369 0 -8.9787129919418369 8.5519340463879416 0 0 0 0 63.611192993848817 -4.4928399718373839 0 -4.4928399718373839 -12.01818745771925 0 0 0 0 50.505603266254184 -5.6675940352001817 0 -5.6675940352001817 8.9340497121474982 0 0 0 0 47.293713777296944 -13.339316928208063 0 -13.339316928208063 -9.1082800912427047 0 0 0 0 45.561388069821987 -14.135259729794143 0 -14.135259729794143 0.71000581395878726 0 0 0 0 67.57504284078459 -19.555313519300626 0 -19.555313519300626 -13.800960452625986 0 0 0 0 65.631992482042961 17.173218905976288 0 17.173218905976288 -70.505392126844754 0 0 0 0 54.723038788357371 0.34561587631696966 0 0.34561587631696966 -41.346633338536094 0 0 0 0 55.921305451905937 42.69981110571058 0 42.69981110571058 -41.978105444044189 0 0 0 0 37.099349581643764 12.585238867304724 0 12.585238867304724 -25.720108282648425 0 0 0 0 50.923959726787871 -61.3621177907944 0 -61.3621177907944 29.73834862167223 0 0 0 0 50.395353392472316 -16.386406783806933 0 -16.386406783806933 -14.590274844113083 0 0 0 0 64.387556425182012 -16.49073314388135 0 -16.49073314388135 1.0229566252194215 0 0 0 0 32.411306536153802 -1.4033113574490272 0 -1.4033113574490272 4.266783818849305 0 0 0 0 31.447202340175863 -55.110686099342274 0 -55.110686099342274 161.60348488585623 0 0 0 0 94.11697579679749 -24.557126668190683 0 -24.557126668190683 2.6793149012964985 0 0 0 0 138.16557986042608 67.797421279323203 0 67.797421279323203 -308.92373671471978 0 0 0 0 60.834562664400437 111.8815481153938 0 111.8815481153938 -38.274211086113837 0 0 0 0 46.818819652789898 14.313958209388375 0 14.313958209388375 -83.020522991969756 0 0 0 0 66.308428273096069 121.30358177361802 0 121.30358177361802 -118.48321303153317 0 0 0 0 115.33331518686464 113.80708333551456 0 113.80708333551456 -117.83930029509071 0 0 0 0 64.875295603094855 -117.10272574603573 0 -117.10272574603573 -280.89480780204252 0 0 0 0 49.901255495627993 13.585482916264482 0 13.585482916264482 60.986107224535772 0 0 0 0 150.279989041308 -116.43560020245059 0 -116.43560020245059 -43.011427466903115 0 0 0 0 107.228685834918 -170.29009084640802 0 -170.29009084640802 245.11597478069416 0 0 0 0 210.5903250605661 -162.68936385505344 0 -162.68936385505344 85.136643304063 0 0 0 0 97.849516521615442 -84.563466754209003 0 -84.563466754209003 101.28139389775879 0 0 0 0 -91.63556394175248 46.983338737887607 0 46.983338737887607 70.133011750651349 0 0 0 0 34.183453100873521 -95.136069983342281 0 -95.136069983342281 155.73272334513513 0 0 0 0 5.3183213297025134 0.022908278519255365 0 0.022908278519255365 0.43977197395560452 0 0 0 0 199.85409670687659 291.7624842490261 0 291.7624842490261 503.43860376035082 0 0 0 0 133.97185802319291 205.23622106294465 0 205.23622106294465 138.6314800271366 0 0 0 0 61.605917757791758 53.899695229679764 0 53.899695229679764 179.87653910205574 0 0 0 0 62.714631813754977 84.738595449952911 0 84.738595449952911 88.416479927718683 0 0 0 0 40.706870803929633 88.807942365885083 0 88.807942365885083 89.63938349379896 0 0 0 0 52.803002056874902 34.222221216256912 0 34.222221216256912 -86.53221028370308 0 0 0 0 13.000794389419752 73.174454458875289 0 73.174454458875289 160.64866224663047 0 0 0 0 14.81933136749349 -1.4224647650881264 0 -1.4224647650881264 -2.7573160484187555 0 0 0 0 1.4972955955813489 1.3715665821212557 0 1.3715665821212557 -2.955785943936319 0 0 0 0 48.864323283458361 27.902944203169682 0 27.902944203169682 48.002870960635846 0 0 0 0 -7.2117886891173839 -11.894152357963094 0 -11.894152357963094 9.6305739317813277 0 0 0 0 19.987965529046051 -3.4084169636919626 0 -3.4084169636919626 17.576317982066939 0 0 0 0 24.921839622591506 -41.072231011879012 0 -41.072231011879012 -21.438077966473429 0 0 0 0 9.9102949793668813 -51.504869034739841 0 -51.504869034739841 73.733385790484817 0 0 0 0 30.471710661910038 -23.009507008176115 0 -23.009507008176115 4.5095965141927081 0 0 0 0 17.039867738088105 -10.635934736061699 0 -10.635934736061699 -34.408693177386795 0 0 0 0 33.833088657140252 55.122313319662453 0 55.122313319662453 15.539880440890556 0 0 0 0 4.4409945413906513 -12.342002883696749 0 -12.342002883696749 -1.6496427361664194 0 0 0 0 6.3359803789353464 -30.553177025445166 0 -30.553177025445166 -88.191559533544932 0 0 0 0 19.72300848352549 6.150104983586905 0 6.150104983586905 -8.5201894681248174 0 0 0 0 6.2988494360179175 -29.740537337239402 0 -29.740537337239402 -88.504007230620346 0 0 0 0 19.673204243648797 -15.257275172126356 0 -15.257275172126356 -79.554865428838184 0 0 0 0 15.686243455689691 -0.68898206553944874 0 -0.68898206553944874 -63.088379248786168 0 0 0 0 1.1285520075260607 4.3148286078072449 0 4.3148286078072449 -1.8558811602535252 0 0 0 0 24.059036337849477 2.6192763567576538 0 2.6192763567576538 -5.428760341681067 0 0 0 0 33.635722669589249 -6.4789919552785413 0 -6.4789919552785413 -15.583367824605936 0 0 0 0 10.335509953903966 14.418494120199284 0 14.418494120199284 -36.344051670614135 0 0 0 0 1.5962722990068343 -1.5994480551551895 0 -1.5994480551551895 0.81407925693023575 0 0 0 0 4.061299367222091 -12.030238880794741 0 -12.030238880794741 28.1680470690915 0 0 0 0 93.808992262265747 -16.218792030415386 0 -16.218792030415386 -51.926050801957444 0 0 0 0 -2.859562598551781 -16.529757882224366 0 -16.529757882224366 -14.694418014852893 0 0 0 0 -5.0164436266695702 -13.393440825475864 0 -13.393440825475864 -2.3831747428525887 0 0 0 0 22.6922708705697 -41.234355986320907 0 -41.234355986320907 6.5663439153545369 0 0 0 0 -7.7605669712214009 -13.205470386955996 0 -13.205470386955996 -8.2103560175780892 0 0 0 0 5.8990285549107284 -31.795971511137623 0 -31.795971511137623 13.144627173315257 0 0 0 0 19.021505410933969 -40.020732642712233 0 -40.020732642712233 6.7074536941887288 0 0 0 0 22.224046225175698 -25.383598261557154 0 -25.383598261557154 -2.2624049989249215 0 0 0 0 73.092611657360976 -57.185066175911857 0 -57.185066175911857 11.226507571742644 0 0 0 0 24.327136013820564 -36.47534320221223 0 -36.47534320221223 16.781811700112257 0 0 0 0 15.044152221642435 -15.14600459596636 0 -15.14600459596636 -7.4469291176603747 0 0 0 0 14.459173262551815 -38.943214243027633 0 -38.943214243027633 36.014717234639193 0 0 0 0 110.81202845021835 -75.630349234505616 0 -75.630349234505616 3.5916730819169516 0 0 0 0 52.227344628601713 -74.129571539165454 0 -74.129571539165454 46.452224203773767 0 0 0 0 53.16861603592406 -46.703077998899971 0 -46.703077998899971 12.766084094673261 0 0 0 0 92.875767842859204 -85.052248429630708 0 -85.052248429630708 42.442624362616698 0 0 0 0 83.926922832823038 -48.61519629416955 0 -48.61519629416955 -19.936575224869557 0 0 0 0 125.38369630813395 -91.661986476755203 0 -91.661986476755203 8.6061072250309678 0 0 0 0 159.17208559002393 -63.383177153018153 0 -63.383177153018153 -33.666850841463202 0 0 0 0 215.14741599966874 -72.995294190832283 0 -72.995294190832283 -6.4436987512870019 0 0 0 0 144.97116280396949 -121.61158316697299 0 -121.61158316697299 40.912713865094702 0 0 0 0 91.28844631839911 -86.926310368588361 0 -86.926310368588361 51.726835887950074 0 0 0 0 33.996270490101779 -13.193812333502507 0 -13.193812333502507 5.1094465296148428 0 0 0 0 24.458235720667993 3.8891869704717958 0 3.8891869704717958 -0.14802316314262098 0 0 0 0 39.792955619835993 -17.346318568741481 0 -17.346318568741481 7.1285752400501678 0 0 0 0 56.512027074077196 -22.911300673156376 0 -22.911300673156376 -10.747378263789869 0 0 0 0 40.679034927328757 -22.98783071348771 0 -22.98783071348771 -8.1852837027090573 0 0 0 0 34.704045688788824 1.7293896854340556 0 1.7293896854340556 -24.962726210621895 0 0 0 0 34.886701663632266 -8.8405348994742781 0 -8.8405348994742781 -6.935355162837368 0 0 0 0 33.99926414728543 -1.4188409154526198 0 -1.4188409154526198 -19.021775974879915 0 0 0 0 48.244512155448319 -9.7794491363881662 0 -9.7794491363881662 -17.459599980162466 0 0 0 0 37.081215389289355 8.3710564747970011 0 8.3710564747970011 -24.131810798684455 0 0 0 0 17.904033661805443 6.7303011659084859 0 6.7303011659084859 -19.510876868273499 0 0 0 0 22.202771428193955 -4.7521144279157852 0 -4.7521144279157852 -25.581476029770329 0 0 0 0 37.721783700748347 3.0701096512284494 0 3.0701096512284494 -21.878230152346305 0 0 0 0 31.899276732067424 4.1212068058499982 0 4.1212068058499982 -1.1662960070897372 0 0 0 0 35.786071056121727 -32.045922701351856 0 -32.045922701351856 -65.230736521180006 0 0 0 0 63.877576320090157 32.185593934068038 0 32.185593934068038 -38.468418712966468 0 0 0 0 39.818123769877275 31.998148512888747 0 31.998148512888747 -24.843408329661429 0 0 0 0 21.274496523425569 20.102706678580716 0 20.102706678580716 -3.2534898639628409 0 0 0 0 -2.5143052395287668 8.8013172192145248 0 8.8013172192145248 -4.9309297607459257 0 0 0 0 77.820798330614707 -8.5498558190248559 0 -8.5498558190248559 -54.6727945789155 0 0 0 0 38.010595281930364 -20.60786377321574 0 -20.60786377321574 -49.073929497574454 0 0 0 0 80.41202970141785 3.3594073150512713 0 3.3594073150512713 -38.478420354693753 0 0 0 0 28.217030031620574 4.8242252354159989 0 4.8242252354159989 0.19167432582505017 0 0 0 0 35.219649645572645 -0.011730667275060114 0 -0.011730667275060114 -29.898655902964038 0 0 0 0 45.880827678385685 22.641214954707152 0 22.641214954707152 -165.43191199253056 0 0 0 0 3.367588443204113 20.704535035847016 0 20.704535035847016 -55.036365843865497 0 0 0 0 65.552878878939737 -83.827116926434201 0 -83.827116926434201 -50.120448925352889 0 0 0 0 30.208318552174205 -20.936362516929194 0 -20.936362516929194 -78.891699913896673 0 0 0 0 53.559943939126242 -45.929667529818516 0 -45.929667529818516 -79.411821526392515 0 0 0 0 84.962621110362306 -69.9601868021212 0 -69.9601868021212 -31.419357637809934 0 0 0 0 36.505413293209131 -46.71426737114956 0 -46.71426737114956 2.1306070593219602 0 0 0 0 35.536101610819969 -70.952749795711853 0 -70.952749795711853 17.69657576547803 0 0 0 0 33.982443354278075 -80.612086018300019 0 -80.612086018300019 -30.240474075729367 0 0 0 0 145.59125654668151 -91.667764373738834 0 -91.667764373738834 -62.66404705981671 0 0 0 0 78.02304149010115 -23.162419705352612 0 -23.162419705352612 -126.93710775568297 0 0 0 0 43.372019827638724 -37.124943214710697 0 -37.124943214710697 -121.6481229902588 0 0 0 0 7.7157368170628615 -2.0518998181613028 0 -2.0518998181613028 -99.575308942837864 0 0 0 0 74.513378272566115 50.97932062294359 0 50.97932062294359 -257.6294375834841 0 0 0 0 17.508753816140597 -4.6732540067875874 0 -4.6732540067875874 -122.56563992189146 0 0 0 0 148.74639440491774 76.203739595114939 0 76.203739595114939 -74.635560505513695 0 0 0 0 54.594504873833102 47.860018091422148 0 47.860018091422148 10.553660350941584 0 0 0 0 330.79708425193826 153.54280509316698 0 153.54280509316698 49.445638801986888 0 0 0 0 -27.373271366246627 63.544852500642889 0 63.544852500642889 189.53922971824318 0 0 0 0 2.0739430169940078 1.8363757567838093 0 1.8363757567838093 2.1223545319361636 0 0 0 0 56.839481971705936 -29.59861120855669 0 -29.59861120855669 307.33194421823816 0 0 0 0 91.374364401649473 -73.245904348138311 0 -73.245904348138311 -0.91986068593382697 0 0 0 0 305.76601768305568 -185.60863028405191 0 -185.60863028405191 57.900828689981608 0 0 0 0 -14.057789058301751 -133.05089636851966 0 -133.05089636851966 72.990231294158548 0 0 0 0 104.68072144699363 -118.5721464741485 0 -118.5721464741485 -10.169667597838213 0 0 0 0 -73.884841788511949 -62.121272655852692 0 -62.121272655852692 36.782019186836123 0 0 0 0 -6.5829098263426253 -11.124436741859208 0 -11.124436741859208 -0.98371684884229404 0 0 0 0 -6.2203154268835696 -8.5763268137470376 0 -8.5763268137470376 5.3517817337441098 0 0 0 0 58.096145772719865 -31.078391615269766 0 -31.078391615269766 5.5825301445898958 0 0 0 0 -215.9542993341538 -2.4516750959140552 0 -2.4516750959140552 142.0287501204914 0 0 0 0 181.31501903515255 34.095611115793304 0 34.095611115793304 -79.92985168307257 0 0 0 0 41.873267537711399 -21.141584631248264 0 -21.141584631248264 11.349319607604912 0 0 0 0 25.520923589518134 -10.029551438179851 0 -10.029551438179851 4.8204672264968167 0 0 0 0 -158.11732948198733 41.075885650984901 0 41.075885650984901 48.809331425249297 0 0 0 0 -1.8557958608310763 -6.9489899112882565 0 -6.9489899112882565 9.4372582553859488 0 0 0 0 32.849355581324744 -17.775844941062644 0 -17.775844941062644 4.1901314731949242 0 0 0 0 213.49844645838311 -40.408136694464133 0 -40.408136694464133 -59.897233037159708 0 0 0 0 444.85549621459904 -20.183110474207865 0 -20.183110474207865 -102.46480263321615 0 0 0 0 159.46716504719916 -62.808002003068509 0 -62.808002003068509 15.202556482790442 0 0 0 0 0.73455035069246577 0.57088044842778274 0 0.57088044842778274 0.84482500294118257 0 0 0 0 450.11376677821102 -64.116714948235767 0 -64.116714948235767 -53.241569479747341 0 0 0 0 412.63903153836509 4.8993856477804911 0 4.8993856477804911 -89.468572311103799 0 0 0 0 141.21235066631016 -68.193338774501854 0 -68.193338774501854 34.069779434923021 0 0 0 0 449.58474356099737 -163.30988973139603 0 -163.30988973139603 78.514580179032009 0 0 0 0 92.837471279121019 -62.772055956041413 0 -62.772055956041413 57.45786312619316 0 0 0 0 158.37901595519907 12.704189380404159 0 12.704189380404159 91.874070157863457 0 0 0 0 511.8145902741901 38.712333088471212 0 38.712333088471212 12.869589817539463 0 0 0 0 175.7225441539922 -58.691658294399275 0 -58.691658294399275 -53.071028104903341 0 0 0 0 169.30160469840848 -67.985231279225417 0 -67.985231279225417 -59.24825002671065 0 0 0 0 166.92254636811958 -75.518956806929481 0 -75.518956806929481 -34.631838773472623 0 0 0 0 141.41628326913815 -51.461460315822265 0 -51.461460315822265 -50.99660931731961 0 0 0 0 120.69794456665932 -67.161441135116291 0 -67.161441135116291 -17.316864831879457 0 0 0 0 11.443183743207555 -29.007326480685293 0 -29.007326480685293 -10.241951852850008 0 0 0 0 98.09137292894593 -34.889914483965654 0 -34.889914483965654 -28.860383809176369 0 0 0 0 43.762310570693444 -38.708871737770409 0 -38.708871737770409 -12.053664359149138 0 0 0 0 -0.3550659740655 0.72001631175082892 0 0.72001631175082892 -0.48302428482649362 0 0 0 0 60.006213891361767 -18.72475302361579 0 -18.72475302361579 0.67533862798299538 0 0 0 0 35.805265473795771 -9.8719177853414948 0 -9.8719177853414948 2.7396761598569128 0 0 0 0 32.688473299811449 -9.6125731402810288 0 -9.6125731402810288 4.980061057588955 0 0 0 0 3.0224233876290141 0.17508162280172357 0 0.17508162280172357 -1.6223452514628551 0 0 0 0 29.881534178613947 -4.2722338576954826 0 -4.2722338576954826 -4.3480895977641012 0 0 0 0 15.283069079609049 -2.7277409985601366 0 -2.7277409985601366 15.441678512748467 0 0 0 0 87.649017628571528 -25.229042371468722 0 -25.229042371468722 -6.4060774138860097 0 0 0 0 56.288341084969943 13.100839336397883 0 13.100839336397883 -10.060549172695119 0 0 0 0 138.32822061617844 8.8917612003362478 0 8.8917612003362478 -19.349423284080615 0 0 0 0 44.647440276601628 -20.976752392415307 0 -20.976752392415307 6.2771176883298949 0 0 0 0 148.68406852376029 -49.230647853995549 0 -49.230647853995549 -45.439097830824892 0 0 0 0 239.15934973250933 157.86856726608272 0 157.86856726608272 37.728280403203598 0 0 0 0 430.70248385481864 -109.58359443606128 0 -109.58359443606128 -38.656817942880139 0 0 0 0 229.47874005554695 -83.911414836978807 0 -83.911414836978807 -56.251448640737749 0 0 0 0 201.41470388916787 -31.889137600361323 0 -31.889137600361323 -62.682173482608675 0 0 0 0 429.97673864764511 -203.55084792699267 0 -203.55084792699267 -57.362942703023691 0 0 0 0 18.562651401323819 205.7180574991599 0 205.7180574991599 298.90657719788646 0 0 0 0 211.51060395843888 -240.86558833968081 0 -240.86558833968081 217.43796840051755 0 0 0 0 132.82693051688329 -272.27901182233285 0 -272.27901182233285 420.03184810799883 0 0 0 0 4.0748060109814617 -1.7185547367461593 0 -1.7185547367461593 0.37106961011980716 0 0 0 0 195.88809543728166 61.443242900374571 0 61.443242900374571 -221.854140290749 0 0 0 0 123.2901139778478 -117.47077687102819 0 -117.47077687102819 73.697444567525963 0 0 0 0 104.91143157525767 -90.839695725106822 0 -90.839695725106822 59.744229685658183 0 0 0 0 97.913090372416264 -79.918518792240093 0 -79.918518792240093 67.828922749422873 0 0 0 0 76.966719776306491 -70.419128633627793 0 -70.419128633627793 73.028298838522346 0 0 0 0 55.164047194273735 -103.80243325133802 0 -103.80243325133802 72.788324224103292 0 0 0 0 11.581929703193495 -2.7188353182355294 0 -2.7188353182355294 -0.18489800148290167 0 0 0 0 17.843437799993126 -4.6572590319954594 0 -4.6572590319954594 0.3464956025466886 0 0 0 0 4.4349148251647943 1.2587918205242339 0 1.2587918205242339 0.26583381040564014 0 0 0 0 8.410899772799894 1.56883064858539 0 1.56883064858539 21.497616840393675 0 0 0 0 29.351994821673543 -7.4948976920912855 0 -7.4948976920912855 -13.89508839403635 0 0 0 0 98.955844880490304 -69.922879929212741 0 -69.922879929212741 57.882787790251314 0 0 0 0 7.6998845259931841 -10.762732026696085 0 -10.762732026696085 49.838939580658462 0 0 0 0 113.37854273220637 -36.897885070156121 0 -36.897885070156121 27.856612337332081 0 0 0 0 152.72348048434287 -55.870848454857516 0 -55.870848454857516 39.133893712883555 0 0 0 0 73.57715030363525 15.208619626449989 0 15.208619626449989 -19.30458805280221 0 0 0 0 118.97002586571944 -45.588028303539716 0 -45.588028303539716 1.7886137559898998 0 0 0 0 105.23286193780291 -56.844927194370882 0 -56.844927194370882 2.7773800628956451 0 0 0 0 74.706379435743997 16.697787993771115 0 16.697787993771115 -17.912388785447284 0 0 0 0 155.745710134609 -69.227130597226136 0 -69.227130597226136 61.508547533730962 0 0 0 0 111.34025494118941 -87.114264503229492 0 -87.114264503229492 55.403008290564685 0 0 0 0 118.21763646170859 -48.057637078822495 0 -48.057637078822495 42.34305593434857 0 0 0 0 137.87206059272921 -90.57115430711076 0 -90.57115430711076 88.748921046243652 0 0 0 0 145.37258002504859 -56.470509049148177 0 -56.470509049148177 63.938177772619667 0 0 0 0 126.70381306774925 25.12260079265539 0 25.12260079265539 -44.478340081697752 0 0 0 0 0.4912628480723793 -0.090187415759693579 0 -0.090187415759693579 0.039731399091764708 0 0 0 0 215.76215583993508 -2.4986567252046825 0 -2.4986567252046825 5.4826955251335221 0 0 0 0 1.5584923312965735 1.7255742632522377 0 1.7255742632522377 2.7720171354728409 0 0 0 0 268.82798097309069 -50.332193562658915 0 -50.332193562658915 -1.1896359927413869 0 0 0 0 265.29244100411461 -49.977466875222632 0 -49.977466875222632 5.466900155608414 0 0 0 0 233.9089403875314 4.176590135671745 0 4.176590135671745 -11.863230630540784 0 0 0 0 340.47794766857533 -13.59931776054313 0 -13.59931776054313 -16.235852495305608 0 0 0 0 318.12011619613077 -125.07466497621624 0 -125.07466497621624 66.374314800161301 0 0 0 0 322.46474082141503 -73.20990481377703 0 -73.20990481377703 124.11859129785989 0 0 0 0 -31.960423387716219 26.351391795550569 0 26.351391795550569 70.165915028711652 0 0 0 0 159.41399978835943 72.123451267147914 0 72.123451267147914 54.111386502158211 0 0 0 0 0.93325983222820597 -0.56392609795438164 0 -0.56392609795438164 2.4556608670182918 0 0 0 0 6.5850095239722677 6.3810605268215008 0 6.3810605268215008 9.4263570125519358 0 0 0 0 23.712488810439943 -5.5443049493527665 0 -5.5443049493527665 2.1077844649523443 0 0 0 0 32.259210565072863 6.1071097745668794 0 6.1071097745668794 0.68335614576382397 0 0 0 0 29.262039145154631 -20.739592123205512 0 -20.739592123205512 15.680095540545608 0 0 0 0 56.127055335803561 -11.088714760372113 0 -11.088714760372113 20.871678325036157 0 0 0 0 22.369261178049783 1.1717135163262355 0 1.1717135163262355 23.527365820080377 0 0 0 0 32.110482094094095 -8.9132933921923723 0 -8.9132933921923723 32.464362268173772 0 0 0 0 88.66226922943406 -43.719454996921741 0 -43.719454996921741 52.841359861360615 0 0 0 0 87.410415371211911 -10.527345436835276 0 -10.527345436835276 20.795264416433383 0 0 0 0 51.908508578825604 -29.251748705738919 0 -29.251748705738919 28.365759057105606 0 0 0 0 67.003316119249575 -20.032705859678117 0 -20.032705859678117 28.345570715684516 0 0 0 0 39.460118081221026 -14.2926373862947 0 -14.2926373862947 36.011605919009526 0 0 0 0 9.4312180072119745 -11.979139950979729 0 -11.979139950979729 20.274016783213419 0 0 0 0 110.86909013716172 -8.7701435683772502 0 -8.7701435683772502 21.730385645921615 0 0 0 0 143.32506873194689 -7.0955181879404989 0 -7.0955181879404989 16.235124599682294 0 0 0 0 13.123408989171228 21.072525859700502 0 21.072525859700502 8.9014077628196855 0 0 0 0 27.583908913724372 46.565130059911326 0 46.565130059911326 19.353020714552173 0 0 0 0 143.23203182819043 0.45069349643949863 0 0.45069349643949863 13.691373507696312 0 0 0 0 9.5842400275125925 3.7481149494788202 0 3.7481149494788202 1.3404084728379988 0 0 0 0 8.5399190964607889 8.6821478809675128 0 8.6821478809675128 18.138413043561037 0 0 0 0 191.93355121123477 -36.25054391039572 0 -36.25054391039572 19.970219642869552 0 0 0 0 205.93474614702245 13.522359058835093 0 13.522359058835093 -5.9474865878038372 0 0 0 0 159.80347637967247 -29.772896161951287 0 -29.772896161951287 18.764680707191872 0 0 0 0 168.82455930176729 -2.0675565481492413 0 -2.0675565481492413 12.161206232713624 0 0 0 0 133.26132476469411 -26.407030904583493 0 -26.407030904583493 18.341497922531808 0 0 0 0 96.525781899988942 -19.699816373044541 0 -19.699816373044541 18.713847728367682 0 0 0 0 99.445429770706596 -16.90259315844196 0 -16.90259315844196 5.0441054516895747 0 0 0 0 99.202246963203834 -15.73663167294535 0 -15.73663167294535 16.018966295541816 0 0 0 0 185.09715539223907 -26.853163826840671 0 -26.853163826840671 9.2211148964025824 0 0 0 0 -1.1141444111694039 2.8867485119533089 0 2.8867485119533089 5.3776056078733365 0 0 0 0 111.15015552850173 -33.385639099050877 0 -33.385639099050877 16.123957288190695 0 0 0 0 70.245019827297483 11.927972137841834 0 11.927972137841834 -2.8957349814936606 0 0 0 0 137.41520333839208 4.0996124705675356 0 4.0996124705675356 0.97122382868019486 0 0 0 0 139.08033767406596 -4.1272137520882097 0 -4.1272137520882097 -6.9103647965830532 0 0 0 0 84.679883543855908 -24.037952807795079 0 -24.037952807795079 -13.975319958389385 0 0 0 0 52.939350840719158 19.631713322785338 0 19.631713322785338 5.6408701316708596 0 0 0 0 116.91945555727398 11.583822593722516 0 11.583822593722516 10.783423605871121 0 0 0 0 15.240671167899492 2.8231274699845201 0 2.8231274699845201 18.35890468989756 0 0 0 0 98.207505283709907 -19.134125349793749 0 -19.134125349793749 17.196862713115479 0 0 0 0 97.54024863509585 32.389771478534385 0 32.389771478534385 1.089674214272236 0 0 0 0 95.107479903528656 35.148607067055309 0 35.148607067055309 12.185573991017918 0 0 0 0 90.43297367328887 48.824602834444249 0 48.824602834444249 34.323627761072203 0 0 0 0 94.644870825221005 52.160727381782181 0 52.160727381782181 15.055749868671683 0 0 0 0 122.41205962390814 255.51721024872631 0 255.51721024872631 197.95476510571825 0 0 0 0 113.35174954458489 128.70553812056914 0 128.70553812056914 -63.594553602982614 0 0 0 0 76.648423554610417 118.17646885077875 0 118.17646885077875 -35.595790450021013 0 0 0 0 183.31565094567941 -39.743990098675567 0 -39.743990098675567 -345.59082979736741 0 0 0 0 54.177790427791834 -6.7242714572159032 0 -6.7242714572159032 -9.8719372442128375 0 0 0 0 31.035315629990201 -0.035943864842270301 0 -0.035943864842270301 -10.348896699242847 0 0 0 0 311.89728230316905 -166.20742341558707 0 -166.20742341558707 -1.403693496246035 0 0 0 0 1.1233669928083145 1.9043513088487138 0 1.9043513088487138 3.0524716396771119 0 0 0 0 10.03219684448095 65.788994190387143 0 65.788994190387143 154.31678012895827 0 0 0 0 22.129870564716839 3.7713836904932236 0 3.7713836904932236 -15.840732285157628 0 0 0 0 -14.315227420793235 -6.5959566356664254 0 -6.5959566356664254 65.692714286151158 0 0 0 0 0.87335008448376872 2.9152685365499309 0 2.9152685365499309 5.1056829785505897 0 0 0 0 89.91731036980309 30.661749247339458 0 30.661749247339458 -24.801116955728503 0 0 0 0 4.240735878301912 6.3457770262084097 0 6.3457770262084097 5.9844989099407808 0 0 0 0 91.193292386340545 34.899262200041221 0 34.899262200041221 -85.578747890182058 0 0 0 0 178.47827533756936 -56.389120133713277 0 -56.389120133713277 9.3180382456675943 0 0 0 0 105.96409232505903 -20.292961262304971 0 -20.292961262304971 9.844708771412229 0 0 0 0 120.14132775306098 -42.207648220858061 0 -42.207648220858061 10.642501613115655 0 0 0 0 56.196888883258794 -10.986266432281226 0 -10.986266432281226 24.982320851502664 0 0 0 0 75.66742815897851 -23.642666441583287 0 -23.642666441583287 17.123636902827229 0 0 0 0 72.896306529526555 -30.282405623600937 0 -30.282405623600937 24.709088705952581 0 0 0 0 101.14036773927 -38.690176843583799 0 -38.690176843583799 16.954120386869363 0 0 0 0 101.7025473793492 -35.995345183114523 0 -35.995345183114523 26.886160400635845 0 0 0 0 50.118287533337934 -35.882504126279628 0 -35.882504126279628 37.77831593473627 0 0 0 0 99.997569367737015 -42.262844640356207 0 -42.262844640356207 29.588514683535323 0 0 0 0 145.70015319067625 -32.228725158467228 0 -32.228725158467228 14.931792819628754 0 0 0 0 93.736979503757539 -51.908892862815549 0 -51.908892862815549 28.032069222047767 0 0 0 0 14.871328776582232 54.701898871897583 0 54.701898871897583 -9.0220206990786664 0 0 0 0 6.1958930437824371 5.2172867804315857 0 5.2172867804315857 4.67528092082099 0 0 0 0 97.620845337102423 -34.788692155362028 0 -34.788692155362028 30.553529850056975 0 0 0 0 13.171706975823327 1.1891692911725613 0 1.1891692911725613 13.442974287445622 0 0 0 0 8.5681911357208023 8.4087812333951231 0 8.4087812333951231 6.3200209189960237 0 0 0 0 45.42234791689043 1.2443004109924232 0 1.2443004109924232 13.054905881041009 0 0 0 0 35.44875154791589 12.273841813053764 0 12.273841813053764 -25.137893711801325 0 0 0 0 -91.791691801226989 44.239515182328205 0 44.239515182328205 4.361715154241665 0 0 0 0 2.7971801340142965 1.0718593733707529 0 1.0718593733707529 -1.7500476514631149 0 0 0 0 17.018850538907827 121.70948997165522 0 121.70948997165522 -1.1256491352562534 0 0 0 0 186.21640004097753 65.621563205806979 0 65.621563205806979 -78.969853673186208 0 0 0 0 79.550402773693349 77.267299595076793 0 77.267299595076793 -41.794425678197854 0 0 0 0 -226.86869610100985 26.160256639182052 0 26.160256639182052 110.76273852557466 0 0 0 0 -0.64028640391888558 -0.96005875720903688 0 -0.96005875720903688 -0.059576479489590994 0 0 0 0 84.071901547660445 62.0064044331668 0 62.0064044331668 28.83432197567538 0 0 0 0 -31.874294388014732 -5.5118135017116003 0 -5.5118135017116003 28.67283475455838 0 0 0 0 84.695345831431041 60.227837314118887 0 60.227837314118887 2.0229090485114511 0 0 0 0 -35.902840279713018 80.689803319442035 0 80.689803319442035 80.820257249742326 0 0 0 0 73.196594968139834 63.259945358609798 0 63.259945358609798 -72.452972737206963 0 0 0 0 -8.6247343433051356 11.370758847448116 0 11.370758847448116 37.439744689957024 0 0 0 0 28.7345968500249 54.105174197133465 0 54.105174197133465 85.584876011048721 0 0 0 0 102.90518211311974 26.951057484893241 0 26.951057484893241 8.5042174996951871 0 0 0 0 -41.346332246917427 11.711649947476801 0 11.711649947476801 -10.910473619324421 0 0 0 0 135.29964282385117 -48.971575582909963 0 -48.971575582909963 -50.489464438348023 0 0 0 0 76.567114910452801 52.701832641725105 0 52.701832641725105 -70.844699830747828 0 0 0 0 35.869088627227029 16.52016327549768 0 16.52016327549768 79.747713164855497 0 0 0 0 243.66413548693527 -221.50988855997412 0 -221.50988855997412 -54.531494045907948 0 0 0 0 9.8801134195603453 -4.2831167914552211 0 -4.2831167914552211 1.3216685984025303 0 0 0 0 46.399897153809434 -9.9241163902280505 0 -9.9241163902280505 145.79016823813521 0 0 0 0 167.39059816570079 77.720344729775462 0 77.720344729775462 58.586677580024116 0 0 0 0 494.48713793651405 -16.089071389526282 0 -16.089071389526282 -31.336072918131435 0 0 0 0 426.93673367722295 -107.76728875881008 0 -107.76728875881008 89.221044448750035 0 0 0 0 -22.09104708085215 -121.92982479670638 0 -121.92982479670638 101.83771970239889 0 0 0 0 447.9857481433628 127.83980068860069 0 127.83980068860069 67.399264514136974 0 0 0 0 5.228238045749066 -0.86312182400373594 0 -0.86312182400373594 -0.18008305629474952 0 0 0 0 256.79505587166727 -156.78058688403493 0 -156.78058688403493 -21.951873769825397 0 0 0 0 342.96061263274805 131.16519582870228 0 131.16519582870228 -85.53135693684726 0 0 0 0 103.39254391542954 150.75873443884285 0 150.75873443884285 157.81548317441388 0 0 0 0 176.764925043115 33.81808879032468 0 33.81808879032468 -142.5340939220946 0 0 0 0 72.181497495017538 -48.447003607745501 0 -48.447003607745501 -71.374221693330924 0 0 0 0 83.475872792665086 -76.403329243597739 0 -76.403329243597739 -58.179791009950804 0 0 0 0 35.46421754961375 -45.353816671998175 0 -45.353816671998175 26.944337360864665 0 0 0 0 38.429352458551108 -20.82153240937361 0 -20.82153240937361 -13.602762230578707 0 0 0 0 13.634613151160011 -2.7863641459304915 0 -2.7863641459304915 32.415620365487712 0 0 0 0 36.290773571575563 -16.152142756055344 0 -16.152142756055344 -4.0821605011657631 0 0 0 0 30.18498397116764 -43.650442434300828 0 -43.650442434300828 2.5793806256929201 0 0 0 0 44.282467525867105 -65.608868644717404 0 -65.608868644717404 -56.951860211960934 0 0 0 0 31.025158190493237 22.865241003985219 0 22.865241003985219 -12.992336330111584 0 0 0 0 55.27885624580771 -14.374658360572656 0 -14.374658360572656 -9.7997494774428606 0 0 0 0 7.0386839036455058 11.229583669604835 0 11.229583669604835 -69.223838243086107 0 0 0 0 3.217080151232949 -9.5551983779090506 0 -9.5551983779090506 33.665665721625629 0 0 0 0 60.133486583812555 8.7807856288004587 0 8.7807856288004587 -101.94033022371673 0 0 0 0 -0.77738650043357538 -0.52074692862155203 0 -0.52074692862155203 -0.97272391652030521 0 0 0 0 181.3763652507696 78.362709491623264 0 78.362709491623264 -105.18752202663836 0 0 0 0 106.18765825989249 -25.362094308910628 0 -25.362094308910628 -67.371529599543464 0 0 0 0 135.86192297444359 60.229079196630437 0 60.229079196630437 15.219608410337969 0 0 0 0 67.891146001686138 -41.170866771410147 0 -41.170866771410147 -72.394770494860836 0 0 0 0 133.92143230563852 4.8682040682501793 0 4.8682040682501793 -51.694009734450447 0 0 0 0 -9.7578195183996286 -35.735711048112989 0 -35.735711048112989 460.61710554660203 0 0 0 0 15.127840814777972 2.8879366747567232 0 2.8879366747567232 -2.7684748893741986 0 0 0 0 346.80094558408018 -37.330920314239393 0 -37.330920314239393 -116.999891574971 0 0 0 0 54.994684498841274 -19.218806269586604 0 -19.218806269586604 -7.4425727887908417 0 0 0 0 357.41700254382522 228.80661641424558 0 228.80661641424558 -251.54996652794625 0 0 0 0 54.226805841196438 -28.684227531113038 0 -28.684227531113038 12.393812448534845 0 0 0 0 54.789866717340828 15.920009330598305 0 15.920009330598305 10.615053651491053 0 0 0 0 15.910577391325205 -60.650459135530127 0 -60.650459135530127 -4.56768496920904 0 0 0 0 65.535784695763141 -2.0798577363952973 0 -2.0798577363952973 -30.540420633571557 0 0 0 0 74.206041401946095 -6.4819398813679072 0 -6.4819398813679072 6.042077263070496 0 0 0 0 92.260325230266972 -4.3776904557798275 0 -4.3776904557798275 -2.7925291722676775 0 0 0 0 35.715421123368024 -18.006646884642088 0 -18.006646884642088 -5.1890094870160404 0 0 0 0 33.575908562362898 -3.1768788148602667 0 -3.1768788148602667 -1.291597136631605 0 0 0 0 2.0847078831666295 -65.747333730287664 0 -65.747333730287664 -87.90252808218969 0 0 0 0 -18.268780044152663 -21.338425093317937 0 -21.338425093317937 -20.946570637961031 0 0 0 0 16.936564399574749 -5.5193820934789386 0 -5.5193820934789386 -0.096587509973500296 0 0 0 0 60.047111822819716 -19.715232200518358 0 -19.715232200518358 -40.862931469355772 0 0 0 0 70.057158025996614 40.089382528694728 0 40.089382528694728 -9.7772722424040239 0 0 0 0 11.853406755821197 -10.378706845672696 0 -10.378706845672696 27.51300078350323 0 0 0 0 29.234492279003522 -19.108576831294503 0 -19.108576831294503 -4.2314061167131101 0 0 0 0 30.13719868401131 -1.9482950713797891 0 -1.9482950713797891 -57.054552811546273 0 0 0 0 126.2075314290596 73.303802220713806 0 73.303802220713806 88.109392924678104 0 0 0 0 27.064633863881063 -11.492911288651111 0 -11.492911288651111 3.4502605363295249 0 0 0 0 30.442436650966556 -65.003464661286671 0 -65.003464661286671 -59.958632048791856 0 0 0 0 166.51775399957842 56.369218236751294 0 56.369218236751294 23.25002060975612 0 0 0 0 90.347237994463285 212.46860005109284 0 212.46860005109284 211.51686981886633 0 0 0 0 91.477154796107897 -9.0741826011415867 0 -9.0741826011415867 -22.527684623873132 0 0 0 0 180.95933072957268 -129.61432911414889 0 -129.61432911414889 -242.97993663767869 0 0 0 0 -4.5934948116082523 -170.02108616649355 0 -170.02108616649355 -17.438953748510812 0 0 0 0 35.470816278000711 -62.254380499445688 0 -62.254380499445688 -123.03972790176999 0 0 0 0 206.24563860180569 -173.74596502223051 0 -173.74596502223051 -157.81888016983612 0 0 0 0 4.8049358430052962 8.2700474403291082 0 8.2700474403291082 0.88359857510658912 0 0 0 0 77.00834049812147 40.373236986791653 0 40.373236986791653 37.46812509789379 0 0 0 0 35.240148255889707 9.8407760739893 0 9.8407760739893 10.408803610502133 0 0 0 0 36.273780325863953 -11.684486083586602 0 -11.684486083586602 -9.7762164902283324 0 0 0 0 67.386412094492698 30.020960226996067 0 30.020960226996067 56.98707179216035 0 0 0 0 87.17947386965534 23.894796346139628 0 23.894796346139628 37.169551817800311 0 0 0 0 36.889989897035775 -33.744676034204758 0 -33.744676034204758 -16.067210571045962 0 0 0 0 80.31199251390413 -5.1001737055360792 0 -5.1001737055360792 -22.901283513207044 0 0 0 0 36.139875298257323 -18.861963958247976 0 -18.861963958247976 4.7263690162286309 0 0 0 0 -38.061912307392049 -118.86118630811848 0 -118.86118630811848 -93.858101875215198 0 0 0 0 19.435815698583568 -10.648536664309745 0 -10.648536664309745 -14.569680224288696 0 0 0 0 78.077519058922036 -27.013881302381073 0 -27.013881302381073 -6.9665468849183938 0 0 0 0 139.83692545857048 -195.41317273042841 0 -195.41317273042841 -2.5169703508145176 0 0 0 0 72.187530043491279 -65.749645009214873 0 -65.749645009214873 -92.666497292466374 0 0 0 0 -2.4468292423498497 -20.116377833785009 0 -20.116377833785009 -41.508687992734849 0 0 0 0 48.84667976613995 -16.177855705016164 0 -16.177855705016164 -0.54429000280818229 0 0 0 0 -0.92340374238804657 -1.0022919009140097 0 -1.0022919009140097 1.8892142587234844 0 0 0 0 36.838821476594603 -74.252876281012504 0 -74.252876281012504 -36.507984402090926 0 0 0 0 70.281507049388892 -4.7875427358471825 0 -4.7875427358471825 1.7931724143936663 0 0 0 0 53.234788884588852 -34.29009340384107 0 -34.29009340384107 0.9520144575062659 0 0 0 0 106.64420113496817 -31.936004839454881 0 -31.936004839454881 -40.796899281230253 0 0 0 0 120.73150481246557 1.5370673594388791 0 1.5370673594388791 -400.22697366532157 0 0 0 0 -3.6416122707911427 -4.1316541137518215 0 -4.1316541137518215 -1.248089456638354 0 0 0 0 -189.14240527740913 -449.90479989811911 0 -449.90479989811911 -302.9597381810687 0 0 0 0 -21.254817174490654 -146.95577391491267 0 -146.95577391491267 4.7547648108047724 0 0 0 0 71.08712923476196 -107.93864878394106 0 -107.93864878394106 -121.71410001418735 0 0 0 0 479.39693135796188 -60.622642183674486 0 -60.622642183674486 -190.62929382571133 0 0 0 0 442.69529674298974 -10.761147208831972 0 -10.761147208831972 -258.36565506969691 0 0 0 0 -513.3890083392871 -191.68946551377246 0 -191.68946551377246 -3.0307166441170921 0 0 0 0 157.88359162407141 -487.73146007069636 0 -487.73146007069636 -390.05772537420034 0 0 0 0 161.20785190733295 72.217161525673873 0 72.217161525673873 -404.40083282809792 0 0 0 0 -589.10402911579149 -136.71521537011949 0 -136.71521537011949 227.33123205486299 0 0 0 0 1200.8263907197543 98.843624448797755 0 98.843624448797755 -244.46791405438398 0 0 0 0 554.13862822231022 -433.89586644226506 0 -433.89586644226506 221.59102339333731 0 0 0 0 889.48378237613724 303.69094779323223 0 303.69094779323223 278.30676729233983 0 0 0 0 1235.2623050405327 -494.08800910949969 0 -494.08800910949969 250.68608714029779 0 0 0 0 165.29159447058919 12.220535062529052 0 12.220535062529052 240.52834646623069 0 0 0 0 156.78951536727254 64.284030606365377 0 64.284030606365377 203.30218895221833 0 0 0 0 23.532797757950902 144.58639889584038 0 144.58639889584038 634.53856220575244 0 0 0 0 41.104968163535432 -99.751400235347106 0 -99.751400235347106 175.72390373236794 0 0 0 0 -186.0027809191597 -199.57846009186051 0 -199.57846009186051 105.42248200853328 0 0 0 0 -201.22631902566354 -72.420272863686932 0 -72.420272863686932 378.34460277073049 0 0 0 0 -19.078794909044518 -189.40067435103811 0 -189.40067435103811 35.617971748519267 0 0 0 0 -1.3972102015031851 -107.95729643944424 0 -107.95729643944424 54.333008683742264 0 0 0 0 -85.476266771197515 -96.599568145160049 0 -96.599568145160049 63.747223882731305 0 0 0 0 -2.4605460367674823 -30.087637785258721 0 -30.087637785258721 104.23680980098379 0 0 0 0 -88.242172606248459 -83.9510236309589 0 -83.9510236309589 229.85962970709261 0 0 0 0 -103.37683281694899 -94.655572183109655 0 -94.655572183109655 130.47659036384539 0 0 0 0 -132.72288077004487 9.0145430756419955 0 9.0145430756419955 172.31819172567839 0 0 0 0 132.47311886776151 112.31704599154727 0 112.31704599154727 -19.401556567530861 0 0 0 0 -1.7947786979143814 0.035483927159260631 0 0.035483927159260631 -0.0753371286265615 0 0 0 0 -31.574302739812993 -55.77345268176532 0 -55.77345268176532 -58.424716928255293 0 0 0 0 -73.180614553406485 15.616063050431421 0 15.616063050431421 102.47174558697679 0 0 0 0 61.955401486804476 17.9172546890577 0 17.9172546890577 37.243101416068839 0 0 0 0 -127.71627677339711 8.3079719579463926 0 8.3079719579463926 82.140928370895381 0 0 0 0 245.65201815971523 75.550705330033907 0 75.550705330033907 3.568828125609798 0 0 0 0 70.614648108763504 1.4893699632566495 0 1.4893699632566495 57.92286599502404 0 0 0 0 360.51593142427009 -80.525236063866032 0 -80.525236063866032 23.811081630749868 0 0 0 0 370.24074377933721 -71.545743815781861 0 -71.545743815781861 19.017375495918998 0 0 0 0 501.29026028167391 116.86224273794346 0 116.86224273794346 54.565667583508912 0 0 0 0 605.3208971618551 -165.84143858492803 0 -165.84143858492803 29.689169828595368 0 0 0 0 199.84148300455854 1.6196975317770921 0 1.6196975317770921 60.074341393775285 0 0 0 0 173.55175956069706 28.383306462843777 0 28.383306462843777 -7.386257292722803 0 0 0 0 57.110432893172401 2.3421115458395434 0 2.3421115458395434 -6.7758146297768604 0 0 0 0 62.156401637481352 -10.427057642911656 0 -10.427057642911656 -3.416347067853601 0 0 0 0 60.002770430101563 2.1560051216152818 0 2.1560051216152818 -7.4658697572286137 0 0 0 0 16.995652658830295 24.289706381904352 0 24.289706381904352 1.384445256091567 0 0 0 0 -1.4663162806691901 12.459487810797922 0 12.459487810797922 0.50500427614994581 0 0 0 0 14.146806574065877 9.924758429938322 0 9.924758429938322 -0.88957198950776473 0 0 0 0 26.783950524833926 3.6027795893533039 0 3.6027795893533039 -8.3540426746076264 0 0 0 0 19.157092966837808 4.9108607236321404 0 4.9108607236321404 2.1257534191499872 0 0 0 0 14.940365794608674 8.7136164621899894 0 8.7136164621899894 -3.7301524064917793 0 0 0 0 12.452559005738834 9.096512022093016 0 9.096512022093016 -2.2979953665301558 0 0 0 0 16.548544917018859 -11.053729213211582 0 -11.053729213211582 -4.5586355252526403 0 0 0 0 166.68745287417551 -110.82723722786471 0 -110.82723722786471 55.381436121744628 0 0 0 0 18.024781258602161 -26.740638305117955 0 -26.740638305117955 10.942899219451647 0 0 0 0 9.0523877060360078 0.6072611873112379 0 0.6072611873112379 1.9199972291842187 0 0 0 0 53.979756755521521 -52.665523301744543 0 -52.665523301744543 29.042427341494204 0 0 0 0 1.7096095478839644 -0.87436130785387434 0 -0.87436130785387434 1.1808787855725278 0 0 0 0 33.043824133543239 -6.1725365384536417 0 -6.1725365384536417 -2.0069299118813433 0 0 0 0 22.219533307186794 -4.8676897573650422 0 -4.8676897573650422 2.9091585073065289 0 0 0 0 -18.440353858546587 -23.348531862621712 0 -23.348531862621712 19.268635720713746 0 0 0 0 -18.853570786082855 -17.269032561951008 0 -17.269032561951008 -0.45168539509359107 0 0 0 0 -4.8350644539023335 -3.2681008042483182 0 -3.2681008042483182 1.7640617656335786 0 0 0 0 -11.430239386390895 -37.253836746983325 0 -37.253836746983325 69.613595524905861 0 0 0 0 23.701602532448305 -6.3199349993806209 0 -6.3199349993806209 -6.9109705754053721 0 0 0 0 22.272150587916258 -6.7783471059469775 0 -6.7783471059469775 -2.620692848773615 0 0 0 0 27.065452267677131 -12.262896889449706 0 -12.262896889449706 -0.23747430452152907 0 0 0 0 24.901436472173373 -6.1511318021111947 0 -6.1511318021111947 -9.4966877029364696 0 0 0 0 29.369137675974599 -15.314128007096983 0 -15.314128007096983 -1.4531916636870541 0 0 0 0 50.249665008312149 -10.092477001532188 0 -10.092477001532188 -1.8928288740855805 0 0 0 0 5.1211181200487772 -36.18112958524398 0 -36.18112958524398 23.010039931086794 0 0 0 0 19.366536278295214 -20.996563413449067 0 -20.996563413449067 1.9361700554084535 0 0 0 0 10.842312312161084 -50.374882215572143 0 -50.374882215572143 8.0064493892873543 0 0 0 0 -13.180596732850972 -56.991390647641992 0 -56.991390647641992 41.955763689707965 0 0 0 0 2.9246516400144174 -105.41749594902274 0 -105.41749594902274 -25.850857569162145 0 0 0 0 135.89613885588551 -97.00741943475407 0 -97.00741943475407 -131.3666892895917 0 0 0 0 34.990889996160462 -53.301607807749548 0 -53.301607807749548 5.5281212755265621 0 0 0 0 29.013720195858205 14.558069208574011 0 14.558069208574011 -4.9449066491359197 0 0 0 0 20.902941591077251 -77.303778809903633 0 -77.303778809903633 16.739288474350019 0 0 0 0 92.906299384219892 -2.4877720381982726 0 -2.4877720381982726 14.2817032810417 0 0 0 0 126.26057305273116 -7.7004085226671464 0 -7.7004085226671464 1.0075569005275611 0 0 0 0 94.81854061521517 -12.483512416702524 0 -12.483512416702524 -3.7958549085969935 0 0 0 0 15.531123861089499 -14.972327350783239 0 -14.972327350783239 2.429154171614222 0 0 0 0 76.645965342831914 -8.2681501605438825 0 -8.2681501605438825 4.0451109769004745 0 0 0 0 129.11955930386466 -8.1088982015400006 0 -8.1088982015400006 -0.085012745548738167 0 0 0 0 25.500667936307288 29.892574683603442 0 29.892574683603442 -13.089071177144575 0 0 0 0 -86.664774723703886 7.6180368476575495 0 7.6180368476575495 16.601325449637443 0 0 0 0 128.05424499982837 -6.2304441167029836 0 -6.2304441167029836 0.11563549397990869 0 0 0 0 127.75012367563977 -8.2908402002030925 0 -8.2908402002030925 0.59781740606740641 0 0 0 0 134.23611239478487 -8.7295762255807858 0 -8.7295762255807858 0.62614122934891725 0 0 0 0 145.55799589677736 -21.964904465207383 0 -21.964904465207383 9.3529993445749824 0 0 0 0 128.44932015892846 -17.357240477195774 0 -17.357240477195774 24.7458178880388 0 0 0 0 138.31272310376517 -8.4227788364607932 0 -8.4227788364607932 20.615664177464168 0 0 0 0 118.37052556766866 -10.57697215762073 0 -10.57697215762073 20.94144527593312 0 0 0 0 129.27878109260746 -15.845000725984278 0 -15.845000725984278 15.606242995097091 0 0 0 0 6.3488152867842409 -14.493510997102788 0 -14.493510997102788 7.6057054104774338 0 0 0 0 124.86202844430954 -9.0389050080616471 0 -9.0389050080616471 -1.1060926880622901 0 0 0 0 116.11415621680862 -8.2991204251247837 0 -8.2991204251247837 14.560437789270964 0 0 0 0 111.66473969460549 -13.200484605660876 0 -13.200484605660876 17.917778600080965 0 0 0 0 13.180100856893489 17.521263813365906 0 17.521263813365906 1.3159578217622467 0 0 0 0 119.16170492476522 -10.459907604146792 0 -10.459907604146792 12.391078530864888 0 0 0 0 112.09716637116799 -7.012380569076754 0 -7.012380569076754 15.854233970261703 0 0 0 0 8.0481766334442426 2.8058737048120577 0 2.8058737048120577 15.061608176260759 0 0 0 0 7.9976766669923531 1.5322073832469911 0 1.5322073832469911 0.20098651175511151 0 0 0 0 -144.82198424287071 -232.50118641176698 0 -232.50118641176698 110.67350627530323 0 0 0 0 57.968892493104249 55.286949370631305 0 55.286949370631305 12.217529398683837 0 0 0 0 112.49133632982557 -14.089837636359107 0 -14.089837636359107 16.36568405519472 0 0 0 0 116.5523715195377 -10.221040175171197 0 -10.221040175171197 17.507675074534859 0 0 0 0 127.9729145090314 -15.776482116151101 0 -15.776482116151101 16.549370346288015 0 0 0 0 96.342053476648289 -48.132851104745441 0 -48.132851104745441 -11.98333648375035 0 0 0 0 42.357981878247038 -46.774710384146758 0 -46.774710384146758 -0.32727995381065256 0 0 0 0 72.919600733765037 460.53721400795462 0 460.53721400795462 386.66705986143825 0 0 0 0 -188.73640572262957 -199.64569282123284 0 -199.64569282123284 202.12682045758083 0 0 0 0 356.43012082301357 -106.96177315102932 0 -106.96177315102932 -156.69229658243421 0 0 0 0 552.76168622845944 330.43592467367853 0 330.43592467367853 59.27383680281855 0 0 0 0 -132.50913134902657 -41.861274834790493 0 -41.861274834790493 -54.770233186240148 0 0 0 0 726.54164510261762 188.57218384038651 0 188.57218384038651 -152.46994916993208 0 0 0 0 3.4213099080108904 -4.7133749132607008 0 -4.7133749132607008 6.2994906692767252 0 0 0 0 510.70695829166652 -531.85593258501922 0 -531.85593258501922 -238.74168035253979 0 0 0 0 793.93669197530471 -41.645835546075887 0 -41.645835546075887 -242.15327575551783 0 0 0 0 272.27396156941904 -60.540187750476434 0 -60.540187750476434 -68.690862701438164 0 0 0 0 192.80492325310843 44.390757686873258 0 44.390757686873258 -23.122097558945825 0 0 0 0 420.03437052328445 103.75522124488816 0 103.75522124488816 -19.615740051409375 0 0 0 0 338.57915300207969 167.98360141565354 0 167.98360141565354 111.2033178075435 0 0 0 0 -215.15012100120657 -122.53004209808387 0 -122.53004209808387 -14.764241048425902 0 0 0 0 -135.93405565564899 -125.28844423218288 0 -125.28844423218288 -112.90902204228041 0 0 0 0 -122.91880391878294 -121.68501747383925 0 -121.68501747383925 -270.46916366857477 0 0 0 0 -13.137442191763682 -8.0261482922853276 0 -8.0261482922853276 9.3089788602985166 0 0 0 0 19.401316602105474 -0.89307961854389362 0 -0.89307961854389362 -3.5709727327294836 0 0 0 0 152.53106210464466 32.377949771607746 0 32.377949771607746 23.387368947958748 0 0 0 0 18.150013414018062 -14.372777241715493 0 -14.372777241715493 15.721278415836883 0 0 0 0 155.95079456295707 20.611254758374798 0 20.611254758374798 61.398486953179599 0 0 0 0 106.47128321127821 -116.85798971968507 0 -116.85798971968507 78.989466339873616 0 0 0 0 -132.93425196472526 68.144997782459541 0 68.144997782459541 -40.310947441957978 0 0 0 0 228.44794771596207 186.09152503451696 0 186.09152503451696 276.99007883096965 0 0 0 0 186.56084813390771 77.52400385429155 0 77.52400385429155 193.92579249550181 0 0 0 0 189.23350232881057 53.267803402368372 0 53.267803402368372 48.542891678510387 0 0 0 0 156.2266652574308 23.894151256900727 0 23.894151256900727 100.3470409373258 0 0 0 0 189.00020839442004 8.725091168916606 0 8.725091168916606 21.387044988493471 0 0 0 0 177.06815534870839 -3.9232494397565461 0 -3.9232494397565461 25.020763784055816 0 0 0 0 204.38730427469727 -15.236736993953059 0 -15.236736993953059 26.404568353995273 0 0 0 0 199.4498454980494 5.6695700682903407 0 5.6695700682903407 54.195392759511378 0 0 0 0 219.66534488339676 13.790461985227012 0 13.790461985227012 60.514885858563503 0 0 0 0 198.36164888351777 29.311431318440555 0 29.311431318440555 52.575090769551025 0 0 0 0 225.96789213558077 60.02871270686046 0 60.02871270686046 141.08696139781023 0 0 0 0 304.00225777592277 127.82732680186473 0 127.82732680186473 101.02095811018444 0 0 0 0 286.30287789864815 89.407634290198985 0 89.407634290198985 66.40937539134211 0 0 0 0 313.40110731005552 68.946406107456824 0 68.946406107456824 45.235971630467247 0 0 0 0 234.8544596259535 9.8871954902523385 0 9.8871954902523385 43.629448355190107 0 0 0 0 230.79406278501847 36.737743641107954 0 36.737743641107954 78.14421719573329 0 0 0 0 239.53164194081 -13.44145130833715 0 -13.44145130833715 7.5407516270024644 0 0 0 0 256.24910685652867 28.725940662146968 0 28.725940662146968 34.442535838611548 0 0 0 0 256.4426792340455 29.63488802113352 0 29.63488802113352 31.298436241428135 0 0 0 0 223.98280789278215 -40.463775987205736 0 -40.463775987205736 -41.359990068708157 0 0 0 0 182.94224985296023 -16.365841877232924 0 -16.365841877232924 33.589761018567515 0 0 0 0 180.8120041620798 -48.879607981522838 0 -48.879607981522838 4.637013505500363 0 0 0 0 207.24675829593616 -29.836536858216277 0 -29.836536858216277 11.675309415941229 0 0 0 0 183.70223600848931 -37.485704977417527 0 -37.485704977417527 12.272028163126379 0 0 0 0 166.09814789265511 -39.114784952966147 0 -39.114784952966147 23.826490850542541 0 0 0 0 168.49055737018625 -51.44184370811729 0 -51.44184370811729 -7.2445245778308163 0 0 0 0 101.76165380663133 -38.452093920094782 0 -38.452093920094782 -19.03364877345166 0 0 0 0 131.93577049302257 -61.638048917709966 0 -61.638048917709966 9.0665939700611489 0 0 0 0 102.04773519054288 -25.988640026359462 0 -25.988640026359462 15.454751329256396 0 0 0 0 130.7735124566243 -43.59831305433363 0 -43.59831305433363 15.82495622600436 0 0 0 0 153.40527551612468 -46.596998348037232 0 -46.596998348037232 11.424312416879729 0 0 0 0 17.560133684131394 4.5547402601246034 0 4.5547402601246034 -0.75401885686263803 0 0 0 0 107.73808748726969 -40.928828849281132 0 -40.928828849281132 -12.364484881664794 0 0 0 0 112.18195230561832 15.48434878846183 0 15.48434878846183 -11.258014013892534 0 0 0 0 163.77097841609429 3.2004973638408956 0 3.2004973638408956 -23.744357761995161 0 0 0 0 156.05753140676097 14.165293458209817 0 14.165293458209817 -38.305427505607895 0 0 0 0 146.35984820207159 8.3309220485737114 0 8.3309220485737114 10.804695416711183 0 0 0 0 153.48499218751385 0.078538817248954729 0 0.078538817248954729 -5.5565171278576599 0 0 0 0 161.63603260787204 -15.522924109594896 0 -15.522924109594896 21.841062010397309 0 0 0 0 121.19723381415679 -11.938434241926416 0 -11.938434241926416 15.839451252235449 0 0 0 0 159.10259511325057 -11.079741593346967 0 -11.079741593346967 14.630615181598841 0 0 0 0 182.0240975220986 17.92858145914397 0 17.92858145914397 9.8813036904157343 0 0 0 0 184.29419807525846 36.764186801094411 0 36.764186801094411 9.382211528204607 0 0 0 0 156.45776638369534 27.654820671375205 0 27.654820671375205 9.8690050891691499 0 0 0 0 151.47241214136375 19.809100651062181 0 19.809100651062181 -1.0044358517177443 0 0 0 0 14.105669841517823 1.4734978352897272 0 1.4734978352897272 -0.36673864801552547 0 0 0 0 131.45811412253533 -7.554861509594943 0 -7.554861509594943 17.882329004609595 0 0 0 0 117.23945838310738 -41.151106844879394 0 -41.151106844879394 11.477527293392811 0 0 0 0 86.555055934613193 -32.035182987990787 0 -32.035182987990787 4.9591047272008559 0 0 0 0 34.337692778258784 0.69034888400796746 0 0.69034888400796746 14.29231423996435 0 0 0 0 8.7875845708003908 -27.815858437102406 0 -27.815858437102406 48.282569795313975 0 0 0 0 138.55307114113384 -39.538570218180212 0 -39.538570218180212 17.223618929516306 0 0 0 0 118.85942117639934 -114.01293658220857 0 -114.01293658220857 54.659822154292215 0 0 0 0 111.14025949383722 -22.827914757135432 0 -22.827914757135432 -6.0115128959769208 0 0 0 0 118.50233410560759 -48.730686082057218 0 -48.730686082057218 19.701728874758373 0 0 0 0 117.24974146389559 -17.376421718688675 0 -17.376421718688675 18.016033452196552 0 0 0 0 82.932176078278474 -28.37646033610104 0 -28.37646033610104 5.8989941522772931 0 0 0 0 132.64344395148146 -54.847718231876115 0 -54.847718231876115 -10.71913127015705 0 0 0 0 136.42323659486055 -29.471733606324079 0 -29.471733606324079 18.545824926876946 0 0 0 0 22.525778179063657 0.18570926433303292 0 0.18570926433303292 8.230468623148397 0 0 0 0 149.71791391338684 -13.166319344524638 0 -13.166319344524638 19.087271987221243 0 0 0 0 150.64134280876715 -14.601149241596659 0 -14.601149241596659 8.1381782041910355 0 0 0 0 124.07036661226789 -17.706060307657474 0 -17.706060307657474 20.354877168957955 0 0 0 0 26.621660763084826 18.513551308173906 0 18.513551308173906 9.9686701452336983 0 0 0 0 12.470074810469463 -17.982859468462276 0 -17.982859468462276 26.901420135846415 0 0 0 0 105.92324662819101 -18.914970713507728 0 -18.914970713507728 18.072828194721978 0 0 0 0 80.279886406834521 -8.4463053569447766 0 -8.4463053569447766 26.749035477785355 0 0 0 0 68.549197009053387 -3.0097849984190361 0 -3.0097849984190361 31.495355026068864 0 0 0 0 -3.4484350752136379 465.43953941221383 0 465.43953941221383 780.74766169466966 0 0 0 0 295.74821282697621 -467.93896193681633 0 -467.93896193681633 -22.208904797550531 0 0 0 0 635.09417107427362 -271.45858233511672 0 -271.45858233511672 142.65861158654843 0 0 0 0 73.440585337724315 -36.240384337620526 0 -36.240384337620526 47.870064984665532 0 0 0 0 80.113104060150363 294.68079833935803 0 294.68079833935803 11.826710812552392 0 0 0 0 63.777586417064128 10.778830277094343 0 10.778830277094343 -19.870282532904032 0 0 0 0 -38.932845640563755 -264.48922238280511 0 -264.48922238280511 -46.74667071181284 0 0 0 0 -565.83656237649848 -272.35320831084573 0 -272.35320831084573 67.519384864583117 0 0 0 0 12.362799537244861 -6.9599686387945354 0 -6.9599686387945354 -2.6108988667086566 0 0 0 0 204.44401396819376 -191.79141855601108 0 -191.79141855601108 -81.025906043509735 0 0 0 0 46.496196588406747 -147.65077568986328 0 -147.65077568986328 31.387131804917999 0 0 0 0 -45.294424197942135 -162.18459547314933 0 -162.18459547314933 81.601375832634119 0 0 0 0 165.67398051847158 -156.80818865104266 0 -156.80818865104266 -30.935268897756941 0 0 0 0 87.295475931372494 -236.86753222771949 0 -236.86753222771949 -46.111293473816204 0 0 0 0 59.896637797510266 -145.4954502278564 0 -145.4954502278564 -20.66019246773476 0 0 0 0 595.09282321744831 -7.2030504965684941 0 -7.2030504965684941 -10.61790253162826 0 0 0 0 24.441795056924093 -38.490684052197196 0 -38.490684052197196 -11.514252846782028 0 0 0 0 629.33038689318619 19.396947576908833 0 19.396947576908833 -45.234003659761584 0 0 0 0 115.65993064086069 -110.58475484562996 0 -110.58475484562996 104.03113725123512 0 0 0 0 7.7159792728998582 142.4946019467925 0 142.4946019467925 -56.113763461827148 0 0 0 0 59.726253966800869 116.9359650805618 0 116.9359650805618 -356.81210238812355 0 0 0 0 20.088466483849402 2.7848446018528819 0 2.7848446018528819 -4.2883470998075968 0 0 0 0 89.136316308367498 -22.299625585680364 0 -22.299625585680364 -0.10474891363649136 0 0 0 0 124.10600748882644 -93.644702839409149 0 -93.644702839409149 -163.04720135708101 0 0 0 0 10.59618226007909 7.039499916099814 0 7.039499916099814 -6.7970466093894508 0 0 0 0 -139.23771331809917 -342.85891282566143 0 -342.85891282566143 -510.21591865063783 0 0 0 0 193.78855772170937 94.907779818515337 0 94.907779818515337 -298.99445253473277 0 0 0 0 3.8756331234866082 -7.4522404656653007 0 -7.4522404656653007 1.2247626877816491 0 0 0 0 -117.35514583726763 10.221667087767855 0 10.221667087767855 -283.62196030686755 0 0 0 0 -117.35514583726763 10.221667087727837 0 10.221667087727837 -283.62196030687483 0 0 0 0 97.879681926658023 -35.76487753708691 0 -35.76487753708691 12.355080718092664 0 0 0 0 84.383364395733224 -211.66732462159507 0 -211.66732462159507 95.187212870920575 0 0 0 0 319.76916418038309 -245.97953202473764 0 -245.97953202473764 64.054329717673227 0 0 0 0 109.34118733395735 -69.16841975144564 0 -69.16841975144564 17.061227466873788 0 0 0 0 -117.35514583729673 10.221667087684182 0 10.221667087684182 -283.6219603068821 0 0 0 0 0.27272590726971657 -7.1202505517170707 0 -7.1202505517170707 1.6811536880186426 0 0 0 0 335.572351345676 152.45227491641526 0 152.45227491641526 -316.57934482356904 0 0 0 0 151.85827900443837 -7.3202323823447841 0 -7.3202323823447841 6.6747614518208138 0 0 0 0 30.559611353761859 27.016604859324687 0 27.016604859324687 -13.411864851845293 0 0 0 0 -120.33707699184015 68.451484216010613 0 68.451484216010613 281.11207158348952 0 0 0 0 181.30526706544333 -56.200933342078315 0 -56.200933342078315 11.640154829356106 0 0 0 0 -5.8960297993348831 2.1406978020700471 0 2.1406978020700471 4.6240955977144047 0 0 0 0 320.44094917825714 -245.95439975799309 0 -245.95439975799309 49.024558927303588 0 0 0 0 407.85985733760026 237.25408323308693 0 237.25408323308693 -568.96416184759255 0 0 0 0 85.769579365916783 9.362039479536314 0 9.362039479536314 -14.485748059400017 0 0 0 0 71.964592414726212 -6.134877024693651 0 -6.134877024693651 -5.1274485815556545 0 0 0 0 120.51134392138647 -33.58044930126141 0 -33.58044930126141 10.107347736546672 0 0 0 0 73.718126926669996 -3.6845739799307751 0 -3.6845739799307751 8.3578355757985641 0 0 0 0 46.421530556371259 -18.19031840105546 0 -18.19031840105546 3.8118167114492922 0 0 0 0 127.61957772255118 -29.58470821352455 0 -29.58470821352455 12.352197913281088 0 0 0 0 88.72130185849629 -36.551769565256855 0 -36.551769565256855 4.4544030362242157 0 0 0 0 95.787511355532843 -15.78401392215892 0 -15.78401392215892 22.12203919825879 0 0 0 0 77.470131529889386 -44.665357671735578 0 -44.665357671735578 59.21905621808196 0 0 0 0 17.791885566171004 -95.666886595027648 0 -95.666886595027648 19.226965005171337 0 0 0 0 47.286572476422549 -4.0069427536651965 0 -4.0069427536651965 3.9129495245973542 0 0 0 0 79.862295139650996 -4.4079850088369312 0 -4.4079850088369312 -62.578903024676038 0 0 0 0 68.41284084678955 -14.87090843852593 0 -14.87090843852593 -6.3925584224907652 0 0 0 0 98.16836230775516 -13.657109849148583 0 -13.657109849148583 -10.327502455529611 0 0 0 0 44.626040096088673 -7.593157464541008 0 -7.593157464541008 27.0604946867943 0 0 0 0 89.044933408431461 -44.134290385067175 0 -44.134290385067175 52.2493231119673 0 0 0 0 177.96591520307447 -97.579549815166047 0 -97.579549815166047 38.449181656292694 0 0 0 0 -66.841224675823469 -58.671729456396861 0 -58.671729456396861 48.527621291775631 0 0 0 0 76.725572186605177 -104.63342294643223 0 -104.63342294643223 60.773033091593334 0 0 0 0 273.78196250427573 176.67169665662504 0 176.67169665662504 68.482568561849803 0 0 0 0 -1.6326716565338302 -1.0450794113225932 0 -1.0450794113225932 3.5295206911123262 0 0 0 0 333.40689316508542 29.81723267426969 0 29.81723267426969 -145.49530949636164 0 0 0 0 -48.53906339486457 -85.980968289206658 0 -85.980968289206658 166.92444907851058 0 0 0 0 76.516114880671012 -26.087861410143887 0 -26.087861410143887 150.22657841644013 0 0 0 0 198.3835935695497 -52.850009060326101 0 -52.850009060326101 37.975344647340108 0 0 0 0 181.97187792429031 -68.67580290635965 0 -68.67580290635965 -286.3015588742096 0 0 0 0 71.871106109171237 13.924758895702579 0 13.924758895702579 -20.634958911212863 0 0 0 0 100.61249493399646 -101.91199262591638 0 -101.91199262591638 104.85363980914599 0 0 0 0 -23.837697793100233 -251.77998373070045 0 -251.77998373070045 334.07614355838973 0 0 0 0 6.3097984269195706 -5.1368844755447256 0 -5.1368844755447256 3.8985289829984393 0 0 0 0 -30.605216024938272 -169.52055883320077 0 -169.52055883320077 105.41975492282536 0 0 0 0 80.787043186417577 78.813722366402089 0 78.813722366402089 211.26687961598532 0 0 0 0 251.22443800584369 142.44839378405538 0 142.44839378405538 -196.33049226990329 0 0 0 0 230.09811584481758 249.72147815523113 0 249.72147815523113 232.71611555195591 0 0 0 0 49.564371784043033 -94.347811568009888 0 -94.347811568009888 -56.098969928056022 0 0 0 0 252.81012189230569 -98.666430003657069 0 -98.666430003657069 -308.55439760530771 0 0 0 0 87.57076229882189 -9.1481110160388202 0 -9.1481110160388202 -4.4707821438164057 0 0 0 0 -124.08468039468426 395.027024988226 0 395.027024988226 172.69573848286655 0 0 0 0 290.29982195195771 44.023815305413962 0 44.023815305413962 -337.79217120461738 0 0 0 0 608.1548565197445 -445.90727495646752 0 -445.90727495646752 -151.63720468284737 0 0 0 0 80.853237459577187 -19.307451255003564 0 -19.307451255003564 0.3310511509213403 0 0 0 0 31.258085109464112 -5.3381365078821261 0 -5.3381365078821261 -1.9992742236561218 0 0 0 0 44.65206616475777 105.76181248755283 0 105.76181248755283 -48.664835373869238 0 0 0 0 29.946596811689233 -29.439266029402916 0 -29.439266029402916 26.313184712255065 0 0 0 0 208.47501434050173 -131.51677478286774 0 -131.51677478286774 -182.30192087575119 0 0 0 0 -43.308767579546839 -86.047400021938756 0 -86.047400021938756 54.139494116776405 0 0 0 0 351.67986227635993 -17.257644004335816 0 -17.257644004335816 -578.08136614579098 0 0 0 0 76.404725773363509 -20.676003591403408 0 -20.676003591403408 6.6232849058836099 0 0 0 0 100.93044329161785 -267.46909243996106 0 -267.46909243996106 -27.807180125304512 0 0 0 0 32.615327290929088 -3.7770005576744836 0 -3.7770005576744836 -6.307539886746337 0 0 0 0 126.30824451141962 113.80875824674513 0 113.80875824674513 0.059456349724769098 0 0 0 0 32.527955833013039 -69.916988504806341 0 -69.916988504806341 -42.672612775201742 0 0 0 0 72.163392325592667 73.079869032831141 0 73.079869032831141 -51.952097411276554 0 0 0 0 12.640899265000701 -0.023200432124170334 0 -0.023200432124170334 -0.49724932161766766 0 0 0 0 -3.46624666974094 -39.892335565901249 0 -39.892335565901249 58.33980281971526 0 0 0 0 7.7331392983614933 -40.288080412373347 0 -40.288080412373347 38.700646753954061 0 0 0 0 91.776939191222482 -91.986120475114603 0 -91.986120475114603 61.346649144259572 0 0 0 0 -28.301687863619009 -206.06508232153919 0 -206.06508232153919 90.805566762939634 0 0 0 0 45.038117126063298 -149.36028250442632 0 -149.36028250442632 89.02160423438545 0 0 0 0 246.79083772600279 -81.796136169692545 0 -81.796136169692545 98.17620031491856 0 0 0 0 53.547591549999197 -146.05883539396473 0 -146.05883539396473 83.848046634499042 0 0 0 0 89.944367385418445 -203.95084870563505 0 -203.95084870563505 133.5453881159101 0 0 0 0 -75.824948979345208 -126.97189505241477 0 -126.97189505241477 153.08311722180065 0 0 0 0 237.81400835263048 -118.93402412108026 0 -118.93402412108026 149.39821411057255 0 0 0 0 262.81806832427537 -245.29979659505079 0 -245.29979659505079 132.59787265762031 0 0 0 0 231.38974354778475 -38.307590370804974 0 -38.307590370804974 37.204745296994588 0 0 0 0 354.46149645222613 29.678043917661853 0 29.678043917661853 74.741478999139872 0 0 0 0 344.24729700340322 -39.873709306790147 0 -39.873709306790147 -133.53522418107423 0 0 0 0 138.00079037249088 46.413136771307109 0 46.413136771307109 204.44981952312446 0 0 0 0 5.7868868895732248 -1.328289083866796 0 -1.328289083866796 0.59765176605900905 0 0 0 0 217.72949655534467 -226.3424705478028 0 -226.3424705478028 -313.12424292162268 0 0 0 0 120.83395189732255 -154.37043911537694 0 -154.37043911537694 77.621928461296193 0 0 0 0 118.46448237738514 -227.13499150483312 0 -227.13499150483312 -103.88186205008873 0 0 0 0 216.42717671259015 -224.14614363917099 0 -224.14614363917099 -62.723276764338152 0 0 0 0 154.20234303866891 -191.96173721070681 0 -191.96173721070681 87.625718447630788 0 0 0 0 202.70940797998628 -134.67355593571847 0 -134.67355593571847 154.8932317169938 0 0 0 0 222.50967662406947 -121.3285039274939 0 -121.3285039274939 148.39674018762526 0 0 0 0 264.08955408021575 -135.36562674628749 0 -135.36562674628749 86.664678461978838 0 0 0 0 270.09693759534275 -110.28915573939867 0 -110.28915573939867 26.941024450166879 0 0 0 0 266.359739922671 -96.214464459633746 0 -96.214464459633746 40.34155525801998 0 0 0 0 187.62538966338616 -56.043941060733687 0 -56.043941060733687 53.642816284469973 0 0 0 0 266.22246710532306 -78.241468080178947 0 -78.241468080178947 21.878572857223844 0 0 0 0 482.58679212065545 -179.6937724238071 0 -179.6937724238071 51.967786967170468 0 0 0 0 -194.70955726106695 -37.146116191221154 0 -37.146116191221154 96.858633008493598 0 0 0 0 -73.857364233765111 1.1086502959019526 0 1.1086502959019526 -6.4286492321007245 0 0 0 0 0.31820993852755919 0.20700902717460679 0 0.20700902717460679 1.9663330512264707 0 0 0 0 -28.622098165207717 -31.145757388062975 0 -31.145757388062975 -30.05109214552499 0 0 0 0 -32.858257488675008 -54.812123001916461 0 -54.812123001916461 -7.7473685993354593 0 0 0 0 -22.743717175751954 -47.126753340108507 0 -47.126753340108507 8.0795854287671318 0 0 0 0 2.2903706721044728 -24.700468392853281 0 -24.700468392853281 5.5931399992769002 0 0 0 0 -45.602303409305023 -44.026433507578076 0 -44.026433507578076 38.608477953013789 0 0 0 0 211.08640534368169 398.12768195993613 0 398.12768195993613 432.10916763506611 0 0 0 0 161.45720112153504 287.48772231327166 0 287.48772231327166 228.25442235702576 0 0 0 0 199.51646192512999 323.81693989053747 0 323.81693989053747 128.58857683411043 0 0 0 0 2.4801097785785942 1.4742790855325936 0 1.4742790855325936 1.7034049768222701 0 0 0 0 -10.620378783634806 22.382303606551432 0 22.382303606551432 30.019698528641129 0 0 0 0 215.03978906699558 16.008856671030799 0 16.008856671030799 0.11309339663057472 0 0 0 0 -10.176167261051887 17.352101732892152 0 17.352101732892152 -28.624500396108488 0 0 0 0 312.71789314695343 305.15541953716365 0 305.15541953716365 -52.709650711904033 0 0 0 0 123.91214756737099 183.41001095484648 0 183.41001095484648 144.09269078364377 0 0 0 0 31.349191602879728 -4.3149768421044428 0 -4.3149768421044428 -133.68452980315851 0 0 0 0 238.15021243430965 133.07373724352783 0 133.07373724352783 -87.005644416254654 0 0 0 0 330.29838389641372 142.91700436514384 0 142.91700436514384 -305.23234951601626 0 0 0 0 240.76603952643882 180.47799109694853 0 180.47799109694853 -170.68333898783749 0 0 0 0 397.33413456147537 263.87175669073713 0 263.87175669073713 -199.43690540577154 0 0 0 0 342.52058798431972 24.663378218733442 0 24.663378218733442 -139.89941993552202 0 0 0 0 134.46117222537578 4.5692019650741713 0 4.5692019650741713 -328.46630493687917 0 0 0 0 155.72426358640951 183.27611068148417 0 183.27611068148417 -274.4218962181094 0 0 0 0 161.18815765922807 -148.38881305354718 0 -148.38881305354718 -627.80540121804552 0 0 0 0 -80.429091625534056 3.6697740617787531 0 3.6697740617787531 15.432787838086369 0 0 0 0 168.01996691983368 230.59790290446563 0 230.59790290446563 -305.74570770058199 0 0 0 0 67.860837905340304 -194.34601625591949 0 -194.34601625591949 -192.11529203238388 0 0 0 0 -30.126739211933454 -156.46690869813665 0 -156.46690869813665 -107.80291448196294 0 0 0 0 28.095474404653942 20.7006617093557 0 20.7006617093557 -432.06283234700459 0 0 0 0 -1.4304520526420674 -122.72261933096979 0 -122.72261933096979 103.88738832918352 0 0 0 0 157.06804000654665 -135.25239006420816 0 -135.25239006420816 103.38624480831299 0 0 0 0 167.27928284549762 97.432955145831215 0 97.432955145831215 -44.780679095067171 0 0 0 0 441.96092198456608 -110.87846386716956 0 -110.87846386716956 40.116888970584114 0 0 0 0 136.16563731642236 -86.931370650097051 0 -86.931370650097051 400.02652442620638 0 0 0 0 499.88115428300807 350.14320777895136 0 350.14320777895136 137.65363316577441 0 0 0 0 465.29257389374106 213.78481647783792 0 213.78481647783792 320.66229698897587 0 0 0 0 574.04379413498282 -41.685344487704697 0 -41.685344487704697 -45.547911367217239 0 0 0 0 105.10117435031134 -108.88129104348195 0 -108.88129104348195 245.11980439434774 0 0 0 0 263.21103311556726 -5.5746807706739219 0 -5.5746807706739219 83.143954686471261 0 0 0 0 259.47231728806219 -10.545926553816571 0 -10.545926553816571 204.27179575226796 0 0 0 0 209.11022448667427 -82.230098822313153 0 -82.230098822313153 106.49843028216856 0 0 0 0 307.54709566915699 -60.592668888356457 0 -60.592668888356457 89.033803799120051 0 0 0 0 310.78667629994015 -59.091135992810337 0 -59.091135992810337 5.6379438631829544 0 0 0 0 277.80783956810046 -101.84076288158121 0 -101.84076288158121 -6.612452262224906 0 0 0 0 369.7203367678012 6.3690744028644986 0 6.3690744028644986 78.3245887748119 0 0 0 0 416.05237723910977 -39.532223467268068 0 -39.532223467268068 -47.203311763441889 0 0 0 0 185.69633307609183 -69.610442141980002 0 -69.610442141980002 9.6678636742412891 0 0 0 0 266.49140970586814 -55.557001983091311 0 -55.557001983091311 -19.3260776464831 0 0 0 0 284.15569529784261 -207.82371828887381 0 -207.82371828887381 13.642589532335478 0 0 0 0 3.9015459914335224 -16.006389680418124 0 -16.006389680418124 64.422210660140081 0 0 0 0 4.1411570430995823 -0.39057779050920693 0 -0.39057779050920693 0.16552703322743123 0 0 0 0 -8.8490532132746011 67.374817595330569 0 67.374817595330569 -13.86597891105248 0 0 0 0 10.293422858550059 2.0939414328874495 0 2.0939414328874495 0.50747993821271575 0 0 0 0 60.087685450569552 20.362429223349409 0 20.362429223349409 -80.793630489241707 0 0 0 0 65.259559108082613 -9.2678465752146622 0 -9.2678465752146622 -16.098223110714542 0 0 0 0 102.93611036681614 32.408978572786737 0 32.408978572786737 -11.148544454932562 0 0 0 0 80.291537437871739 63.661308835152568 0 63.661308835152568 33.45841680243484 0 0 0 0 23.71872825583705 5.4439993245869118 0 5.4439993245869118 55.185036760271942 0 0 0 0 421.1468262221897 60.563587683047444 0 60.563587683047444 -43.133726821712116 0 0 0 0 352.8067120656051 26.280777611176291 0 26.280777611176291 -35.258993462595811 0 0 0 0 219.83576112395531 -14.412812066530478 0 -14.412812066530478 -8.261801804093011 0 0 0 0 221.2214916421317 -9.1301860236033008 0 -9.1301860236033008 -23.453752734181762 0 0 0 0 315.19637368727126 -1.418770868215006 0 -1.418770868215006 -38.787633532996551 0 0 0 0 366.35179245819018 -68.006744812627403 0 -68.006744812627403 -37.041218454723094 0 0 0 0 387.84446715970989 -57.307268943207418 0 -57.307268943207418 -62.452928082141625 0 0 0 0 420.9412473882403 -84.731806742860044 0 -84.731806742860044 -72.966333765116133 0 0 0 0 380.83369090066117 -68.717738393093896 0 -68.717738393093896 6.9455765930101734 0 0 0 0 407.10708855101439 -133.24426146058721 0 -133.24426146058721 -31.08609921162406 0 0 0 0 327.05408400421584 -116.67096745453341 0 -116.67096745453341 -27.166060015317271 0 0 0 0 369.93311795633053 -148.59482342634965 0 -148.59482342634965 -37.328944844227408 0 0 0 0 462.57350227836287 -203.20484026803979 0 -203.20484026803979 -18.041672316194308 0 0 0 0 413.88168535152363 -79.764435554838201 0 -79.764435554838201 -76.460631766781717 0 0 0 0 523.96754125841107 -80.888837362491699 0 -80.888837362491699 -104.34151699664562 0 0 0 0 975.59317390304204 194.19093021925329 0 194.19093021925329 -59.206165108450477 0 0 0 0 529.49158523101869 177.44524788833064 0 177.44524788833064 -41.094283841921424 0 0 0 0 746.02936754121038 -124.54212906260318 0 -124.54212906260318 -104.44850560961231 0 0 0 0 546.38520640064962 -242.33846872667914 0 -242.33846872667914 -61.819349567588688 0 0 0 0 1207.8849720783619 -406.6256702619421 0 -406.6256702619421 -22.260294109681354 0 0 0 0 392.12977642540136 -324.05092084821786 0 -324.05092084821786 138.3204825615494 0 0 0 0 493.32089415095106 -206.60808762069973 0 -206.60808762069973 -19.758459298973435 0 0 0 0 53.368131629540585 -186.06140313156538 0 -186.06140313156538 321.68731013549359 0 0 0 0 164.36922829958348 -462.27127916787094 0 -462.27127916787094 667.4412499284781 0 0 0 0 -36.234175843394041 0.15285450776445941 0 0.15285450776445941 166.20319127413768 0 0 0 0 1240.480957899912 -241.16539280547079 0 -241.16539280547079 170.79935622420487 0 0 0 0 1243.7968279970082 -261.75625058030039 0 -261.75625058030039 29.03298924628541 0 0 0 0 10.330819368154238 -0.96667791926766 0 -0.96667791926766 -0.11229275778848091 0 0 0 0 329.09340676282591 252.87127592823117 0 252.87127592823117 106.54057448902961 0 0 0 0 536.10276478447486 -209.80944986507711 0 -209.80944986507711 292.80272485792648 0 0 0 0 -45.978505572716585 22.851373979816266 0 22.851373979816266 90.60250099399218 0 0 0 0 119.0652236827591 75.232470734304002 0 75.232470734304002 -56.085618560691046 0 0 0 0 19.548054115395644 -36.326948222908868 0 -36.326948222908868 -102.29381477436846 0 0 0 0 -430.47044185476261 -158.53183299817067 0 -158.53183299817067 305.56977379679955 0 0 0 0 23.812024240001563 3.96085147856604 0 3.96085147856604 -1.5833535477921892 0 0 0 0 -40.94665729002736 -96.912060263333842 0 -96.912060263333842 -7.6003049391888453 0 0 0 0 96.058447490577237 8.5582901875304742 0 8.5582901875304742 24.349682978104283 0 0 0 0 6.9713969053555047 18.522814704770553 0 18.522814704770553 60.238943250194097 0 0 0 0 190.06126067272999 187.00163429930933 0 187.00163429930933 131.04502142849833 0 0 0 0 -14.195603023799777 -59.499751869116949 0 -59.499751869116949 -37.968526919165924 0 0 0 0 5.4527679756138241 -39.76973574404883 0 -39.76973574404883 -22.154077573353788 0 0 0 0 -9.3241594358187285 -44.614497736615476 0 -44.614497736615476 6.8245734845604602 0 0 0 0 -25.306286878856554 -48.398401056317681 0 -48.398401056317681 14.251766128405052 0 0 0 0 -24.810648230753941 -49.083925904713624 0 -49.083925904713624 -4.0825946848081003 0 0 0 0 -10.3837372232083 -52.655420945011883 0 -52.655420945011883 -4.2592664119893016 0 0 0 0 -59.690991078192383 -2.6418304104679464 0 -2.6418304104679464 5.7331142714647285 0 0 0 0 7.2749532210000325 -22.213551124138576 0 -22.213551124138576 3.9464483396018295 0 0 0 0 -56.991373264783761 -37.684934945611531 0 -37.684934945611531 2.8103279173274132 0 0 0 0 -0.36196763356154449 -0.5955894149314247 0 -0.5955894149314247 5.1816202111567904 0 0 0 0 0.71687028931890495 -0.49146359277024487 0 -0.49146359277024487 0.31534623449694443 0 0 0 0 85.09852672690613 -24.502023039975597 0 -24.502023039975597 -10.735643859947913 0 0 0 0 8.8321954671991989 -30.014581489238253 0 -30.014581489238253 18.52178272916899 0 0 0 0 -0.43032034044529421 1.8979374942743732 0 1.8979374942743732 0.46408994661477365 0 0 0 0 21.166620103216701 -27.450343079532558 0 -27.450343079532558 6.2484703712198097 0 0 0 0 46.743860831091297 -1.3813473933732894 0 -1.3813473933732894 16.830314345884659 0 0 0 0 -15.198794112366159 -40.950628753722867 0 -40.950628753722867 13.023752031776894 0 0 0 0 23.058515207318123 -31.422646145099407 0 -31.422646145099407 -2.0361330360560714 0 0 0 0 10.687641276337672 -26.161745490361227 0 -26.161745490361227 8.4809953432159091 0 0 0 0 24.491742813625024 -38.375294412118819 0 -38.375294412118819 1.2608117597083037 0 0 0 0 54.454443170863669 -17.433206103263728 0 -17.433206103263728 3.0798363562389568 0 0 0 0 21.311421590988175 -7.2246642049872207 0 -7.2246642049872207 39.543989881294692 0 0 0 0 -0.31979444906208698 -0.26852775559862607 0 -0.26852775559862607 5.0940093167471403 0 0 0 0 119.429912652864 -72.946883342860019 0 -72.946883342860019 27.376102860247784 0 0 0 0 101.75423851709638 -61.544596532642572 0 -61.544596532642572 21.193079339760516 0 0 0 0 155.20955376443453 -103.92418019492743 0 -103.92418019492743 25.510079678175316 0 0 0 0 184.90553382769576 -92.139872007593112 0 -92.139872007593112 20.850608622116511 0 0 0 0 159.40950947468809 -42.008972533382803 0 -42.008972533382803 -4.9650109363356023 0 0 0 0 132.33191544283181 -18.442959396139486 0 -18.442959396139486 -8.2135523621982429 0 0 0 0 172.62516067341221 -73.979989385285165 0 -73.979989385285165 36.212247162869971 0 0 0 0 221.66299946552317 -110.70225766523481 0 -110.70225766523481 31.065982034127956 0 0 0 0 181.28562827639689 -92.5396904720169 0 -92.5396904720169 30.274762445425949 0 0 0 0 225.8906371454359 -102.76021601848925 0 -102.76021601848925 44.766930767988015 0 0 0 0 310.91514901065966 -100.29063167768754 0 -100.29063167768754 20.669514080905174 0 0 0 0 276.65555680191756 -136.4292701105353 0 -136.4292701105353 13.377074538771922 0 0 0 0 222.71901541855186 -136.51709297410616 0 -136.51709297410616 23.004501652766521 0 0 0 0 242.58626866377017 -130.43254850943867 0 -130.43254850943867 13.867389823539725 0 0 0 0 227.6661112052825 -120.26508178383347 0 -120.26508178383347 15.511793622301411 0 0 0 0 152.78570323079475 -106.86392466876077 0 -106.86392466876077 24.413532165843208 0 0 0 0 119.10145490959985 -131.36222124421147 0 -131.36222124421147 58.439509875527165 0 0 0 0 211.66487510394654 -153.24424264774052 0 -153.24424264774052 36.466795204936716 0 0 0 0 316.56058240044513 -212.36484665052058 0 -212.36484665052058 32.750854969601278 0 0 0 0 182.71487689545029 -175.09473091233212 0 -175.09473091233212 46.359539176489534 0 0 0 0 192.73922742955619 -153.52074337027614 0 -153.52074337027614 56.337026805416826 0 0 0 0 52.977153076179093 -91.582264356886299 0 -91.582264356886299 136.32311096133253 0 0 0 0 90.720509580627549 -49.890965801676884 0 -49.890965801676884 61.661340564671718 0 0 0 0 19.646206356483162 -18.015913805869104 0 -18.015913805869104 -32.149573387860329 0 0 0 0 71.292750501790579 34.673026963041593 0 34.673026963041593 -39.792595044562404 0 0 0 0 14.846285791402067 2.0674466545441845 0 2.0674466545441845 1.2606848605390188 0 0 0 0 6.1001543342216564 -0.37320211006436921 0 -0.37320211006436921 -0.98161336568746593 0 0 0 0 18.699685261919512 -62.851766297307222 0 -62.851766297307222 75.82874547498318 0 0 0 0 24.621758477282128 -16.007471492255576 0 -16.007471492255576 -2.5673360619388177 0 0 0 0 20.151159962560371 -0.45479056832473219 0 -0.45479056832473219 -0.84159760413473461 0 0 0 0 35.599638269028219 2.5118475467918984 0 2.5118475467918984 -16.166394274583155 0 0 0 0 3.7573174381442129 0.32899503468010494 0 0.32899503468010494 5.7899371637913957 0 0 0 0 -31.749596283789288 20.464647448854635 0 20.464647448854635 61.550792170042769 0 0 0 0 -2.0415039584731858 9.8203622608285031 0 9.8203622608285031 -1.6584839064607877 0 0 0 0 48.886992093917797 -49.812264431667245 0 -49.812264431667245 44.517276065095302 0 0 0 0 91.848283034454653 -40.734883942309921 0 -40.734883942309921 -15.595798594216831 0 0 0 0 56.234789024550992 -98.775823563784797 0 -98.775823563784797 42.775196686599884 0 0 0 0 28.629354981218057 27.935321371388113 0 27.935321371388113 -26.855124998342944 0 0 0 0 45.808401206959388 -51.933617451700229 0 -51.933617451700229 29.592776162893642 0 0 0 0 70.534728146882117 -44.293842000830466 0 -44.293842000830466 -1.6172462647687098 0 0 0 0 46.86935652010834 -30.560242323652346 0 -30.560242323652346 -6.3315758171102061 0 0 0 0 10.486700789955648 -13.282843313746923 0 -13.282843313746923 -25.894926654410483 0 0 0 0 12.386797016413766 -23.096874918320509 0 -23.096874918320509 -0.11049584506145038 0 0 0 0 9.1309913492004853 -19.705400355167967 0 -19.705400355167967 21.280325967733916 0 0 0 0 5.3372528978943592 -3.6262244497902429 0 -3.6262244497902429 -13.778774011097539 0 0 0 0 21.436699466517894 -2.7630418111434665 0 -2.7630418111434665 -15.241510007600255 0 0 0 0 12.289064769007382 40.660625567925194 0 40.660625567925194 32.365807225267531 0 0 0 0 23.5644652612973 -21.82400047536521 0 -21.82400047536521 66.368234903243319 0 0 0 0 17.545276397577254 -0.90224409510528858 0 -0.90224409510528858 1.6618273325934751 0 0 0 0 44.390515871367825 -12.911833482460082 0 -12.911833482460082 -7.3086436361846268 0 0 0 0 23.089433708807292 -1.6232776236254267 0 -1.6232776236254267 -2.4779796581708871 0 0 0 0 16.928291684436772 -22.916519454322028 0 -22.916519454322028 13.018356866759973 0 0 0 0 -0.8162548531291236 -11.202896937811275 0 -11.202896937811275 2.2074453835483547 0 0 0 0 8.0657257456559819 -0.647351623771101 0 -0.647351623771101 -74.505094546653481 0 0 0 0 2.94289798132057 -0.76777102225798899 0 -0.76777102225798899 0.12212248559310446 0 0 0 0 -15.339041750208708 5.0355299229195225 0 5.0355299229195225 -13.084672737818437 0 0 0 0 -5.1844252284936374 -21.487412906837335 0 -21.487412906837335 -2.4651347313649694 0 0 0 0 -4.0378813930019533 -20.692879533729013 0 -20.692879533729013 -27.119605117103674 0 0 0 0 24.070809293294587 -22.132049384591795 0 -22.132049384591795 17.740979103580685 0 0 0 0 82.823395188021095 -52.368010991582992 0 -52.368010991582992 -6.7561639673999707 0 0 0 0 -4.1861379091133131 -25.43901953321091 0 -25.43901953321091 19.376790406049793 0 0 0 0 54.80800836920389 -17.517578748515632 0 -17.517578748515632 2.3062113341094914 0 0 0 0 29.905639353190054 -2.7460200809192372 0 -2.7460200809192372 -1.9624952635933823 0 0 0 0 -2.7750405760583412 -11.138937047635636 0 -11.138937047635636 2.6017208949722925 0 0 0 0 64.995003373383952 -9.5838723007992144 0 -9.5838723007992144 8.1251562881220707 0 0 0 0 35.860052827956679 4.4247143554342756 0 4.4247143554342756 18.622056745161814 0 0 0 0 64.649117226348608 9.7625945589402363 0 9.7625945589402363 14.62222252535696 0 0 0 0 36.020402366630151 34.442471210498638 0 34.442471210498638 24.963981828047508 0 0 0 0 10.150729846936883 18.233503001146346 0 18.233503001146346 -11.08563446735991 0 0 0 0 39.946579285176995 -2.683095617666595 0 -2.683095617666595 -13.085943092136858 0 0 0 0 58.34133952583943 -48.811385219401984 0 -48.811385219401984 -7.7836959440323881 0 0 0 0 112.38565614895197 71.066174139986771 0 71.066174139986771 61.982507675573288 0 0 0 0 0.59378504284136113 0.47105495041260781 0 0.47105495041260781 -0.37116723255132839 0 0 0 0 -27.763803613292112 26.424665229682176 0 26.424665229682176 59.371569564012532 0 0 0 0 77.582154042334878 86.121444561719386 0 86.121444561719386 73.473935574795263 0 0 0 0 144.36786970969843 87.322247262837664 0 87.322247262837664 1.1425423288840193 0 0 0 0 119.21654534461777 63.564918220983088 0 63.564918220983088 -12.260650671398025 0 0 0 0 112.63278997247835 52.941998499149008 0 52.941998499149008 -15.86289548597415 0 0 0 0 129.29781217426353 39.177889420700069 0 39.177889420700069 -16.937353647716918 0 0 0 0 164.50064915783878 70.627847706287412 0 70.627847706287412 -40.844202205920055 0 0 0 0 136.12961983741843 8.4535401167186137 0 8.4535401167186137 -62.304009177451007 0 0 0 0 140.37990659327988 37.850355148648305 0 37.850355148648305 -74.254903384077807 0 0 0 0 133.77210718483548 9.2757896275786607 0 9.2757896275786607 -56.809833520669599 0 0 0 0 113.92503896640847 23.587147369535842 0 23.587147369535842 -29.297336938499058 0 0 0 0 131.54294085178117 4.5341235394885189 0 4.5341235394885189 -27.121981387178607 0 0 0 0 123.02100153092397 0.42840341907719903 0 0.42840341907719903 -24.598907228552889 0 0 0 0 124.32779185842082 -3.9553681747756855 0 -3.9553681747756855 -10.72036674603288 0 0 0 0 103.85444675154577 5.9334846210194883 0 5.9334846210194883 -9.9907449533429826 0 0 0 0 113.46515539635584 16.971122475196012 0 16.971122475196012 -0.24839640904383486 0 0 0 0 77.96205963137254 13.728279340386564 0 13.728279340386564 12.958482112424463 0 0 0 0 95.46661352233059 47.815425724103704 0 47.815425724103704 25.928301770914914 0 0 0 0 76.752325083114556 19.757476692249725 0 19.757476692249725 0.18987751759374305 0 0 0 0 72.536988122046751 -13.245706979696678 0 -13.245706979696678 5.3962380133675651 0 0 0 0 110.98954532812058 -10.955061136563472 0 -10.955061136563472 4.0319817286945181 0 0 0 0 119.20562660946598 -8.433357298849387 0 -8.433357298849387 -6.0899824584098496 0 0 0 0 -2.8562348262260855 -10.827866286991011 0 -10.827866286991011 3.6838261585434022 0 0 0 0 117.27511187140772 -8.7226978269011397 0 -8.7226978269011397 2.3446891277180839 0 0 0 0 121.56485978032288 -15.076135494573009 0 -15.076135494573009 -14.68552444999932 0 0 0 0 31.087840054566186 -2.9485023164547783 0 -2.9485023164547783 -64.804751073495027 0 0 0 0 6.4253265238589847 0.39211135163264998 0 0.39211135163264998 -0.10473147489130241 0 0 0 0 7.4318045025292889 -1.1861130558258992 0 -1.1861130558258992 -1.6113114648765219 0 0 0 0 79.673802337332745 9.6773052483595166 0 9.6773052483595166 -19.114784143705037 0 0 0 0 10.221834354262683 -84.147534186207395 0 -84.147534186207395 -68.049231942926781 0 0 0 0 41.257723793009063 -25.711028432132025 0 -25.711028432132025 22.316131012767528 0 0 0 0 17.291294511538581 -72.315085118991647 0 -72.315085118991647 9.6257362965889115 0 0 0 0 705.09716680971906 -306.7343747151815 0 -306.7343747151815 -53.72604939529316 0 0 0 0 261.02953809409519 -268.05739381946364 0 -268.05739381946364 -54.14889808867801 0 0 0 0 354.86396229348611 -334.93575449875556 0 -334.93575449875556 28.798698442440923 0 0 0 0 352.33761331906771 -354.2977885785682 0 -354.2977885785682 122.04078784579929 0 0 0 0 576.4934440437064 -314.99688091035318 0 -314.99688091035318 -43.098943611313757 0 0 0 0 381.73874010251893 -115.88223349157647 0 -115.88223349157647 -109.56782651772619 0 0 0 0 324.87111153519072 -138.6887311432499 0 -138.6887311432499 -54.964203169671578 0 0 0 0 365.5165705189429 -123.17130952745896 0 -123.17130952745896 -72.725600727120309 0 0 0 0 266.50700366323872 -258.19476656200879 0 -258.19476656200879 -34.824300286065096 0 0 0 0 135.87010477662989 -242.6850771744553 0 -242.6850771744553 141.55528148789676 0 0 0 0 32.821490366124635 -92.087191385252865 0 -92.087191385252865 72.583416154748591 0 0 0 0 1.2542577695166415 -2.2425993171458316 0 -2.2425993171458316 -2.2954965818457809 0 0 0 0 168.09042384625354 -71.63968167307803 0 -71.63968167307803 177.42193149551406 0 0 0 0 259.98573316881084 -315.18500607821875 0 -315.18500607821875 183.90262137185528 0 0 0 0 367.71176374489005 -293.74000924182388 0 -293.74000924182388 105.50812538697369 0 0 0 0 241.33610525093172 -288.39237531503329 0 -288.39237531503329 574.02381303822199 0 0 0 0 1316.5509364448408 -63.436433687339715 0 -63.436433687339715 -26.060163624923348 0 0 0 0 591.70908530114684 -589.45951180953102 0 -589.45951180953102 448.09501366634458 0 0 0 0 25.135204483900452 20.741838112477524 0 20.741838112477524 127.45384746804905 0 0 0 0 270.89959432288015 295.54105567319039 0 295.54105567319039 263.35865023453641 0 0 0 0 7.1395064093815108 0.20532396527489638 0 0.20532396527489638 -0.32430760280688897 0 0 0 0 66.882880936464062 133.6098491723084 0 133.6098491723084 203.6999847153586 0 0 0 0 342.59586559547461 190.40754525050176 0 190.40754525050176 58.325711090689879 0 0 0 0 144.75512718706159 88.734963381756188 0 88.734963381756188 6.2088327687808942 0 0 0 0 372.766643551382 -7.8979497563094583 0 -7.8979497563094583 -26.209071990260263 0 0 0 0 372.3995650209763 -5.9374906786311072 0 -5.9374906786311072 -22.240060743850677 0 0 0 0 276.47986144914466 26.667024218566212 0 26.667024218566212 -33.056571141181621 0 0 0 0 27.42049111983215 -173.62924434477623 0 -173.62924434477623 -92.412636055593794 0 0 0 0 421.55325918057497 -160.94132294503072 0 -160.94132294503072 -92.988874930104885 0 0 0 0 204.26740938817966 -33.115723302038532 0 -33.115723302038532 -80.180867754513429 0 0 0 0 198.19406430043455 -7.5379794894006409 0 -7.5379794894006409 -129.08211246715018 0 0 0 0 248.33200586238672 91.792585030666032 0 91.792585030666032 -54.3078912823471 0 0 0 0 157.42540831191582 27.99184515215029 0 27.99184515215029 -94.871995069916011 0 0 0 0 154.47868961041968 35.758304620732133 0 35.758304620732133 -103.46561687589974 0 0 0 0 121.23490990993741 -21.879923064862851 0 -21.879923064862851 -124.54614590598203 0 0 0 0 106.28878365347919 -10.762992534730984 0 -10.762992534730984 -130.46452207063203 0 0 0 0 146.32727425963094 11.639567478921663 0 11.639567478921663 -96.280133013724935 0 0 0 0 138.11376816804113 -73.873779983430268 0 -73.873779983430268 -164.26798402336158 0 0 0 0 -3.2139341224683449 -85.27483025511583 0 -85.27483025511583 -119.76317680546481 0 0 0 0 -64.104136738882517 -7.0084476869533319 0 -7.0084476869533319 -141.18135039884419 0 0 0 0 750.27196794131305 237.41624400464855 0 237.41624400464855 -45.902601933645656 0 0 0 0 0.84496214453604068 -0.73567767190009192 0 -0.73567767190009192 0.32082181450597869 0 0 0 0 -313.26896766753271 -331.98185559824731 0 -331.98185559824731 -55.412228610814054 0 0 0 0 -61.137606798874913 450.06533969514976 0 450.06533969514976 221.78981334285754 0 0 0 0 183.43975823900837 -364.0463718470894 0 -364.0463718470894 -176.33948807116508 0 0 0 0 405.73352540064025 -267.69878856903813 0 -267.69878856903813 -143.39179024345367 0 0 0 0 419.41078134552845 -367.56361105683982 0 -367.56361105683982 6.1982238685004631 0 0 0 0 510.17793455735955 261.49216567002622 0 261.49216567002622 -36.871832553817057 0 0 0 0 961.59021802115603 -164.08553658720393 0 -164.08553658720393 -114.24261889086984 0 0 0 0 686.90114639830426 -472.20002675531077 0 -472.20002675531077 42.638809459661616 0 0 0 0 624.31434402123432 -526.19809730330792 0 -526.19809730330792 8.417726645219318 0 0 0 0 -172.88523238553898 -368.8039464187209 0 -368.8039464187209 242.83476856774269 0 0 0 0 1217.4054502694944 197.75286083288438 0 197.75286083288438 -85.284915975864124 0 0 0 0 2.6353544830139839 -2.7973364853974942 0 -2.7973364853974942 3.027942256442552 0 0 0 0 975.08246409942149 -500.79766490039174 0 -500.79766490039174 107.95378470526475 0 0 0 0 82.172528466733638 41.764015248864325 0 41.764015248864325 25.727879302324936 0 0 0 0 0.13593305956110413 -0.58190966179772374 0 -0.58190966179772374 0.5773747857211049 0 0 0 0 362.32372233015485 -176.23125920655912 0 -176.23125920655912 205.531988540763 0 0 0 0 34.634548356332743 11.873860142127938 0 11.873860142127938 7.1463940365924827 0 0 0 0 11.040321449021576 23.434343305121615 0 23.434343305121615 8.831159977419702 0 0 0 0 39.535587876251157 30.868650545647341 0 30.868650545647341 10.686123298147777 0 0 0 0 24.902310671459418 14.153849543042952 0 14.153849543042952 6.6668063111389415 0 0 0 0 27.329453736201685 13.727273889405865 0 13.727273889405865 -1.6804037566394072 0 0 0 0 123.15300915931584 207.47731654857603 0 207.47731654857603 73.996124688184409 0 0 0 0 1.6799849945130454 1.1738624841085681 0 1.1738624841085681 -2.4363002955572166 0 0 0 0 25.329805407644017 16.481994189333136 0 16.481994189333136 0.86864781385747847 0 0 0 0 -95.414042547679855 -21.457531135161673 0 -21.457531135161673 94.083205173664851 0 0 0 0 18.076314490752139 9.7366446744375708 0 9.7366446744375708 1.5759090562851243 0 0 0 0 -8.5735793775747879 58.943142410008761 0 58.943142410008761 -16.256260282092065 0 0 0 0 27.336392152541521 17.585847987239958 0 17.585847987239958 -4.5269995490652946 0 0 0 0 -8.0923892045975663 12.86073804646378 0 12.86073804646378 14.608398654202233 0 0 0 0 -1.5917910027928883 14.228499081904914 0 14.228499081904914 -1.5328241077600637 0 0 0 0 6.8150659218105432 3.6594684585343362 0 3.6594684585343362 -0.76943412580479498 0 0 0 0 -7.8000265835471509 19.423757134200713 0 19.423757134200713 8.5161384564937634 0 0 0 0 -25.900670169809018 -2.2532759645791884 0 -2.2532759645791884 7.1162207043844319 0 0 0 0 5.8537550409066625 16.466749299077151 0 16.466749299077151 -0.59002081887631785 0 0 0 0 -3.5054821471727564 -1.3416005431986164 0 -1.3416005431986164 -2.295617074112942 0 0 0 0 146.17246440452072 20.33216764958425 0 20.33216764958425 -96.164953091709663 0 0 0 0 -2.7996780866960762 10.519929800467139 0 10.519929800467139 5.1997730405698803 0 0 0 0 87.881149093067506 41.473418709759017 0 41.473418709759017 -33.969513525408615 0 0 0 0 6.1470805915872404 0.74840454835141301 0 0.74840454835141301 0.36596721131574295 0 0 0 0 185.52251760847867 -32.187179398550256 0 -32.187179398550256 1.6989235503736779 0 0 0 0 51.418951779764029 -38.28672793178842 0 -38.28672793178842 5.0289733999083133 0 0 0 0 147.55786117759999 333.28573661768473 0 333.28573661768473 465.65826269638819 0 0 0 0 -79.895879566101939 -155.5421262628829 0 -155.5421262628829 56.897788419699808 0 0 0 0 -78.215863806777634 -365.96802477947267 0 -365.96802477947267 69.296364879446031 0 0 0 0 18.163549510965822 38.179536934924499 0 38.179536934924499 128.98493057486257 0 0 0 0 3.5591372691166043 -1.2113073074860417 0 -1.2113073074860417 -0.39222065134510992 0 0 0 0 2.5959826641192194 2.5213964604893704 0 2.5213964604893704 94.704229504072373 0 0 0 0 27.324326703208499 29.193163545229595 0 29.193163545229595 26.141728547774733 0 0 0 0 3.6440094346471597 -8.0944880166912014 0 -8.0944880166912014 57.388452890653298 0 0 0 0 64.105174185795477 25.896755145349289 0 25.896755145349289 9.7728460267237551 0 0 0 0 126.31053282383073 89.491912557750368 0 89.491912557750368 73.436994291171004 0 0 0 0 30.244148723519174 53.533866114947386 0 53.533866114947386 80.858625108693388 0 0 0 0 58.248113102956268 2.5076858899568322 0 2.5076858899568322 -41.162629591104164 0 0 0 0 110.02205864878488 50.957778254356555 0 50.957778254356555 -1.4991785758671128 0 0 0 0 18.100299327217954 6.1169196161638126 0 6.1169196161638126 1.6052290517148422 0 0 0 0 34.156087606505025 49.552154575932605 0 49.552154575932605 -63.184904425113899 0 0 0 0 -23.671095558369416 29.988612446217477 0 29.988612446217477 29.423484177576544 0 0 0 0 19.964199084468419 -21.703315562175192 0 -21.703315562175192 -10.248481437158588 0 0 0 0 41.379085330336238 -25.136664533450617 0 -25.136664533450617 -11.342014091158021 0 0 0 0 10.755338151951946 -50.169971827420426 0 -50.169971827420426 23.843385971671751 0 0 0 0 15.349008728090951 4.8374797331066262 0 4.8374797331066262 0.6838718653747824 0 0 0 0 -39.667665947243222 36.793709838279142 0 36.793709838279142 36.229440703609612 0 0 0 0 0.8024282545375172 12.250016158041603 0 12.250016158041603 48.175916222698675 0 0 0 0 9.6100792289507808 49.356815950842815 0 49.356815950842815 2.7374459297768681 0 0 0 0 14.438480888667982 -8.0408400996651608 0 -8.0408400996651608 -2.166921698774658 0 0 0 0 28.449218864931026 -6.8957375286402112 0 -6.8957375286402112 1.3523991602419301 0 0 0 0 37.07533078747656 -16.509819832409732 0 -16.509819832409732 -6.0496966637297191 0 0 0 0 13.385595631492208 2.7886608178751615 0 2.7886608178751615 0.49267300502880862 0 0 0 0 19.199991739253164 -0.29071259665181515 0 -0.29071259665181515 -10.080466611686461 0 0 0 0 40.850939884199761 -8.8818871596931785 0 -8.8818871596931785 7.5360238809207658 0 0 0 0 8.3678467303323885 0.28543091534410792 0 0.28543091534410792 3.3307706747222996 0 0 0 0 14.021409003238659 -4.9279319321640287 0 -4.9279319321640287 1.4273343616159764 0 0 0 0 2.4748872588825179 -5.6041570247349455 0 -5.6041570247349455 5.4080632375318487 0 0 0 0 36.707256022156798 -9.3919223907579976 0 -9.3919223907579976 -7.5574609319856734 0 0 0 0 11.85630142174341 -14.429199182986906 0 -14.429199182986906 13.503976809267215 0 0 0 0 14.430133795482107 16.598612224966388 0 16.598612224966388 -12.393395454187555 0 0 0 0 42.064679192546464 -16.684707503029401 0 -16.684707503029401 27.727264341178113 0 0 0 0 8.850501258377335 25.494646959540972 0 25.494646959540972 23.241051139769297 0 0 0 0 13.651675430468458 26.811902483484005 0 26.811902483484005 -9.2656553728533595 0 0 0 0 7.8257005671475781 1.3063979730297888 0 1.3063979730297888 1.2385150483202096 0 0 0 0 -13.830046202390804 7.213073210311137 0 7.213073210311137 13.898465759153709 0 0 0 0 5.6866714709241997 2.9466356523133186 0 2.9466356523133186 2.7602675597184887 0 0 0 0 7.6814559846457513 -1.0923059625673375 0 -1.0923059625673375 2.9154820701968021 0 0 0 0 8.7091201657040074 3.3370252930793463 0 3.3370252930793463 3.6642134944017926 0 0 0 0 -14.45662123344664 -5.8690256348406251 0 -5.8690256348406251 8.8569953664555499 0 0 0 0 1.5862120531039139 0.57631818812951963 0 0.57631818812951963 3.1074986027231684 0 0 0 0 1.1309368360578702 0.46075756930768819 0 0.46075756930768819 2.8327644024431593 0 0 0 0 5.4503477240505163 1.1668482642600111 0 1.1668482642600111 2.6069270357778578 0 0 0 0 2.0044508771061373 22.159575215690722 0 22.159575215690722 27.779464265820252 0 0 0 0 21.017704160216454 24.057560342183024 0 24.057560342183024 15.081364618858174 0 0 0 0 -1.5324096356198424 -26.577908539565442 0 -26.577908539565442 -3.892426090841866 0 0 0 0 154.26447269647178 47.963472177020662 0 47.963472177020662 1.7584710197374989 0 0 0 0 2.3028859450195114 0.024425558776492551 0 0.024425558776492551 -0.14606811813420206 0 0 0 0 225.0655559154402 -121.70153452664897 0 -121.70153452664897 69.625597080131968 0 0 0 0 191.23721994696643 -28.802917411658711 0 -28.802917411658711 3.6200848413700442 0 0 0 0 0.076581358867542804 -0.83268966380397202 0 -0.83268966380397202 0.4604488793819701 0 0 0 0 4.9560081072268076 1.4690392555410199 0 1.4690392555410199 2.5148936537573263 0 0 0 0 1.1570579372227563 1.3022150632011602 0 1.3022150632011602 2.3969922760670497 0 0 0 0 2.8710891429363983 0.42677666207873699 0 0.42677666207873699 0.35858915558333138 0 0 0 0 5.2492355375579791 1.6145637941930318 0 1.6145637941930318 2.3689110239229194 0 0 0 0 2.8302538278288125 0.078507898194917658 0 0.078507898194917658 0.82956437046506737 0 0 0 0 5.4096909929940011 1.584650276352022 0 1.584650276352022 2.3506279102302869 0 0 0 0 0.97195578452917175 -0.25356105040744126 0 -0.25356105040744126 2.4642222977276047 0 0 0 0 3.7318952724835981 -1.4112422006119374 0 -1.4112422006119374 -0.45261911059651538 0 0 0 0 0.69442199682676709 1.0066626247143233 0 1.0066626247143233 -0.56711320254889053 0 0 0 0 -22.573512467730325 25.525840416584742 0 25.525840416584742 -11.983398384981228 0 0 0 0 3.7036338511154252 1.3481141276456583 0 1.3481141276456583 -0.60216350546980557 0 0 0 0 6.9235175737994723 6.9248027949900006 0 6.9248027949900006 -2.9266786364787549 0 0 0 0 4.0434530035551006 0.30695257048387248 0 0.30695257048387248 -1.1279016149431227 0 0 0 0 4.7967614137160126 -6.6639022809265498 0 -6.6639022809265498 -8.344659616872832 0 0 0 0 1.5167634658516107 -0.92719935105905904 0 -0.92719935105905904 2.4622918545865531 0 0 0 0 5.7685923307872145 -6.2346616894679414 0 -6.2346616894679414 -16.996412872269502 0 0 0 0 7.382566838296043 5.2579514039168203 0 5.2579514039168203 -28.540575574903869 0 0 0 0 186.77015402431425 -38.609322103910927 0 -38.609322103910927 12.987850237662315 0 0 0 0 16.076502973766765 5.7804036785469748 0 5.7804036785469748 0.097164222656829224 0 0 0 0 -12.394964386381616 -25.168935701455155 0 -25.168935701455155 11.976752554960058 0 0 0 0 1.9378957575038669 0.95948295678856255 0 0.95948295678856255 -0.33421877187524762 0 0 0 0 21.117080024498136 -24.315214208010204 0 -24.315214208010204 -5.2010914234684265 0 0 0 0 6.1729871208226541 7.9451559707466828 0 7.9451559707466828 12.38019827545936 0 0 0 0 -3.1777766912036896 0.39288042943074064 0 0.39288042943074064 6.4054122558499103 0 0 0 0 12.428629370187991 3.4001037380870685 0 3.4001037380870685 -1.1282556816673832 0 0 0 0 6.0606996186560878 1.8736344660839599 0 1.8736344660839599 0.98116911049021149 0 0 0 0 10.303600809100317 -0.25737230114668819 0 -0.25737230114668819 -11.143688361234467 0 0 0 0 1.9673558393647284 0.18569881382721576 0 0.18569881382721576 -0.94353435111035822 0 0 0 0 20.529499671192752 -60.975611964320251 0 -60.975611964320251 39.414745290159203 0 0 0 0 -2.0564482990703254 57.001983310704532 0 57.001983310704532 3.1724921992135933 0 0 0 0 11.826146454375703 -11.020796674252978 0 -11.020796674252978 2.5367407869121052 0 0 0 0 1.8169192722793497 1.6684844003316925 0 1.6684844003316925 2.9395221880641085 0 0 0 0 0.96971140385932131 0.031281574353933195 0 0.031281574353933195 -0.68975545063545773 0 0 0 0 12.273885858181529 20.869588632616512 0 20.869588632616512 -61.009662438047144 0 0 0 0 5.2867584392588469 44.025694318983597 0 44.025694318983597 -18.50052026824369 0 0 0 0 27.2159377005446 9.0558436678675207 0 9.0558436678675207 17.704791490111347 0 0 0 0 22.510815838293638 48.461284129460182 0 48.461284129460182 -13.964090343260523 0 0 0 0 7.8145869031395705 42.501482706063371 0 42.501482706063371 11.813868280351926 0 0 0 0 10.98305050667841 41.812112227015859 0 41.812112227015859 -17.772670999941965 0 0 0 0 -23.120943916175747 4.9442525227445913 0 4.9442525227445913 -15.776730469266568 0 0 0 0 -71.174643499118247 36.2183737380808 0 36.2183737380808 13.267918639969139 0 0 0 0 53.446131489181425 10.62837971732597 0 10.62837971732597 -32.387679718787467 0 0 0 0 59.564643767429516 0.3681703086908783 0 0.3681703086908783 -39.508722369070483 0 0 0 0 -3.0444982252483896 -78.357360103511041 0 -78.357360103511041 21.941425674702714 0 0 0 0 0.05423066032284396 -0.18507816667396071 0 -0.18507816667396071 1.2953879585377761 0 0 0 0 -2.1091309331168304 -11.371794658189629 0 -11.371794658189629 -28.435105676075636 0 0 0 0 31.45844746370858 -67.474541718529053 0 -67.474541718529053 0.3049508456588228 0 0 0 0 25.888274678552989 37.442413085871522 0 37.442413085871522 -56.249034041713458 0 0 0 0 -0.50352270804432919 51.926987838987316 0 51.926987838987316 -12.917563857054574 0 0 0 0 77.073913523578085 22.971474292625373 0 22.971474292625373 10.042463348744604 0 0 0 0 92.414426238232409 -42.083469259331196 0 -42.083469259331196 28.549881534767792 0 0 0 0 174.41059473403129 -74.423693162105167 0 -74.423693162105167 15.319686757825366 0 0 0 0 159.95110973473493 -21.950194541943119 0 -21.950194541943119 -8.3312073836696072 0 0 0 0 205.68809740155484 -45.954405203793272 0 -45.954405203793272 35.305276120273447 0 0 0 0 209.85792280848545 -39.899611218393602 0 -39.899611218393602 7.8119631931176627 0 0 0 0 113.35902808477113 5.4582559834154836 0 5.4582559834154836 31.832110347510934 0 0 0 0 90.903662081844232 -14.993477574387953 0 -14.993477574387953 27.86466418530199 0 0 0 0 190.81599798070602 -28.82233933762609 0 -28.82233933762609 28.602662852418689 0 0 0 0 106.19432759274059 42.797396488304685 0 42.797396488304685 47.399229471649051 0 0 0 0 319.06400666717309 -86.767385213478065 0 -86.767385213478065 11.014258982234423 0 0 0 0 227.48693630365597 4.1724444568230865 0 4.1724444568230865 11.454402656834304 0 0 0 0 -11.440241423340922 34.025161993110487 0 34.025161993110487 -5.1781382743356517 0 0 0 0 38.463087417676434 36.053061740941985 0 36.053061740941985 34.040261787317831 0 0 0 0 6.7614589137010626 5.485706253114131 0 5.485706253114131 14.569907804288249 0 0 0 0 -14.754993079302949 34.885881530719075 0 34.885881530719075 55.654736989545199 0 0 0 0 60.012519967509434 -5.6824871725798403 0 -5.6824871725798403 35.337580495202516 0 0 0 0 -38.017825521117629 -12.049760947046423 0 -12.049760947046423 27.674531787864453 0 0 0 0 -55.567031638209301 5.589341489554954 0 5.589341489554954 14.776530910845793 0 0 0 0 0.16861162108380512 1.0918050314191134 0 1.0918050314191134 2.271342358603512 0 0 0 0 31.909213505354273 11.62064549175625 0 11.62064549175625 -0.9261837258191008 0 0 0 0 67.237219816772267 -23.723304394236493 0 -23.723304394236493 -5.1078472942579083 0 0 0 0 73.216883860979578 -10.499775524162487 0 -10.499775524162487 14.722112219248629 0 0 0 0 118.3178389198365 -14.815717923615694 0 -14.815717923615694 -9.223907096503126 0 0 0 0 79.860413131209498 -3.7060818184381787 0 -3.7060818184381787 2.9967908942917347 0 0 0 0 72.695049142072094 -26.590934767490126 0 -26.590934767490126 -0.50761509479394817 0 0 0 0 57.478559683157073 -24.944137738412337 0 -24.944137738412337 4.4684597428804409 0 0 0 0 65.920429665464326 -48.807598640937954 0 -48.807598640937954 -19.677919954532626 0 0 0 0 117.57128681612085 -104.45430532702903 0 -104.45430532702903 39.536270224858754 0 0 0 0 133.07754522337927 -30.975411737858849 0 -30.975411737858849 -18.763301483505529 0 0 0 0 13.110322536380409 -1.0091793404499185 0 -1.0091793404499185 -1.3606063198058109 0 0 0 0 5.191417341664561 -1.0415854952378965 0 -1.0415854952378965 -2.0251559968738242 0 0 0 0 451.51981733349385 60.533410142650609 0 60.533410142650609 -197.34343257545697 0 0 0 0 -17.639603824849473 84.262804899879484 0 84.262804899879484 -76.565671392057084 0 0 0 0 12.071801856928086 -2.2046579360442564 0 -2.2046579360442564 -1.6097945393217898 0 0 0 0 3.3398116306235437 3.3689812361476044 0 3.3689812361476044 -3.6034005064565058 0 0 0 0 1.3357841869727167 0.3560459325817078 0 0.3560459325817078 -1.1005670964549967 0 0 0 0 129.51101945839764 -18.727891605396508 0 -18.727891605396508 -28.038288558356669 0 0 0 0 129.79257573554059 -23.806983571821547 0 -23.806983571821547 -21.593978950661494 0 0 0 0 135.35804284061305 -26.555231140026081 0 -26.555231140026081 -28.783899627154824 0 0 0 0 14.561786715261405 -7.3676112289513185 0 -7.3676112289513185 2.8355782134688639 0 0 0 0 -35.410002664710191 55.090960244544021 0 55.090960244544021 -0.63504500874387304 0 0 0 0 -65.26106431739754 9.9574885519782583 0 9.9574885519782583 39.723130572958326 0 0 0 0 18.50600416427551 23.519311299783681 0 23.519311299783681 -2.2991379545596828 0 0 0 0 4.1223804971996287 1.2072070289341355 0 1.2072070289341355 -2.9052062809614654 0 0 0 0 118.69443387156934 -12.594489707595585 0 -12.594489707595585 -1.5156579575186697 0 0 0 0 4.7061353467397566 1.2419633041345151 0 1.2419633041345151 -13.86533387819054 0 0 0 0 1.0331563375969992 5.8302902269791019 0 5.8302902269791019 -3.189162472866629 0 0 0 0 1.6410109803618695 1.0757513892348527 0 1.0757513892348527 -1.8473436602370388 0 0 0 0 -52.604346258096484 -21.970745952219715 0 -21.970745952219715 2.806808811295241 0 0 0 0 -42.257233969761728 63.367846584654501 0 63.367846584654501 -32.070788111687762 0 0 0 0 -6.3637238891969901 4.0939636203220289 0 4.0939636203220289 -14.534721479845757 0 0 0 0 -22.492973384949437 -38.720439473721513 0 -38.720439473721513 12.141526505931324 0 0 0 0 2.4116068735281999 6.6604817890528523 0 6.6604817890528523 -4.2476913110130639 0 0 0 0 -26.158902660936292 -18.404755363834624 0 -18.404755363834624 -20.700050818863701 0 0 0 0 353.30949438270181 178.0886259342783 0 178.0886259342783 -120.09253582263545 0 0 0 0 -22.677960641798563 -53.95149207524446 0 -53.95149207524446 29.631006808006532 0 0 0 0 145.67991267870821 105.88244120189643 0 105.88244120189643 -77.560452076663751 0 0 0 0 164.33831359423766 123.04813994269027 0 123.04813994269027 -72.026634471873876 0 0 0 0 147.92766771343304 -121.09126350825545 0 -121.09126350825545 39.644739196882711 0 0 0 0 3.5074903194113745 -0.39937401218973179 0 -0.39937401218973179 -0.48894626409019848 0 0 0 0 47.561104255466489 70.720362448368633 0 70.720362448368633 47.850574125624462 0 0 0 0 20.757105010154191 42.581169036986466 0 42.581169036986466 54.965129160627384 0 0 0 0 30.942769341432722 38.968438042343223 0 38.968438042343223 10.283403047267257 0 0 0 0 75.874421774089569 43.181768532157093 0 43.181768532157093 7.3713984611715659 0 0 0 0 15.639827393664746 28.076157630250918 0 28.076157630250918 33.603408590774052 0 0 0 0 9.7767110043569119 -18.632902905706715 0 -18.632902905706715 11.075755142873277 0 0 0 0 0.27241796869202517 -6.7292074602476077 0 -6.7292074602476077 -3.8314349362349276 0 0 0 0 57.539826446598454 -1.3969160971269048 0 -1.3969160971269048 -2.9799335377248326 0 0 0 0 0.34997572115025832 14.11024522357252 0 14.11024522357252 25.887075728226137 0 0 0 0 0.27990632167839635 1.2869360988139249 0 1.2869360988139249 3.4118460687011414 0 0 0 0 175.76048822534358 -26.178877464506968 0 -26.178877464506968 -12.522950457333991 0 0 0 0 0.66612509247244134 0.90008292522090017 0 0.90008292522090017 -1.0160807469603803 0 0 0 0 2500.3476813360303 470.18133288956403 0 470.18133288956403 -518.30264008173162 0 0 0 0 1451.6059841985466 165.8120512322923 0 165.8120512322923 -408.30335680761937 0 0 0 0 920.36507394095679 502.50139774003742 0 502.50139774003742 -316.32116527015717 0 0 0 0 979.76493400624349 191.1230375346683 0 191.1230375346683 -631.33336809690411 0 0 0 0 232.8372932078837 -17.012755388653886 0 -17.012755388653886 -88.465181816064614 0 0 0 0 411.83556341364419 -593.28636980732006 0 -593.28636980732006 -491.76294429649471 0 0 0 0 7.0164818570258092 0.27785299755192838 0 0.27785299755192838 -0.76629068924711463 0 0 0 0 682.62860204067874 -384.98586471211911 0 -384.98586471211911 1.5825769966495216 0 0 0 0 708.12968749407707 -271.23620696313986 0 -271.23620696313986 -158.6234954471978 0 0 0 0 1033.3624096105195 68.612962487959948 0 68.612962487959948 -89.138104152200015 0 0 0 0 555.46384753596431 -331.25287563571374 0 -331.25287563571374 103.52150131687824 0 0 0 0 866.16449879784341 -332.76340851647683 0 -332.76340851647683 100.29513019268231 0 0 0 0 494.48616522208795 -427.65721514466492 0 -427.65721514466492 242.93911890684444 0 0 0 0 1175.2298244590456 -532.17077443663982 0 -532.17077443663982 126.33593044413915 0 0 0 0 1243.0874914315937 -292.66547516054641 0 -292.66547516054641 -5.8435244333668876 0 0 0 0 1668.4804603286339 -343.07290572003654 0 -343.07290572003654 -149.3432648446223 0 0 0 0 1279.6131876934523 -167.29656802727192 0 -167.29656802727192 -228.32912362176546 0 0 0 0 1778.1204851622226 82.594247756384632 0 82.594247756384632 -400.7091532453523 0 0 0 0 2499.3783282122467 -290.59447249471782 0 -290.59447249471782 -397.79192809466895 0 0 0 0 1830.3305957584316 -343.2474304667864 0 -343.2474304667864 -289.59276088929943 0 0 0 0 2499.4779565678878 -703.66112890204795 0 -703.66112890204795 -124.37451805631549 0 0 0 0 1790.4039164379969 -609.91451727170465 0 -609.91451727170465 82.512365793447245 0 0 0 0 1363.8963373784609 -574.36169699675395 0 -574.36169699675395 142.03278923367776 0 0 0 0 1913.2132928242218 -844.27787029620561 0 -844.27787029620561 233.02487706240862 0 0 0 0 1335.6464555688763 -870.2970303326473 0 -870.2970303326473 411.09526843500055 0 0 0 0 1908.9688644413081 -1119.9985656658255 0 -1119.9985656658255 500.85379473450132 0 0 0 0 1268.9845223991779 -989.95193509262276 0 -989.95193509262276 512.72065491349338 0 0 0 0 1913.6931538229753 -806.84127271622833 0 -806.84127271622833 174.26386585583629 0 0 0 0 2360.9665563089793 -884.98664353458616 0 -884.98664353458616 186.30391501728397 0 0 0 0 2500.0034077155101 -1100.2747727964561 0 -1100.2747727964561 519.42419185518065 0 0 0 0 2360.00159188407 -1077.0630526484551 0 -1077.0630526484551 916.67110017620155 0 0 0 0 2517.9923187738686 -1287.5117569403365 0 -1287.5117569403365 810.27393358109475 0 0 0 0 2136.8140962424368 -1010.1992928863654 0 -1010.1992928863654 614.89501266454522 0 0 0 0 1907.5757343982077 -1124.9355714072356 0 -1124.9355714072356 567.40232239928491 0 0 0 0 1190.9568296029138 -977.4732803942702 0 -977.4732803942702 794.78469091096008 0 0 0 0 1715.2988884387905 -1456.1360255261059 0 -1456.1360255261059 1149.7877091870857 0 0 0 0 18.850461022734137 1.2582338666844954 0 1.2582338666844954 -6.1667715967932768 0 0 0 0 1018.938755047679 -744.19193627935545 0 -744.19193627935545 574.75464590136903 0 0 0 0 1087.7024153622692 -1289.2286132192933 0 -1289.2286132192933 1041.0674012510444 0 0 0 0 2.2764150759879307 5.470523531081132 0 5.470523531081132 -2.6094445269991819 0 0 0 0 2255.2041878648497 -1676.1485202946258 0 -1676.1485202946258 1159.3406220227998 0 0 0 0 1418.8836304460037 -1604.4529657755509 0 -1604.4529657755509 1785.5758717831798 0 0 0 0 -106.0421287770277 645.01357707584623 0 645.01357707584623 -116.31343364202252 0 0 0 0 -232.73799855800257 -214.85892970158335 0 -214.85892970158335 -80.686836341540868 0 0 0 0 288.21021159567186 -133.22945274031318 0 -133.22945274031318 -96.204247898800418 0 0 0 0 153.82642605518072 401.89617716459043 0 401.89617716459043 310.314081912083 0 0 0 0 932.14282569937131 738.9305312752723 0 738.9305312752723 -204.79775179284968 0 0 0 0 12.669351475632373 3.9417337192377278 0 3.9417337192377278 -1.8546874876722153 0 0 0 0 2671.9271457608684 -1713.2386250732568 0 -1713.2386250732568 1196.7561989575784 0 0 0 0 3487.2374516501268 -1134.1813874828269 0 -1134.1813874828269 896.80505222778572 0 0 0 0 -29.718358188792664 -326.27110290593458 0 -326.27110290593458 188.03587357410265 0 0 0 0 187.24021550088696 -275.80976171786745 0 -275.80976171786745 -551.15679422203493 0 0 0 0 28.690824218624442 150.96140386823129 0 150.96140386823129 -112.89949690139922 0 0 0 0 17.150545030098328 10.768048509569553 0 10.768048509569553 2.4181536247842246 0 0 0 0 15.555012279116479 -0.66591875866999839 0 -0.66591875866999839 -0.97740597378257366 0 0 0 0 29.295321900691761 11.045664540701836 0 11.045664540701836 -12.580678782684345 0 0 0 0 16.510541319143158 4.8117855125655069 0 4.8117855125655069 17.960889076948206 0 0 0 0 30.718370158891503 7.7546509256731326 0 7.7546509256731326 -18.613684402101399 0 0 0 0 39.617306124219795 15.569630968508136 0 15.569630968508136 -60.816236926589227 0 0 0 0 30.357233220991265 -8.0828596568900224 0 -8.0828596568900224 0.058234416741609563 0 0 0 0 25.95161420952536 -0.25069991201530684 0 -0.25069991201530684 -19.512104820216365 0 0 0 0 20.454829776499473 1.8033356408655283 0 1.8033356408655283 -4.7160146957572158 0 0 0 0 24.872288431111087 3.4566463121079352 0 3.4566463121079352 -10.508005714686988 0 0 0 0 1017.6296562654097 -237.82973413008784 0 -237.82973413008784 56.986998591340353 0 0 0 0 1.7328305369341948 1.7068938969685554 0 1.7068938969685554 -0.22972626089404929 0 0 0 0 762.81694444543064 -691.08863543379721 0 -691.08863543379721 525.68132732368213 0 0 0 0 1233.8802938966037 -694.53468546045019 0 -694.53468546045019 518.88130603658306 0 0 0 0 479.38592461759617 -827.95904176629608 0 -827.95904176629608 768.33819179021816 0 0 0 0 1110.3502549644909 -531.68450606764088 0 -531.68450606764088 322.60156913618971 0 0 0 0 712.69183267010021 -516.23456275123681 0 -516.23456275123681 325.07177297170045 0 0 0 0 719.62982072616728 -370.05374672360279 0 -370.05374672360279 226.23078778748999 0 0 0 0 373.64875458585038 -257.98711517104624 0 -257.98711517104624 382.26840732550528 0 0 0 0 2.2082993940677369 -2.004733129544455 0 -2.004733129544455 2.1618509168514666 0 0 0 0 39.340024150447789 -28.37627534191131 0 -28.37627534191131 -4.1881130022521944 0 0 0 0 21.064101002823918 -12.814893972455678 0 -12.814893972455678 17.711475390748888 0 0 0 0 43.653463815946452 -13.258915859699641 0 -13.258915859699641 -34.069143556865129 0 0 0 0 101.53902579233909 8.7011368060899485 0 8.7011368060899485 -137.5214802110645 0 0 0 0 27.412779599493874 -8.9743014423237177 0 -8.9743014423237177 1.1523558119559221 0 0 0 0 18.471164909293293 36.750690673891313 0 36.750690673891313 -22.952579186487924 0 0 0 0 10.970925721476306 34.849215454023557 0 34.849215454023557 45.850510324864452 0 0 0 0 1.8984218490800231 4.0673362434053502 0 4.0673362434053502 -2.7294217875739832 0 0 0 0 43.657189336800002 10.899967511323183 0 10.899967511323183 -3.3806084389141233 0 0 0 0 -58.328869086160012 -153.37297758412595 0 -153.37297758412595 244.24351621581297 0 0 0 0 11.604836423654472 -3.9014422768863359 0 -3.9014422768863359 0.84183923887697476 0 0 0 0 174.00587195054914 -240.59948899854254 0 -240.59948899854254 -293.0990628885238 0 0 0 0 -21.932808226379166 -154.16011808415817 0 -154.16011808415817 400.17965891107042 0 0 0 0 -61.221066890916973 21.508726914457434 0 21.508726914457434 -23.081868823325209 0 0 0 0 264.29181066967794 -3.5250871142191045 0 -3.5250871142191045 -44.856700697363749 0 0 0 0 58.034088382575646 87.727543099568379 0 87.727543099568379 137.23912877320123 0 0 0 0 3.9393282447331401 -2.562616233147029 0 -2.562616233147029 1.1359430637555976 0 0 0 0 1.1391825348846396 -16.731038221669564 0 -16.731038221669564 -30.68800364245169 0 0 0 0 62.148138705133533 -72.294260070991527 0 -72.294260070991527 -84.161926867705461 0 0 0 0 22.786355846493962 -9.2979983815346081 0 -9.2979983815346081 0.76101068616343204 0 0 0 0 27.603857384146977 -3.7164335568495517 0 -3.7164335568495517 -24.269733439429729 0 0 0 0 25.680312467438853 -17.807733911774875 0 -17.807733911774875 4.8961292054273144 0 0 0 0 33.126789439762433 2.0699626186521414 0 2.0699626186521414 -18.654202400076542 0 0 0 0 82.988877657899138 -47.57746755472516 0 -47.57746755472516 24.305035994326701 0 0 0 0 31.241345036475195 -23.425232988474455 0 -23.425232988474455 29.245545615785915 0 0 0 0 49.953135604871022 -11.994068289456209 0 -11.994068289456209 -4.6755329497683533 0 0 0 0 45.576452413155494 -11.946785620026702 0 -11.946785620026702 6.6226302778556629 0 0 0 0 53.629905834635792 -46.42245254044937 0 -46.42245254044937 26.582163578557569 0 0 0 0 260.94887823044519 -191.28490139549496 0 -191.28490139549496 151.470285615177 0 0 0 0 0.8768772691749831 1.150204866313242 0 1.150204866313242 1.4733324087959425 0 0 0 0 566.42814219088439 -276.59403735983341 0 -276.59403735983341 101.83751538521068 0 0 0 0 255.8223811124069 -36.362461323672122 0 -36.362461323672122 96.342938560108962 0 0 0 0 285.4644415514631 -211.88270615517132 0 -211.88270615517132 100.74389180749179 0 0 0 0 395.66147332190667 -271.35907805176777 0 -271.35907805176777 368.07212888274449 0 0 0 0 730.57244553021985 8.0938727435061857 0 8.0938727435061857 162.60390245528731 0 0 0 0 84.481310260385726 -161.54047069254895 0 -161.54047069254895 255.52855786921393 0 0 0 0 79.102392385512189 -98.966050010147072 0 -98.966050010147072 128.47220580784602 0 0 0 0 140.87369004354332 -104.49251902830122 0 -104.49251902830122 38.693792692792478 0 0 0 0 0.95158722194850753 0.40416674127394714 0 0.40416674127394714 0.45534158897833255 0 0 0 0 45.846437433225219 -36.336024172280702 0 -36.336024172280702 49.556646114908759 0 0 0 0 1.8430440999482443 1.0626233459268697 0 1.0626233459268697 1.0873114981513385 0 0 0 0 -39.261622918398643 -11.11384010864856 0 -11.11384010864856 18.443746325499092 0 0 0 0 -0.79340363507783707 -2.8444892066880847 0 -2.8444892066880847 3.3563686247179323 0 0 0 0 -40.280928146294173 -0.94656222453913585 0 -0.94656222453913585 44.859390286336165 0 0 0 0 74.959926954186813 -17.055161934336851 0 -17.055161934336851 -15.395449188465676 0 0 0 0 101.93096147443885 35.041650436452528 0 35.041650436452528 10.662401053382553 0 0 0 0 27.75081597114513 -20.420853637063203 0 -20.420853637063203 -8.8227422059345599 0 0 0 0 28.128249661680456 -17.647730069906913 0 -17.647730069906913 9.674358575614292 0 0 0 0 91.210073506191293 -24.21670640054009 0 -24.21670640054009 -5.6520909765440592 0 0 0 0 123.11316299046302 -4.8693735650973622 0 -4.8693735650973622 -6.4450451426587811 0 0 0 0 84.20703361131018 -8.3799253386457622 0 -8.3799253386457622 -3.1913475744906918 0 0 0 0 33.397139782407521 0.089908291837289767 0 0.089908291837289767 -5.3402918391965386 0 0 0 0 40.369294770951456 -30.096711108657132 0 -30.096711108657132 7.3296109034063193 0 0 0 0 114.75191606631961 -37.13882976093555 0 -37.13882976093555 -1.8616219865126027 0 0 0 0 81.613086961349836 -6.8866068536697185 0 -6.8866068536697185 4.9155639153941593 0 0 0 0 43.048831062991667 -7.7022159359957456 0 -7.7022159359957456 2.0668794832920554 0 0 0 0 42.482788028135474 -10.152040991244419 0 -10.152040991244419 -6.2652308306965239 0 0 0 0 -1.4862484728759933 -3.052828723832647 0 -3.052828723832647 -0.37504819236573428 0 0 0 0 -8.2485088433877536 -17.721610596296046 0 -17.721610596296046 11.64592867643448 0 0 0 0 -0.17196933816921955 12.925176262568243 0 12.925176262568243 4.2975279058296962 0 0 0 0 21.782345782768971 3.276524563891428 0 3.276524563891428 -6.6004779501097346 0 0 0 0 16.734313490675049 -2.116937416541532 0 -2.116937416541532 -11.907005451584155 0 0 0 0 3.9242839711535122 -5.0721830925642521 0 -5.0721830925642521 -4.6329900694683719 0 0 0 0 6.7121526371674918 -19.460064555778985 0 -19.460064555778985 3.4378862580875875 0 0 0 0 20.032623853984262 -3.6945297214940727 0 -3.6945297214940727 -0.21928726053383141 0 0 0 0 17.59319034478176 -32.307383494941448 0 -32.307383494941448 -24.234742393256084 0 0 0 0 5.0855003551411322 -0.62210855498122086 0 -0.62210855498122086 3.0873397211967788 0 0 0 0 -94.95508952448472 -76.516946099070168 0 -76.516946099070168 43.957637251102177 0 0 0 0 -5.3194848238954364 24.286992387707755 0 24.286992387707755 92.010871367048708 0 0 0 0 131.72597226995367 -37.237524471339242 0 -37.237524471339242 -10.078058156854127 0 0 0 0 0.99573219965016513 1.445643042733824 0 1.445643042733824 0.48501583678991977 0 0 0 0 121.82188282298375 -146.28762458175356 0 -146.28762458175356 90.032639872832505 0 0 0 0 116.8726150873681 -14.122789312144732 0 -14.122789312144732 -3.1259987900334636 0 0 0 0 178.39853012682124 -142.67812629333247 0 -142.67812629333247 48.045848420159018 0 0 0 0 -0.26203415792195983 1.4338736349841916 0 1.4338736349841916 1.2016338208968564 0 0 0 0 146.88388673656573 -157.58685024564213 0 -157.58685024564213 61.200998699718639 0 0 0 0 37.204954342499654 13.439554695260997 0 13.439554695260997 -8.7997765589267853 0 0 0 0 50.789322671386117 29.50251895008364 0 29.50251895008364 -91.960570744113738 0 0 0 0 144.66371316574259 -152.88301890876932 0 -152.88301890876932 -70.381287374179465 0 0 0 0 74.098561757515199 -59.568064551707153 0 -59.568064551707153 5.0900354486823858 0 0 0 0 90.939171644446105 -10.937580740184728 0 -10.937580740184728 101.1949018105754 0 0 0 0 21.693652292855404 -95.376727614582308 0 -95.376727614582308 124.83626327889891 0 0 0 0 25.594863917626753 -112.61395295681223 0 -112.61395295681223 200.1695267843138 0 0 0 0 7.1359546784242411 -184.02644474006311 0 -184.02644474006311 332.54677791566832 0 0 0 0 169.53899640517739 66.915175982838591 0 66.915175982838591 -15.25450095389931 0 0 0 0 7.1169369429505664 -1.4306586155862091 0 -1.4306586155862091 0.48642269495917279 0 0 0 0 1.9671419398150647 8.4573505474591961 0 8.4573505474591961 17.864018350719896 0 0 0 0 152.90537743407913 9.7511877115036718 0 9.7511877115036718 -4.2685829388687999 0 0 0 0 138.63899124645923 -40.550785467027552 0 -40.550785467027552 -43.335843072873004 0 0 0 0 351.95802960357287 -34.853487505501292 0 -34.853487505501292 -60.387659144289344 0 0 0 0 0.0079669604037917452 -55.834208046552234 0 -55.834208046552234 5.7568152596981292 0 0 0 0 -138.48631991783668 109.96225577514414 0 109.96225577514414 14.932101351592479 0 0 0 0 216.1281763937659 -218.9319066398275 0 -218.9319066398275 56.813215600390635 0 0 0 0 -199.32723107068887 -144.54873075796783 0 -144.54873075796783 317.34791242724566 0 0 0 0 35.106888679902994 12.931713463297655 0 12.931713463297655 -8.9535241342907845 0 0 0 0 289.03633300208094 341.61778346275241 0 341.61778346275241 -150.25380401227918 0 0 0 0 154.72167868751239 -249.98206270652713 0 -249.98206270652713 135.42452553549117 0 0 0 0 75.137861081220649 -22.675041178780631 0 -22.675041178780631 10.11646890126849 0 0 0 0 83.380527044876544 -19.067561830026079 0 -19.067561830026079 16.831001718577852 0 0 0 0 72.6561496104475 0.30918885428009446 0 0.30918885428009446 -2.6574224100825177 0 0 0 0 88.197791543438825 -21.399133617008374 0 -21.399133617008374 -1.1442037907027043 0 0 0 0 100.22392550949007 -25.270406104726334 0 -25.270406104726334 32.965235636130785 0 0 0 0 105.75031535248309 -23.751593132854396 0 -23.751593132854396 8.6722536404699895 0 0 0 0 104.18824515396591 -19.278502538385112 0 -19.278502538385112 13.001218193747036 0 0 0 0 109.33743199120909 -30.587477446711773 0 -30.587477446711773 13.037542998930803 0 0 0 0 110.39470941159561 -21.901857114328436 0 -21.901857114328436 3.8357418519935891 0 0 0 0 108.99547944028745 -18.189275847556701 0 -18.189275847556701 -0.6953547299362981 0 0 0 0 114.93852479704128 -23.260532797727024 0 -23.260532797727024 -4.5380278679404 0 0 0 0 103.89546817385781 -31.149620424980185 0 -31.149620424980185 6.5824133709184025 0 0 0 0 108.06581564690168 -40.835451338051371 0 -40.835451338051371 6.4995000091222295 0 0 0 0 149.49136995289882 -26.575995032450919 0 -26.575995032450919 -19.32244774956871 0 0 0 0 112.17588825677376 -14.997806528060892 0 -14.997806528060892 -19.704508225390782 0 0 0 0 97.681466456755516 -12.511063482218105 0 -12.511063482218105 -0.73373013526452269 0 0 0 0 101.67702113100131 10.5754882598726 0 10.5754882598726 -38.083905923450402 0 0 0 0 191.63649189166119 -79.528636225643908 0 -79.528636225643908 -6.3370283015674431 0 0 0 0 65.199894120935141 26.229619087054061 0 26.229619087054061 -15.504428033657859 0 0 0 0 183.93168863114261 -15.795302373144295 0 -15.795302373144295 -38.919890153649845 0 0 0 0 3.7065669181379199 -14.131116557635778 0 -14.131116557635778 5.1202291157035225 0 0 0 0 32.862451473040487 7.454217930604722 0 7.454217930604722 -9.6280227464968693 0 0 0 0 71.034453496289643 -29.706955408360045 0 -29.706955408360045 31.207170411557854 0 0 0 0 111.10709068591859 -46.518655352109363 0 -46.518655352109363 -19.055404612814527 0 0 0 0 91.441036500149494 -120.07579417563466 0 -120.07579417563466 -2.0477060139710375 0 0 0 0 15.182131754384365 -6.7885186016015471 0 -6.7885186016015471 -3.7788291954080524 0 0 0 0 56.691815220073295 -22.391931181858922 0 -22.391931181858922 7.2032421887506644 0 0 0 0 17.352850164604678 -13.606431498637193 0 -13.606431498637193 7.2412157401367816 0 0 0 0 -3.7118742404709337 -57.488926389759939 0 -57.488926389759939 8.9899407243709089 0 0 0 0 88.851095650419836 -51.857529754660533 0 -51.857529754660533 19.185272516198665 0 0 0 0 64.049677041426548 -142.66001774305005 0 -142.66001774305005 79.179353421046585 0 0 0 0 171.38966069793423 47.650028585960172 0 47.650028585960172 42.270833660652215 0 0 0 0 51.784266979682883 -2.7979818755717254 0 -2.7979818755717254 -12.794462654853717 0 0 0 0 -6154.0933665358461 -2776.3154164096923 0 -2776.3154164096923 -234.4481586877373 0 0 0 0 787.64039046797552 -524.61524468650714 0 -524.61524468650714 -490.27478916692417 0 0 0 0 21.702976871895174 -11.996411374671581 0 -11.996411374671581 -6.4787581664361156 0 0 0 0 435.151016783253 -85.142942152706382 0 -85.142942152706382 -5.6365094139709981 0 0 0 0 1.7191269793293031 -12.244750844802638 0 -12.244750844802638 65.830153175658779 0 0 0 0 -920.68768469642237 2255.8359970609672 0 2255.8359970609672 1491.4314345092107 0 0 0 0 55.357854112626669 -27.115410618188676 0 -27.115410618188676 7.6659723793444972 0 0 0 0 -222.46846301720234 -177.93072133325711 0 -177.93072133325711 -17.075821621761861 0 0 0 0 27.777103078842629 -140.78782421857295 0 -140.78782421857295 -152.25492135673085 0 0 0 0 40.949788548176002 -25.430285010079388 0 -25.430285010079388 -14.347741799864025 0 0 0 0 24.566608925742912 -34.706338351010345 0 -34.706338351010345 53.399111348200677 0 0 0 0 13.684027777635492 -18.514928831295947 0 -18.514928831295947 41.438749463666682 0 0 0 0 -10.77140632832743 -47.076069442503467 0 -47.076069442503467 30.150667681788036 0 0 0 0 38.659584016684676 -26.232219634264311 0 -26.232219634264311 35.828364094979406 0 0 0 0 51.468007180577843 -59.732348271330316 0 -59.732348271330316 7.6693468803400719 0 0 0 0 24.968353008551858 -26.647697172016834 0 -26.647697172016834 15.894050675856462 0 0 0 0 25.028109745609981 -20.577717121274645 0 -20.577717121274645 18.38447402368547 0 0 0 0 39.58453300139081 -19.518053627560221 0 -19.518053627560221 6.8260817162049534 0 0 0 0 12.486252774888968 -14.294180323335922 0 -14.294180323335922 14.27664391118244 0 0 0 0 92.76843053183984 -33.752556340421108 0 -33.752556340421108 -8.9356525304407626 0 0 0 0 108.07270900807634 -62.834236322179095 0 -62.834236322179095 -4.2128710577950983 0 0 0 0 155.53348392279645 -43.22366471702454 0 -43.22366471702454 -20.73838546779109 0 0 0 0 113.85672100309603 -39.56021109911552 0 -39.56021109911552 -6.3982654166522082 0 0 0 0 154.0482879437368 -61.711549837565201 0 -61.711549837565201 -22.89957006598388 0 0 0 0 146.7178316189711 -79.620575067084815 0 -79.620575067084815 39.843725363429144 0 0 0 0 111.07058919252813 -9.3226396334071069 0 -9.3226396334071069 59.663083953462774 0 0 0 0 211.94495859707968 -9.1407660452862274 0 -9.1407660452862274 -6.3918162559858729 0 0 0 0 94.65804514901356 -96.036717286727821 0 -96.036717286727821 71.689576606066794 0 0 0 0 -13.430866503576311 -2.626043417400787 0 -2.626043417400787 9.0545307151381049 0 0 0 0 20.346314162700953 -36.579928754293078 0 -36.579928754293078 22.234405596247115 0 0 0 0 137.53673135714416 5.5980344779995477 0 5.5980344779995477 10.000709288207872 0 0 0 0 103.61464716567207 -31.488442875968701 0 -31.488442875968701 7.8253692638646726 0 0 0 0 127.92396171168002 -2.2872625603786219 0 -2.2872625603786219 -0.057123842594734242 0 0 0 0 130.39006635369515 -8.4254465519971973 0 -8.4254465519971973 -1.4542179344286978 0 0 0 0 14.334251487153399 -34.727671559998996 0 -34.727671559998996 13.609341675020286 0 0 0 0 155.85629856787637 -3.1572172514154886 0 -3.1572172514154886 -11.188084883175804 0 0 0 0 -3.2097245628647215 -33.88164729384448 0 -33.88164729384448 25.803041033283336 0 0 0 0 1.9114642266467854 -38.878027538747801 0 -38.878027538747801 1.5054760952580182 0 0 0 0 0.99245435241755331 -31.948879210829546 0 -31.948879210829546 32.791615271848514 0 0 0 0 16.391245597722445 -12.239141240396748 0 -12.239141240396748 28.394283446881218 0 0 0 0 -33.555825131061283 -28.317809313315024 0 -28.317809313315024 19.24608947980937 0 0 0 0 -29.534460206265067 -59.950342987375393 0 -59.950342987375393 6.7929741515899877 0 0 0 0 -28.664939924696228 -71.841064682731485 0 -71.841064682731485 -30.853087040366745 0 0 0 0 60.580361168536911 -6.2196752917315052 0 -6.2196752917315052 10.358201903709187 0 0 0 0 74.086274960975061 -13.762139682201678 0 -13.762139682201678 -35.985052085773759 0 0 0 0 134.56988423754774 -16.865406052054709 0 -16.865406052054709 1.0622624409093078 0 0 0 0 167.82746700827556 7.5131934148722621 0 7.5131934148722621 11.869926404969192 0 0 0 0 131.31146892553443 0.0093969502807453864 0 0.0093969502807453864 31.099832398576723 0 0 0 0 15.642032891293141 -32.660736387178972 0 -32.660736387178972 5.2265187092286727 0 0 0 0 6.7317767747153994 -72.585801859752792 0 -72.585801859752792 -16.538231636097635 0 0 0 0 228.82526155301071 -8.3937593199993188 0 -8.3937593199993188 -24.108122491506037 0 0 0 0 124.82725652236695 -11.500643044375863 0 -11.500643044375863 12.99513523704718 0 0 0 0 -0.53967322093503034 0.097860777866387139 0 0.097860777866387139 0.654263273133044 0 0 0 0 125.26019121966237 2.6092082877516418 0 2.6092082877516418 -2.6200406235402625 0 0 0 0 8.3769465151497222 -31.57372287501056 0 -31.57372287501056 -2.2777467329657046 0 0 0 0 191.69742826708239 -10.618546187677545 0 -10.618546187677545 -20.871064283137571 0 0 0 0 7.4736006049788761 0.59964694811332464 0 0.59964694811332464 2.3001061459894609 0 0 0 0 60.431379402689345 -43.703381287153448 0 -43.703381287153448 -8.7473175620246764 0 0 0 0 -44.37515390369299 -46.728307207680331 0 -46.728307207680331 22.689280044732641 0 0 0 0 1.065426280223619 -48.093619551440611 0 -48.093619551440611 -79.545841565827914 0 0 0 0 0.64542549078814204 -3.2153406629398091 0 -3.2153406629398091 -0.038472888442176334 0 0 0 0 -17.352991316161933 -15.349874244174941 0 -15.349874244174941 19.443486607971892 0 0 0 0 -7.3286786894295801 -36.263126234561931 0 -36.263126234561931 22.624813858434209 0 0 0 0 -2.823555445211241 -39.124558891783636 0 -39.124558891783636 21.247319787729239 0 0 0 0 8.967965053197986 -33.268850438962204 0 -33.268850438962204 9.8991455893522016 0 0 0 0 8.9734767264417314 -33.283017662068744 0 -33.283017662068744 9.9047556574814735 0 0 0 0 2.4555393823939085 -22.710836757033235 0 -22.710836757033235 -0.78529197639522863 0 0 0 0 -5.6917625717942428 -43.455398500463275 0 -43.455398500463275 19.765096134623946 0 0 0 0 -14.442256755370181 -30.391619686018771 0 -30.391619686018771 21.688419915501015 0 0 0 0 9.3249385572080428 -28.627398539387556 0 -28.627398539387556 5.3683503089109763 0 0 0 0 -74.077672545157839 -41.430205215788646 0 -41.430205215788646 8.3475204326189214 0 0 0 0 -14.030052357891691 -11.21928000786761 0 -11.21928000786761 -53.412900179685494 0 0 0 0 -14.561022368787235 -18.794732093732591 0 -18.794732093732591 -1.5768424278003295 0 0 0 0 5.2940938679093961 -42.565929985687262 0 -42.565929985687262 -30.635493500378516 0 0 0 0 13.497676414928719 -26.291228532842752 0 -26.291228532842752 -5.5326941045268541 0 0 0 0 22.87715136567931 -41.57011205304002 0 -41.57011205304002 -16.382790174244064 0 0 0 0 -30.842482805484906 -48.131983647940615 0 -48.131983647940615 -6.0764393390047644 0 0 0 0 -30.63590089220088 -22.216157784340794 0 -22.216157784340794 1.1462813000737668 0 0 0 0 -28.055914070093422 -61.355903085375758 0 -61.355903085375758 -56.505589727887923 0 0 0 0 -93.840652658131148 -31.957848097244096 0 -31.957848097244096 0.82227505290211411 0 0 0 0 -8.259179538807075 -31.643101209447195 0 -31.643101209447195 -17.522618371377575 0 0 0 0 272.69004531587416 -126.16722467165607 0 -126.16722467165607 -43.227976141343305 0 0 0 0 57.520477519468841 -29.253012085293676 0 -29.253012085293676 -14.319165376436786 0 0 0 0 -3.0738182325670187 -29.145559671250027 0 -29.145559671250027 -7.8128214693700428 0 0 0 0 301.84488917083581 -145.93269325361939 0 -145.93269325361939 -145.22594166428371 0 0 0 0 24.029893128346885 -34.309080109668685 0 -34.309080109668685 -1.2765965942101047 0 0 0 0 31.022184677256519 -39.648174866387023 0 -39.648174866387023 -7.2491071028975966 0 0 0 0 332.59602898964658 -217.167645097589 0 -217.167645097589 86.298646606040393 0 0 0 0 57.753118553977401 -38.540724800803794 0 -38.540724800803794 -5.4278980010927285 0 0 0 0 -5.5725596526523162 -1.0898303257697677 0 -1.0898303257697677 1.7529770403502465 0 0 0 0 -102.49860242653267 -26.481758675093033 0 -26.481758675093033 3.3812116987296008 0 0 0 0 5.0596666058299746 -29.06894351607064 0 -29.06894351607064 -6.5750423499429367 0 0 0 0 23.949743533208675 -23.175120611845784 0 -23.175120611845784 -4.5146257440892015 0 0 0 0 17.678307147083615 -43.907228247293737 0 -43.907228247293737 -0.040418572985686296 0 0 0 0 138.92519137788986 13.813268594797336 0 13.813268594797336 20.340857115300594 0 0 0 0 0.097712426015089449 -0.64398835322838011 0 -0.64398835322838011 1.6744634536454923 0 0 0 0 118.79453214745627 -134.706007520215 0 -134.706007520215 96.795276696527253 0 0 0 0 -152.49569033942862 15.332788821228377 0 15.332788821228377 56.859277787617316 0 0 0 0 190.24056016108443 -141.20865219551223 0 -141.20865219551223 85.61004226901558 0 0 0 0 342.68930547070158 -65.37503035649803 0 -65.37503035649803 27.711517229857378 0 0 0 0 209.40213996435563 -125.58441403056355 0 -125.58441403056355 29.813936543709474 0 0 0 0 210.21989006418517 -154.48449443992646 0 -154.48449443992646 76.508754018108561 0 0 0 0 229.73739288794241 -49.684570926043676 0 -49.684570926043676 110.50786192380562 0 0 0 0 338.84927337919862 -49.392314519856797 0 -49.392314519856797 -21.86835700575125 0 0 0 0 213.6225708066122 -54.293319140145172 0 -54.293319140145172 7.9915544344693785 0 0 0 0 207.34042296327243 -107.32150717127627 0 -107.32150717127627 -16.694650172721666 0 0 0 0 159.99833839892017 -79.491605019800772 0 -79.491605019800772 37.754129421288155 0 0 0 0 154.44239308363535 -27.379380209956516 0 -27.379380209956516 -67.944544664254522 0 0 0 0 157.97354470100981 -99.60027275845556 0 -99.60027275845556 8.0839846974080274 0 0 0 0 140.27106590446783 -34.977364986842076 0 -34.977364986842076 -64.315720101255806 0 0 0 0 134.96155067920154 -61.983237867064076 0 -61.983237867064076 -115.67577823875422 0 0 0 0 67.453090523853461 1.9353429836972396 0 1.9353429836972396 -73.457320820342034 0 0 0 0 53.552763125975616 -16.627195612220817 0 -16.627195612220817 -134.04013529018937 0 0 0 0 119.56908632184786 -94.510462768777757 0 -94.510462768777757 -184.43000305960072 0 0 0 0 135.03910645384894 -41.676896904578371 0 -41.676896904578371 -98.068173077386291 0 0 0 0 228.40997523477563 -145.48834305919297 0 -145.48834305919297 -118.36339119004859 0 0 0 0 243.28778013351621 -122.97907151975699 0 -122.97907151975699 -78.262936399091814 0 0 0 0 286.09703370845455 -103.10412730551516 0 -103.10412730551516 -120.25020682151785 0 0 0 0 178.97300491544411 -108.85021917177221 0 -108.85021917177221 -77.635429243895715 0 0 0 0 93.111959783007478 60.097463804420215 0 60.097463804420215 -130.17726609504365 0 0 0 0 128.5263973863257 4.5574369070902492 0 4.5574369070902492 -97.752045069737534 0 0 0 0 73.642934493927896 48.430332573111116 0 48.430332573111116 -128.92063195091174 0 0 0 0 37.898298543324927 31.409975691180193 0 31.409975691180193 -136.91682751960855 0 0 0 0 85.921854565782269 -13.619362977394701 0 -13.619362977394701 -128.91521849402113 0 0 0 0 20.098694034059008 10.867015595455541 0 10.867015595455541 -137.22334365982965 0 0 0 0 97.923895090796577 -8.7498076909829621 0 -8.7498076909829621 -35.020160743293843 0 0 0 0 157.62016662677343 -26.340816843813442 0 -26.340816843813442 -63.498904728102715 0 0 0 0 93.397637460789156 65.556447834844178 0 65.556447834844178 -117.51814768002993 0 0 0 0 147.26168430981488 1.0982741905759656 0 1.0982741905759656 -1.5724062053859598 0 0 0 0 238.98060808208629 -75.867799874900385 0 -75.867799874900385 -18.945811540048652 0 0 0 0 251.64643828079352 -171.48701707994289 0 -171.48701707994289 118.56161835791832 0 0 0 0 495.33294119240963 -219.59210980261687 0 -219.59210980261687 23.275401815569705 0 0 0 0 153.94142939391622 32.877769739261538 0 32.877769739261538 -49.775167501506132 0 0 0 0 252.89731284893605 -110.46143426437038 0 -110.46143426437038 72.009091197676241 0 0 0 0 298.36958566653811 -136.13491693356792 0 -136.13491693356792 73.707251704749552 0 0 0 0 335.88316939758442 -153.15761748804306 0 -153.15761748804306 34.510042017048093 0 0 0 0 243.67105500277103 -122.86805442820757 0 -122.86805442820757 57.552079368098532 0 0 0 0 -0.4132629712821867 -1.9347858754672593 0 -1.9347858754672593 4.3288599556299729 0 0 0 0 94.690528789869859 -2.9850040690362789 0 -2.9850040690362789 -27.501839552110027 0 0 0 0 88.348023437931261 7.9363878237286372 0 7.9363878237286372 20.463838490619537 0 0 0 0 140.98726602492025 -40.087598714123715 0 -40.087598714123715 20.175840239298523 0 0 0 0 110.83904109231753 15.417894968633846 0 15.417894968633846 -7.7077082957227958 0 0 0 0 17.790349604583753 -46.745876553499784 0 -46.745876553499784 -10.98924519845562 0 0 0 0 -119.89785149144882 -0.80852414956729035 0 -0.80852414956729035 38.295968571521485 0 0 0 0 25.845227378630625 9.9622589781857869 0 9.9622589781857869 -6.1050780136578169 0 0 0 0 122.15996138081209 25.181977885037725 0 25.181977885037725 53.556200855353836 0 0 0 0 81.328437662996294 -46.342696604184425 0 -46.342696604184425 3.2215564754420285 0 0 0 0 118.05913905988564 -47.781353100218212 0 -47.781353100218212 31.377416895411017 0 0 0 0 90.693516337594701 -36.269417355588814 0 -36.269417355588814 -8.3126638330318201 0 0 0 0 72.161023880058565 -6.5823924878990852 0 -6.5823924878990852 5.2567001583364572 0 0 0 0 19.494024641243413 -46.061226585890807 0 -46.061226585890807 8.5717054289933685 0 0 0 0 -67.217865620805242 -0.60361487503092803 0 -0.60361487503092803 22.02511642627934 0 0 0 0 42.977414928423968 -57.291498046913006 0 -57.291498046913006 49.053161502968351 0 0 0 0 -0.77739356985553698 -2.5303203306447166 0 -2.5303203306447166 5.0662892275703921 0 0 0 0 150.754347626249 -145.7307188625395 0 -145.7307188625395 70.714045941277007 0 0 0 0 179.95436482924106 -118.54676909045695 0 -118.54676909045695 24.630439328582668 0 0 0 0 241.35456075159391 -84.62319561401047 0 -84.62319561401047 0.70239418151919608 0 0 0 0 217.38432744136162 -169.70239841360365 0 -169.70239841360365 57.169144257511562 0 0 0 0 121.34590786807894 -223.63585651122565 0 -223.63585651122565 107.59090471911853 0 0 0 0 188.96830746030173 -152.51531575278159 0 -152.51531575278159 133.70946200784931 0 0 0 0 151.29926946774685 -196.00490542678327 0 -196.00490542678327 122.9458447703617 0 0 0 0 150.82069309542749 -224.15404119426921 0 -224.15404119426921 179.14443956502686 0 0 0 0 233.10959462789742 -77.487264950531397 0 -77.487264950531397 190.10307431480601 0 0 0 0 997.3924191097758 37.421222001834025 0 37.421222001834025 66.327315015608974 0 0 0 0 -24.62908464749944 190.0148251148276 0 190.0148251148276 120.43037441119793 0 0 0 0 188.52390287748858 -303.20891907510378 0 -303.20891907510378 106.76281895857153 0 0 0 0 161.81359171383519 -88.634074966286917 0 -88.634074966286917 -254.5401062769198 0 0 0 0 2.5249784662660204 -62.728029547022224 0 -62.728029547022224 -73.276367493237231 0 0 0 0 5.1366003361029726 0.38836238855730265 0 0.38836238855730265 -0.4094426101461518 0 0 0 0 20.638427242081889 38.108090424927937 0 38.108090424927937 -228.21163780057606 0 0 0 0 27.638768700326182 -63.584135176688235 0 -63.584135176688235 -335.09427829715577 0 0 0 0 2.2888745552076344 -0.17161100061415624 0 -0.17161100061415624 -0.23694365417456598 0 0 0 0 259.99444387898802 -297.70248926445845 0 -297.70248926445845 116.80062818698445 0 0 0 0 115.18850730373379 57.471579528273423 0 57.471579528273423 -202.88182459219959 0 0 0 0 24.223147085743221 17.170656042180354 0 17.170656042180354 -106.07765915529123 0 0 0 0 323.60634177371503 -165.45498564323364 0 -165.45498564323364 -29.792777011241398 0 0 0 0 50.053612129039948 112.63566316270898 0 112.63566316270898 -155.22615625993831 0 0 0 0 -10.031162376360953 88.015895706562972 0 88.015895706562972 -148.72526206514368 0 0 0 0 79.282469006537212 -15.823792534491744 0 -15.823792534491744 -77.659629212595675 0 0 0 0 -17.598381137238903 86.298952328786598 0 86.298952328786598 -103.60902818558787 0 0 0 0 116.20268850327056 98.747283824990575 0 98.747283824990575 -135.84299778344595 0 0 0 0 -48.26000983845006 104.3720648398612 0 104.3720648398612 -151.26999058914805 0 0 0 0 39.608049036347438 131.59623303851123 0 131.59623303851123 -355.72429155521661 0 0 0 0 -0.070252107544916953 -0.37552172109316739 0 -0.37552172109316739 -0.25420537068750404 0 0 0 0 -52.860638893103896 17.891610852768821 0 17.891610852768821 119.36785477131605 0 0 0 0 34.003277624346083 109.79582576621749 0 109.79582576621749 -84.859413089199336 0 0 0 0 64.920175833372923 110.4193926194169 0 110.4193926194169 -150.74749193754209 0 0 0 0 23.527140652477101 30.520897008998645 0 30.520897008998645 0.098711365178814958 0 0 0 0 20.728502419719973 5.827219492030693 0 5.827219492030693 -0.78228080970870617 0 0 0 0 22.785775840503504 6.0130974672659079 0 6.0130974672659079 0.72946794807845494 0 0 0 0 13.558842192825978 10.145098475975374 0 10.145098475975374 -2.3226827179270231 0 0 0 0 18.751132638892329 7.5368746337460912 0 7.5368746337460912 -0.90240630593642357 0 0 0 0 19.49255294627379 6.8735084175921841 0 6.8735084175921841 -0.71052882194860345 0 0 0 0 27.372979979576286 8.2890039472246855 0 8.2890039472246855 -2.7904038495790768 0 0 0 0 5.7488720925539383 16.429830942172167 0 16.429830942172167 15.101573863623535 0 0 0 0 20.120382196655555 -10.333950792323094 0 -10.333950792323094 -2.7018092027644798 0 0 0 0 -12.788267228898803 67.24978261436965 0 67.24978261436965 -18.325611036994019 0 0 0 0 24.731716376489203 7.2727919754380963 0 7.2727919754380963 -3.4916369908731646 0 0 0 0 -38.565491370107338 105.11252942761291 0 105.11252942761291 -159.32765197173592 0 0 0 0 -2.2431551302375823 4.6253940039976644 0 4.6253940039976644 -0.32781244306427604 0 0 0 0 -21.265657014382668 119.25250195118359 0 119.25250195118359 -200.7780718675279 0 0 0 0 14.859704236929247 19.412076089462289 0 19.412076089462289 -11.195552077374032 0 0 0 0 14.771703430880564 5.0831792592683129 0 5.0831792592683129 -0.55233634756805539 0 0 0 0 8.0443292939031465 7.2088375973746093 0 7.2088375973746093 -1.3278394077880926 0 0 0 0 -44.595735551450616 84.499766402911249 0 84.499766402911249 -76.690118315752443 0 0 0 0 -34.484146797263747 164.32077371106612 0 164.32077371106612 -192.45620172695868 0 0 0 0 -65.627194242838414 144.14398853936115 0 144.14398853936115 -87.733639478718146 0 0 0 0 -12.522090113336162 129.64014608432856 0 129.64014608432856 -144.82531423493145 0 0 0 0 17.623603914894375 138.00821551710766 0 138.00821551710766 -417.39717099403708 0 0 0 0 38.958972881106092 67.534718966906695 0 67.534718966906695 -185.68280131071185 0 0 0 0 -108.77296664115602 221.37843066479837 0 221.37843066479837 -216.3823798166045 0 0 0 0 -173.20898015377861 53.765090120255479 0 53.765090120255479 -5.9661936156620072 0 0 0 0 117.11265883255874 14.771818900155495 0 14.771818900155495 -683.10495648229778 0 0 0 0 3.3446005951372797 4.8147487682995447 0 4.8147487682995447 -1.4119817383741284 0 0 0 0 -1.4839778899295197 3.2423581474544676 0 3.2423581474544676 -15.25703899866204 0 0 0 0 12.806897946669778 3.3057149981015073 0 3.3057149981015073 1.2450180350897426 0 0 0 0 13.120136742698378 1.1676821507496697 0 1.1676821507496697 -0.73779835428513252 0 0 0 0 11.252368619014305 7.7373749612153233 0 7.7373749612153233 -3.6079675154341544 0 0 0 0 9.0481681847914928 10.366973737494558 0 10.366973737494558 1.5860225323882016 0 0 0 0 12.197626322490763 4.3112306277895627 0 4.3112306277895627 -0.53287373071045463 0 0 0 0 14.637527879423835 7.481479441053942 0 7.481479441053942 1.2234512505744037 0 0 0 0 16.107089238183107 11.636569390148509 0 11.636569390148509 -6.9042438262470114 0 0 0 0 19.340977397368988 11.075805957290868 0 11.075805957290868 -6.506836942307018 0 0 0 0 4.4780826253161194 12.925826687510332 0 12.925826687510332 0.31033714021762782 0 0 0 0 22.987897664759657 8.7517754547690529 0 8.7517754547690529 -3.616907230419919 0 0 0 0 6.9429522055579582 1.5214306066071686 0 1.5214306066071686 -4.480157564929371 0 0 0 0 17.76530180219811 5.3333960810657821 0 5.3333960810657821 1.3818855391544171 0 0 0 0 97.423097393126227 3.852286806983102 0 3.852286806983102 -169.41028468785186 0 0 0 0 19.462159517601862 1.761882519689129 0 1.761882519689129 -1.0601420694747508 0 0 0 0 15.465437431658586 1.3407156491448369 0 1.3407156491448369 -0.13608435371859096 0 0 0 0 18.687927834776929 -2.4182079518867567 0 -2.4182079518867567 0.52622174983483205 0 0 0 0 304.67700140850502 -53.068899851311926 0 -53.068899851311926 8.1196772613651405 0 0 0 0 26.862549022585881 21.014058458938223 0 21.014058458938223 48.971773049259809 0 0 0 0 14.530887745357177 143.11728545136387 0 143.11728545136387 -42.083337284951028 0 0 0 0 34.035504087347363 -11.596955174299666 0 -11.596955174299666 3.5664889726347404 0 0 0 0 2496.9021708980617 -1039.0432446369082 0 -1039.0432446369082 -153.09900298380242 0 0 0 0 -21.835914703369781 -52.240998552014162 0 -52.240998552014162 309.66033706635267 0 0 0 0 546.63095668895403 -1058.5195542120669 0 -1058.5195542120669 932.05680697653565 0 0 0 0 171.11241480641183 -480.29165659991492 0 -480.29165659991492 730.3007779267823 0 0 0 0 187.28251896683651 -206.61237212420343 0 -206.61237212420343 168.62305244972742 0 0 0 0 67.247364141279832 13.851802021365756 0 13.851802021365756 176.00070103650083 0 0 0 0 108.6927278008734 -57.898267183710345 0 -57.898267183710345 -162.52309739756038 0 0 0 0 -102.09352614358068 -146.41285894263024 0 -146.41285894263024 -103.50797103380683 0 0 0 0 66.79765503013914 -33.418088499469377 0 -33.418088499469377 -160.97171191177586 0 0 0 0 21.597131507971909 -5.1016758324521332 0 -5.1016758324521332 0.102651005904557 0 0 0 0 92.10511968136052 -93.295089379253966 0 -93.295089379253966 -105.74776586126518 0 0 0 0 19.87068422617449 -1.5390331176780592 0 -1.5390331176780592 -2.3219980717812803 0 0 0 0 -0.37009524516906822 -66.039677951142039 0 -66.039677951142039 -41.030591846138122 0 0 0 0 34.448676558138686 -0.9016036019436342 0 -0.9016036019436342 13.947643954952298 0 0 0 0 22.329646379839545 -3.145452060299279 0 -3.145452060299279 -1.5437543916943064 0 0 0 0 78.202182604203699 -152.05345641933161 0 -152.05345641933161 323.78641275858735 0 0 0 0 2489.5708195141488 28.315604050113919 0 28.315604050113919 -56.707711204136451 0 0 0 0 17.678703000341322 -4.5303497263052108 0 -4.5303497263052108 1.7999112326744486 0 0 0 0 9.8316638029646128 -2.2453054452329297 0 -2.2453054452329297 -4.1430389060567734 0 0 0 0 19.218715766948193 -5.2735167193992538 0 -5.2735167193992538 0.95453589330748456 0 0 0 0 6.5951046255705492 -1.6809707783945953 0 -1.6809707783945953 -1.5952734018612826 0 0 0 0 42.480639372573933 70.110900094838144 0 70.110900094838144 269.55573269452339 0 0 0 0 6.2779452336036741 -3.4053722909303943 0 -3.4053722909303943 4.7428137209460761 0 0 0 0 2.3317057813237341 0.50754628802753388 0 0.50754628802753388 1.4710824496968409 0 0 0 0 2494.7022263351305 -556.50123238357639 0 -556.50123238357639 -182.270915100699 0 0 0 0 1733.4325637402362 561.42717095073442 0 561.42717095073442 182.95901565690977 0 0 0 0 53.38391140740714 -9.8919373530330859 0 -9.8919373530330859 -8.237881122086776 0 0 0 0 9.8306345188543389 4.5996935734046644 0 4.5996935734046644 -1.6933855144038643 0 0 0 0 43.912621685944032 -1.0909656365032561 0 -1.0909656365032561 5.4608126672483195 0 0 0 0 46.502169100810477 -19.263037727223882 0 -19.263037727223882 -19.92462671712758 0 0 0 0 33.928438642396941 -9.1463517116317234 0 -9.1463517116317234 7.1628721007900822 0 0 0 0 18.591931059556771 -5.9900174666221169 0 -5.9900174666221169 3.7578017327796926 0 0 0 0 35.067439696176734 -9.551157945511477 0 -9.551157945511477 4.3912338459085731 0 0 0 0 42.373205835931003 -8.5364848784903415 0 -8.5364848784903415 0.011157286288153045 0 0 0 0 46.621961108299729 -13.783899971444896 0 -13.783899971444896 2.2710862241077621 0 0 0 0 35.105579270351882 -10.989400736390593 0 -10.989400736390593 17.316448022523446 0 0 0 0 39.652668258157064 -12.5906436192885 0 -12.5906436192885 0.028093794594724386 0 0 0 0 41.362725880302605 -9.8970947941604663 0 -9.8970947941604663 -0.49661371783429331 0 0 0 0 32.146899058439885 -4.7999155343126176 0 -4.7999155343126176 5.0530431653389769 0 0 0 0 21.855522944264521 -15.846873554226647 0 -15.846873554226647 10.75436748510117 0 0 0 0 0.2408349501271374 -0.377768622630267 0 -0.377768622630267 1.1687362698854946 0 0 0 0 13.348056920163799 -9.0525591886448638 0 -9.0525591886448638 5.4192906081548244 0 0 0 0 14.610137061070418 -2.7512153047100583 0 -2.7512153047100583 2.548326351599826 0 0 0 0 14.038591271608439 0.78343908632907855 0 0.78343908632907855 2.8208972434241444 0 0 0 0 2.0388821991252257 -1.2369569967796572 0 -1.2369569967796572 -0.48154952824874364 0 0 0 0 15.402897801261162 11.224505720257447 0 11.224505720257447 4.4849897625668556 0 0 0 0 -33.909341652477451 61.159858775394476 0 61.159858775394476 2.3851831766682547 0 0 0 0 34.16083976218215 -52.081565883707697 0 -52.081565883707697 53.38354503034887 0 0 0 0 -124.38964490029321 -55.273140853380994 0 -55.273140853380994 79.264864167457361 0 0 0 0 45.156577509656927 153.49358278281835 0 153.49358278281835 19.059224383451976 0 0 0 0 3.9192370496402305 2.6780941386299304 0 2.6780941386299304 -0.68447798573018448 0 0 0 0 2501.3976632681333 -554.87496528454528 0 -554.87496528454528 -181.9219000577867 0 0 0 0 33.44405205444491 -64.642784321831414 0 -64.642784321831414 -36.391698781870076 0 0 0 0 -8.793273472263536 -175.68569452403872 0 -175.68569452403872 131.65298367373205 0 0 0 0 138.43223928078805 -118.61390147406874 0 -118.61390147406874 -9.7069525967987573 0 0 0 0 6.5219940490007673 4.1875375557276584 0 4.1875375557276584 3.0912813857854471 0 0 0 0 -48.494666130576661 829.68979360747323 0 829.68979360747323 547.59364301796484 0 0 0 0 2472.938997019759 947.09063837966391 0 947.09063837966391 -217.31422385228245 0 0 0 0 965.5150332029516 -277.50334306838869 0 -277.50334306838869 130.64708950322438 0 0 0 0 2491.9220010610402 1130.2767494048096 0 1130.2767494048096 -57.116816258117169 0 0 0 0 508.26310901022225 443.02946180281231 0 443.02946180281231 -292.46336212093729 0 0 0 0 61.740907207797136 65.395515363024927 0 65.395515363024927 -158.25545836145852 0 0 0 0 102.36029571121071 230.48357850724517 0 230.48357850724517 -414.61403392767954 0 0 0 0 -238.02320188668455 103.71904384463353 0 103.71904384463353 -40.814269548134234 0 0 0 0 182.82899096645633 1.2420241129079841 0 1.2420241129079841 -31.800749365268985 0 0 0 0 2.4501225101760866 1.2264655078492375 0 1.2264655078492375 0.16901023632673609 0 0 0 0 175.03889578099188 550.955649715866 0 550.955649715866 254.37755665892027 0 0 0 0 300.56988513053147 363.38044597478302 0 363.38044597478302 103.35273763589953 0 0 0 0 392.33089529060089 529.4608093431093 0 529.4608093431093 -128.09957547915917 0 0 0 0 619.28565981095653 765.50529220220437 0 765.50529220220437 564.40920302625705 0 0 0 0 311.74305834602092 322.03574042780679 0 322.03574042780679 -193.60442089963374 0 0 0 0 15.373725293600415 0.72738482801179227 0 0.72738482801179227 -2.1895063904888099 0 0 0 0 9.0032003940363765 1.4232780518584356 0 1.4232780518584356 -1.5443286914430328 0 0 0 0 2495.0416550101181 1492.8839937015655 0 1492.8839937015655 170.73161395460002 0 0 0 0 598.95773471360371 -423.7635393385674 0 -423.7635393385674 -809.43686710807629 0 0 0 0 2496.1086754935413 330.06419095176 0 330.06419095176 -556.96902522793937 0 0 0 0 506.92161364782078 510.82995335939324 0 510.82995335939324 168.91928581306269 0 0 0 0 42.219467236052878 351.77127523947541 0 351.77127523947541 136.74641939562116 0 0 0 0 1470.0388004634506 -589.79017711628478 0 -589.79017711628478 204.72677367681189 0 0 0 0 1525.4575287151893 -380.49817700405055 0 -380.49817700405055 -283.97883254200383 0 0 0 0 2498.4457903343282 -314.70833052229534 0 -314.70833052229534 -421.63481856970799 0 0 0 0 1386.1188473136135 -271.94031612275472 0 -271.94031612275472 9.6487479912861431 0 0 0 0 869.44891017530608 -201.65213886242663 0 -201.65213886242663 51.023857166645371 0 0 0 0 287.77555594170553 -332.23955931158474 0 -332.23955931158474 322.76017981316454 0 0 0 0 432.21889071343321 -311.37190982063964 0 -311.37190982063964 312.74738272997485 0 0 0 0 551.43134191086938 -466.12349389606578 0 -466.12349389606578 507.57811348315198 0 0 0 0 652.55979713172565 -732.03542496171508 0 -732.03542496171508 755.82240265779808 0 0 0 0 353.89876890161395 -245.95476476573714 0 -245.95476476573714 579.2253653573614 0 0 0 0 313.64622244464408 -307.18475052743224 0 -307.18475052743224 497.43261010789797 0 0 0 0 365.73892113012698 -224.2344577099891 0 -224.2344577099891 545.71979174775652 0 0 0 0 1197.0425054186344 -509.29720631936459 0 -509.29720631936459 210.37989791902618 0 0 0 0 1438.1046360239052 -1016.2332129257385 0 -1016.2332129257385 337.24212485142101 0 0 0 0 2501.2441458557005 -770.6783270356301 0 -770.6783270356301 -134.826177746729 0 0 0 0 2493.635111901549 -1328.0386697156086 0 -1328.0386697156086 397.52826781453001 0 0 0 0 476.45895365296747 -1450.5574651138886 0 -1450.5574651138886 2164.0269889312349 0 0 0 0 2473.5235652335032 765.01371450456327 0 765.01371450456327 206.72022426500311 0 0 0 0 15.097485326823573 -5.4917901423390667 0 -5.4917901423390667 3.7232389792531637 0 0 0 0 199.77613160302644 116.28505823664764 0 116.28505823664764 100.39164457621382 0 0 0 0 5.0399380110453933 -0.021002956835765474 0 -0.021002956835765474 -0.67750100335702368 0 0 0 0 195.3928268024174 95.922833236757782 0 95.922833236757782 12.336899225042259 0 0 0 0 2496.3019912354794 560.17442444052881 0 560.17442444052881 -295.52884222573766 0 0 0 0 3.414827472212707 -0.88302683524196368 0 -0.88302683524196368 0.034163646443101769 0 0 0 0 467.6708545624993 -492.52290755967135 0 -492.52290755967135 -101.50469173372835 0 0 0 0 157.48193000098763 -177.09941309920958 0 -177.09941309920958 141.67528815318704 0 0 0 0 1536.040766527196 -289.6099416986649 0 -289.6099416986649 -120.05494166478947 0 0 0 0 456.6922759231154 42.224804259967677 0 42.224804259967677 -199.54750075008803 0 0 0 0 96.038783007596066 113.26808108520589 0 113.26808108520589 174.50816774908361 0 0 0 0 39.748877501486277 -107.21557359681589 0 -107.21557359681589 281.5376753055134 0 0 0 0 438.51107559816592 401.30737121337904 0 401.30737121337904 185.69486818917463 0 0 0 0 596.87400885292664 -52.342555016877583 0 -52.342555016877583 27.098250742532002 0 0 0 0 -26.036298196981079 -42.053423718393077 0 -42.053423718393077 63.34297256046392 0 0 0 0 124.20058710114427 -154.89914210094182 0 -154.89914210094182 -201.39876475626482 0 0 0 0 48.492357884698862 -14.201866650184726 0 -14.201866650184726 3.3651896400806129 0 0 0 0 356.33066837436854 110.03601172191463 0 110.03601172191463 -208.70235286697203 0 0 0 0 38.175033975340909 -11.827937804312395 0 -11.827937804312395 3.5399331778317693 0 0 0 0 160.65522493168828 -461.32636783597695 0 -461.32636783597695 281.81138486245845 0 0 0 0 166.01686046375298 26.272277699662975 0 26.272277699662975 96.768766232811686 0 0 0 0 96.438106019093539 170.69939770727115 0 170.69939770727115 -61.262246209714704 0 0 0 0 92.712970819498878 25.62767717817087 0 25.62767717817087 74.878788510191725 0 0 0 0 51.53175507092098 -14.852441693631228 0 -14.852441693631228 3.6327629203642169 0 0 0 0 24.737865704839351 -43.463356569731559 0 -43.463356569731559 -79.263450251383404 0 0 0 0 77.617235058547521 -107.60868891516907 0 -107.60868891516907 -353.8219329237902 0 0 0 0 173.85735449025378 -264.77306060893693 0 -264.77306060893693 -272.85617240458669 0 0 0 0 -31.225552324282035 -69.252169106523468 0 -69.252169106523468 -3.5914306043117676 0 0 0 0 9.7641047854049248 -23.59235772838721 0 -23.59235772838721 53.620399654396081 0 0 0 0 -42.231054086612858 -58.645257234184626 0 -58.645257234184626 81.748710999909477 0 0 0 0 -30.589990173844853 -35.398390549436364 0 -35.398390549436364 71.340079494134443 0 0 0 0 52.553495454310905 43.758830719142338 0 43.758830719142338 0.42819755964683281 0 0 0 0 -43.728138479556037 25.340018385185829 0 25.340018385185829 -1.6484621467092211 0 0 0 0 2.8685705999669153 -37.846603458032348 0 -37.846603458032348 67.484540346070943 0 0 0 0 1.0413530243095011 1.5633605630828242 0 1.5633605630828242 5.4582062694450997 0 0 0 0 -54.369995842411299 4.0420177210027965 0 4.0420177210027965 122.48417137230811 0 0 0 0 32.581358294668867 8.7162895101144748 0 8.7162895101144748 -1.6727543611143596 0 0 0 0 40.165052771964838 2.2751853922043495 0 2.2751853922043495 -2.7252476074326069 0 0 0 0 32.149249896596302 62.923479161099806 0 62.923479161099806 -85.216508441618842 0 0 0 0 25.095860102638852 3.4853137388168456 0 3.4853137388168456 -0.24527982890167732 0 0 0 0 39.466926004744892 2.0727507451209704 0 2.0727507451209704 4.799200132210558 0 0 0 0 15.935686742498973 6.2487173073094837 0 6.2487173073094837 -0.38865601993132065 0 0 0 0 51.418785150073745 7.6765117023663265 0 7.6765117023663265 -21.090894450367898 0 0 0 0 2.7583830124981432 6.0357333211077089 0 6.0357333211077089 0.1360677829638498 0 0 0 0 50.62135738479293 -10.211389762831605 0 -10.211389762831605 1.5329303262047347 0 0 0 0 63.602644323589629 -65.173811719421451 0 -65.173811719421451 40.947849226678585 0 0 0 0 43.201858006188559 -23.810556578534829 0 -23.810556578534829 -10.019136378010813 0 0 0 0 43.863106930586582 35.689285543570875 0 35.689285543570875 -3.5082309963320597 0 0 0 0 42.815754015035054 -16.351380954504464 0 -16.351380954504464 -18.488132194745617 0 0 0 0 32.208501677886176 -7.3924660848648358 0 -7.3924660848648358 1.4656949183574921 0 0 0 0 32.516938417524216 9.9370810622713179 0 9.9370810622713179 -24.504625316762031 0 0 0 0 26.495584936271399 -5.9096792888872756 0 -5.9096792888872756 0.67919221213183967 0 0 0 0 49.269914751886972 8.3028585717548253 0 8.3028585717548253 -25.515999904186344 0 0 0 0 30.796342440655167 10.526385216852713 0 10.526385216852713 -2.1852688771040212 0 0 0 0 5.0208446123162389 6.6579727854959998 0 6.6579727854959998 -6.1479720101201147 0 0 0 0 2.232637975095713 -1.5716689402756856 0 -1.5716689402756856 -2.5395125969102992 0 0 0 0 -22.743639592674299 29.289390161152141 0 29.289390161152141 -4.4517302135782302 0 0 0 0 3.1010068967179123 1.1591114274388445 0 1.1591114274388445 1.3939979147801616 0 0 0 0 299.68577934100904 91.038827556181104 0 91.038827556181104 -7.0636644507958408 0 0 0 0 401.15154106500268 64.660489915017024 0 64.660489915017024 -284.59719761408815 0 0 0 0 -158.36516271864093 153.78770985876622 0 153.78770985876622 148.3940320050242 0 0 0 0 91.642069175686629 159.70364396591071 0 159.70364396591071 72.013050280114612 0 0 0 0 6.9095715678652425 -4.0059572348320387 0 -4.0059572348320387 1.869306825509077 0 0 0 0 13.776529446602581 13.250520238652655 0 13.250520238652655 -3.4149712046576042 0 0 0 0 4.7034583611886092 6.7473106459075041 0 6.7473106459075041 -7.0304363087065331 0 0 0 0 239.02418819528248 -240.34424603020898 0 -240.34424603020898 148.56824371616062 0 0 0 0 92.459694538956683 23.937111663138694 0 23.937111663138694 29.986799959613336 0 0 0 0 26.249380990760983 -15.103261246701834 0 -15.103261246701834 6.9764194221120306 0 0 0 0 13.893311913321668 -239.94311358760092 0 -239.94311358760092 474.71858415362874 0 0 0 0 1.5978450996643403 -1.8539616039196929 0 -1.8539616039196929 2.2122011626364557 0 0 0 0 365.45603861151903 170.31755927003292 0 170.31755927003292 148.96245300832891 0 0 0 0 261.1148078537517 -347.99867669341768 0 -347.99867669341768 532.10545558320484 0 0 0 0 421.75910065175412 -244.30190160063069 0 -244.30190160063069 409.22319381120553 0 0 0 0 354.24211214837123 -367.23922726064313 0 -367.23922726064313 288.63157454132056 0 0 0 0 305.26729570100724 -395.2591293272593 0 -395.2591293272593 337.29598641542577 0 0 0 0 203.17603327149845 -387.46118468741213 0 -387.46118468741213 377.83627015903176 0 0 0 0 290.35167359405023 -381.50785331257634 0 -381.50785331257634 399.84458019759825 0 0 0 0 259.31944804313389 -383.21757526227816 0 -383.21757526227816 336.01010101441653 0 0 0 0 241.95935507135437 -397.31546856804317 0 -397.31546856804317 327.9249053468115 0 0 0 0 257.364057882324 -331.81834416857663 0 -331.81834416857663 394.83962155646589 0 0 0 0 463.6697877037077 -353.8815356661521 0 -353.8815356661521 297.98733208266867 0 0 0 0 501.5163814469779 -436.85073276284737 0 -436.85073276284737 244.46422672477817 0 0 0 0 462.25765005764697 -422.9909854975752 0 -422.9909854975752 407.53672348656664 0 0 0 0 412.43175299376526 -30.278463935982117 0 -30.278463935982117 -138.03783264763842 0 0 0 0 -45.962887847228558 -26.939027989929542 0 -26.939027989929542 124.22291774131099 0 0 0 0 6.9959954297026599 8.0995207622113554 0 8.0995207622113554 -0.32487598103341497 0 0 0 0 2.0983688753673846 0.94230619178471997 0 0.94230619178471997 0.48193913647677439 0 0 0 0 319.98963589771301 -432.67638127578914 0 -432.67638127578914 348.47276486169994 0 0 0 0 198.29152190051445 -246.77663887439297 0 -246.77663887439297 153.70647187466557 0 0 0 0 52.982411542172485 8.5065883700560292 0 8.5065883700560292 -7.9110163000759464 0 0 0 0 5.7863934348596189 2.703907592086864 0 2.703907592086864 -5.7983251562846201 0 0 0 0 51.876446442132874 9.3219553679508387 0 9.3219553679508387 -8.3437251513490232 0 0 0 0 42.414624197815442 6.9392662004100485 0 6.9392662004100485 -2.4022790534576077 0 0 0 0 26.414946900757059 11.425127861491148 0 11.425127861491148 -0.78622170288008419 0 0 0 0 36.804202376755711 -0.36287035188036043 0 -0.36287035188036043 -2.2591458653629868 0 0 0 0 20.989869681920453 0.66450441804098137 0 0.66450441804098137 -3.591455665086345 0 0 0 0 23.132841463127988 -0.27123305257185848 0 -0.27123305257185848 -4.2670785212201903 0 0 0 0 9.4638089454370444 -8.547476536793198 0 -8.547476536793198 -7.3241243211930245 0 0 0 0 7.2197060658807857 2.0459455789179515 0 2.0459455789179515 -3.5557238802851518 0 0 0 0 414.35522759825835 -326.52709501219965 0 -326.52709501219965 218.82074483287212 0 0 0 0 128.36397648409911 25.661863701360744 0 25.661863701360744 -77.336458930582467 0 0 0 0 -38.155062260717386 -69.292942782166904 0 -69.292942782166904 -16.024112504270533 0 0 0 0 -5.4435801646177424 75.729847999739377 0 75.729847999739377 -50.408891615562709 0 0 0 0 84.09606926208653 -4.4055180645316341 0 -4.4055180645316341 9.6077133161793427 0 0 0 0 86.456795573220006 11.837665393290081 0 11.837665393290081 -8.2699626526596148 0 0 0 0 16.699216391633655 0.71198906299704845 0 0.71198906299704845 -2.3876384146593246 0 0 0 0 82.756324618312647 1.5946518636740166 0 1.5946518636740166 -23.294504391680675 0 0 0 0 82.975431183673209 18.944917207182925 0 18.944917207182925 3.8660660122473018 0 0 0 0 54.451623905493761 11.423939346892439 0 11.423939346892439 2.7014472572027444 0 0 0 0 64.612130712465898 7.0673609745493255 0 7.0673609745493255 -2.4995428795840624 0 0 0 0 57.87196354525986 14.470540604302215 0 14.470540604302215 1.0855921590562048 0 0 0 0 63.620857178309961 21.823498139253047 0 21.823498139253047 -42.274997317127145 0 0 0 0 49.431944383621158 8.9622103696856144 0 8.9622103696856144 -6.5178007695827223 0 0 0 0 14.923357641473359 13.53270843074614 0 13.53270843074614 -6.2165242091501751 0 0 0 0 72.090684782750031 32.428906422850673 0 32.428906422850673 -38.176365310118172 0 0 0 0 78.20364534023247 23.974125526272132 0 23.974125526272132 -34.364061004047699 0 0 0 0 44.929866541948286 41.033280586339743 0 41.033280586339743 -20.496038835252648 0 0 0 0 59.221967133031285 60.422825549132426 0 60.422825549132426 1.5433565852890752 0 0 0 0 122.59578575679916 -11.827308127062906 0 -11.827308127062906 -54.761032161182357 0 0 0 0 57.124615014286974 96.616345505553227 0 96.616345505553227 -220.76598216351158 0 0 0 0 73.529285609140061 24.579467489436183 0 24.579467489436183 -61.286589300312244 0 0 0 0 57.062434327424853 86.065194065497508 0 86.065194065497508 -87.458294632986508 0 0 0 0 -68.359806804641266 90.862724486909201 0 90.862724486909201 66.995416418915283 0 0 0 0 -287.3421622843307 20.23730284118642 0 20.23730284118642 305.87722068691846 0 0 0 0 -85.485684558545472 117.0037780092639 0 117.0037780092639 81.937610465805392 0 0 0 0 -263.60181914604618 288.4330274963736 0 288.4330274963736 -33.395488994131483 0 0 0 0 -95.904708796282648 -39.13251447717721 0 -39.13251447717721 252.91935570990518 0 0 0 0 38.548188984050284 -81.719538337725652 0 -81.719538337725652 200.43575763870581 0 0 0 0 4.0100633180805403 1.4514102746249833 0 1.4514102746249833 0.71170294531794998 0 0 0 0 77.300605796917807 37.517417104641027 0 37.517417104641027 188.85402376058028 0 0 0 0 51.895990561994495 56.294909114420179 0 56.294909114420179 -0.11664713410573313 0 0 0 0 47.802137314967695 -21.721311395891007 0 -21.721311395891007 118.250182675421 0 0 0 0 -1.0234792790637357 1.633853300061304 0 1.633853300061304 -0.88827573759511669 0 0 0 0 -4.2902863520794199 23.240267306213582 0 23.240267306213582 22.791393352624596 0 0 0 0 57.485022047370876 -32.201454198129227 0 -32.201454198129227 -46.69510559717969 0 0 0 0 7.2263781411927717 13.513807339138765 0 13.513807339138765 -5.8083532884337865 0 0 0 0 6.6542311589546443 36.608534331603892 0 36.608534331603892 36.229742162284879 0 0 0 0 45.245179923080286 12.198047694495074 0 12.198047694495074 -9.1572507997227603 0 0 0 0 5.9077040185887881 1.870722067827927 0 1.870722067827927 -5.9370152057805647 0 0 0 0 70.862676726341306 11.575028041836571 0 11.575028041836571 -3.8056641289389361 0 0 0 0 51.393083443806972 6.6202004804150132 0 6.6202004804150132 -4.5468161671433407 0 0 0 0 46.772846174953884 9.9121763787232453 0 9.9121763787232453 -8.1517860617045699 0 0 0 0 37.378793904586928 12.47814707244379 0 12.47814707244379 -4.7061479325264202 0 0 0 0 28.247625636024168 2.8148812118716933 0 2.8148812118716933 -3.7762586249793912 0 0 0 0 27.992785112837737 6.886168192629043 0 6.886168192629043 -8.400389034022794 0 0 0 0 26.896753710512712 9.2924257635788763 0 9.2924257635788763 -2.6353382221944912 0 0 0 0 73.524354999834031 7.6589297263851588 0 7.6589297263851588 -3.5231217484782462 0 0 0 0 30.734344645093572 3.7939868559523688 0 3.7939868559523688 -1.8123922636721916 0 0 0 0 54.679926592227403 12.901003000804849 0 12.901003000804849 -4.5083110940067117 0 0 0 0 6.6115256665507331 8.1304842905741168 0 8.1304842905741168 -2.2714332072168872 0 0 0 0 3.2827635936689603 8.543727911939051 0 8.543727911939051 -3.7126450065460581 0 0 0 0 24.883762826444581 3.0709005354260626 0 3.0709005354260626 -0.80758626305032521 0 0 0 0 20.856731922309208 3.6633090479736694 0 3.6633090479736694 2.3909472719784413 0 0 0 0 4.5739533488522284 10.005318261078401 0 10.005318261078401 -3.2769702195134869 0 0 0 0 27.803514273965611 5.7140922039176445 0 5.7140922039176445 -7.128184648348177 0 0 0 0 10.952635646763383 19.799352251521583 0 19.799352251521583 -10.454188240467607 0 0 0 0 30.657927932494772 9.0809382973027013 0 9.0809382973027013 -2.2310747282362149 0 0 0 0 13.500246188738259 10.178999850205756 0 10.178999850205756 -2.0479358004553774 0 0 0 0 14.991469710610119 8.2997041688216768 0 8.2997041688216768 -1.5993696524450689 0 0 0 0 30.022836518735858 20.985453457910353 0 20.985453457910353 -11.46529734554997 0 0 0 0 58.266851763211889 16.485885054121354 0 16.485885054121354 -8.1063376777569829 0 0 0 0 -8.6334030783873459 22.166116141420844 0 22.166116141420844 -21.750408241853393 0 0 0 0 15.597222446067462 7.2816260781373785 0 7.2816260781373785 -3.8085321591925094 0 0 0 0 65.163176841819222 -5.0210230923350423 0 -5.0210230923350423 6.7123848918854492 0 0 0 0 56.11609059811537 0.77096507394884384 0 0.77096507394884384 0.45848920497668644 0 0 0 0 24.122324050924362 7.557910333898235 0 7.557910333898235 -6.6920026458801658 0 0 0 0 31.783775412186515 8.7879239922137913 0 8.7879239922137913 -7.3948441849402684 0 0 0 0 57.860220507143822 25.213832270806506 0 25.213832270806506 -11.557164087450019 0 0 0 0 38.165388066394371 8.1893660475100205 0 8.1893660475100205 -6.1823217758676492 0 0 0 0 14.137284224420014 8.6022689119790314 0 8.6022689119790314 -8.3054579611281021 0 0 0 0 37.331322206240117 3.2693449644540777 0 3.2693449644540777 -3.0694201951998004 0 0 0 0 35.63974339003471 5.302678828975786 0 5.302678828975786 -18.357832104884665 0 0 0 0 35.774652434731252 3.5649252740379325 0 3.5649252740379325 -7.1034743742873161 0 0 0 0 34.638671261233782 8.843725013830932 0 8.843725013830932 -5.7776220914751981 0 0 0 0 47.371105823418475 10.69465378695908 0 10.69465378695908 -27.042795428684769 0 0 0 0 35.063356130234304 -6.7351971506079522 0 -6.7351971506079522 -4.1434728549711437 0 0 0 0 20.546956317171862 4.8561153412451858 0 4.8561153412451858 -13.913014345439933 0 0 0 0 34.063161034115183 11.323129177413648 0 11.323129177413648 -5.3086446290969889 0 0 0 0 25.002654524690158 8.9469380656137751 0 8.9469380656137751 -3.3812295056666102 0 0 0 0 13.267273943353082 14.915188634149516 0 14.915188634149516 -4.670291661073696 0 0 0 0 24.940009033194656 55.147800407084901 0 55.147800407084901 -179.31940618625754 0 0 0 0 12.772430761911842 2.8254285997039479 0 2.8254285997039479 -1.987082255762052 0 0 0 0 -40.041256785943915 12.436762239922501 0 12.436762239922501 -166.15209559098389 0 0 0 0 63.145303652294388 19.885929236106676 0 19.885929236106676 -171.61057191190548 0 0 0 0 70.257466805585864 45.033766670293176 0 45.033766670293176 -177.86077153432302 0 0 0 0 30.598866346997056 36.599007868664486 0 36.599007868664486 -166.09304359113389 0 0 0 0 58.284023303800495 72.492855739127208 0 72.492855739127208 -134.50106681801032 0 0 0 0 56.23325658228714 42.62908539747059 0 42.62908539747059 -192.01072399049127 0 0 0 0 31.226584839920818 3.7053378212771362 0 3.7053378212771362 -3.1555209942078828 0 0 0 0 2.125171825469792 -1.3549792394024247 0 -1.3549792394024247 0.67861773952831328 0 0 0 0 185.10306781068721 -48.287504200544163 0 -48.287504200544163 -20.196247723275974 0 0 0 0 -64.675539755335194 34.884112827421632 0 34.884112827421632 30.81923164387149 0 0 0 0 280.02807647741065 -296.0733575350115 0 -296.0733575350115 -126.11167424758696 0 0 0 0 52.999756320925371 -48.334074660122269 0 -48.334074660122269 -111.66251665194844 0 0 0 0 151.46170700059338 5.0099117003154561 0 5.0099117003154561 -281.17517072441842 0 0 0 0 144.22052269602136 -111.5204210486304 0 -111.5204210486304 -347.2342387082158 0 0 0 0 -0.90638528521381545 1.5396623727423842 0 1.5396623727423842 1.604830326592678 0 0 0 0 24.784826053364668 0.22063447699247263 0 0.22063447699247263 20.31047945884734 0 0 0 0 2.0422529585175653 -77.83021537044263 0 -77.83021537044263 -220.74397884083487 0 0 0 0 88.374580095223791 -27.340249374723101 0 -27.340249374723101 -213.46801441229513 0 0 0 0 -101.2760052234371 28.019385133069591 0 28.019385133069591 -319.42394417076866 0 0 0 0 8.5159968497533107 8.1186608134539782 0 8.1186608134539782 2.6177986538721871 0 0 0 0 12.875318726786645 7.4041173001246534 0 7.4041173001246534 -3.3322324854275394 0 0 0 0 8.0748460536920561 1.4319214721264988 0 1.4319214721264988 1.8987523695381823 0 0 0 0 7.123426102672056 31.230320258956169 0 31.230320258956169 30.583638573428289 0 0 0 0 44.175316311469942 31.002040352366066 0 31.002040352366066 5.6628394634509505 0 0 0 0 124.15726230703876 72.086678261863199 0 72.086678261863199 17.475373844263004 0 0 0 0 276.27768160107371 247.95418879662282 0 247.95418879662282 211.30933430174809 0 0 0 0 60.34051605928471 74.287547202653172 0 74.287547202653172 72.92994839542007 0 0 0 0 44.197097397780453 22.221353894969297 0 22.221353894969297 37.982792901760149 0 0 0 0 139.92894353947486 122.18231324104136 0 122.18231324104136 47.837161319028723 0 0 0 0 282.65138143158038 6.266313159801939 0 6.266313159801939 -55.585404018908775 0 0 0 0 81.502805795291351 80.712516127407071 0 80.712516127407071 -30.248421654539072 0 0 0 0 56.185677842837322 26.95230018049574 0 26.95230018049574 -7.5400771643589906 0 0 0 0 99.77589628554415 -106.36588819795969 0 -106.36588819795969 -49.884798944965723 0 0 0 0 7.0663825441151857 5.4986476573094478 0 5.4986476573094478 13.64554671746555 0 0 0 0 60.254779256641051 20.128552721330887 0 20.128552721330887 -10.108305834342593 0 0 0 0 65.272714033883631 -1.9711069459839092 0 -1.9711069459839092 19.110064895682683 0 0 0 0 8.9411313586729904 6.8649719601090808 0 6.8649719601090808 2.5329223798960547 0 0 0 0 104.07614882376106 -27.377377659878036 0 -27.377377659878036 0.98507284511106263 0 0 0 0 11.712629765582706 -29.559259821054326 0 -29.559259821054326 -13.268147518302662 0 0 0 0 174.51288514242151 12.916377608305083 0 12.916377608305083 -43.680784701002494 0 0 0 0 4.813622590912221 0.43164327843498995 0 0.43164327843498995 -0.58807872431154706 0 0 0 0 -43.502667351091077 -57.375728392837118 0 -57.375728392837118 22.705718380389953 0 0 0 0 56.113731334513432 -2.156788031363476 0 -2.156788031363476 -14.782696524533094 0 0 0 0 19.657544560719771 -11.085766454639376 0 -11.085766454639376 0.79948517851225986 0 0 0 0 65.778614904291317 -31.096696199412918 0 -31.096696199412918 -61.422692756766082 0 0 0 0 -3.6597484691158835 -27.81340252168949 0 -27.81340252168949 -11.509661912865576 0 0 0 0 257.41322650185612 -12.365580312623933 0 -12.365580312623933 -44.019196692074729 0 0 0 0 255.25218884540664 -16.985168529762404 0 -16.985168529762404 -53.695020761984779 0 0 0 0 272.82046152563635 -12.475656555623459 0 -12.475656555623459 -91.312931220502833 0 0 0 0 546.36431293348869 75.328466941466104 0 75.328466941466104 -87.882874792143099 0 0 0 0 10.545401062947349 -24.491335940062982 0 -24.491335940062982 6.6976035869540738 0 0 0 0 -3.1230382278954494 -33.669388984740181 0 -33.669388984740181 4.4671486071465552 0 0 0 0 -0.81598388144993805 -48.055986087522058 0 -48.055986087522058 -5.8756705387695547 0 0 0 0 10.694728217758723 -39.373816654335059 0 -39.373816654335059 -3.672604740454517 0 0 0 0 411.11403494676915 6.629448774856769 0 6.629448774856769 236.22371732587362 0 0 0 0 54.320719661740668 -27.481209664903702 0 -27.481209664903702 -9.5182373494117201 0 0 0 0 -1.7479772516414283 -28.581095646377804 0 -28.581095646377804 -9.3084873473806695 0 0 0 0 533.60239688185175 -74.385908188015719 0 -74.385908188015719 -172.49886384354738 0 0 0 0 -20.002194056223743 -26.460155498071117 0 -26.460155498071117 1.5675590984656083 0 0 0 0 -3.327798846490623 -39.389232722498946 0 -39.389232722498946 -4.288770780968207 0 0 0 0 -21.676181699371227 -27.972828201503944 0 -27.972828201503944 1.6160220905285314 0 0 0 0 -2.0277603087997704 -35.980422636371486 0 -35.980422636371486 1.1509990551535338 0 0 0 0 3.1238218684738968 -42.649461223389608 0 -42.649461223389608 0.39497339685539146 0 0 0 0 -2.3360762318043271 -36.416986934088072 0 -36.416986934088072 -3.0549609855825111 0 0 0 0 8.620718290359946 -34.367279591895567 0 -34.367279591895567 -3.959701027894198 0 0 0 0 10.845368016526425 -15.07338917942009 0 -15.07338917942009 2.0960504808227114 0 0 0 0 6.5346243629537639 -28.992280778693384 0 -28.992280778693384 -3.586562022806902 0 0 0 0 1.6650999798657722 -29.169345093937864 0 -29.169345093937864 0.9368335451714529 0 0 0 0 47.633713283332327 2.6755983507380279 0 2.6755983507380279 13.952982858416362 0 0 0 0 5.7914373492021696 -29.827023144081977 0 -29.827023144081977 -4.0490995169802773 0 0 0 0 12.63202858249133 -24.75029041687776 0 -24.75029041687776 -1.5953848204999304 0 0 0 0 14.447679031344009 -10.910612040726747 0 -10.910612040726747 1.9042605471792022 0 0 0 0 28.164126364288677 -29.029169143448144 0 -29.029169143448144 -22.104714230713626 0 0 0 0 12.065187765336304 -43.195902372552609 0 -43.195902372552609 -25.478741981194617 0 0 0 0 13.820279216328345 -33.515021135711322 0 -33.515021135711322 -6.8979732984362272 0 0 0 0 12.356701976773365 -27.632996346634684 0 -27.632996346634684 -16.451796341447334 0 0 0 0 30.84011213868871 -3.4577680250963567 0 -3.4577680250963567 -0.30338542570461868 0 0 0 0 3.8672741625361091 -2.4940605384855417 0 -2.4940605384855417 1.7899773599709583 0 0 0 0 16.349648430189845 -9.0597416176159697 0 -9.0597416176159697 -0.28815344431856538 0 0 0 0 20.479925202023878 -20.486493519072155 0 -20.486493519072155 -11.158881862693761 0 0 0 0 45.062074887373456 -4.9668261137080663 0 -4.9668261137080663 4.9354496328123787 0 0 0 0 17.961885188477027 0.32668383680243096 0 0.32668383680243096 3.6582446461106883 0 0 0 0 16.191503342619399 -5.2970868290376529 0 -5.2970868290376529 4.0242808136526946 0 0 0 0 4.7383468307661616 -5.3821559863381339 0 -5.3821559863381339 3.474305243310404 0 0 0 0 1.2702854085795678 -4.8983686854491424 0 -4.8983686854491424 0.80493977945899431 0 0 0 0 42.582561132676346 3.2499556578698048 0 3.2499556578698048 -6.1548753099759779 0 0 0 0 21.536358992132591 -1.948076185402897 0 -1.948076185402897 -0.32042836712207645 0 0 0 0 48.611970017118438 -11.112575247933592 0 -11.112575247933592 -0.033397737999621313 0 0 0 0 20.868977477723092 -5.6976998527386513 0 -5.6976998527386513 6.8851495500221063 0 0 0 0 25.395446604918106 2.2703501223031708 0 2.2703501223031708 6.6292573147875373 0 0 0 0 32.56010233591951 -10.617867285475995 0 -10.617867285475995 7.1126754022125169 0 0 0 0 27.399983845634779 -7.1276204856686149 0 -7.1276204856686149 7.6354691718524919 0 0 0 0 27.161454943527133 -5.2049408968518946 0 -5.2049408968518946 -1.6734940729766095 0 0 0 0 20.300376699640765 1.6776618563408192 0 1.6776618563408192 -4.1246735818976958 0 0 0 0 33.750891505304025 -3.1792877694792878 0 -3.1792877694792878 1.3164481925514337 0 0 0 0 24.872869994185749 -6.8723054340080125 0 -6.8723054340080125 1.3816149374706583 0 0 0 0 35.009578479410266 -6.6282153141867184 0 -6.6282153141867184 -4.3448511513281574 0 0 0 0 2.7601338089536434 -2.1534854343932039 0 -2.1534854343932039 0.94913682917336573 0 0 0 0 37.130773101715022 -2.6256301769044512 0 -2.6256301769044512 2.9203826567772921 0 0 0 0 45.411498987545201 -0.26916932983931474 0 -0.26916932983931474 -2.2991477135237801 0 0 0 0 23.05261908906337 2.70388644672407 0 2.70388644672407 -6.7507169124388016 0 0 0 0 25.158521595423736 -7.3468409489759097 0 -7.3468409489759097 2.058347201156721 0 0 0 0 23.975445040436171 -9.9256465410521741 0 -9.9256465410521741 2.9581410522878286 0 0 0 0 26.443116307962555 -12.116026769222117 0 -12.116026769222117 -3.3545044174661598 0 0 0 0 30.320511179306777 -10.852934653947159 0 -10.852934653947159 -7.535277467164633 0 0 0 0 16.578791101611603 -6.9409407163037145 0 -6.9409407163037145 -5.2122332904915503 0 0 0 0 11.232582583819294 -14.078570324589258 0 -14.078570324589258 -1.6407874692386031 0 0 0 0 76.300440246460056 17.320081510555344 0 17.320081510555344 -9.283353256945059 0 0 0 0 555.6278498929023 53.711441972609009 0 53.711441972609009 -306.89563684646714 0 0 0 0 27.709999518236145 -19.850377634013057 0 -19.850377634013057 -31.611955579919595 0 0 0 0 20.787384586114058 -13.877754623674292 0 -13.877754623674292 -3.9643445064848493 0 0 0 0 68.371784209869602 -2.6518433610903287 0 -2.6518433610903287 -11.135381236724202 0 0 0 0 11.694974346027042 -7.8582662139573927 0 -7.8582662139573927 -4.7180890513971931 0 0 0 0 81.104511084795377 -8.801411939579026 0 -8.801411939579026 -9.2542509180884736 0 0 0 0 58.581028530483309 -21.835393792049786 0 -21.835393792049786 14.727440735645359 0 0 0 0 11.229136552502169 5.6839383651740789 0 5.6839383651740789 -6.2810752321390364 0 0 0 0 815.13039071171079 -506.60742983606724 0 -506.60742983606724 344.51133039482738 0 0 0 0 56.82117981412739 -23.482754361261414 0 -23.482754361261414 5.5518063960171276 0 0 0 0 -345.09936214285335 122.09978177946135 0 122.09978177946135 257.74669134184933 0 0 0 0 30.209199322808672 11.263696466386932 0 11.263696466386932 -9.6866307284153663 0 0 0 0 75.782143658587302 -17.633523018137225 0 -17.633523018137225 -12.955329834819167 0 0 0 0 94.826348726724973 -43.555099563906197 0 -43.555099563906197 10.078938383207685 0 0 0 0 29.710768921179948 -2.5070614724144065 0 -2.5070614724144065 -7.0650716610796298 0 0 0 0 76.964270462442073 -8.7024389360999521 0 -8.7024389360999521 -1.6812589033424956 0 0 0 0 29.005150505095685 -4.9532350808290007 0 -4.9532350808290007 -0.22945358009951486 0 0 0 0 12.70632473427079 -6.6109610830991556 0 -6.6109610830991556 -1.9970199390826053 0 0 0 0 34.148398569504934 -6.0311038130898282 0 -6.0311038130898282 -1.477319074559091 0 0 0 0 82.068987548031146 1.4415247531705973 0 1.4415247531705973 -3.6589041235965851 0 0 0 0 85.127748476908891 -2.5101455689566592 0 -2.5101455689566592 -16.757347495866497 0 0 0 0 80.340252743641031 -7.5150511061867746 0 -7.5150511061867746 -21.986568813568738 0 0 0 0 58.581810688927845 2.6146114825274314 0 2.6146114825274314 -0.27702492890081293 0 0 0 0 16.391532806638331 -5.9880608148002779 0 -5.9880608148002779 -4.9485868525580559 0 0 0 0 42.958524740461286 -6.8108873178930027 0 -6.8108873178930027 0.074804837440501287 0 0 0 0 63.213260720061953 -20.886660535770147 0 -20.886660535770147 9.0516278089207844 0 0 0 0 50.498807749456319 9.3699294166721074 0 9.3699294166721074 5.5837097048907935 0 0 0 0 8.9811186838285462 -1.3867663418477747 0 -1.3867663418477747 2.9877328029481092 0 0 0 0 55.646555801051363 12.657691697585221 0 12.657691697585221 -5.9429162242308848 0 0 0 0 48.340019255541847 -8.5079758474155369 0 -8.5079758474155369 -3.0299079638391504 0 0 0 0 24.036128357111011 -6.981759701237479 0 -6.981759701237479 7.8550126670797908 0 0 0 0 10.487075700198424 -2.5006689968649454 0 -2.5006689968649454 -0.76487049833148468 0 0 0 0 83.592828194028698 3.697650573762985 0 3.697650573762985 -12.806553905413001 0 0 0 0 53.628176095284289 -19.128948788454181 0 -19.128948788454181 6.4507199692892812 0 0 0 0 6.4641588444397655 -1.1568160094514468 0 -1.1568160094514468 -0.21621915237682821 0 0 0 0 35.860964122482983 -6.5737624961029724 0 -6.5737624961029724 3.6577776292456292 0 0 0 0 49.295235114514071 -10.799533134286548 0 -10.799533134286548 -0.84171407200926751 0 0 0 0 38.932883994109943 -5.2496480892996544 0 -5.2496480892996544 2.0480581048891509 0 0 0 0 37.760094458275489 -9.9918975367045988 0 -9.9918975367045988 6.0171476793404963 0 0 0 0 25.794099526647187 -5.8607988813423617 0 -5.8607988813423617 2.1601886114731315 0 0 0 0 25.005761893661457 -1.4149421188039755 0 -1.4149421188039755 -7.6182128934608677 0 0 0 0 18.301050365759778 -1.5130591799680531 0 -1.5130591799680531 -3.9631316508928975 0 0 0 0 19.425102724140743 1.9825489575537176 0 1.9825489575537176 -2.7682686086136528 0 0 0 0 20.207761603094696 3.3750745909624129 0 3.3750745909624129 -9.8182918612510548 0 0 0 0 11.489967805492565 -8.0679059718731025 0 -8.0679059718731025 -1.2565583425537277 0 0 0 0 13.756839292342192 -0.60773649249949813 0 -0.60773649249949813 -2.7094605035072163 0 0 0 0 28.830684164349805 -4.9092590344534983 0 -4.9092590344534983 -1.6684985241117829 0 0 0 0 20.174283033309621 -0.93672779834832909 0 -0.93672779834832909 -8.9618647037095798 0 0 0 0 28.977894522054413 -4.3376048161325826 0 -4.3376048161325826 -4.9299289987555497 0 0 0 0 65.674229623369229 -18.094218824029181 0 -18.094218824029181 -1.9659389567805192 0 0 0 0 64.680872935867228 12.108840485239284 0 12.108840485239284 -3.2488041991351793 0 0 0 0 15.464315025805263 20.716066279352845 0 20.716066279352845 1.2514109640003426 0 0 0 0 19.652117321398691 -3.0976253116948556 0 -3.0976253116948556 7.7628919618730379 0 0 0 0 35.962149689001308 -2.7122021184496532 0 -2.7122021184496532 6.2951279718672595 0 0 0 0 36.461613221629705 -4.9203337675347427 0 -4.9203337675347427 1.7989800179298072 0 0 0 0 54.286290131865826 -11.2730951310009 0 -11.2730951310009 -2.5510043190878378 0 0 0 0 49.19472000974929 -11.335329258303432 0 -11.335329258303432 -2.1441179475486933 0 0 0 0 62.701416030031396 -16.159266723089445 0 -16.159266723089445 -3.94667910451426 0 0 0 0 55.006877298714244 -9.2329838916837161 0 -9.2329838916837161 -10.084995414601053 0 0 0 0 49.605411029828247 5.6828592149712449 0 5.6828592149712449 0.83348239972224292 0 0 0 0 33.783165097651818 8.1364630144021515 0 8.1364630144021515 -24.898529506654683 0 0 0 0 4.7466046720801387 9.0306113272234825 0 9.0306113272234825 2.045521557776965 0 0 0 0 28.115386263518303 -7.611673545650774 0 -7.611673545650774 18.035690184955456 0 0 0 0 1.3663651709029576 -0.43828356671934898 0 -0.43828356671934898 -5.3981526065080843 0 0 0 0 -1.1845741143723956 1.6489774903987993 0 1.6489774903987993 -0.063243085788940334 0 0 0 0 55.992386680351046 -18.128551834681048 0 -18.128551834681048 -0.73836824048680683 0 0 0 0 -52.372496142183081 52.506936605914348 0 52.506936605914348 -7.8529732238782799 0 0 0 0 16.793263902779955 10.912342073214575 0 10.912342073214575 3.1867221153389087 0 0 0 0 21.966400777404488 87.086561595862577 0 87.086561595862577 -18.789666619188097 0 0 0 0 -2.7325418968629833 0.6730228637987139 0 0.6730228637987139 1.0487434658160231 0 0 0 0 -14.951762619283272 9.8529322573108615 0 9.8529322573108615 29.590636526737399 0 0 0 0 -3.9681239322144393 16.975492866911019 0 16.975492866911019 18.782829816525236 0 0 0 0 63.44589082733728 9.3970330029035267 0 9.3970330029035267 -10.768852767041892 0 0 0 0 11.602775657302118 22.253710860027923 0 22.253710860027923 -12.931879341135129 0 0 0 0 6.0690012653388159 11.163627864093726 0 11.163627864093726 2.0506951050233431 0 0 0 0 44.007645988058357 -17.303991428672362 0 -17.303991428672362 -4.3381921466316271 0 0 0 0 33.77971302595688 -16.596039065027412 0 -16.596039065027412 15.86910018777553 0 0 0 0 68.604171230312204 8.6018601690377636 0 8.6018601690377636 29.120885621737216 0 0 0 0 84.990994537482038 -8.3663306268493898 0 -8.3663306268493898 17.065965427180345 0 0 0 0 8.6206271210667182 -10.591404409239999 0 -10.591404409239999 2.7747025465946535 0 0 0 0 58.978321373189829 -46.612656138545674 0 -46.612656138545674 38.222589994615191 0 0 0 0 -0.035563815323030212 0.22277094533653496 0 0.22277094533653496 0.38327576337487779 0 0 0 0 20.502761460942565 -20.717752097782068 0 -20.717752097782068 21.380526600595886 0 0 0 0 3.6498507124355513 -2.5352761952732479 0 -2.5352761952732479 1.551902221885582 0 0 0 0 22.396862192035769 -17.708328783103468 0 -17.708328783103468 10.929338340131835 0 0 0 0 23.563188747582899 -16.057615122630295 0 -16.057615122630295 3.0386011844955192 0 0 0 0 33.352101100681466 -26.850192532319852 0 -26.850192532319852 14.675666860659931 0 0 0 0 31.00409637318262 -14.633501607598987 0 -14.633501607598987 -2.0752267629195558 0 0 0 0 13.815028749108393 -3.0265776839265044 0 -3.0265776839265044 0.47370200044292221 0 0 0 0 18.556295226849244 -5.9490338888576879 0 -5.9490338888576879 1.2460517891795759 0 0 0 0 8.6499609063612297 -4.6310803277771129 0 -4.6310803277771129 -1.8880128984110343 0 0 0 0 10.905320696654684 -2.9446635298557169 0 -2.9446635298557169 1.9475952408263315 0 0 0 0 13.675106393086025 -0.19433803011833106 0 -0.19433803011833106 -4.2477028298026767 0 0 0 0 46.365098429312638 -4.4837164445557391 0 -4.4837164445557391 -22.933991586393859 0 0 0 0 30.66212867894501 -13.33555342526563 0 -13.33555342526563 -0.99155545484666163 0 0 0 0 16.328239845604884 -0.36670417127567845 0 -0.36670417127567845 -0.90092892305482586 0 0 0 0 15.549560661113276 0.21309482425782988 0 0.21309482425782988 -0.71425743665772101 0 0 0 0 16.144664765510242 0.52502535543874984 0 0.52502535543874984 -0.64667115103529227 0 0 0 0 25.774488046474289 -0.77570949041839299 0 -0.77570949041839299 -5.8900555288091923 0 0 0 0 1.8616785905135771 -0.15015884162592386 0 -0.15015884162592386 -0.10645214249858304 0 0 0 0 0.20331276330398396 -9.6190701055669265 0 -9.6190701055669265 -7.1530083040522925 0 0 0 0 33.593238607434614 3.2072402504471995 0 3.2072402504471995 -3.9207944936893284 0 0 0 0 23.96943776488115 1.3032144776553558 0 1.3032144776553558 -0.18951429476123849 0 0 0 0 26.95091358582431 -3.8069821956651317 0 -3.8069821956651317 -0.25774199739041137 0 0 0 0 24.376444500332582 1.6953920046706106 0 1.6953920046706106 3.9801417221938653 0 0 0 0 24.995258848844969 -14.469076975401812 0 -14.469076975401812 0.013954557463222321 0 0 0 0 61.541097482640907 4.7104505732495463 0 4.7104505732495463 -6.6808869122375931 0 0 0 0 -0.034586083500343534 -0.10737585182046416 0 -0.10737585182046416 -0.0012859835322971275 0 0 0 0 -13.200701672078139 -18.962143429270796 0 -18.962143429270796 0.0082183977030752288 0 0 0 0 227.81610640083227 -184.27604457964264 0 -184.27604457964264 104.15458347998876 0 0 0 0 394.17801643303392 -166.45824575201209 0 -166.45824575201209 0.098511662720964427 0 0 0 0 0.031696651286974742 -0.32441429560584822 0 -0.32441429560584822 0.39155636955295625 0 0 0 0 -4.342433770550997 -3.8063346371645839 0 -3.8063346371645839 7.5110299305214347 0 0 0 0 8.6593862921508844 -6.9539017711162572 0 -6.9539017711162572 1.4875128684698211 0 0 0 0 2.9525887726134314 -0.9486350737869742 0 -0.9486350737869742 0.40049042288718728 0 0 0 0 23.722992934899594 -7.8981449802130115 0 -7.8981449802130115 -2.4885647568603204 0 0 0 0 129.86209010595485 1.9480084466148782 0 1.9480084466148782 49.766960649795323 0 0 0 0 8.6387018547096659 -2.6387650929675459 0 -2.6387650929675459 1.2319825789298271 0 0 0 0 51.703909767355071 -41.021817422303592 0 -41.021817422303592 38.875577058812127 0 0 0 0 -0.16771205024269875 -43.805993287065803 0 -43.805993287065803 -66.450379018419198 0 0 0 0 16.342757025821356 -5.9782015562627233 0 -5.9782015562627233 -2.0222901905595734 0 0 0 0 12.052635050717953 -2.0986918439876838 0 -2.0986918439876838 0.83483419646072299 0 0 0 0 13.643715359634939 5.0856760928682263 0 5.0856760928682263 0.12645937281629527 0 0 0 0 13.787604865923186 1.1935031425930749 0 1.1935031425930749 0.072821900602320966 0 0 0 0 12.530505891882058 0.96491586497070614 0 0.96491586497070614 2.0848698995828983 0 0 0 0 3.3627696150767328 -0.73881189596001207 0 -0.73881189596001207 3.5967127487278683 0 0 0 0 -57.935436129591835 -29.73877621756867 0 -29.73877621756867 96.074007403917676 0 0 0 0 11.225202753208578 -76.89783605749426 0 -76.89783605749426 21.20529008155836 0 0 0 0 -61.335323199531558 -11.955212832327121 0 -11.955212832327121 43.328534602323543 0 0 0 0 219.79495843978657 -90.556689096081982 0 -90.556689096081982 98.042807318668338 0 0 0 0 528.80828704554006 -250.49720608197049 0 -250.49720608197049 83.227311474764321 0 0 0 0 651.9022742931902 -256.6560392389008 0 -256.6560392389008 -47.124561258184713 0 0 0 0 636.88293187223007 -385.13343401785119 0 -385.13343401785119 27.246544930759228 0 0 0 0 666.35878215762204 -417.31422411607474 0 -417.31422411607474 201.79904082979226 0 0 0 0 695.90334513940616 -341.05332404848218 0 -341.05332404848218 54.891133630745571 0 0 0 0 819.35262710382813 -411.65177874876804 0 -411.65177874876804 3.6660095895547613 0 0 0 0 3.7098274561157609 -0.99546150081268792 0 -0.99546150081268792 0.3292072517901351 0 0 0 0 723.91019581384899 29.241073619728297 0 29.241073619728297 -169.84036059692824 0 0 0 0 61.38585482786948 23.390968768332925 0 23.390968768332925 77.075683105847475 0 0 0 0 806.57249098461762 -285.07790369927659 0 -285.07790369927659 33.949583756427273 0 0 0 0 195.98895062756856 -395.43866718659933 0 -395.43866718659933 442.63422562995061 0 0 0 0 719.00622273820409 -99.519446036590949 0 -99.519446036590949 98.285307749228878 0 0 0 0 590.67051376898598 -222.68854798248248 0 -222.68854798248248 276.07572128198854 0 0 0 0 661.74798459605154 -187.96588108409111 0 -187.96588108409111 -0.091450034214957093 0 0 0 0 594.46753946022363 -181.41177661899098 0 -181.41177661899098 56.847197767611192 0 0 0 0 491.99263374471047 -296.07514482557849 0 -296.07514482557849 39.119315402779563 0 0 0 0 402.37520592077635 -221.96010517486062 0 -221.96010517486062 -0.025302861669445259 0 0 0 0 201.15806850728404 39.443726103337802 0 39.443726103337802 -236.98267786234524 0 0 0 0 596.11502155719791 -141.0485578802826 0 -141.0485578802826 9.3042512139136306 0 0 0 0 587.22616719585494 -178.33670104736393 0 -178.33670104736393 63.803138704385674 0 0 0 0 477.69584569343715 -209.01439932799423 0 -209.01439932799423 70.271266405030985 0 0 0 0 0.70698409944276364 -0.25633256385127368 0 -0.25633256385127368 -0.054826474958775129 0 0 0 0 250.31186665689165 -287.10763453246693 0 -287.10763453246693 319.25202002378842 0 0 0 0 469.56398949104914 -194.52024179417973 0 -194.52024179417973 148.55696658541524 0 0 0 0 443.70994358445023 -101.41150903694103 0 -101.41150903694103 90.444893304798597 0 0 0 0 245.05771930857736 -125.39111620475762 0 -125.39111620475762 127.56817905475521 0 0 0 0 764.36311691472656 -118.75340414257107 0 -118.75340414257107 -31.371203974063064 0 0 0 0 459.94854066158587 -85.327544999466113 0 -85.327544999466113 12.904683681362712 0 0 0 0 209.60580975119956 -9.8269936990186579 0 -9.8269936990186579 63.327543251988686 0 0 0 0 598.30594031585497 -217.97829780821417 0 -217.97829780821417 84.030121222063599 0 0 0 0 707.53665453348367 -267.19425813775717 0 -267.19425813775717 -15.098001487194097 0 0 0 0 900.18271100427955 -286.62839603858947 0 -286.62839603858947 -92.876661570243414 0 0 0 0 701.0476472046721 -240.1288892134728 0 -240.1288892134728 -51.186336921487964 0 0 0 0 864.65479216346284 -289.62393613963809 0 -289.62393613963809 -72.723665522806186 0 0 0 0 954.82982349995291 -320.49243286404544 0 -320.49243286404544 -121.16659327334264 0 0 0 0 758.12999812378257 -440.46309180200205 0 -440.46309180200205 23.720076288970631 0 0 0 0 1009.3671779088909 -544.13505170848066 0 -544.13505170848066 29.793026428358161 0 0 0 0 399.56024415833235 -21.936641721575484 0 -21.936641721575484 31.89241691473444 0 0 0 0 473.91237665455265 48.983086568315684 0 48.983086568315684 -102.64842776574937 0 0 0 0 1009.6984397713532 -10.355189521776538 0 -10.355189521776538 -201.684956693196 0 0 0 0 1008.28828932951 78.598343907102674 0 78.598343907102674 -648.29414278247691 0 0 0 0 925.45504407962289 -1025.6445223862215 0 -1025.6445223862215 836.88302419429783 0 0 0 0 283.24769539509725 306.40254469253034 0 306.40254469253034 -293.73580796648253 0 0 0 0 14.836992656632475 -3.1464347040471252 0 -3.1464347040471252 0.12093574326826761 0 0 0 0 1733.6407523217931 -872.88768457067442 0 -872.88768457067442 197.53830059034215 0 0 0 0 1666.2423190629052 -827.89751609709947 0 -827.89751609709947 257.46536308532177 0 0 0 0 1168.5358738887844 -433.32810784607602 0 -433.32810784607602 281.93919479602846 0 0 0 0 1027.1600714285887 -674.69579696872847 0 -674.69579696872847 295.67993316647289 0 0 0 0 -65.717305191967171 -66.333419767777514 0 -66.333419767777514 95.732334864122663 0 0 0 0 0.47181275861463234 -1.6603065764739142 0 -1.6603065764739142 -1.8031794542792436 0 0 0 0 272.19850241381209 2.6370172175384141 0 2.6370172175384141 -12.071006791529726 0 0 0 0 266.93266648455756 -54.990338529458086 0 -54.990338529458086 -124.97160918254849 0 0 0 0 673.62092977642897 -309.86766039508257 0 -309.86766039508257 148.94039910215452 0 0 0 0 332.17228378316213 -0.93400786971164962 0 -0.93400786971164962 607.36073449274772 0 0 0 0 583.52113182911944 -478.92442618913049 0 -478.92442618913049 479.36101332633189 0 0 0 0 572.21972640792956 -577.0872828939514 0 -577.0872828939514 1513.900361440634 0 0 0 0 1142.8582266512676 316.89909708711775 0 316.89909708711775 894.71072345578523 0 0 0 0 1798.5629478500341 -951.87168105750288 0 -951.87168105750288 203.40081288984584 0 0 0 0 416.15626164014975 -422.16633925935389 0 -422.16633925935389 496.55854473225509 0 0 0 0 476.37093372589152 -336.04294956072113 0 -336.04294956072113 209.12874672488078 0 0 0 0 187.70895261161786 37.609172435270466 0 37.609172435270466 283.29523953901315 0 0 0 0 30.765375287111965 -172.97618964123626 0 -172.97618964123626 161.45533784815734 0 0 0 0 -52.470698048266058 24.619113650742747 0 24.619113650742747 33.272336327841458 0 0 0 0 96.226285679702414 100.75172244850978 0 100.75172244850978 -13.645986920758105 0 0 0 0 143.10326815429653 -54.167420875736696 0 -54.167420875736696 97.400144372933937 0 0 0 0 353.40016748499329 -81.453296521170273 0 -81.453296521170273 95.363158099331486 0 0 0 0 200.75987925221852 74.922138134888655 0 74.922138134888655 -59.630078820300696 0 0 0 0 177.80502918451384 -39.276023250144362 0 -39.276023250144362 34.489552742162232 0 0 0 0 194.72477076106588 -2.3744447096246404 0 -2.3744447096246404 94.329873199317646 0 0 0 0 253.20220441791753 -36.911731513578388 0 -36.911731513578388 -79.153303145897553 0 0 0 0 4.8785989103926113 88.206343893085659 0 88.206343893085659 -0.40618088813721442 0 0 0 0 59.261808630064479 -99.982903995470451 0 -99.982903995470451 -11.150920127921836 0 0 0 0 144.27458214866056 -61.774843539630638 0 -61.774843539630638 -84.562088541158118 0 0 0 0 -5.9548626797623001 55.784172490418314 0 55.784172490418314 -18.156828844910592 0 0 0 0 127.21978523561847 -125.23750116911424 0 -125.23750116911424 -22.970062330005021 0 0 0 0 36.286342873674585 53.041958957321413 0 53.041958957321413 -19.077557717130844 0 0 0 0 11.865619769156893 5.8451372328883124 0 5.8451372328883124 2.8928760065246859 0 0 0 0 81.419671609379293 114.36827636272608 0 114.36827636272608 -153.17989781464985 0 0 0 0 41.666390766666154 15.018612237426851 0 15.018612237426851 18.90197682139933 0 0 0 0 99.585018217825564 58.833046624530198 0 58.833046624530198 -19.871394987266967 0 0 0 0 -68.994647946841724 30.092783197983636 0 30.092783197983636 151.36448760766802 0 0 0 0 -15.963403165354975 49.149291526631941 0 49.149291526631941 -57.227214608914267 0 0 0 0 28.397260019475652 37.161479889536736 0 37.161479889536736 -119.82361176705581 0 0 0 0 181.87134486829746 3.3240966828177534 0 3.3240966828177534 -21.868427579111312 0 0 0 0 0.049050163429825488 -1.6887727554601213 0 -1.6887727554601213 0.030689768992109734 0 0 0 0 -225.36295836300997 122.57021496216942 0 122.57021496216942 119.48862787036433 0 0 0 0 4.074005960527046 2.0996546988368152 0 2.0996546988368152 1.2187527585833158 0 0 0 0 177.11669601373433 211.33130265866896 0 211.33130265866896 55.95592421609399 0 0 0 0 353.34855964737653 367.04232826535372 0 367.04232826535372 24.315507327276961 0 0 0 0 404.18226421037252 -279.71892197056775 0 -279.71892197056775 -2.4601926048649148 0 0 0 0 676.68972354932339 -355.58018022235359 0 -355.58018022235359 49.407392186384072 0 0 0 0 1286.325931916268 -565.700832012143 0 -565.700832012143 75.951714173584662 0 0 0 0 640.8023424865678 -520.2073698341087 0 -520.2073698341087 313.3079323075201 0 0 0 0 -1.2117848580553741 -1.3889254313158972 0 -1.3889254313158972 -0.076848004413225923 0 0 0 0 1060.7828244017946 -581.87731851871581 0 -581.87731851871581 302.32981294060482 0 0 0 0 -222.44034635468415 156.38115730097536 0 156.38115730097536 66.259861893624475 0 0 0 0 0.3820435454172042 -6.558258986569669 0 -6.558258986569669 -4.3010285333522171 0 0 0 0 991.57591430621687 -469.47776311239824 0 -469.47776311239824 245.32397093875966 0 0 0 0 1072.3928455060523 -583.68896428605422 0 -583.68896428605422 256.11079456115272 0 0 0 0 257.95495444067637 -208.20200088774618 0 -208.20200088774618 -7.2589852557753147 0 0 0 0 244.15040127412067 -105.82028755841884 0 -105.82028755841884 -129.78257822503906 0 0 0 0 270.89931705591152 -114.68525521931042 0 -114.68525521931042 -74.486952186972303 0 0 0 0 272.0822143644823 -88.928046542046133 0 -88.928046542046133 -125.38598744184401 0 0 0 0 399.02301936627191 -174.38082611942514 0 -174.38082611942514 -147.70862656215195 0 0 0 0 372.37844350426167 -415.61611687703754 0 -415.61611687703754 229.83934911283745 0 0 0 0 115.28114432285656 -361.71781660342981 0 -361.71781660342981 338.01092212014555 0 0 0 0 304.45672659237607 -497.31333739009585 0 -497.31333739009585 312.18893907315987 0 0 0 0 439.75773882085923 -426.47961054064149 0 -426.47961054064149 277.46213623470214 0 0 0 0 523.77488721520058 -627.91827816795785 0 -627.91827816795785 374.73798171235126 0 0 0 0 427.54702444569557 -547.60489057906693 0 -547.60489057906693 347.09950776093552 0 0 0 0 617.52766653751314 -471.91051917004086 0 -471.91051917004086 227.30538623329778 0 0 0 0 522.33031238911644 -483.31381906935394 0 -483.31381906935394 225.93950619546308 0 0 0 0 463.46984763187356 -433.76434347048411 0 -433.76434347048411 244.26428829833415 0 0 0 0 255.19099967010698 -370.41922903436142 0 -370.41922903436142 305.27741027512025 0 0 0 0 377.62698079006805 -474.65112808711649 0 -474.65112808711649 276.40932657286606 0 0 0 0 272.86148422013139 -339.21813394385759 0 -339.21813394385759 195.03559262356475 0 0 0 0 301.47046681238317 -296.1307131940581 0 -296.1307131940581 190.85191405626358 0 0 0 0 285.24563213875081 -317.29872485161252 0 -317.29872485161252 182.51759130979747 0 0 0 0 174.0628318366289 -132.67315547802514 0 -132.67315547802514 -40.463697191160236 0 0 0 0 274.31951845471485 -165.17488567184887 0 -165.17488567184887 -134.56779225945456 0 0 0 0 204.40312133909902 -247.22466302885732 0 -247.22466302885732 14.937473404310822 0 0 0 0 140.45179861640645 -318.96313270402663 0 -318.96313270402663 224.24172105088883 0 0 0 0 -16.480741539482551 -33.735158203913329 0 -33.735158203913329 54.537528583188305 0 0 0 0 13.619047249314463 25.81594292772121 0 25.81594292772121 -190.5375788022518 0 0 0 0 166.82126813199648 -75.109253107536802 0 -75.109253107536802 -453.32269608265642 0 0 0 0 43.556317585183621 -6.3753487345511157 0 -6.3753487345511157 -0.63347840772123076 0 0 0 0 165.71626024688885 -40.118981451668105 0 -40.118981451668105 -440.30796477247924 0 0 0 0 128.76546560092538 -51.289834409075979 0 -51.289834409075979 -595.36373188307232 0 0 0 0 35.597810223048072 -5.818568475446078 0 -5.818568475446078 -0.51964041858205179 0 0 0 0 177.96928561117602 -212.36761620852474 0 -212.36761620852474 -273.98678939868296 0 0 0 0 72.428424785743118 -521.11943622820991 0 -521.11943622820991 698.14967748235995 0 0 0 0 114.64617655870097 -42.751097754854982 0 -42.751097754854982 169.9807352461055 0 0 0 0 -109.19800693332127 -191.82124393157318 0 -191.82124393157318 -78.583149204013807 0 0 0 0 -150.65069061004033 81.762084269168895 0 81.762084269168895 -6.7209990373339679 0 0 0 0 97.547830300289206 -49.646973950283609 0 -49.646973950283609 -75.243278192442489 0 0 0 0 257.37717248447007 94.083716789477194 0 94.083716789477194 -9.9694634765568821 0 0 0 0 0.35624947558972053 30.897862146372063 0 30.897862146372063 149.34701245586621 0 0 0 0 -23.30207360163331 -43.224133889361383 0 -43.224133889361383 -40.021304690962097 0 0 0 0 58.62421585509037 67.134293271012737 0 67.134293271012737 212.20369655863533 0 0 0 0 88.831880663900847 -196.17026137480127 0 -196.17026137480127 78.763647557760123 0 0 0 0 160.95397034680354 -182.79373068540679 0 -182.79373068540679 196.7693434352243 0 0 0 0 -40.505918235823628 -29.173476011851079 0 -29.173476011851079 325.41864994171647 0 0 0 0 0.3035456396181786 -1.4335339978486985 0 -1.4335339978486985 1.6273883912684948 0 0 0 0 211.46943983550455 -55.268681188898775 0 -55.268681188898775 184.43122286188191 0 0 0 0 40.513121769399731 -139.1525167069816 0 -139.1525167069816 338.41604149798354 0 0 0 0 36.051815712664393 -75.962460846941099 0 -75.962460846941099 202.59352280812493 0 0 0 0 238.71576235340217 -147.46923050013538 0 -147.46923050013538 208.28393472119615 0 0 0 0 1.0605353016460697 -0.92127529653593143 0 -0.92127529653593143 -0.16782499761300521 0 0 0 0 106.97639664334201 -56.294373270171803 0 -56.294373270171803 43.338853752581372 0 0 0 0 22.819792432172108 -132.34072609133511 0 -132.34072609133511 251.86294172646308 0 0 0 0 -54.295285781372513 -51.875129900593144 0 -51.875129900593144 -43.466838447588977 0 0 0 0 -9.1134106234321735 4.4543348278909107 0 4.4543348278909107 -6.5809775722940937 0 0 0 0 0.22648128180334481 -0.56580711193035427 0 -0.56580711193035427 -0.50563375153141776 0 0 0 0 11.45268094327912 -107.7061482070294 0 -107.7061482070294 -0.084504468198692784 0 0 0 0 -5.0951556888139748 -1.7501994879293754 0 -1.7501994879293754 3.860657454592431 0 0 0 0 -1.9783098601692473 8.9199349700023056 0 8.9199349700023056 -9.6616349608951353 0 0 0 0 -7.2374067811761051 8.4502229604323098 0 8.4502229604323098 -0.015022813723030451 0 0 0 0 -2.3117592101916671 6.9354938263134835 0 6.9354938263134835 -13.844098575692628 0 0 0 0 2.1093660826330449 -3.458321592886918 0 -3.458321592886918 -1.5509550168613766 0 0 0 0 50.042562407164951 12.025175942346266 0 12.025175942346266 -109.45219096822734 0 0 0 0 -6.774493746299413 -53.987941544424302 0 -53.987941544424302 88.990105774098367 0 0 0 0 98.809535580439842 -275.71964967024257 0 -275.71964967024257 -55.060463656629963 0 0 0 0 -134.26772601542325 -164.47931205594682 0 -164.47931205594682 405.36128066926358 0 0 0 0 1.481381049106119 -1.1380152362132669 0 -1.1380152362132669 -0.1088805433154808 0 0 0 0 -19.514226585866709 53.798215966357702 0 53.798215966357702 138.47014224231839 0 0 0 0 -3.8560988876852207 -29.258355319513612 0 -29.258355319513612 112.97601257776424 0 0 0 0 4.9806212693043506 -1.5637021728092364 0 -1.5637021728092364 -0.28320887267251027 0 0 0 0 30.170258108977578 22.880373659344741 0 22.880373659344741 -60.769403575909507 0 0 0 0 14.184211659137873 -39.833337289136743 0 -39.833337289136743 -0.29690873798654138 0 0 0 0 -15.893428593706631 -54.595570019265978 0 -54.595570019265978 42.56849421056063 0 0 0 0 3.9530355594175433 -2.8778145026165518 0 -2.8778145026165518 -1.930837381546209 0 0 0 0 29.612891880751704 6.8579388097769165 0 6.8579388097769165 -35.433144277317879 0 0 0 0 26.688457785996434 -24.392065149816407 0 -24.392065149816407 -9.8826761669219678 0 0 0 0 0.68090869515071972 -5.7417890980376072 0 -5.7417890980376072 17.364778222869639 0 0 0 0 45.98214553179514 -48.703590652181099 0 -48.703590652181099 23.435213864802144 0 0 0 0 -0.1968277459026524 -0.018332039938400158 0 -0.018332039938400158 0.07337364286707572 0 0 0 0 31.169069622497773 10.747617183626627 0 10.747617183626627 0.089581924378370148 0 0 0 0 341.45577618583047 -32.991016136117572 0 -32.991016136117572 0.58675263633683217 0 0 0 0 2494.9315693208082 -1291.0267019147277 0 -1291.0267019147277 167.68128127425706 0 0 0 0 2024.8541157856962 -393.33495300314109 0 -393.33495300314109 -64.385687417438987 0 0 0 0 0.13804926828893826 -2.675574989836619 0 -2.675574989836619 -0.75153829248950588 0 0 0 0 19.64835961634526 -29.944952736130318 0 -29.944952736130318 11.133832488795676 0 0 0 0 2780.6051447921491 -765.07089155292147 0 -765.07089155292147 207.71360650357508 0 0 0 0 7.3688845872093225 -13.571894476749584 0 -13.571894476749584 66.987212807776046 0 0 0 0 2.1714994103731158 -1.6854220497745303 0 -1.6854220497745303 1.1161313614283204 0 0 0 0 8.6207544417366364 -9.6921726276675884 0 -9.6921726276675884 -0.11704622110309204 0 0 0 0 8.185474590818842 -1.9221760240848909 0 -1.9221760240848909 0.3598100296121175 0 0 0 0 155.24633967909904 189.43367654342057 0 189.43367654342057 274.25865728556732 0 0 0 0 2483.6214960063671 -217.75239964134494 0 -217.75239964134494 -262.90510928410487 0 0 0 0 7.8521030293821923 -4.4735080789739143 0 -4.4735080789739143 -2.4230278859639367 0 0 0 0 25.402825299970573 -8.9228888408933926 0 -8.9228888408933926 -19.813752779647466 0 0 0 0 12.084280645256513 -8.9183457927489087 0 -8.9183457927489087 5.1939064506514967 0 0 0 0 18.169775665242923 -5.0166714092013081 0 -5.0166714092013081 -20.406686606488734 0 0 0 0 12.746529408206698 -20.530537267889031 0 -20.530537267889031 14.818175061071997 0 0 0 0 9.8071117970341959 -3.1205681939336394 0 -3.1205681939336394 -2.1797829484381932 0 0 0 0 12.709745646866665 -9.4068684246869765 0 -9.4068684246869765 -5.5387783104906649 0 0 0 0 2489.4508209894339 149.39124141723656 0 149.39124141723656 -1157.0433080037146 0 0 0 0 6.6672946631346406 -2.3123497646529181 0 -2.3123497646529181 -0.66362748015877771 0 0 0 0 752.85154400591273 608.03496878597639 0 608.03496878597639 401.71186386263673 0 0 0 0 63.72109282283418 -66.830504984354377 0 -66.830504984354377 35.271123766556457 0 0 0 0 -1.9333979411273674 -5.0354342302443555 0 -5.0354342302443555 -0.91808501186622427 0 0 0 0 7.896661586855771 2.0241791569893053 0 2.0241791569893053 3.3023918989482297 0 0 0 0 1372.9488516276033 1314.6525387031725 0 1314.6525387031725 1232.6159787009628 0 0 0 0 776.75421350700344 -514.40990659341639 0 -514.40990659341639 350.07195173024451 0 0 0 0 12.47118988148631 1.8565228038382391 0 1.8565228038382391 -1.1707870114328229 0 0 0 0 2495.8007342261481 1205.4588932976367 0 1205.4588932976367 -74.444282847002611 0 0 0 0 1769.1029044400675 537.76892884859535 0 537.76892884859535 -652.58019065789495 0 0 0 0 6.0156523044731003 4.2630500292601425 0 4.2630500292601425 -7.9130650111631118 0 0 0 0 -222.07159785215481 221.38026477588267 0 221.38026477588267 -171.05872796207939 0 0 0 0 470.65621794442632 420.37439381152717 0 420.37439381152717 393.08457028166436 0 0 0 0 16.458123774314785 0.07273472973929529 0 0.07273472973929529 -4.550826811401782 0 0 0 0 42.189603058618076 -5.485938359147446 0 -5.485938359147446 -2.0155497973624592 0 0 0 0 -12.885162647449761 90.625562249799941 0 90.625562249799941 -96.148129122680913 0 0 0 0 24.828878415355575 -56.454333865794183 0 -56.454333865794183 -42.458412004481374 0 0 0 0 44.664199367379211 -6.1150215631301927 0 -6.1150215631301927 -0.10504950587910322 0 0 0 0 92.855011754742009 -116.27338543031219 0 -116.27338543031219 -130.67141256868206 0 0 0 0 195.5000539418761 65.522305742555091 0 65.522305742555091 -446.98215032309014 0 0 0 0 345.53877499073133 12.274562077379585 0 12.274562077379585 -318.43776284412684 0 0 0 0 41.335206726886099 152.53301519989589 0 152.53301519989589 -355.50163278947275 0 0 0 0 322.8802580456977 -27.984393505451521 0 -27.984393505451521 -156.72876406357005 0 0 0 0 251.853248446012 288.9264862738537 0 288.9264862738537 -540.32240751412428 0 0 0 0 182.05414175930491 -48.94791278223542 0 -48.94791278223542 -121.97573979089339 0 0 0 0 582.41467879793879 -367.8966335397817 0 -367.8966335397817 63.624188568677823 0 0 0 0 355.47682563764101 -129.97189049988782 0 -129.97189049988782 -162.2284198638099 0 0 0 0 569.398229692359 89.436302405847954 0 89.436302405847954 -111.61730139854114 0 0 0 0 2500.5031075662991 323.2257692233847 0 323.2257692233847 -753.23716456287264 0 0 0 0 1350.1758403995871 307.59403742424587 0 307.59403742424587 -667.57453902808629 0 0 0 0 1569.0292039402048 777.70386684551886 0 777.70386684551886 -698.41891073221825 0 0 0 0 88.608090320878546 -25.258336407878573 0 -25.258336407878573 -6.7847478862611368 0 0 0 0 13.511448881836259 30.168897930531784 0 30.168897930531784 1.2137120807981461 0 0 0 0 1.7137811815424584 -1.1192631107111026 0 -1.1192631107111026 -1.2273653360699095 0 0 0 0 -9.7783719796825608 -22.695812304529227 0 -22.695812304529227 -10.581799065257428 0 0 0 0 -19.277024349961721 -15.216451672667375 0 -15.216451672667375 24.271337044997836 0 0 0 0 -4.9204317740077386 5.1674298647450314 0 5.1674298647450314 -9.8003266664142252 0 0 0 0 -4.9389967410097597 5.0576839961738642 0 5.0576839961738642 13.253622255021241 0 0 0 0 9.5236515328433597 -3.6157165813572192 0 -3.6157165813572192 -3.2079396524785579 0 0 0 0 8.692584718105536 3.2496436617386166 0 3.2496436617386166 16.510060842764915 0 0 0 0 90.651586876309011 10.718805454849075 0 10.718805454849075 -6.6212092270043286 0 0 0 0 63.573226098742452 -1.652723575431196 0 -1.652723575431196 10.756226010496007 0 0 0 0 174.57671838426904 -13.634609150652693 0 -13.634609150652693 -36.277279884756496 0 0 0 0 117.69891138268213 -32.187421815057093 0 -32.187421815057093 2.8422999986403283 0 0 0 0 374.65374457873259 -41.538590259853663 0 -41.538590259853663 -59.300079888711934 0 0 0 0 295.06999635844841 -59.402955502250961 0 -59.402955502250961 -25.597955030139474 0 0 0 0 298.25692272836204 -45.143338567223182 0 -45.143338567223182 -51.366950053080245 0 0 0 0 168.07942849059691 25.419998900625274 0 25.419998900625274 -28.374027643473482 0 0 0 0 315.86954833390337 -9.7796454377114515 0 -9.7796454377114515 -25.045767769717699 0 0 0 0 95.088817135823774 81.028759323542545 0 81.028759323542545 26.091310905129603 0 0 0 0 309.0304748322269 -27.414030725829207 0 -27.414030725829207 -4.3759708693378343 0 0 0 0 414.15675016096066 -60.396791112208852 0 -60.396791112208852 39.334558296584532 0 0 0 0 379.06275407724752 -20.400117600945919 0 -20.400117600945919 -4.405253231597186 0 0 0 0 1.1826274473679916 -0.37008785780278686 0 -0.37008785780278686 -0.20455189622096448 0 0 0 0 419.50911307779199 90.988823234548093 0 90.988823234548093 26.172536088863694 0 0 0 0 -36.728383016677981 -93.882339774893126 0 -93.882339774893126 -42.72886627455614 0 0 0 0 61.95115585894564 -76.87892711736977 0 -76.87892711736977 -71.032414664097359 0 0 0 0 1.9342586107288469 -1.4250319865598868 0 -1.4250319865598868 0.5225089481887526 0 0 0 0 -24.572548334050225 -31.461861648519061 0 -31.461861648519061 -57.429050357339946 0 0 0 0 2.2640063131462114 -0.80571194877917662 0 -0.80571194877917662 -0.47600924116526366 0 0 0 0 -37.47498836266459 -55.21220248910754 0 -55.21220248910754 -69.479648831767804 0 0 0 0 0.98103674846444733 -0.55136125353641319 0 -0.55136125353641319 -0.035182973059382228 0 0 0 0 -39.553174559019226 -78.33286969066954 0 -78.33286969066954 -81.79657768948141 0 0 0 0 30.582342917443384 39.725465577566894 0 39.725465577566894 70.688939387252276 0 0 0 0 70.764216966381355 14.451629272004539 0 14.451629272004539 -0.22628220644401154 0 0 0 0 71.190830239924253 32.725784230753902 0 32.725784230753902 6.351066266897373 0 0 0 0 7.4735240789145223 -3.1678319089688287 0 -3.1678319089688287 0.6449353292201917 0 0 0 0 -138.94649581687554 -185.398607678085 0 -185.398607678085 -197.60305843989636 0 0 0 0 40.492542694948497 37.200982624331999 0 37.200982624331999 19.298435411113502 0 0 0 0 32.555807872540754 30.223231143002977 0 30.223231143002977 -70.397107094223884 0 0 0 0 31.614674191216181 9.782123012301895 0 9.782123012301895 -11.3942268765976 0 0 0 0 86.913735451395041 40.673653397028602 0 40.673653397028602 6.8660363746113546 0 0 0 0 6.5151552851311862 -4.051607226732358 0 -4.051607226732358 -13.097871417348756 0 0 0 0 157.90939233137249 -46.740165068295774 0 -46.740165068295774 -133.29607643179679 0 0 0 0 157.41499367945653 65.563724153138764 0 65.563724153138764 -31.980900760844406 0 0 0 0 93.4905009563372 18.441621478133811 0 18.441621478133811 -7.5366360780280957 0 0 0 0 -10.422458673680467 88.727694986238689 0 88.727694986238689 17.971704400598469 0 0 0 0 -154.96472484615515 -164.9276098082014 0 -164.9276098082014 -154.40064354084359 0 0 0 0 21.129241709430062 -262.81220040078512 0 -262.81220040078512 -289.15499432246793 0 0 0 0 12.524170051550954 -5.1532045333602596 0 -5.1532045333602596 0.87536988095949608 0 0 0 0 30.983904355780396 -2.2703820740023275 0 -2.2703820740023275 -58.892848897840622 0 0 0 0 25.888038424702245 20.008421501195812 0 20.008421501195812 -26.075591925050048 0 0 0 0 31.06751212036761 15.944038208892948 0 15.944038208892948 -47.145886064335855 0 0 0 0 31.682785823417362 2.6952453908170355 0 2.6952453908170355 -24.904349695238125 0 0 0 0 21.745900036738021 11.378309201126513 0 11.378309201126513 -21.59234619675135 0 0 0 0 16.230457510857377 15.409556192545097 0 15.409556192545097 -12.414213672218921 0 0 0 0 18.62677206609078 12.885415621134598 0 12.885415621134598 -10.63246148142025 0 0 0 0 17.742056720540859 15.990655800619805 0 15.990655800619805 -17.009648903308971 0 0 0 0 -0.02082572480043865 -0.27743645595401745 0 -0.27743645595401745 -1.0946198898606125 0 0 0 0 -2.764240490825614 -14.091247366102152 0 -14.091247366102152 -55.874335539291366 0 0 0 0 57.727732205794382 -20.088052875037093 0 -20.088052875037093 -12.220757200469961 0 0 0 0 -4.8320690859472961 71.860143799708226 0 71.860143799708226 -41.562366745548275 0 0 0 0 57.847745018007117 -16.277576539389656 0 -16.277576539389656 -30.342471518302773 0 0 0 0 51.438401834020624 -3.2325642712423814 0 -3.2325642712423814 -56.773503619600319 0 0 0 0 32.085871093670903 -0.57125742194419615 0 -0.57125742194419615 -20.125725177727873 0 0 0 0 32.425406302856572 -6.9445537316113359 0 -6.9445537316113359 -3.0057715098046174 0 0 0 0 32.622670728247613 -6.3857919424652891 0 -6.3857919424652891 -1.4273296826804653 0 0 0 0 29.442139786260668 0.30369438486559375 0 0.30369438486559375 -20.379026429753594 0 0 0 0 25.125935767879128 3.9827563997621382 0 3.9827563997621382 -6.1023583787482494 0 0 0 0 19.807574002130423 9.6633081558306912 0 9.6633081558306912 -8.7521826335439528 0 0 0 0 16.178739137831144 11.913221150816071 0 11.913221150816071 -2.5104125259585999 0 0 0 0 21.628627445890743 3.9987959087488889 0 3.9987959087488889 2.8019464408225758 0 0 0 0 27.536683702728624 -5.2920246831607756 0 -5.2920246831607756 13.246439821366948 0 0 0 0 26.113458250882104 3.172196247888678 0 3.172196247888678 -4.3938574249976341 0 0 0 0 23.445414925023215 9.7978525794496818 0 9.7978525794496818 -2.1293237571803729 0 0 0 0 28.951619183499133 -4.1314688504216974 0 -4.1314688504216974 13.584070652931587 0 0 0 0 32.404419653088553 6.895772373906766 0 6.895772373906766 2.5839248872644021 0 0 0 0 65.538659579877276 -10.567336766037897 0 -10.567336766037897 8.4676740458744462 0 0 0 0 94.712231771583902 16.457628311840381 0 16.457628311840381 22.222681901253964 0 0 0 0 0.39772101168114204 -0.18189351449548496 0 -0.18189351449548496 -0.75106103534017077 0 0 0 0 40.057901745080017 -15.423557890184838 0 -15.423557890184838 20.904414396927677 0 0 0 0 39.960050840571057 -8.051969396174627 0 -8.051969396174627 -1.9176652526912221 0 0 0 0 55.108987425628584 -2.1667099533497094 0 -2.1667099533497094 18.894275748316431 0 0 0 0 19.827094534735807 -11.702242590133324 0 -11.702242590133324 -1.442684059271869 0 0 0 0 31.937498867588147 -1.5132712817763831 0 -1.5132712817763831 -17.426073547212809 0 0 0 0 28.00708615314943 -4.8635026084826904 0 -4.8635026084826904 -20.270103107298382 0 0 0 0 -10.365739616652718 9.6862401408672554 0 9.6862401408672554 1.5985859165132297 0 0 0 0 31.23473984800512 0.098778735594919453 0 0.098778735594919453 -11.837040546894059 0 0 0 0 1.6260333898672599 -2.6138492790341701 0 -2.6138492790341701 -5.0358159344597864 0 0 0 0 24.386751134239603 0.32452335047764791 0 0.32452335047764791 -2.7240419729332643 0 0 0 0 11.644886817375664 7.3435734343570402 0 7.3435734343570402 -1.7467830869627505 0 0 0 0 21.577695751038846 3.4697112597245905 0 3.4697112597245905 -7.1251719324800433 0 0 0 0 20.843054285447579 4.5109723789082636 0 4.5109723789082636 -3.0935683073937525 0 0 0 0 16.126302225748077 13.115666609584309 0 13.115666609584309 -4.2310911417343959 0 0 0 0 2.930412989720935 12.339970025480824 0 12.339970025480824 -3.7517798094941099 0 0 0 0 5.6870181694830535 -4.3333746100147437 0 -4.3333746100147437 -12.153589430656666 0 0 0 0 19.291781922860537 4.7705076534693944 0 4.7705076534693944 -7.0640879066405375 0 0 0 0 -20.399316235838342 -34.008833781593921 0 -34.008833781593921 48.261803569642325 0 0 0 0 36.100368797051487 -49.415807679570207 0 -49.415807679570207 24.50859647342304 0 0 0 0 84.280052876511036 -20.857614857306771 0 -20.857614857306771 -28.72130115872551 0 0 0 0 24.558915626708767 -5.0709300231740144 0 -5.0709300231740144 -19.790856817428903 0 0 0 0 45.749267576233251 20.405596472083516 0 20.405596472083516 -52.933615812715516 0 0 0 0 11.749671014441759 1.3484363130083281 0 1.3484363130083281 -1.1042444386446029 0 0 0 0 11.540860943812731 49.42796742076132 0 49.42796742076132 86.073198357336878 0 0 0 0 2.4419559373690731 0.20396251693155776 0 0.20396251693155776 0.12349101283828534 0 0 0 0 11.169675798009848 23.265708377380861 0 23.265708377380861 -13.22536181324574 0 0 0 0 7.314366982634624 0.90758234469740984 0 0.90758234469740984 0.26504855198128885 0 0 0 0 10.212731515435735 17.621238709280306 0 17.621238709280306 -2.4371083146864976 0 0 0 0 12.786197194316628 19.544367599527277 0 19.544367599527277 -5.3584815106814858 0 0 0 0 9.890176479886577 -34.497100324864391 0 -34.497100324864391 20.893527381981926 0 0 0 0 24.904364518755756 -38.752619281777697 0 -38.752619281777697 12.270434255916371 0 0 0 0 13.030941346883537 -7.7730886477921075 0 -7.7730886477921075 19.724022649682183 0 0 0 0 89.658794455404859 -43.397060413165264 0 -43.397060413165264 -20.817894333282197 0 0 0 0 20.866497801956939 12.942250698466523 0 12.942250698466523 -53.650173918066457 0 0 0 0 31.403849689584604 -11.732926951113086 0 -11.732926951113086 -16.368489615005956 0 0 0 0 -23.572333464573603 -19.60588197813172 0 -19.60588197813172 14.916052772950934 0 0 0 0 23.668666402569215 -19.552857010782759 0 -19.552857010782759 -6.0058320645982803 0 0 0 0 2.9972465264326278 0.53376533564903639 0 0.53376533564903639 0.75505420579431837 0 0 0 0 6.8013918292099333 -7.5931991772108347 0 -7.5931991772108347 -13.010501268376174 0 0 0 0 12.368029578294397 3.725464493661967 0 3.725464493661967 0.53799010344780607 0 0 0 0 16.911476992354437 -1.6132681676595553 0 -1.6132681676595553 -23.087957455444212 0 0 0 0 15.031919336644933 -14.7752850140796 0 -14.7752850140796 -6.8034272933681166 0 0 0 0 25.10024268091729 -5.692300637096821 0 -5.692300637096821 -22.118321094912517 0 0 0 0 96.449624665212468 -47.917994593246775 0 -47.917994593246775 -0.56048571083605481 0 0 0 0 81.865092802043364 -27.253688267862628 0 -27.253688267862628 -12.743756520343595 0 0 0 0 -28.931564981088741 19.342780474732422 0 19.342780474732422 46.342855607563251 0 0 0 0 111.08676034907694 25.715944277733342 0 25.715944277733342 -4.2457703765771839 0 0 0 0 24.700299486663425 -38.295790050443429 0 -38.295790050443429 43.423664235663637 0 0 0 0 61.299075801749495 -25.920608464219583 0 -25.920608464219583 22.405889248489984 0 0 0 0 -0.21317101128326144 0.29759508243898836 0 0.29759508243898836 0.2991451979411428 0 0 0 0 16.081129839301866 6.3652058302035357 0 6.3652058302035357 0.16103188087095077 0 0 0 0 -0.065539685011586357 -0.067704894421552808 0 -0.067704894421552808 0.77701609453281328 0 0 0 0 8.6628017685870873 -19.530586935337851 0 -19.530586935337851 45.092352670406513 0 0 0 0 18.599819917857531 3.8715308736023957 0 3.8715308736023957 -5.1573698748388779 0 0 0 0 3.4432983094576741 0.19502569302738948 0 0.19502569302738948 1.5198105543679157 0 0 0 0 14.724644068635826 1.9083202107210582 0 1.9083202107210582 3.8452892484432368 0 0 0 0 38.017746802324837 -1.4558624527960546 0 -1.4558624527960546 2.9427547177433553 0 0 0 0 48.185761443499359 6.1756371241101533 0 6.1756371241101533 0.069886220894659346 0 0 0 0 27.325228736510326 -37.055943226799172 0 -37.055943226799172 -2.6009361860428726 0 0 0 0 64.675330296398897 -6.9423773424953197 0 -6.9423773424953197 -7.8911315756781732 0 0 0 0 -17.526672931948269 -11.089204916200288 0 -11.089204916200288 11.209601776592535 0 0 0 0 -0.56596702170461555 -0.3502753892717152 0 -0.3502753892717152 -0.7361916921806797 0 0 0 0 -71.125566148868529 5.4283311495880753 0 5.4283311495880753 54.183356607148198 0 0 0 0 -1.0654131941118976 -22.403990363830644 0 -22.403990363830644 -17.966725029462282 0 0 0 0 -8.3469856954034185 -54.810985264780811 0 -54.810985264780811 6.7491633805790343 0 0 0 0 2.2343456525481216 -1.2074650949396073 0 -1.2074650949396073 -3.0249836029330321 0 0 0 0 10.619580866804171 0.28509871296683897 0 0.28509871296683897 -1.5127757402021427 0 0 0 0 -3.3586992214295606 -19.876938387074546 0 -19.876938387074546 -20.116980979538653 0 0 0 0 15.642202766059199 16.244190521336236 0 16.244190521336236 -33.61646491376041 0 0 0 0 62.711180833764956 -35.432585506229444 0 -35.432585506229444 -17.109787608971885 0 0 0 0 10.355888517311541 23.896852707185047 0 23.896852707185047 4.0520118295032717 0 0 0 0 10.904454661387717 -4.7493438728762385 0 -4.7493438728762385 18.075996904529575 0 0 0 0 64.539160944470495 -0.032350492716091139 0 -0.032350492716091139 1.5148867739732168 0 0 0 0 -5.5836311816929083 2.1257433624107875 0 2.1257433624107875 -6.2162230657881992 0 0 0 0 10.182295862250612 13.482759278158824 0 13.482759278158824 1.5944197533250417 0 0 0 0 111.65086259461532 -64.113172941455872 0 -64.113172941455872 9.572986061842478 0 0 0 0 302.43713418813059 -126.62185494869678 0 -126.62185494869678 3.0910926745341385 0 0 0 0 106.06845205205173 -2.008062382367001 0 -2.008062382367001 -1.4649114408949688 0 0 0 0 135.74082575354987 -49.003628428508307 0 -49.003628428508307 -0.9228947573313917 0 0 0 0 8.3561992636638536 0.36381591599654683 0 0.36381591599654683 -0.096407896331961285 0 0 0 0 32.428692531997513 -36.150267564592667 0 -36.150267564592667 -137.00114049371859 0 0 0 0 3.5480912978208039 0.14426645380338243 0 0.14426645380338243 -0.065365480085283423 0 0 0 0 437.72667806048412 -278.20794956034968 0 -278.20794956034968 102.06203322634354 0 0 0 0 320.46105728574184 170.43637174896915 0 170.43637174896915 -158.41177021264934 0 0 0 0 -34.944079725129995 -86.658314149466889 0 -86.658314149466889 8.5976044042239437 0 0 0 0 5.6445998406707076 7.1009608714742853 0 7.1009608714742853 51.133175113696609 0 0 0 0 18.672947214010492 14.331789069687915 0 14.331789069687915 110.93634376633327 0 0 0 0 286.63487048995739 -98.53992419718054 0 -98.53992419718054 75.976037973975622 0 0 0 0 337.29710603615968 -9.3838229028787339 0 -9.3838229028787339 -4.358803762160278 0 0 0 0 488.02098085557373 90.999260320035489 0 90.999260320035489 13.406649920161499 0 0 0 0 771.98070239323715 -98.442975422040945 0 -98.442975422040945 13.687351305755556 0 0 0 0 732.18458374140846 198.89450722702691 0 198.89450722702691 61.075661576126095 0 0 0 0 692.08168973599095 -48.453181452256842 0 -48.453181452256842 -113.2694745286357 0 0 0 0 568.31387028018071 8.6339370602819372 0 8.6339370602819372 -113.04854560438821 0 0 0 0 480.28339354162017 -135.67984721894726 0 -135.67984721894726 122.76412476707264 0 0 0 0 340.2161031535361 48.000210837495956 0 48.000210837495956 -27.556433970572868 0 0 0 0 5.8628948982227058 -6.92713065171219 0 -6.92713065171219 5.5680954635447257 0 0 0 0 246.16221249021055 -184.26239460502296 0 -184.26239460502296 -117.91389915882337 0 0 0 0 377.35055390425987 -35.669925698077691 0 -35.669925698077691 10.786099500867692 0 0 0 0 -20.213329818318016 -100.36022133890765 0 -100.36022133890765 -113.23907780417994 0 0 0 0 -97.137099494939321 -87.245032404034646 0 -87.245032404034646 -37.337405110858526 0 0 0 0 24.650870242054225 -73.497216788930473 0 -73.497216788930473 -158.93621843512051 0 0 0 0 3.5030813009200159 -4.6393161166243857 0 -4.6393161166243857 2.1939682665206757 0 0 0 0 294.75601943104903 213.94897358603535 0 213.94897358603535 -297.22680162079723 0 0 0 0 57.242541981715476 -64.380625974961731 0 -64.380625974961731 -100.37946239385951 0 0 0 0 19.409066908745444 -50.213045542410612 0 -50.213045542410612 -97.460187856710036 0 0 0 0 -18.620845918388113 -47.979253543596855 0 -47.979253543596855 -60.819661044510212 0 0 0 0 60.333642445039004 -34.397832806746919 0 -34.397832806746919 -60.527627240044239 0 0 0 0 124.35716946386674 -31.557782887538906 0 -31.557782887538906 -88.448493083849939 0 0 0 0 81.665104981017066 -58.414882978494461 0 -58.414882978494461 -131.82899363695446 0 0 0 0 113.02547082286765 -19.855276983179465 0 -19.855276983179465 -96.236689143325748 0 0 0 0 75.855604741504067 -35.020560558620673 0 -35.020560558620673 -74.310436762724748 0 0 0 0 106.80716576881241 -54.501220858519446 0 -54.501220858519446 -90.37292536371217 0 0 0 0 67.297187289485009 -58.776229655845782 0 -58.776229655845782 -61.474650990391183 0 0 0 0 115.83737276720058 -38.270971018638647 0 -38.270971018638647 -61.591032633885334 0 0 0 0 122.85381252004299 -59.090255351273299 0 -59.090255351273299 -61.532597080854899 0 0 0 0 104.93640069261892 -60.060659676927571 0 -60.060659676927571 -31.260511978116483 0 0 0 0 125.54043433064362 -60.135754627720416 0 -60.135754627720416 -31.390885158126821 0 0 0 0 131.82235390713322 -44.612412068167032 0 -44.612412068167032 -29.449279804646721 0 0 0 0 109.66687491248013 -38.436613009168809 0 -38.436613009168809 -54.409699064204688 0 0 0 0 136.34673980412481 -20.811130874675655 0 -20.811130874675655 -24.928550255135633 0 0 0 0 74.275211092943209 -9.6489656314956846 0 -9.6489656314956846 -26.751528450353362 0 0 0 0 104.21635783652891 -58.214381868647251 0 -58.214381868647251 -36.140860834108935 0 0 0 0 107.85638392562396 -36.329887211073583 0 -36.329887211073583 -10.37521612963792 0 0 0 0 142.1864991937473 -4.2952593805257493 0 -4.2952593805257493 -0.071929457695659949 0 0 0 0 177.92526904752594 -46.666559604098893 0 -46.666559604098893 -9.2372803855905659 0 0 0 0 135.909635118398 -64.729446137232117 0 -64.729446137232117 11.973231857919018 0 0 0 0 120.24381590786652 -67.763844058449422 0 -67.763844058449422 -1.5871696583089943 0 0 0 0 143.46175659328583 -67.893632310880093 0 -67.893632310880093 -1.6826776496958473 0 0 0 0 119.02531421405729 -80.504456711868443 0 -80.504456711868443 34.341609057868482 0 0 0 0 117.15654552206979 -71.74761571887575 0 -71.74761571887575 8.7196318752630759 0 0 0 0 115.29688497286406 -70.338569353751836 0 -70.338569353751836 8.4532700682248105 0 0 0 0 -46.560887439634826 38.328536592694945 0 38.328536592694945 10.529209657675892 0 0 0 0 17.703540743823396 -39.193233781648814 0 -39.193233781648814 -31.711894270702032 0 0 0 0 201.39122849071282 42.237731410037668 0 42.237731410037668 -8.8009460938455959 0 0 0 0 125.75172084695078 -18.556318927518078 0 -18.556318927518078 -11.800697578401014 0 0 0 0 93.637831888801884 62.763406453811513 0 62.763406453811513 10.284470248016078 0 0 0 0 -1449.319285623671 1238.4482408154136 0 1238.4482408154136 -143.9109686738318 0 0 0 0 0.51741135232299484 -2.5933635850448411 0 -2.5933635850448411 3.3291680720443235 0 0 0 0 -613.37429066913319 -1590.5981761266798 0 -1590.5981761266798 369.92710880968116 0 0 0 0 796.34788106045744 -343.53326770651847 0 -343.53326770651847 459.29592095434515 0 0 0 0 2.2387414042746485 -5.2015288384940987 0 -5.2015288384940987 6.9138344422857365 0 0 0 0 -1401.3746591222443 -639.47315408609029 0 -639.47315408609029 -46.53902226586797 0 0 0 0 292.25913214923639 -30.03464805922431 0 -30.03464805922431 -12.958392160988296 0 0 0 0 5.6601114126749366 -6.4708756162140162 0 -6.4708756162140162 5.2372596533063245 0 0 0 0 924.79937983228228 467.21418884279063 0 467.21418884279063 -24.846888252571262 0 0 0 0 103.30061074145488 -78.808127659817274 0 -78.808127659817274 57.529846531529984 0 0 0 0 132.35660806855594 -101.21151630714621 0 -101.21151630714621 50.865660686364208 0 0 0 0 111.50703465478728 -75.470556600103919 0 -75.470556600103919 34.071040016339225 0 0 0 0 170.71165395155549 -113.68024530099319 0 -113.68024530099319 54.780571726641028 0 0 0 0 231.21519162649929 -31.673763785192932 0 -31.673763785192932 -11.366371778802204 0 0 0 0 178.19985350707429 -132.45168803167235 0 -132.45168803167235 51.456834442600666 0 0 0 0 192.86393857627991 -69.182412698195549 0 -69.182412698195549 11.464792756097722 0 0 0 0 199.19480881134223 -76.549139390179334 0 -76.549139390179334 12.836513206966629 0 0 0 0 242.28121330408612 -78.706446426942421 0 -78.706446426942421 12.443553659414647 0 0 0 0 336.34310227137757 -157.67689834012072 0 -157.67689834012072 25.060425743678934 0 0 0 0 283.80171146732755 -98.948561216939197 0 -98.948561216939197 12.207249094455619 0 0 0 0 129.30210276236176 -178.25675464355845 0 -178.25675464355845 101.20285793831499 0 0 0 0 287.8576760852593 -286.43939987191425 0 -286.43939987191425 158.53471970312421 0 0 0 0 278.42077145026997 -175.52125489936043 0 -175.52125489936043 63.512840570951084 0 0 0 0 75.524168621894205 -109.43533467743691 0 -109.43533467743691 99.910189960408388 0 0 0 0 30.104175846965518 -107.49535309652128 0 -107.49535309652128 183.3597784754711 0 0 0 0 119.09833173626612 -127.75990741141118 0 -127.75990741141118 107.39954107669109 0 0 0 0 -9.5057002147659659 -26.306078985708155 0 -26.306078985708155 94.53278557439296 0 0 0 0 49.939427166711539 -22.419023563063092 0 -22.419023563063092 27.902847548228237 0 0 0 0 85.612132278394711 -85.841941846061445 0 -85.841941846061445 98.607450434181374 0 0 0 0 -238.54970580946247 -181.08916363246681 0 -181.08916363246681 -10.55970595112376 0 0 0 0 4.2357801809339435 -22.925983570441531 0 -22.925983570441531 29.777873478011315 0 0 0 0 -85.616171185334679 35.286460226758209 0 35.286460226758209 88.358479052552866 0 0 0 0 26.855444554108544 -46.672699534840376 0 -46.672699534840376 -97.140270459447493 0 0 0 0 -55.515170823346125 -129.22274569757883 0 -129.22274569757883 -276.85683810505952 0 0 0 0 -37.128546969179297 -179.9028420500033 0 -179.9028420500033 338.45385219010859 0 0 0 0 -531.55663257773267 326.60157501934191 0 326.60157501934191 -121.89466862610243 0 0 0 0 -33.12372381844034 -90.932987655566649 0 -90.932987655566649 -76.343176168646096 0 0 0 0 -34.474755231887684 -43.582715946770804 0 -43.582715946770804 8.8526469599564734 0 0 0 0 -78.673111374373548 -82.073694480995982 0 -82.073694480995982 -12.565402128875576 0 0 0 0 -59.198306132677317 -137.22148117996431 0 -137.22148117996431 161.4905204442075 0 0 0 0 2.9921827508035221 -2.7095909761315795 0 -2.7095909761315795 2.211396702223221 0 0 0 0 1000.4629613591678 439.86262632391185 0 439.86262632391185 -19.637811665896947 0 0 0 0 -0.12660680107728695 91.946359937652474 0 91.946359937652474 9.4547675926880856 0 0 0 0 192.40326488693245 -22.602223209770159 0 -22.602223209770159 66.704230613600885 0 0 0 0 341.47485926593072 61.530495358711391 0 61.530495358711391 -56.117855546359294 0 0 0 0 184.31613835087046 36.373586428360227 0 36.373586428360227 -10.616693828952862 0 0 0 0 354.68709056609077 0.70313312829296137 0 0.70313312829296137 -70.734835195370067 0 0 0 0 573.59912392200931 66.063656273039669 0 66.063656273039669 -62.870330605265053 0 0 0 0 338.81638090130582 86.003629254458929 0 86.003629254458929 131.63331206537316 0 0 0 0 83.559243628726108 59.784055488652143 0 59.784055488652143 97.600519070246719 0 0 0 0 40.979675693910394 -64.623725390075094 0 -64.623725390075094 10.352301381239613 0 0 0 0 329.75688365729729 41.888940660213336 0 41.888940660213336 -31.458249126284272 0 0 0 0 189.5601422519394 47.343163872032676 0 47.343163872032676 -126.12280788159529 0 0 0 0 182.33885748917237 53.436056088489124 0 53.436056088489124 9.511452464472427 0 0 0 0 -5.8016127876471728 -54.093810523389948 0 -54.093810523389948 104.33625469375875 0 0 0 0 -2.5902660470183321 -2.4826823429661786 0 -2.4826823429661786 2.5008407086629241 0 0 0 0 -15.599889842760604 -15.891237121131212 0 -15.891237121131212 5.3911674944374681 0 0 0 0 73.581455176317832 -99.015787446005561 0 -99.015787446005561 -29.62230181565883 0 0 0 0 8.920486569069098 -15.513746245266418 0 -15.513746245266418 2.4872143440348857 0 0 0 0 60.173424015803903 -4.1156468862022848 0 -4.1156468862022848 25.240949677242497 0 0 0 0 67.245686891103105 -18.458409009950401 0 -18.458409009950401 -102.72528355801478 0 0 0 0 18.801567053248661 13.426720890439327 0 13.426720890439327 -4.2727812712610174 0 0 0 0 60.548034177911177 -35.604219684404598 0 -35.604219684404598 1.9972893225804 0 0 0 0 128.6080240703086 -34.286846424746045 0 -34.286846424746045 8.8351936272156308 0 0 0 0 140.56743859264679 -7.2347561609781224 0 -7.2347561609781224 -71.849384265912704 0 0 0 0 17.247341824735486 90.470461791121181 0 90.470461791121181 206.74762744339205 0 0 0 0 110.37963086061427 -18.434898006472849 0 -18.434898006472849 -2.7330447662670849 0 0 0 0 133.74455915920407 -35.97303769121072 0 -35.97303769121072 -2.2731849349061122 0 0 0 0 0.83290701635446851 -10.927943175742485 0 -10.927943175742485 5.7988747120724149 0 0 0 0 17.944704517135946 12.181008315101721 0 12.181008315101721 -5.5062287870935176 0 0 0 0 131.29911237790657 -34.239272967417719 0 -34.239272967417719 7.7715476997382211 0 0 0 0 123.34574194934612 -42.377599784299491 0 -42.377599784299491 24.058398288836543 0 0 0 0 119.58822810510901 -41.320987154158502 0 -41.320987154158502 18.400477666485131 0 0 0 0 123.61871024595166 -45.562126498506132 0 -45.562126498506132 3.6127797514601525 0 0 0 0 126.60420342343423 -39.882294403410924 0 -39.882294403410924 -17.784214634687487 0 0 0 0 126.57823606012971 -37.573211155429817 0 -37.573211155429817 4.3954825030378402 0 0 0 0 130.2841557739157 -39.398401804993455 0 -39.398401804993455 -6.64933975879012 0 0 0 0 125.94550872946638 -25.701667923508694 0 -25.701667923508694 -13.2827617322273 0 0 0 0 130.87236182797642 -23.763846387651483 0 -23.763846387651483 -16.92837573184238 0 0 0 0 131.32609751124983 -20.637145952610354 0 -20.637145952610354 -36.367365738289664 0 0 0 0 129.71673434451804 -40.768393584665773 0 -40.768393584665773 -49.734668789556281 0 0 0 0 127.12126207117399 -37.813029132345946 0 -37.813029132345946 -15.856513519126565 0 0 0 0 134.81408855046902 -19.651977864791661 0 -19.651977864791661 -50.065000482270534 0 0 0 0 133.03296631475678 -22.089855868618997 0 -22.089855868618997 -42.995642769579717 0 0 0 0 133.34323469673109 -21.834141143994657 0 -21.834141143994657 -77.929011919035474 0 0 0 0 128.22458963618556 -39.954484288830372 0 -39.954484288830372 -44.720112310079458 0 0 0 0 124.54844236267672 -49.463443228606138 0 -49.463443228606138 -58.272535042307936 0 0 0 0 118.72406067758857 -59.426918081177519 0 -59.426918081177519 -22.496218554470033 0 0 0 0 118.76823580372729 -59.300986838945391 0 -59.300986838945391 -22.446963616497897 0 0 0 0 114.42563599043933 -53.100282348194924 0 -53.100282348194924 13.398182953078503 0 0 0 0 114.49133738949604 -51.920726600375019 0 -51.920726600375019 2.1642188561127114 0 0 0 0 97.150522011928842 -57.038739293105209 0 -57.038739293105209 19.393905549926785 0 0 0 0 54.775701435442897 -53.332400852390037 0 -53.332400852390037 67.228910068452024 0 0 0 0 99.020588961589965 -64.905095055873062 0 -64.905095055873062 38.972685670594728 0 0 0 0 105.81835050824156 -41.38651571684295 0 -41.38651571684295 40.484821136109531 0 0 0 0 105.93887270722371 -42.777673486656539 0 -42.777673486656539 22.830719059535113 0 0 0 0 109.91747533198213 -21.351880768935189 0 -21.351880768935189 24.250627867304502 0 0 0 0 79.675928874174133 -32.227358504585027 0 -32.227358504585027 38.539016864926452 0 0 0 0 111.17240292924907 -34.203105912896604 0 -34.203105912896604 33.827289642489632 0 0 0 0 81.731325572865899 -38.613063011944178 0 -38.613063011944178 55.33704046487037 0 0 0 0 42.568905606167391 -12.708771961057209 0 -12.708771961057209 41.728367992311178 0 0 0 0 74.428418884315761 -26.440229423877099 0 -26.440229423877099 19.353751091015511 0 0 0 0 43.646424625476357 0.20150964814547478 0 0.20150964814547478 -1.8931669891881029 0 0 0 0 32.158675179991405 -55.127024236116995 0 -55.127024236116995 -27.629138453061387 0 0 0 0 49.600657735587447 -67.793150964341294 0 -67.793150964341294 0.30796479649370667 0 0 0 0 70.845686559645401 -2.4410994898203171 0 -2.4410994898203171 12.600179664001189 0 0 0 0 216.99515535290266 -48.78780660482289 0 -48.78780660482289 -21.553035490207549 0 0 0 0 128.8368648839969 -28.146529181191909 0 -28.146529181191909 -3.3924482420770801 0 0 0 0 144.12031330898753 -33.869776024259409 0 -33.869776024259409 7.1048686429840018 0 0 0 0 125.22987412429211 -31.076325493618697 0 -31.076325493618697 26.506600042841455 0 0 0 0 82.403120614064392 -9.6429466399779358 0 -9.6429466399779358 21.891140849640578 0 0 0 0 213.9736853642753 -99.531145615762398 0 -99.531145615762398 12.073394304424255 0 0 0 0 -25.775461209530476 8.9335960674702619 0 8.9335960674702619 21.508982983852547 0 0 0 0 138.11904943667469 -61.68904951168588 0 -61.68904951168588 55.980424613845571 0 0 0 0 1.9618033395419303 2.0428453185258917 0 2.0428453185258917 0.89862499943235719 0 0 0 0 132.88319672119178 -47.950524659406142 0 -47.950524659406142 21.233335386351428 0 0 0 0 125.52806500560837 -38.061251513181105 0 -38.061251513181105 31.419067226875086 0 0 0 0 128.61506983985601 -35.572409501615766 0 -35.572409501615766 23.770417449803972 0 0 0 0 22.69542626292241 -23.220643974549375 0 -23.220643974549375 0.19613466758255527 0 0 0 0 61.305387515109032 15.758145499498369 0 15.758145499498369 -17.341376069734906 0 0 0 0 4.7475206254923386 -0.559221285822602 0 -0.559221285822602 -3.7147530191648528 0 0 0 0 6.5456249271551172 2.5170288977367221 0 2.5170288977367221 2.6738491241912747 0 0 0 0 57.798621759866364 -45.708198551252281 0 -45.708198551252281 -27.027189570813789 0 0 0 0 65.029676904596272 -12.305519927118439 0 -12.305519927118439 -4.0822427242144386 0 0 0 0 57.244188403405133 -13.150563373697878 0 -13.150563373697878 -3.5079036961051315 0 0 0 0 70.210846983274678 -18.624911285631242 0 -18.624911285631242 -13.400102525634793 0 0 0 0 58.381441210811317 -19.120579161632293 0 -19.120579161632293 -5.9351773963680898 0 0 0 0 58.122738257996389 -16.213135645080911 0 -16.213135645080911 -3.8643453734366631 0 0 0 0 58.539606778249436 -14.874882097770751 0 -14.874882097770751 0.12994416121364338 0 0 0 0 52.046880526293535 -7.3972726081365181 0 -7.3972726081365181 -3.7668050104680333 0 0 0 0 66.046545902980142 -6.3145265133061912 0 -6.3145265133061912 -1.485396396021315 0 0 0 0 62.491919366235379 -9.5108680411767637 0 -9.5108680411767637 -3.3391531216107069 0 0 0 0 62.704907324165106 17.920021365858702 0 17.920021365858702 29.288414662568357 0 0 0 0 140.54224265843831 41.011481386909878 0 41.011481386909878 -22.017226071413461 0 0 0 0 108.77993297395005 65.516214796653912 0 65.516214796653912 27.375927642458919 0 0 0 0 86.19899962170166 3.1115655448074904 0 3.1115655448074904 -5.0454208199448658 0 0 0 0 81.16835068220098 -9.4906504040500295 0 -9.4906504040500295 -10.637110274200268 0 0 0 0 80.303011016250821 -8.0423338259352022 0 -8.0423338259352022 -13.060777398168284 0 0 0 0 39.28670314977353 -14.405798505695657 0 -14.405798505695657 22.179730765652494 0 0 0 0 40.996897950477432 -8.7034752356407807 0 -8.7034752356407807 -2.6652249101625785 0 0 0 0 65.0392824626324 -14.540038813759566 0 -14.540038813759566 1.4967509955103706 0 0 0 0 49.703052044977085 -9.3788226744427448 0 -9.3788226744427448 -1.746953189085616 0 0 0 0 49.296983609863673 -9.9142594089548766 0 -9.9142594089548766 -1.9712738535308745 0 0 0 0 52.015139703471505 -16.630344824694475 0 -16.630344824694475 2.8240871328980575 0 0 0 0 61.77502782009833 -19.251053658638284 0 -19.251053658638284 -1.4429502604325535 0 0 0 0 61.812917417293647 -20.294385484676241 0 -20.294385484676241 1.5062220157597039 0 0 0 0 -0.27064460414983316 -0.13392901072226948 0 -0.13392901072226948 -2.8664715261358999 0 0 0 0 73.990124527124863 -18.58757217025618 0 -18.58757217025618 -2.6358075509779155 0 0 0 0 62.111092098003155 -16.849490083546726 0 -16.849490083546726 7.9210809864653129 0 0 0 0 65.335438181688914 -11.173763888612086 0 -11.173763888612086 7.416924584451408 0 0 0 0 105.98108766314544 -30.27739323003243 0 -30.27739323003243 3.0624853486997381 0 0 0 0 43.743998262623791 -47.741798116928294 0 -47.741798116928294 -48.676712443734687 0 0 0 0 0.19364253047820768 0.042557569461862954 0 0.042557569461862954 -1.1652652874227378 0 0 0 0 -8.0349583766874275 -16.544273072401211 0 -16.544273072401211 25.182334767047905 0 0 0 0 66.561243450192705 11.915837332926912 0 11.915837332926912 -34.970295912401525 0 0 0 0 166.3402301845199 -197.99184521575353 0 -197.99184521575353 -15.800664353757384 0 0 0 0 46.021435861475766 -124.00321624873504 0 -124.00321624873504 93.64804459586685 0 0 0 0 137.32551037691155 9.2034152829601226 0 9.2034152829601226 42.804901797006096 0 0 0 0 43.749897188688919 -41.826818366563884 0 -41.826818366563884 -48.933644156659284 0 0 0 0 18.819228062548063 3.4907719125450285 0 3.4907719125450285 -78.580071046941157 0 0 0 0 0.89532092473903901 0.61954298853125067 0 0.61954298853125067 -0.019255480902693023 0 0 0 0 -35.088101597961213 63.35901494486609 0 63.35901494486609 -55.197539343465905 0 0 0 0 149.80255727925123 -101.30386410089579 0 -101.30386410089579 -101.16089052627467 0 0 0 0 107.4303533663915 18.087998252848593 0 18.087998252848593 -66.665340988882917 0 0 0 0 -18.397653405558231 69.390562714670523 0 69.390562714670523 -63.929471815306897 0 0 0 0 85.003669792902656 24.738739789241663 0 24.738739789241663 -102.93631961589199 0 0 0 0 -31.268733120145043 -128.36340040346477 0 -128.36340040346477 23.32830836951598 0 0 0 0 -40.514288586148723 -69.137135243288469 0 -69.137135243288469 275.32182505821038 0 0 0 0 7.9136312339154173 -16.490539050701372 0 -16.490539050701372 17.89633815421136 0 0 0 0 -0.29303456381239812 -40.954543239539277 0 -40.954543239539277 59.987666904937896 0 0 0 0 -131.72657158807124 -135.83526943420293 0 -135.83526943420293 143.11783690400989 0 0 0 0 40.201863083352691 -19.317461207043763 0 -19.317461207043763 2.5011498919384394 0 0 0 0 8.8685012751084287 23.106866349246047 0 23.106866349246047 -41.956890880003812 0 0 0 0 209.59065198450116 -129.23057574028917 0 -129.23057574028917 70.354787757081795 0 0 0 0 134.55972968481365 65.015975230086724 0 65.015975230086724 11.336851486141313 0 0 0 0 128.99077444910654 125.0161046276553 0 125.0161046276553 118.26545495345454 0 0 0 0 338.98009968460246 -89.623590669057648 0 -89.623590669057648 -80.510156708834984 0 0 0 0 54.687536986468331 -51.899897207697222 0 -51.899897207697222 -65.394728527317056 0 0 0 0 3.7912743905391153 -0.53640045118850921 0 -0.53640045118850921 0.37668263755786996 0 0 0 0 49.36347628794465 -27.587537852429705 0 -27.587537852429705 38.203024218031715 0 0 0 0 -25.468837982654804 -136.94929442801867 0 -136.94929442801867 134.7506940653584 0 0 0 0 54.000756563880714 48.593755309191693 0 48.593755309191693 58.524085533038175 0 0 0 0 16.587181201786734 27.725573384686868 0 27.725573384686868 47.051418343844489 0 0 0 0 92.823563511410612 30.365606926817236 0 30.365606926817236 -17.105868546394049 0 0 0 0 4.5140836104983464 -0.26727392478414913 0 -0.26727392478414913 -12.900835913515039 0 0 0 0 -4.3719984775525518 8.9721723958546136 0 8.9721723958546136 -13.63023191140824 0 0 0 0 23.77474595668383 -0.86061907605675003 0 -0.86061907605675003 -8.0539094114534535 0 0 0 0 39.922312590339061 2.9269059459536493 0 2.9269059459536493 0.96176659991760971 0 0 0 0 39.677188124624081 -1.067487362488464 0 -1.067487362488464 -9.7066238570832777 0 0 0 0 11.266076960362568 2.2152139414345342 0 2.2152139414345342 -2.0775485982709134 0 0 0 0 313.6825260550977 -80.514987329055771 0 -80.514987329055771 -30.520789126024098 0 0 0 0 367.76922056441254 -80.166085410673531 0 -80.166085410673531 -30.556610390642057 0 0 0 0 320.50532680049946 -101.88149289915964 0 -101.88149289915964 8.8355313061285869 0 0 0 0 328.45697069884045 -29.347860519654773 0 -29.347860519654773 -45.326415150033014 0 0 0 0 348.38841691293055 -58.096085629313791 0 -58.096085629313791 -27.899612990987862 0 0 0 0 349.39252504700562 -9.114472282475333 0 -9.114472282475333 -60.950902684775826 0 0 0 0 301.72395551049703 -29.809824673151695 0 -29.809824673151695 -37.556336030516604 0 0 0 0 292.60774196671991 -24.981156420300664 0 -24.981156420300664 19.65169906234155 0 0 0 0 230.89341934403637 -72.670210021891648 0 -72.670210021891648 8.384304116947078 0 0 0 0 124.44527327542892 -42.336249053744041 0 -42.336249053744041 72.513188630305649 0 0 0 0 159.98074553031984 -248.07728605990047 0 -248.07728605990047 215.94853945153977 0 0 0 0 447.69653696201567 -374.24868744719799 0 -374.24868744719799 151.19879104302731 0 0 0 0 291.03904216876253 -172.87356959670331 0 -172.87356959670331 -13.246664129447709 0 0 0 0 255.96697287018469 -134.92882306599938 0 -134.92882306599938 128.69134042432893 0 0 0 0 1134.8851714818666 -343.74354053539082 0 -343.74354053539082 408.66253422393584 0 0 0 0 -236.38356176127854 -100.29946319939472 0 -100.29946319939472 50.418095753590933 0 0 0 0 7.273534390551589 -13.702119468414168 0 -13.702119468414168 16.607330949087231 0 0 0 0 -170.21075775945064 -14.162919170446457 0 -14.162919170446457 35.013941416502348 0 0 0 0 1050.4291601985169 -34.710625180682825 0 -34.710625180682825 -272.90885620285405 0 0 0 0 8.3465611254894085 -16.567270337758899 0 -16.567270337758899 19.899590832771871 0 0 0 0 68.951085405056801 -6.9304978568462161 0 -6.9304978568462161 0.363338680613424 0 0 0 0 253.86940978070197 108.22155384916596 0 108.22155384916596 -173.62446596271161 0 0 0 0 -147.25770950978767 -66.252116400664363 0 -66.252116400664363 85.295553311256299 0 0 0 0 314.92530728808742 -130.24631869995918 0 -130.24631869995918 -28.483156678848445 0 0 0 0 377.12503622805525 -115.27375602496545 0 -115.27375602496545 -43.873823009064154 0 0 0 0 300.04989005850803 -63.678400655845508 0 -63.678400655845508 -67.387199961765248 0 0 0 0 200.35727292275988 -94.43616713783689 0 -94.43616713783689 24.3534018757789 0 0 0 0 157.53675599790586 -16.647879897270855 0 -16.647879897270855 -11.19120606548563 0 0 0 0 32.823491658564308 4.7344328924360752 0 4.7344328924360752 29.929322588501577 0 0 0 0 125.95710058374971 -59.50493786654215 0 -59.50493786654215 50.098535178664861 0 0 0 0 40.322047246663715 -22.35560119940601 0 -22.35560119940601 77.983584697626952 0 0 0 0 285.76982907985439 -174.02839529929355 0 -174.02839529929355 68.701229270362887 0 0 0 0 132.66413661942352 -50.391893332943823 0 -50.391893332943823 16.172778561388725 0 0 0 0 407.35273982067883 -27.92211900494874 0 -27.92211900494874 4.0393326840176087 0 0 0 0 423.8611201649328 -91.619109183710691 0 -91.619109183710691 -43.556666044713381 0 0 0 0 323.94609578794189 -105.02114713253602 0 -105.02114713253602 -21.653278150953156 0 0 0 0 348.11367852981493 -74.137854593129418 0 -74.137854593129418 -20.50513400295506 0 0 0 0 371.07407140680152 -44.694684736428485 0 -44.694684736428485 -43.04448236799692 0 0 0 0 377.31701124764163 -61.0901895090784 0 -61.0901895090784 108.34410498461375 0 0 0 0 390.10359612733714 -139.84496255543689 0 -139.84496255543689 130.20066987029202 0 0 0 0 579.79103032534113 -98.322394488024798 0 -98.322394488024798 4.2372907056035274 0 0 0 0 -0.082733504116610845 -0.97411123191574234 0 -0.97411123191574234 2.3653867052500037 0 0 0 0 -11.660848350831657 -8.0021540307769783 0 -8.0021540307769783 69.431020011674377 0 0 0 0 81.419619415355555 -94.010932886294995 0 -94.010932886294995 126.8074853083412 0 0 0 0 45.028128918842413 -4.4121319473630365 0 -4.4121319473630365 19.072109859160037 0 0 0 0 67.002029416098594 6.8692553062830086 0 6.8692553062830086 23.256968925360525 0 0 0 0 48.604442112289689 17.094307361568099 0 17.094307361568099 13.064423888516558 0 0 0 0 66.762246851234522 -3.4809911614653402 0 -3.4809911614653402 -13.158034622511423 0 0 0 0 28.481391998844629 -15.025854424312911 0 -15.025854424312911 0.055376206369601277 0 0 0 0 6.9191544976349064 -2.933946408255224 0 -2.933946408255224 5.4096877720454088 0 0 0 0 41.651836873168577 7.5166567291976918 0 7.5166567291976918 -5.5087322301574204 0 0 0 0 45.122946167000919 -10.445912057879013 0 -10.445912057879013 -14.247240242279219 0 0 0 0 43.229134019551566 -9.7381764730419071 0 -9.7381764730419071 4.8792664979873734 0 0 0 0 44.596274345562051 0.9166735538685522 0 0.9166735538685522 -3.4651530475425147 0 0 0 0 26.879440465727271 5.746250938956365 0 5.746250938956365 -6.03733134919809 0 0 0 0 142.8867037316013 -31.727597256816239 0 -31.727597256816239 23.984342109084224 0 0 0 0 381.20830321010726 -187.39450717293249 0 -187.39450717293249 -32.691844709906832 0 0 0 0 396.00957298930734 -154.61235569244417 0 -154.61235569244417 -38.993705548567277 0 0 0 0 311.40768744958768 -29.116676716718899 0 -29.116676716718899 -13.605540274350844 0 0 0 0 199.2425067690092 -75.852268987698068 0 -75.852268987698068 40.643366116091954 0 0 0 0 25.135098974271386 -12.817145414301308 0 -12.817145414301308 -1.2432521908135641 0 0 0 0 23.70579034522234 -13.231036596729837 0 -13.231036596729837 4.2014939851537747 0 0 0 0 30.602898387507594 -7.7207707028919685 0 -7.7207707028919685 5.5120611966825663 0 0 0 0 31.917433090864506 -10.728245921262044 0 -10.728245921262044 6.3533596001309434 0 0 0 0 22.41782084683345 3.9283024054647342 0 3.9283024054647342 -8.1682597628697593 0 0 0 0 30.104448470847274 22.365363590598463 0 22.365363590598463 -18.09025870901803 0 0 0 0 43.319375488288642 47.393536458782819 0 47.393536458782819 -25.126203888807254 0 0 0 0 32.467363905467209 -9.6431499662601254 0 -9.6431499662601254 5.4969398794336257 0 0 0 0 34.788324481720338 -10.874916500254244 0 -10.874916500254244 0.19280889090941855 0 0 0 0 40.324003763256769 -0.60309632610562858 0 -0.60309632610562858 -2.0092719216877413 0 0 0 0 26.782095111308564 3.8541394664875028 0 3.8541394664875028 -6.1649206553468225 0 0 0 0 37.289227545741596 -23.385524647236707 0 -23.385524647236707 -31.638375057399571 0 0 0 0 83.860324420580582 -1.7629372365272502 0 -1.7629372365272502 -41.087591081612118 0 0 0 0 64.829987201046606 -42.009071226808373 0 -42.009071226808373 -69.816217824344676 0 0 0 0 11.669735004216633 -15.569116009886216 0 -15.569116009886216 12.360221584093162 0 0 0 0 22.710873977255687 -51.149299755115635 0 -51.149299755115635 -39.051220400569036 0 0 0 0 2.3359314826448099 -4.7377059118928173 0 -4.7377059118928173 15.511775785972532 0 0 0 0 18.728765888008638 16.347095261991626 0 16.347095261991626 12.339806467341987 0 0 0 0 6.7332002810128273 -0.21250356626336497 0 -0.21250356626336497 -0.43650327398246169 0 0 0 0 19.674990340150543 -7.1683405175101598 0 -7.1683405175101598 2.2644112321640932 0 0 0 0 35.314576239987218 3.1992099914896244 0 3.1992099914896244 -1.4481012601161183 0 0 0 0 17.158427901213543 -7.3020720157537085 0 -7.3020720157537085 2.2910658521722356 0 0 0 0 9.9913083010294912 -14.153246193571562 0 -14.153246193571562 6.4015882149107659 0 0 0 0 19.922773064681678 -9.9857776826465852 0 -9.9857776826465852 4.2443387407188311 0 0 0 0 16.722577682987321 -3.392363680603296 0 -3.392363680603296 -3.717639357457756 0 0 0 0 48.901609470980475 -11.898699732790263 0 -11.898699732790263 5.6428942799940671 0 0 0 0 29.439462409153407 5.0775700990372172 0 5.0775700990372172 -5.8963816298480385 0 0 0 0 46.328093837102642 -11.169301679438917 0 -11.169301679438917 4.0551699559470649 0 0 0 0 -0.057183010405168488 0.30128304962795482 0 0.30128304962795482 0.72697850376817819 0 0 0 0 20.984526364969497 -27.77172163488865 0 -27.77172163488865 23.749384038247285 0 0 0 0 129.73462068371737 7.5401526045924356 0 7.5401526045924356 -5.8491752381191873 0 0 0 0 2.799511443139636 -7.2361762460777754 0 -7.2361762460777754 12.395342385348158 0 0 0 0 88.376299600029597 -46.062478657620773 0 -46.062478657620773 8.1754225124886943 0 0 0 0 48.805400706682121 -2.5863546381563083 0 -2.5863546381563083 -1.6869733285076336 0 0 0 0 7.7576208838836465 -0.8353466136801444 0 -0.8353466136801444 0.30965500641333588 0 0 0 0 53.138960868331196 1.5235617682838267 0 1.5235617682838267 1.7524593912671662 0 0 0 0 56.260315305366021 -15.111849359783889 0 -15.111849359783889 -1.3572153037985117 0 0 0 0 44.599136355449446 -10.149722136515493 0 -10.149722136515493 0.18643850869955259 0 0 0 0 31.698137184175721 -11.575800794770714 0 -11.575800794770714 -0.27583871606202592 0 0 0 0 33.375582007152843 -17.014092265353838 0 -17.014092265353838 3.6638357742726839 0 0 0 0 25.592417639112682 -12.432635344869823 0 -12.432635344869823 10.845376864160244 0 0 0 0 42.171146652312018 -11.626085601376417 0 -11.626085601376417 0.60128979191517828 0 0 0 0 43.285144960740581 -16.539789875117776 0 -16.539789875117776 12.575776880688863 0 0 0 0 50.739208078040974 -5.4641635661405417 0 -5.4641635661405417 8.9283232108125503 0 0 0 0 43.874500138190342 -13.688413107758265 0 -13.688413107758265 6.0880771290703706 0 0 0 0 -0.28606061331083765 6.2050054477252274 0 6.2050054477252274 24.835091266526888 0 0 0 0 18.672283510692068 15.019126605651991 0 15.019126605651991 -6.7783898702896295 0 0 0 0 24.653275483931566 2.19967922727934 0 2.19967922727934 -5.1013740119342863 0 0 0 0 20.197138703879318 -43.24904396851457 0 -43.24904396851457 40.541517921173636 0 0 0 0 11.014533415301258 -11.85293678671519 0 -11.85293678671519 8.3603016738360321 0 0 0 0 52.340272046072641 9.7317860182263303 0 9.7317860182263303 -70.373566885478439 0 0 0 0 5.971670776110841 -18.136214388113103 0 -18.136214388113103 35.79149170879009 0 0 0 0 21.582600502930291 -19.489145982690445 0 -19.489145982690445 11.769660519110857 0 0 0 0 21.00224350435019 -8.7442306133248167 0 -8.7442306133248167 -9.3548888320270862 0 0 0 0 16.009797702630749 -3.039787140729004 0 -3.039787140729004 -7.13567231441084 0 0 0 0 26.687972491107757 -4.7046335202358875 0 -4.7046335202358875 -6.509961491559352 0 0 0 0 5.6908428574150065 -1.9382184158883149 0 -1.9382184158883149 -1.8102256768457492 0 0 0 0 13.90595812301035 -6.3319539511121548 0 -6.3319539511121548 -4.2524107202412438 0 0 0 0 21.000365113170119 -13.976306559378145 0 -13.976306559378145 1.5097646309704942 0 0 0 0 18.270501832554146 -6.9991586956036258 0 -6.9991586956036258 1.1739631324226139 0 0 0 0 7.1829182589426637 -3.7412206211654393 0 -3.7412206211654393 -15.708132189010513 0 0 0 0 17.837722698051948 -0.99089326595975535 0 -0.99089326595975535 4.3010958687321477 0 0 0 0 3.0696096163250672 0.082919283512453035 0 0.082919283512453035 0.62068887505267989 0 0 0 0 37.816446370517951 11.939431108701058 0 11.939431108701058 5.128875700845299 0 0 0 0 52.618006063479697 8.2258598505679288 0 8.2258598505679288 14.404400053703483 0 0 0 0 -5.237066474481253 -37.401047465408681 0 -37.401047465408681 70.677119774282176 0 0 0 0 0.99380145376790097 -3.0905280454030617 0 -3.0905280454030617 2.1394989145624139 0 0 0 0 -19.530190420424333 -12.356475164746513 0 -12.356475164746513 12.873827548172528 0 0 0 0 3.0589837630395778 2.0659292666549334 0 2.0659292666549334 15.33939224072185 0 0 0 0 116.06380819893093 -16.862114008420463 0 -16.862114008420463 0.95811468196600913 0 0 0 0 253.09334294602741 -181.04842966093827 0 -181.04842966093827 -51.322437839177667 0 0 0 0 -151.49088494695025 -16.03654111096958 0 -16.03654111096958 307.01153335146523 0 0 0 0 34.842487039437401 -10.274779588832359 0 -10.274779588832359 -12.074625608686773 0 0 0 0 120.3878794249631 -63.419071003156446 0 -63.419071003156446 18.868150785516946 0 0 0 0 99.734753637589165 -84.240890585365094 0 -84.240890585365094 32.319863922647116 0 0 0 0 0.87839884245190092 0.29385095977804099 0 0.29385095977804099 0.10270428007090426 0 0 0 0 104.60373834120401 -28.809973648379525 0 -28.809973648379525 -22.970420365257326 0 0 0 0 34.928723943306977 -11.458772782079414 0 -11.458772782079414 3.4613652055704733 0 0 0 0 78.122016746245208 -46.480469576947705 0 -46.480469576947705 20.465594805242503 0 0 0 0 17.301750051523413 -0.8252292040739384 0 -0.8252292040739384 -4.4429186474187219 0 0 0 0 148.07735185138881 -10.430681905613582 0 -10.430681905613582 -25.710453899594292 0 0 0 0 9.5771162934543099 -5.4846997640602453 0 -5.4846997640602453 -5.3320630708820698 0 0 0 0 6.0123343894730965 -0.12501800432058019 0 -0.12501800432058019 -1.0286783274144267 0 0 0 0 -14.430604798457352 -12.12084109739051 0 -12.12084109739051 -8.3965413670276803 0 0 0 0 40.174681043077726 13.311561397341364 0 13.311561397341364 -16.241115418783501 0 0 0 0 42.267727220409142 -2.4197935107316084 0 -2.4197935107316084 -27.348630916754303 0 0 0 0 76.252560036984505 16.206938337729866 0 16.206938337729866 -18.193813608373262 0 0 0 0 -29.109856298739032 80.405003597682054 0 80.405003597682054 0.50404692360808667 0 0 0 0 27.206646010830354 3.8058380590114709 0 3.8058380590114709 -4.6133964666706007 0 0 0 0 47.421057494495471 -39.513614923690646 0 -39.513614923690646 20.555322226978198 0 0 0 0 34.982196179826133 -16.566792425248316 0 -16.566792425248316 9.5650844617650819 0 0 0 0 8.9494411635412234 -13.670309090446096 0 -13.670309090446096 6.7700427631919791 0 0 0 0 15.377276917548443 -4.7370287612336686 0 -4.7370287612336686 -12.182717962596612 0 0 0 0 4.1933154123371423 -1.1382348794407307 0 -1.1382348794407307 0.86700093053620464 0 0 0 0 5.6884115898974414 -18.894567008071945 0 -18.894567008071945 -8.4969495924181899 0 0 0 0 -10.342726162241888 -24.3919456776981 0 -24.3919456776981 24.041251755892191 0 0 0 0 7.1207503076293506 -12.435804977596119 0 -12.435804977596119 20.565751086571268 0 0 0 0 -4.132551085727755 -11.743580716396934 0 -11.743580716396934 23.553866944191022 0 0 0 0 -21.558004708727822 -16.245159682455064 0 -16.245159682455064 30.466056205426355 0 0 0 0 41.849294257874135 0.95956762968003773 0 0.95956762968003773 -2.9580673468909926 0 0 0 0 0.21098014896605832 -0.077163414406278719 0 -0.077163414406278719 0.032234946450440533 0 0 0 0 38.837584986817092 -4.6194620009713878 0 -4.6194620009713878 0.020767594270967481 0 0 0 0 -7.0205652107251808 6.538685396551708 0 6.538685396551708 0.33812132183805321 0 0 0 0 53.988075879387907 8.7767185371632461 0 8.7767185371632461 -20.321312557717821 0 0 0 0 -4.8917101186525542 16.454816424089977 0 16.454816424089977 -4.8719204291680214 0 0 0 0 0.23838373144951674 -0.047143989200655767 0 -0.047143989200655767 -0.0067750352727029596 0 0 0 0 -10.463817526156163 -5.0313794296079184 0 -5.0313794296079184 -0.0098165924532122549 0 0 0 0 38.748606475088309 -3.2192900655629835 0 -3.2192900655629835 -20.150546758032576 0 0 0 0 120.49632301380916 -27.007840180644003 0 -27.007840180644003 -16.62794380858783 0 0 0 0 42.590235487143218 -15.93877385320021 0 -15.93877385320021 17.049759273314123 0 0 0 0 -9.1986645017750561 -1.9830288756672729 0 -1.9830288756672729 39.013309217231892 0 0 0 0 0.01596852589127451 0.44440934474474147 0 0.44440934474474147 0.082872932958593104 0 0 0 0 12.395754544137162 3.5092516195218124 0 3.5092516195218124 19.972273981404783 0 0 0 0 -19.209365198406886 -22.705575265518696 0 -22.705575265518696 84.121947842495956 0 0 0 0 95.28485209176506 20.39140682215595 0 20.39140682215595 -18.427678589045243 0 0 0 0 14.046813664739602 25.596268142465632 0 25.596268142465632 -3.7503005981796278 0 0 0 0 74.713916750381031 14.00889035722669 0 14.00889035722669 -20.305834897906443 0 0 0 0 83.40055273406324 -3.0566563603675565 0 -3.0566563603675565 -24.316054524856213 0 0 0 0 10.510810834181029 0.73721814639972472 0 0.73721814639972472 -1.4943019929126109 0 0 0 0 30.531548302227748 -19.626848058327042 0 -19.626848058327042 -0.0008372925527188632 0 0 0 0 7.4063350563083077 -13.181783169097272 0 -13.181783169097272 -5.4960699586254442 0 0 0 0 18.534740602560305 -9.300793718421744 0 -9.300793718421744 -13.021322062228649 0 0 0 0 -27.312564261184889 37.863192059335091 0 37.863192059335091 37.853840679002182 0 0 0 0 23.600650548498379 5.2657815856827455 0 5.2657815856827455 -4.0086343714067709 0 0 0 0 11.44031841744436 32.271857294626443 0 32.271857294626443 118.50330893400127 0 0 0 0 4.5355321033566725 0.28513160898378942 0 0.28513160898378942 27.733961654432314 0 0 0 0 29.67759473490878 9.8192891646119733 0 9.8192891646119733 -26.6745849286918 0 0 0 0 19.407542131028606 6.8617102855029088 0 6.8617102855029088 -1.3056982156958121 0 0 0 0 -11.098793281431426 15.363121869941111 0 15.363121869941111 16.251916772825439 0 0 0 0 -8.3723395410561352 58.844452827764464 0 58.844452827764464 -19.812892742117384 0 0 0 0 134.18049224668357 -106.81131500302928 0 -106.81131500302928 109.01986872988817 0 0 0 0 192.82692357190535 -211.14998993907858 0 -211.14998993907858 145.44058498413722 0 0 0 0 22.030966457808177 6.6287477951952667 0 6.6287477951952667 -0.6938396418214291 0 0 0 0 8.4798043339340552 0.048791971488043373 0 0.048791971488043373 -1.2754823795667685 0 0 0 0 32.870171377486258 -5.712111741866126 0 -5.712111741866126 -48.282682644217346 0 0 0 0 180.18555383267812 3.9637727767007931 0 3.9637727767007931 -53.470096730769605 0 0 0 0 71.208073253073962 1.0260579988447631 0 1.0260579988447631 -4.4885425743794372 0 0 0 0 56.883036106628424 -15.341053261354443 0 -15.341053261354443 -6.8233426547393634 0 0 0 0 47.093153569134302 -46.626451153707386 0 -46.626451153707386 -29.452995224206148 0 0 0 0 -28.768444090790581 -34.221554353150765 0 -34.221554353150765 36.128895319730375 0 0 0 0 237.72922756669868 -106.851283096853 0 -106.851283096853 55.863454583541255 0 0 0 0 148.3278223691741 82.265243705073374 0 82.265243705073374 28.279357407892153 0 0 0 0 0.50080795293814617 0.53098147594762679 0 0.53098147594762679 0.09563022864706186 0 0 0 0 140.23586520380923 30.42848210681553 0 30.42848210681553 9.2936306100102968 0 0 0 0 195.39703137285687 -55.391940208731199 0 -55.391940208731199 24.500408027723168 0 0 0 0 208.61795826911111 -20.259779197591278 0 -20.259779197591278 110.69713059386562 0 0 0 0 195.58243347176904 -45.361198123766322 0 -45.361198123766322 -6.2263393433977967 0 0 0 0 9.2580031495526782 -31.526659958787121 0 -31.526659958787121 15.801809657247627 0 0 0 0 32.358730156411184 43.772207664002124 0 43.772207664002124 11.148652691182205 0 0 0 0 60.426748813733866 -7.0469753074147778 0 -7.0469753074147778 -7.8163454005802686 0 0 0 0 66.305822010506745 13.860241157933617 0 13.860241157933617 8.2305243078666308 0 0 0 0 122.84611856619449 -6.6544497803354314 0 -6.6544497803354314 -0.047250214400866526 0 0 0 0 80.378403858077945 -36.466578248347339 0 -36.466578248347339 11.275652132745194 0 0 0 0 79.473741251757019 -28.303101625425576 0 -28.303101625425576 -4.8301197050716169 0 0 0 0 48.474107647314668 -69.687683825917745 0 -69.687683825917745 50.524631902319257 0 0 0 0 1.0096356553523549 0.26223514085188526 0 0.26223514085188526 0.15324045995730518 0 0 0 0 -15.291466665104963 0.90403054698246921 0 0.90403054698246921 24.082073299254937 0 0 0 0 6.9047346154402476 5.4419668858818113 0 5.4419668858818113 19.223121857519502 0 0 0 0 2.5961637964637134 0.5634094232540221 0 0.5634094232540221 0.17983127016322192 0 0 0 0 4.4500846716982778 10.143120114248866 0 10.143120114248866 -12.479972925992133 0 0 0 0 2.6785027528676437 -8.8505332819724529 0 -8.8505332819724529 5.6824045041258415 0 0 0 0 1.2980902417088203 -0.24387085325199109 0 -0.24387085325199109 -0.53332939043770811 0 0 0 0 -4.2792325795890065 0.40149998993520875 0 0.40149998993520875 10.899762572017584 0 0 0 0 20.989306631920044 -3.6434892269400745 0 -3.6434892269400745 0.035967556396765285 0 0 0 0 5.4922625930194044 -10.765745136256909 0 -10.765745136256909 9.0337502702439902 0 0 0 0 -2.8056539916942711 0.12384490226921421 0 0.12384490226921421 -0.003983662538567783 0 0 0 0 3.4480989785715792 -2.372638067928583 0 -2.372638067928583 -0.45577314429792659 0 0 0 0 3.1328710933448747 8.0931283802689009 0 8.0931283802689009 -11.81109148346972 0 0 0 0 -18.395084356685402 -65.263204135427344 0 -65.263204135427344 -45.285697587221783 0 0 0 0 -0.084866696543684839 -0.070936172341532711 0 -0.070936172341532711 0.01098083477779048 0 0 0 0 -9.3426630722824484 13.121992381449374 0 13.121992381449374 -6.3848203150280654 0 0 0 0 17.021561072679106 2.285051049524867 0 2.285051049524867 -3.0614306405522926 0 0 0 0 3.7333325763815708 2.0349609579429959 0 2.0349609579429959 -0.36604135632334345 0 0 0 0 10.440471490830532 0.90016307572871312 0 0.90016307572871312 -6.5104075130847647 0 0 0 0 -5.6987298173189629 8.9227340408075193 0 8.9227340408075193 0.12816081181459038 0 0 0 0 0.50397988361061152 -0.18324681441849577 0 -0.18324681441849577 -0.49305318504149231 0 0 0 0 1380.3250674116862 -757.31502473731803 0 -757.31502473731803 391.63024581399799 0 0 0 0 607.85976668250805 -206.14078042900573 0 -206.14078042900573 -1.3731420684001658 0 0 0 0 43.55231166080921 -215.85520819002988 0 -215.85520819002988 -130.64675336743255 0 0 0 0 -14.182554664483177 -88.160434966803294 0 -88.160434966803294 0.40133136322607776 0 0 0 0 45.871031699876767 4.5605931880473918 0 4.5605931880473918 -16.267552592965671 0 0 0 0 647.01128322281875 162.84148298023746 0 162.84148298023746 -352.38213504172921 0 0 0 0 1.0340699060315046 -2.6775751081160877 0 -2.6775751081160877 -1.2180917668086466 0 0 0 0 8.0696826878229331 -0.49077527028290291 0 -0.49077527028290291 -125.72782758293806 0 0 0 0 253.10710085844039 -776.94615612139592 0 -776.94615612139592 1005.9348789272393 0 0 0 0 11.092849965554734 0.35203607725719621 0 0.35203607725719621 -1.0012440663715423 0 0 0 0 733.84866268950282 -606.22509563312269 0 -606.22509563312269 937.74973399964665 0 0 0 0 3.110744061135307 -1.9934007846864574 0 -1.9934007846864574 1.9117057858657085 0 0 0 0 1428.3542389428767 -753.33339030899447 0 -753.33339030899447 332.06175602289568 0 0 0 0 295.05056254306692 -534.25179235796156 0 -534.25179235796156 326.48829734512879 0 0 0 0 159.62714470614446 -213.76791888711782 0 -213.76791888711782 695.01731803601797 0 0 0 0 628.99254091440162 201.13345656112824 0 201.13345656112824 236.93009314952104 0 0 0 0 112.4232632004605 214.07483400475303 0 214.07483400475303 240.05488076493435 0 0 0 0 -118.21104044209642 -239.59884033615646 0 -239.59884033615646 226.20476495324269 0 0 0 0 1051.8893930760896 -559.64507532085588 0 -559.64507532085588 306.69349558680585 0 0 0 0 247.64285812297021 44.13285304626848 0 44.13285304626848 -210.33745543376529 0 0 0 0 99.293556502991123 71.162934263595247 0 71.162934263595247 -99.083903629927363 0 0 0 0 72.343929618808033 -442.61016510581862 0 -442.61016510581862 653.86007324530965 0 0 0 0 553.59093434795795 -96.128445588807438 0 -96.128445588807438 74.057158514280886 0 0 0 0 172.03049480043774 -567.08749716814793 0 -567.08749716814793 463.86537289337554 0 0 0 0 89.50266391376681 -769.43180613313666 0 -769.43180613313666 251.99423425727878 0 0 0 0 4.7784838795806763 -3.7252122499063915 0 -3.7252122499063915 2.2906833701682818 0 0 0 0 821.02230091401725 -56.596650125395769 0 -56.596650125395769 -144.52294810687658 0 0 0 0 860.21572299689797 -484.70350565356301 0 -484.70350565356301 12.094316964006737 0 0 0 0 407.61633598301705 -234.2123634309778 0 -234.2123634309778 -97.865747467334472 0 0 0 0 406.13832129643561 -76.528721147876354 0 -76.528721147876354 -170.32627838610628 0 0 0 0 493.37031991142794 -180.32347828779058 0 -180.32347828779058 -126.59595252078964 0 0 0 0 103.22773194492038 83.728173498941487 0 83.728173498941487 -120.17906791134023 0 0 0 0 11.023142903890971 -7.7569142599272425 0 -7.7569142599272425 3.9097817346254828 0 0 0 0 39.47061409480375 -239.25383126043482 0 -239.25383126043482 -216.98244759981139 0 0 0 0 51.214432999593555 -273.61922033009711 0 -273.61922033009711 -475.76096512979166 0 0 0 0 -78.512178206747194 -16.818475904672766 0 -16.818475904672766 -17.695035715795825 0 0 0 0 -116.176477239017 -75.871277949653347 0 -75.871277949653347 -85.891335054674983 0 0 0 0 -151.29079729260502 -252.19297872306709 0 -252.19297872306709 -180.95324346864197 0 0 0 0 134.27224864863092 -49.055171913557501 0 -49.055171913557501 -152.68246798820195 0 0 0 0 126.38540240783914 -88.799411934480275 0 -88.799411934480275 58.410441446894197 0 0 0 0 -85.720773304085014 -100.90610425810556 0 -100.90610425810556 73.508481442907737 0 0 0 0 -73.213195777054352 -169.78584973144984 0 -169.78584973144984 -120.92185733345764 0 0 0 0 -96.373857951664831 -102.36976120730856 0 -102.36976120730856 -106.16822396612929 0 0 0 0 133.81948620457115 164.79795481711619 0 164.79795481711619 74.821274162431564 0 0 0 0 2.3265305736539972 -0.97616896353468974 0 -0.97616896353468974 0.31251176002423631 0 0 0 0 231.99392019266452 60.82010488148731 0 60.82010488148731 -106.89448686528249 0 0 0 0 421.68651554375538 -50.60736032326588 0 -50.60736032326588 -63.181531963384685 0 0 0 0 1.0691144182070218 -0.83113115207090971 0 -0.83113115207090971 0.54125409961315007 0 0 0 0 389.99299218712986 -113.40417026757564 0 -113.40417026757564 35.455002779823232 0 0 0 0 401.70468498111586 -115.08308840351336 0 -115.08308840351336 23.833674495329433 0 0 0 0 410.52753661137103 -125.320455958655 0 -125.320455958655 20.065363353580892 0 0 0 0 0.51056583684076884 -0.31380500437323633 0 -0.31380500437323633 -1.7888057119472445 0 0 0 0 140.51783468906069 -51.694175731422092 0 -51.694175731422092 -134.33922668001674 0 0 0 0 362.46651297227072 156.9962185654249 0 156.9962185654249 -20.273355629835351 0 0 0 0 75.68255377621972 -54.493798518320261 0 -54.493798518320261 -22.794662782407784 0 0 0 0 115.78907414907007 -36.31928830403649 0 -36.31928830403649 -101.21259842234224 0 0 0 0 291.41853077661654 94.557947635745222 0 94.557947635745222 -74.754779848143016 0 0 0 0 119.76386433643347 97.440318391947699 0 97.440318391947699 65.300051459362976 0 0 0 0 346.63329714376596 200.17969684924356 0 200.17969684924356 -72.034217354465454 0 0 0 0 252.96953499381198 25.815943131119184 0 25.815943131119184 25.85847393833933 0 0 0 0 112.49073367819074 259.11437287749834 0 259.11437287749834 152.60618815733778 0 0 0 0 2.5073795326698871 -1.2499916109460401 0 -1.2499916109460401 0.37441813771284904 0 0 0 0 -125.47342037777707 -141.51279886272329 0 -141.51279886272329 -161.54133836439507 0 0 0 0 -144.28754967032 -161.21072563875686 0 -161.21072563875686 -175.93330503848597 0 0 0 0 -127.57164290334185 -161.17055569249143 0 -161.17055569249143 -198.36762214560815 0 0 0 0 -75.606679731776239 -120.55739018181805 0 -120.55739018181805 -175.58556487512362 0 0 0 0 -92.672800479878788 -134.70086917994922 0 -134.70086917994922 -181.85010461978163 0 0 0 0 -163.1157124144811 -143.1012806341954 0 -143.1012806341954 -146.89506146707589 0 0 0 0 127.4574326347074 -82.107938354710896 0 -82.107938354710896 -185.41412857710324 0 0 0 0 7.3865548695862913 -4.4612704842887894 0 -4.4612704842887894 1.5469058629782315 0 0 0 0 80.851958587369154 -112.33604254063054 0 -112.33604254063054 -148.72300285576227 0 0 0 0 -154.7204580741236 -179.25594004810796 0 -179.25594004810796 -177.38925818365385 0 0 0 0 4.3741376628895523 34.111072884381656 0 34.111072884381656 -76.069750597749078 0 0 0 0 147.01120530258049 -88.422530743612924 0 -88.422530743612924 -108.25798526127801 0 0 0 0 128.55513798900938 -34.267659988776899 0 -34.267659988776899 -194.58185689189696 0 0 0 0 27.094824950298062 -32.671004445203891 0 -32.671004445203891 120.15500085710812 0 0 0 0 -32.282528564952372 -164.64625086147555 0 -164.64625086147555 -256.94637788234087 0 0 0 0 10.721400054129788 -7.2400630354546109 0 -7.2400630354546109 3.387544997046211 0 0 0 0 -66.423913572400124 -23.682049310652502 0 -23.682049310652502 40.107907698839426 0 0 0 0 30.013036399293924 59.310778018303552 0 59.310778018303552 -117.96343281687678 0 0 0 0 184.10939049414446 36.877358567796534 0 36.877358567796534 -131.67334196771702 0 0 0 0 3.1330296474529007 0.48369078653772135 0 0.48369078653772135 -5.2793105240741456 0 0 0 0 389.20776025817031 28.011799961097324 0 28.011799961097324 -336.422392085203 0 0 0 0 203.29247878872411 141.01740823649254 0 141.01740823649254 -14.499879086706358 0 0 0 0 576.63198873338843 -380.46445496117815 0 -380.46445496117815 428.31882571998085 0 0 0 0 404.76106251341116 171.44651727561501 0 171.44651727561501 69.392134637053402 0 0 0 0 2.6958853699645147 -1.6646936420234653 0 -1.6646936420234653 0.93282726187496179 0 0 0 0 -14.12979226555035 -429.10690685082966 0 -429.10690685082966 -65.906880953503332 0 0 0 0 -116.81648320522072 -292.44214791834332 0 -292.44214791834332 -216.8834911514582 0 0 0 0 275.65058805471926 416.10228336961325 0 416.10228336961325 159.65042462981239 0 0 0 0 276.03489833588173 687.05341943743917 0 687.05341943743917 -446.9480654607047 0 0 0 0 388.13020043449797 248.66484146594729 0 248.66484146594729 75.966575231128218 0 0 0 0 103.38732026903017 -514.08449905648126 0 -514.08449905648126 -187.29224862826436 0 0 0 0 4.7675660116925371 -1.3921847826578002 0 -1.3921847826578002 -0.053303525487272685 0 0 0 0 -137.49349012234597 213.45467953332403 0 213.45467953332403 109.66525294515168 0 0 0 0 226.87335318545229 220.64550640607737 0 220.64550640607737 196.75363203208258 0 0 0 0 224.98321063796175 -614.33471610324068 0 -614.33471610324068 -121.131777346533 0 0 0 0 282.08536889291281 -97.892171786085953 0 -97.892171786085953 227.0244106364346 0 0 0 0 490.48873577773338 -66.866131704040413 0 -66.866131704040413 81.649448825934144 0 0 0 0 288.97952747254749 27.403042252674098 0 27.403042252674098 9.6789861208454226 0 0 0 0 337.09890159054794 41.939771880625116 0 41.939771880625116 6.9793164168426074 0 0 0 0 85.618909189099213 78.12660939375715 0 78.12660939375715 69.898430228084806 0 0 0 0 241.34219033028057 103.86157679572683 0 103.86157679572683 2.0344310378384307 0 0 0 0 98.44524851285405 5.8054217469324456 0 5.8054217469324456 -6.6891862572005039 0 0 0 0 137.07512657769257 23.962839861203719 0 23.962839861203719 5.972800526226365 0 0 0 0 126.02597000107926 52.231749070726096 0 52.231749070726096 4.2983557332694611 0 0 0 0 341.53003491567506 57.895686187409339 0 57.895686187409339 -37.997994913872532 0 0 0 0 61.547967467242415 -9.3309179575940959 0 -9.3309179575940959 24.221049400232346 0 0 0 0 76.099040432811307 167.7485322929864 0 167.7485322929864 122.4235447613239 0 0 0 0 7.4464346237601262 -4.1577725245222723 0 -4.1577725245222723 -0.23411194432185867 0 0 0 0 80.833529915136751 64.257756321919729 0 64.257756321919729 17.399090411793338 0 0 0 0 1.7386270793410432 1.5460879068852762 0 1.5460879068852762 -3.7383391950051803 0 0 0 0 24.641202854087169 1.8525846258961352 0 1.8525846258961352 26.277772891420952 0 0 0 0 -54.33913296800165 110.66417816731075 0 110.66417816731075 -175.49701945622081 0 0 0 0 9.1782691297119072 -4.8274142229071231 0 -4.8274142229071231 0.85526658339923167 0 0 0 0 162.7518095299456 -267.86595007157928 0 -267.86595007157928 237.66149337874356 0 0 0 0 -40.019297034908959 229.31094189922479 0 229.31094189922479 5.9993835599106831 0 0 0 0 110.96117809916905 -8.7416683538900202 0 -8.7416683538900202 -23.883980386907695 0 0 0 0 97.304353460349375 40.993801057257542 0 40.993801057257542 -21.51503438615272 0 0 0 0 10.539110591620556 -4.1579640201807084 0 -4.1579640201807084 22.674259633525931 0 0 0 0 87.903464059265389 -16.459371900437027 0 -16.459371900437027 -0.043117219473601934 0 0 0 0 157.60279294432257 -436.24683763545914 0 -436.24683763545914 582.12382393346479 0 0 0 0 -0.40044562446333032 0.23369103223498655 0 0.23369103223498655 -0.30613015398649279 0 0 0 0 325.53735962872088 3.8362577928715274 0 3.8362577928715274 -44.709780151576233 0 0 0 0 233.56103778455872 34.369958410499521 0 34.369958410499521 -34.34442790108686 0 0 0 0 122.07038759504212 7.5292783971629014 0 7.5292783971629014 -1.5630286809113016 0 0 0 0 233.54164763008885 13.897355175133502 0 13.897355175133502 -32.339470522053759 0 0 0 0 176.49348450660182 25.958518951109991 0 25.958518951109991 -19.286975236192315 0 0 0 0 199.27848773011647 -9.4603636870852252 0 -9.4603636870852252 13.001233548025613 0 0 0 0 294.39466191056999 18.747721342179169 0 18.747721342179169 -42.96493228942667 0 0 0 0 278.26431384813623 -19.243041577611248 0 -19.243041577611248 0.11857988973687988 0 0 0 0 354.50297786090232 -18.258845359946037 0 -18.258845359946037 -26.119266959135228 0 0 0 0 412.27937405332341 9.9588438171613376 0 9.9588438171613376 -25.332724158475781 0 0 0 0 392.73038201764575 115.38877490221289 0 115.38877490221289 -0.1076626179057051 0 0 0 0 425.05941820525913 -48.011885333051836 0 -48.011885333051836 76.552908003181827 0 0 0 0 311.02255773943034 151.34526547937347 0 151.34526547937347 81.757429744757232 0 0 0 0 517.0952054294612 83.455008596891773 0 83.455008596891773 -23.925289753783403 0 0 0 0 447.29862660856452 131.8481337373386 0 131.8481337373386 15.153476285228379 0 0 0 0 366.0331758012544 82.847022644974786 0 82.847022644974786 -27.234804342654058 0 0 0 0 366.83288121363148 132.93422869298368 0 132.93422869298368 23.740214538562299 0 0 0 0 283.79498019392486 92.796666239373451 0 92.796666239373451 4.3531496871560194 0 0 0 0 403.47986091571511 29.521539158643449 0 29.521539158643449 -57.397923139096719 0 0 0 0 353.85583761596354 64.163268181170565 0 64.163268181170565 -24.408810301620576 0 0 0 0 441.29681350530882 60.905858212695541 0 60.905858212695541 -30.607199522880563 0 0 0 0 332.86750136539922 28.307164099777765 0 28.307164099777765 -56.908715634337035 0 0 0 0 274.00073228494148 58.445389159882225 0 58.445389159882225 -32.897947289918903 0 0 0 0 341.11118667349365 43.595993660006208 0 43.595993660006208 -57.041753330169968 0 0 0 0 308.03475031585549 41.487089193618289 0 41.487089193618289 -56.899741487883745 0 0 0 0 335.49158390974117 29.100513323054066 0 29.100513323054066 -62.061715126434365 0 0 0 0 125.07549717920483 16.243811660823297 0 16.243811660823297 -12.006174264476115 0 0 0 0 287.00866444162966 4.9519578833829883 0 4.9519578833829883 -26.495151268472 0 0 0 0 275.18080423108768 66.036955625213849 0 66.036955625213849 -9.6584397197671308 0 0 0 0 104.2082000253431 60.038691091897434 0 60.038691091897434 25.030896258712517 0 0 0 0 32.379885638758424 25.745505960031579 0 25.745505960031579 27.273391385594834 0 0 0 0 -24.800882292547612 74.676925585350247 0 74.676925585350247 112.19438733965919 0 0 0 0 6.4826643577835057 -2.6867149024099719 0 -2.6867149024099719 -7.5753629478878235 0 0 0 0 1.7390186888541166 0.14873482262435189 0 0.14873482262435189 -0.011404735476812131 0 0 0 0 154.98337349836947 118.71284072924431 0 118.71284072924431 122.89766510290374 0 0 0 0 122.70248030236689 82.310872699529781 0 82.310872699529781 39.294682866066722 0 0 0 0 111.79577689681901 53.598880143086816 0 53.598880143086816 42.494783507152682 0 0 0 0 132.51013557449915 63.21319595410899 0 63.21319595410899 19.608227359301935 0 0 0 0 271.09777837200818 112.69150452496459 0 112.69150452496459 34.842720700428686 0 0 0 0 132.96281554881716 96.269827609703768 0 96.269827609703768 68.567487154230818 0 0 0 0 0.032665034359524725 2.4125972406659506 0 2.4125972406659506 0.021835024938056214 0 0 0 0 -23.961234027607134 -39.768446446770042 0 -39.768446446770042 -21.993251732339544 0 0 0 0 -54.756767454964574 -57.429904002348124 0 -57.429904002348124 16.025200066978812 0 0 0 0 -19.806072043254972 -14.989941171200456 0 -14.989941171200456 8.4172314735406744 0 0 0 0 -5.4620636705949437 39.497811258008909 0 39.497811258008909 66.838352445550015 0 0 0 0 -91.764304104362964 -17.625688589509473 0 -17.625688589509473 69.254929026442852 0 0 0 0 4.1498020120914987 0.10337594704306596 0 0.10337594704306596 -0.039552782569092879 0 0 0 0 -23.465905433869921 -28.419037725656317 0 -28.419037725656317 -28.943537768342814 0 0 0 0 6.9668726344389142 0.11733957267871531 0 0.11733957267871531 -1.2484304245220514 0 0 0 0 3.2083427305488499 0.44892269362664194 0 0.44892269362664194 0.030175860936974677 0 0 0 0 16.968508109079266 2.755249772431462 0 2.755249772431462 -18.079778566307112 0 0 0 0 -29.292967115048668 -6.9730881919454646 0 -6.9730881919454646 -20.91244286943288 0 0 0 0 -29.200587898638332 -2.9406449268808217 0 -2.9406449268808217 -6.9857278781402883 0 0 0 0 4.5631043588197713 2.1182593667048053 0 2.1182593667048053 1.4425743421812971 0 0 0 0 25.359253763796005 2.0459005313519896 0 2.0459005313519896 -1.0374137879255159 0 0 0 0 -29.004915761834127 4.160567304065296 0 4.160567304065296 33.261758912140607 0 0 0 0 11.858507086837562 18.501926474273127 0 18.501926474273127 -71.759491625179805 0 0 0 0 63.161750169703737 55.271418824398353 0 55.271418824398353 6.6841334177526299 0 0 0 0 2.6067186332251708 2.2356942980060523 0 2.2356942980060523 1.5934183361501182 0 0 0 0 2.4919980898339418 -30.896298535797996 0 -30.896298535797996 -37.009795880041452 0 0 0 0 17.913274518376966 -10.315587866819756 0 -10.315587866819756 -10.457206148939093 0 0 0 0 20.741010397410719 -25.823640229801924 0 -25.823640229801924 -39.560962821198359 0 0 0 0 123.05012589829857 53.451717112482811 0 53.451717112482811 -13.894418170770507 0 0 0 0 12.486072821950074 -9.11424163086539 0 -9.11424163086539 -49.270239098045622 0 0 0 0 1.3150516989777543 0.90825416707424722 0 0.90825416707424722 0.6713617755474357 0 0 0 0 399.50647417130546 -86.527875317684675 0 -86.527875317684675 -12.609650696821802 0 0 0 0 -15.123515935745672 143.93689525307562 0 143.93689525307562 25.834671324139645 0 0 0 0 399.77193040242855 72.435994986720885 0 72.435994986720885 3.282396142556081 0 0 0 0 341.42096756950741 4.0187959577096493 0 4.0187959577096493 154.24564760806697 0 0 0 0 325.08973794226767 25.897420960562869 0 25.897420960562869 -62.518927400856597 0 0 0 0 349.71943510231085 13.641606540195383 0 13.641606540195383 -56.605837614786935 0 0 0 0 84.280851441144478 -40.504905289153385 0 -40.504905289153385 -3.6273306593720918 0 0 0 0 212.03532017594262 36.644476112524821 0 36.644476112524821 16.68632826376448 0 0 0 0 225.01573545662632 84.639839293584515 0 84.639839293584515 -55.778502802581244 0 0 0 0 205.21663300592104 5.6479867263120918 0 5.6479867263120918 9.314617559265912 0 0 0 0 227.79718262406823 15.765506403998318 0 15.765506403998318 0.20582814755372006 0 0 0 0 344.71116818783776 -121.47490716338049 0 -121.47490716338049 135.25051455552671 0 0 0 0 226.07586117065512 74.338982565966788 0 74.338982565966788 74.577981791586325 0 0 0 0 227.4135491347115 16.524649955257402 0 16.524649955257402 -40.959811929659082 0 0 0 0 472.20633860777889 -167.96364873400489 0 -167.96364873400489 -123.22525681347551 0 0 0 0 481.42340962350863 -199.64374986311742 0 -199.64374986311742 -85.378125722853014 0 0 0 0 418.28167885487346 -211.56304950754554 0 -211.56304950754554 33.287311590068278 0 0 0 0 489.76364696549717 -75.695097270397085 0 -75.695097270397085 -0.2907971460359588 0 0 0 0 151.48341928218724 -167.30922113774938 0 -167.30922113774938 69.855479241357713 0 0 0 0 89.760762737525511 79.245141425721201 0 79.245141425721201 79.066015110942999 0 0 0 0 3.1089960381537196 -0.91852495881521889 0 -0.91852495881521889 -0.27360257625902684 0 0 0 0 1.5080905232186126 -1.0425279145298418 0 -1.0425279145298418 -0.28759173520871845 0 0 0 0 7.0031679765015724 0.49984908757991608 0 0.49984908757991608 -0.00056631217244394359 0 0 0 0 72.035199510632083 -151.63163709289549 0 -151.63163709289549 94.802306526024609 0 0 0 0 -159.15290026039293 35.612280430443974 0 35.612280430443974 196.17888363187535 0 0 0 0 2.5762929031320958 -1.8987449012370234 0 -1.8987449012370234 -1.4517574409690046 0 0 0 0 112.13808508217335 -74.32444152939982 0 -74.32444152939982 -22.392260507409475 0 0 0 0 578.27686304459348 -58.368682543010493 0 -58.368682543010493 -31.577514882300335 0 0 0 0 142.71522117509448 214.56693381933476 0 214.56693381933476 62.839144183173971 0 0 0 0 414.38064397593553 -235.98631357542098 0 -235.98631357542098 -20.811634757048132 0 0 0 0 0.92569709394698663 -2.6214300372257924 0 -2.6214300372257924 0.35739162892286064 0 0 0 0 259.38912543890183 89.531370120419069 0 89.531370120419069 -3.7329311069881328 0 0 0 0 -24.071655298059341 -286.83491756543725 0 -286.83491756543725 -125.95414417279969 0 0 0 0 626.11389129340205 137.60221478070955 0 137.60221478070955 2.565415707029473 0 0 0 0 2.8421754686880831 -1.8578208409890493 0 -1.8578208409890493 0.71798469892647598 0 0 0 0 132.97817113994097 19.173141074321506 0 19.173141074321506 -40.852001250599429 0 0 0 0 43.366628355499415 78.525226796037529 0 78.525226796037529 -59.634131596892132 0 0 0 0 6.1972845704032409 -4.4261411364188916 0 -4.4261411364188916 1.9205156102185659 0 0 0 0 48.123493758968834 -56.75326129488613 0 -56.75326129488613 -138.54412744930482 0 0 0 0 31.146420732315164 69.929259464947222 0 69.929259464947222 5.1284237068895351 0 0 0 0 260.8975608311157 124.67033771994647 0 124.67033771994647 -88.81396105514645 0 0 0 0 241.21327543881489 80.517769857247785 0 80.517769857247785 -58.041329337623296 0 0 0 0 145.42759134983589 123.84176314920983 0 123.84176314920983 -64.8094399072545 0 0 0 0 38.958504776464906 13.890320680542859 0 13.890320680542859 -91.324606606485759 0 0 0 0 59.421304341987707 -154.48932041519973 0 -154.48932041519973 105.31522385823396 0 0 0 0 6.9402087495215881 -4.7522325188138979 0 -4.7522325188138979 1.6554408730694357 0 0 0 0 232.39170587132685 191.29578399785638 0 191.29578399785638 14.081125866243781 0 0 0 0 301.60590539922123 60.343937748260814 0 60.343937748260814 -59.508415092633044 0 0 0 0 172.82861218076869 -32.773020704796124 0 -32.773020704796124 37.753452317928804 0 0 0 0 133.35369137515227 60.198821722085142 0 60.198821722085142 8.6032374697322211 0 0 0 0 39.243160597143287 22.183736646354191 0 22.183736646354191 3.40256048935737 0 0 0 0 146.10577125987038 -9.1215764889140019 0 -9.1215764889140019 -13.433321916877617 0 0 0 0 210.03626819400961 -68.594388001788417 0 -68.594388001788417 22.324299914597532 0 0 0 0 132.03337410860695 -178.56745644752823 0 -178.56745644752823 -58.861418444293577 0 0 0 0 615.95348013020703 -3.5758883131211405 0 -3.5758883131211405 -52.484716933330674 0 0 0 0 -155.63738329327316 -123.27441910528874 0 -123.27441910528874 -9.9366929123568752 0 0 0 0 0.73022231634317336 -1.2606499234888133 0 -1.2606499234888133 0.053972792040429152 0 0 0 0 232.61854695050351 -112.62410131567435 0 -112.62410131567435 -15.660597551587443 0 0 0 0 139.84711639182933 -74.3497280415977 0 -74.3497280415977 -31.434724719041924 0 0 0 0 62.538888274269993 -83.898278445059418 0 -83.898278445059418 -2.8022587154323446 0 0 0 0 135.86162461579079 -96.298712967282199 0 -96.298712967282199 -52.666323470589532 0 0 0 0 -49.808384802250657 123.40066617773147 0 123.40066617773147 -73.80978335591378 0 0 0 0 78.225190360411943 35.772234475059179 0 35.772234475059179 -101.90163155667506 0 0 0 0 110.18565448177105 -18.972982174116169 0 -18.972982174116169 -13.041646216408594 0 0 0 0 53.065871068247361 40.616312695630825 0 40.616312695630825 -67.410158316768729 0 0 0 0 37.966107827232918 51.727930232976973 0 51.727930232976973 -70.585529461150657 0 0 0 0 96.570737869544246 52.810096090523245 0 52.810096090523245 -76.010053639629405 0 0 0 0 43.302815527005805 71.853114229766959 0 71.853114229766959 -105.46270203942959 0 0 0 0 244.88743463174615 88.648162036693975 0 88.648162036693975 -107.27242544313529 0 0 0 0 175.9316514669772 111.04722967346561 0 111.04722967346561 -109.90529017731467 0 0 0 0 145.09808570401219 20.434899457506219 0 20.434899457506219 -88.117680803094572 0 0 0 0 39.970811349994619 54.355089679610899 0 54.355089679610899 -64.306292508320212 0 0 0 0 156.67693221912486 100.17775345895888 0 100.17775345895888 -35.58883811972359 0 0 0 0 230.53244280587387 65.745238276142004 0 65.745238276142004 -310.45863037534531 0 0 0 0 273.28255300469755 144.46492519610055 0 144.46492519610055 -61.26400582909514 0 0 0 0 174.04138760804199 9.4025651579918872 0 9.4025651579918872 171.7682023733818 0 0 0 0 174.04956702041818 201.98993719732181 0 201.98993719732181 18.244014900384371 0 0 0 0 121.14632426615572 74.549437808559091 0 74.549437808559091 -54.490089946051739 0 0 0 0 91.520852374014794 -6.9304175427184873 0 -6.9304175427184873 -41.578008747886116 0 0 0 0 59.867627852647274 -53.008722037992811 0 -53.008722037992811 -60.939160984564751 0 0 0 0 325.2794296204811 -84.748186709208085 0 -84.748186709208085 -49.068188347181263 0 0 0 0 266.99881893793645 138.42668768027437 0 138.42668768027437 -31.157076827499168 0 0 0 0 648.47893412822441 311.60735425511297 0 311.60735425511297 71.417482935667294 0 0 0 0 158.86162321912343 -115.09740381103359 0 -115.09740381103359 22.725201398041918 0 0 0 0 166.37921916933556 -52.742212119468945 0 -52.742212119468945 -4.4698944306804833 0 0 0 0 541.08694983174792 -311.43549561871748 0 -311.43549561871748 33.058002172186889 0 0 0 0 -87.06978342270304 -120.63603228741516 0 -120.63603228741516 80.109723726234066 0 0 0 0 -26.677350513185957 126.75186600639766 0 126.75186600639766 128.2884207027879 0 0 0 0 608.39776736834028 -360.49397450855247 0 -360.49397450855247 -514.74962605492874 0 0 0 0 4.5807546406717279 -1.1243372038847212 0 -1.1243372038847212 -0.34656294465215298 0 0 0 0 180.40542643591471 143.78939782638986 0 143.78939782638986 26.258303039802627 0 0 0 0 167.09757083144632 -62.730165821873307 0 -62.730165821873307 -245.67369683608968 0 0 0 0 9.8005399266433528 -2.3025296662901198 0 -2.3025296662901198 -0.99675909592514955 0 0 0 0 98.86207394223311 191.77356693527531 0 191.77356693527531 -152.36496598522962 0 0 0 0 33.400733411668625 53.227129195070177 0 53.227129195070177 46.6508110887425 0 0 0 0 474.54477240484994 -166.31275774349115 0 -166.31275774349115 -6.0577408965031054 0 0 0 0 39.230161714416226 2.7505884384961767 0 2.7505884384961767 223.20768264460935 0 0 0 0 38.806081636328599 -79.495700721633227 0 -79.495700721633227 29.298914787770059 0 0 0 0 90.098972214400419 -165.49548367219091 0 -165.49548367219091 -318.64723391319876 0 0 0 0 15.293864071404727 -5.6749000063324715 0 -5.6749000063324715 0.44398702298235371 0 0 0 0 46.38482439341351 -34.684393060872992 0 -34.684393060872992 -156.05760207188837 0 0 0 0 322.1913495663066 173.75565314305447 0 173.75565314305447 -135.59441382535749 0 0 0 0 13.4108497744094 -4.2569411541271478 0 -4.2569411541271478 -0.073528052543881728 0 0 0 0 42.945700997661334 -145.48461002097423 0 -145.48461002097423 -145.02220445708997 0 0 0 0 101.95685315132141 64.079881318332241 0 64.079881318332241 -37.86592424899618 0 0 0 0 770.90493430610513 451.58998813633707 0 451.58998813633707 248.94273645602203 0 0 0 0 288.36056642352924 288.97520774495479 0 288.97520774495479 204.25590443643478 0 0 0 0 298.5191967656865 236.47571005701897 0 236.47571005701897 68.612095046740819 0 0 0 0 291.83716143294441 146.87644665918435 0 146.87644665918435 -154.06564171138734 0 0 0 0 398.5710084751845 273.38280923873253 0 273.38280923873253 -103.57482956377396 0 0 0 0 395.40319554028974 350.27890451674705 0 350.27890451674705 24.819632446729884 0 0 0 0 88.145216421711666 187.86872503465469 0 187.86872503465469 -93.530448871083991 0 0 0 0 740.21962759708549 128.23350368359527 0 128.23350368359527 -167.61258678059386 0 0 0 0 579.25754248915473 -319.1703977460192 0 -319.1703977460192 -376.45112238501923 0 0 0 0 457.67159154357796 456.69693756035895 0 456.69693756035895 -12.55613199165299 0 0 0 0 7.1877205365693726 -0.090795320906080335 0 -0.090795320906080335 -0.42012968996041872 0 0 0 0 44.783209553752386 -44.51058904732804 0 -44.51058904732804 -389.29698144410042 0 0 0 0 15.822665541594574 -0.4899737141339191 0 -0.4899737141339191 -0.98412237010054815 0 0 0 0 1.7627604546723887 69.377486801589953 0 69.377486801589953 -108.4944961645343 0 0 0 0 185.72926170266146 -208.21401519101789 0 -208.21401519101789 -586.85478885774592 0 0 0 0 -67.919741198242264 10.173373256243821 0 10.173373256243821 -132.04806986644485 0 0 0 0 279.22338448118535 31.604004784989343 0 31.604004784989343 -524.14698868232472 0 0 0 0 370.7656636620959 154.84082357853003 0 154.84082357853003 -116.29378340686844 0 0 0 0 -8.028076530979888 138.80992565502675 0 138.80992565502675 -18.021524254191263 0 0 0 0 279.17242677943432 1.946545718159598 0 1.946545718159598 -91.661160384534924 0 0 0 0 19.672453836770728 -35.310618951296192 0 -35.310618951296192 -268.74344458011251 0 0 0 0 15.335980404673336 -1.3533374614117548 0 -1.3533374614117548 -0.74871835910247109 0 0 0 0 93.054627277495456 23.807202112167715 0 23.807202112167715 -205.41436562086449 0 0 0 0 452.83405173326901 -519.22948404889701 0 -519.22948404889701 -33.901705991445851 0 0 0 0 -0.97248047611356014 -380.43135992775933 0 -380.43135992775933 134.63684101862339 0 0 0 0 6.6615731974993366 -1.1088430555350008 0 -1.1088430555350008 -0.087292557607137056 0 0 0 0 507.67468293646289 -220.6343999987327 0 -220.6343999987327 146.04074144388483 0 0 0 0 276.39053506360506 -209.94171612389218 0 -209.94171612389218 271.12340914996821 0 0 0 0 283.90808477593237 -245.92705732417295 0 -245.92705732417295 319.68405875907729 0 0 0 0 329.4395891779277 -197.45226628552626 0 -197.45226628552626 167.37298937200148 0 0 0 0 392.92815419456019 -478.77500338932362 0 -478.77500338932362 292.66904762366374 0 0 0 0 23.871870485934778 12.923046390078525 0 12.923046390078525 -26.279444186485307 0 0 0 0 4.3665036346851025 2.0687922584424285 0 2.0687922584424285 -0.076549233830966124 0 0 0 0 366.48232704558905 -96.1846397301548 0 -96.1846397301548 94.281879330767879 0 0 0 0 273.75692738634825 76.628769947811975 0 76.628769947811975 -122.314321261766 0 0 0 0 36.00705074788857 -211.34523301149864 0 -211.34523301149864 174.97347862563845 0 0 0 0 362.61549130367348 -258.0296255270373 0 -258.0296255270373 235.89149261870489 0 0 0 0 338.9607925353921 21.168126079194053 0 21.168126079194053 182.6762923963031 0 0 0 0 702.84483068007239 -218.50655533637106 0 -218.50655533637106 339.74519966619232 0 0 0 0 383.01511103389203 -34.960452275695616 0 -34.960452275695616 488.57237218558873 0 0 0 0 369.94697881043248 -91.970365321677377 0 -91.970365321677377 321.31585997658522 0 0 0 0 488.87876373331346 -55.798721646856379 0 -55.798721646856379 112.07127959090735 0 0 0 0 331.70474453676434 10.354058075164403 0 10.354058075164403 280.62424092969451 0 0 0 0 470.74352346785599 -105.13071456349019 0 -105.13071456349019 169.28641894238922 0 0 0 0 701.95342482010892 59.469929795825266 0 59.469929795825266 283.96530274256929 0 0 0 0 2.7564218523802992 -4.6104085261889907 0 -4.6104085261889907 13.652324847556201 0 0 0 0 8.4556321326817852 26.787959619733442 0 26.787959619733442 -18.532756115711209 0 0 0 0 529.23723063138459 -209.11714445468675 0 -209.11714445468675 322.24409269938303 0 0 0 0 1.578631313020054 0.56338580143723505 0 0.56338580143723505 0.11487580897344918 0 0 0 0 -21.799979056428128 28.384742572702123 0 28.384742572702123 107.52121480247979 0 0 0 0 17.83210085517203 107.63515856431775 0 107.63515856431775 126.44150913041449 0 0 0 0 35.752734949030128 61.225066618828777 0 61.225066618828777 40.238073312875258 0 0 0 0 5.9539307183295023 43.77460529526013 0 43.77460529526013 60.458273517214479 0 0 0 0 -23.141889543541765 72.978827212841793 0 72.978827212841793 47.35226643108075 0 0 0 0 297.06702787239556 -69.791489730992112 0 -69.791489730992112 105.56613869770308 0 0 0 0 225.26609584815742 99.009551609566302 0 99.009551609566302 22.832770730752941 0 0 0 0 176.68298177573161 7.0320799336753339 0 7.0320799336753339 -36.242636198078799 0 0 0 0 168.29359797679354 125.73231431522811 0 125.73231431522811 -211.21691142556574 0 0 0 0 169.34790639286803 34.399016578677561 0 34.399016578677561 -91.503542338218267 0 0 0 0 175.58458959402196 -19.490612219829558 0 -19.490612219829558 -180.10852531973694 0 0 0 0 85.201114272727864 11.269284763795667 0 11.269284763795667 -117.07992318064444 0 0 0 0 34.989781546413724 117.01139817976915 0 117.01139817976915 -94.473200140175322 0 0 0 0 455.17121732355736 -106.71663057133071 0 -106.71663057133071 37.124393174419936 0 0 0 0 538.70179259071119 -22.649655752493132 0 -22.649655752493132 121.7143495913806 0 0 0 0 429.85681309370921 2.643059100585063 0 2.643059100585063 88.683619926284791 0 0 0 0 344.34795573353767 25.008444394022888 0 25.008444394022888 -54.779601653178247 0 0 0 0 343.23540790157858 -77.034060361933939 0 -77.034060361933939 16.252702967043433 0 0 0 0 395.02092300326331 12.692434051995406 0 12.692434051995406 -65.406195485799287 0 0 0 0 303.6481339471793 48.556712370284913 0 48.556712370284913 -145.9005807209802 0 0 0 0 308.05514857724938 -16.692663292619791 0 -16.692663292619791 -62.958826572162934 0 0 0 0 399.00593912377371 -18.044076270951223 0 -18.044076270951223 -70.26383528545027 0 0 0 0 418.72587351538641 -73.513274848359444 0 -73.513274848359444 -40.428380820906341 0 0 0 0 455.38546536104695 -31.978057678687151 0 -31.978057678687151 5.9307022258458915 0 0 0 0 425.39339810737874 -99.502146769723325 0 -99.502146769723325 -37.881693244721369 0 0 0 0 507.78632126510274 -220.47362700620329 0 -220.47362700620329 18.881443536022744 0 0 0 0 495.04538472810236 -116.1601887605576 0 -116.1601887605576 -43.418595109680496 0 0 0 0 455.98944416354061 -109.50949276968208 0 -109.50949276968208 43.889326564680914 0 0 0 0 565.10135337908559 -192.50182457644325 0 -192.50182457644325 77.65579356040621 0 0 0 0 182.12904429522314 -122.34973548932129 0 -122.34973548932129 101.51321885709251 0 0 0 0 260.79117198288441 -232.80616109308045 0 -232.80616109308045 203.80704820935273 0 0 0 0 332.05960306125507 -197.13650880324104 0 -197.13650880324104 39.653449145630248 0 0 0 0 343.03940667885763 -153.20183121940067 0 -153.20183121940067 -5.7575865169567919 0 0 0 0 372.9487283382914 -157.2055710203347 0 -157.2055710203347 -12.248141426375025 0 0 0 0 251.52593432192225 -160.69124751095325 0 -160.69124751095325 24.644195046564676 0 0 0 0 35.706987407713314 -63.683443801427302 0 -63.683443801427302 69.73003954845035 0 0 0 0 91.953834288578946 7.4747968837646113 0 7.4747968837646113 -30.160186004636444 0 0 0 0 11.363191051429311 2.858178893001849 0 2.858178893001849 -0.26372402281821183 0 0 0 0 204.72648648121685 -112.39967732459851 0 -112.39967732459851 26.744192971518455 0 0 0 0 -18.889526486847899 66.093468618081829 0 66.093468618081829 -42.00746076516532 0 0 0 0 180.73391873151195 -128.77499723658599 0 -128.77499723658599 77.749536615030138 0 0 0 0 8.6172715531964172 1.6992902890168082 0 1.6992902890168082 -0.41550714642245978 0 0 0 0 -41.456276213626552 66.575002539443972 0 66.575002539443972 76.246979728674205 0 0 0 0 31.058716648090922 -65.929540401664212 0 -65.929540401664212 102.51245105463158 0 0 0 0 144.34321649247431 11.270338793708788 0 11.270338793708788 -26.668363535398612 0 0 0 0 -64.439473158839974 46.227437796778531 0 46.227437796778531 84.252578960280971 0 0 0 0 -72.941411071067705 28.399137021804023 0 28.399137021804023 68.145244876679953 0 0 0 0 409.85189753019222 -441.51245130348559 0 -441.51245130348559 -74.832702404655265 0 0 0 0 5.5649455818939373 -1.4653772090030159 0 -1.4653772090030159 0.095285111146467649 0 0 0 0 670.61783741162617 -183.30316088013353 0 -183.30316088013353 180.79971068797886 0 0 0 0 661.38610063467058 -132.5045761910078 0 -132.5045761910078 111.91307140895742 0 0 0 0 559.69972269175923 -426.94520725039138 0 -426.94520725039138 309.60548973308732 0 0 0 0 3.7318894109423582 0.18180491230750562 0 0.18180491230750562 -0.27702112913040766 0 0 0 0 -46.90689026270411 45.556511953458028 0 45.556511953458028 49.044495750246824 0 0 0 0 37.696950071767787 -4.3614102993847155 0 -4.3614102993847155 8.2870724921468764 0 0 0 0 75.842223419851507 3.1020767261109086 0 3.1020767261109086 -0.36242886885929693 0 0 0 0 4.9507818407091548 -1.3102657386591829 0 -1.3102657386591829 2.8785126473482938 0 0 0 0 9.1166209840030206 0.96381246185967484 0 0.96381246185967484 -24.167393206532097 0 0 0 0 2.2945967358595141 0.45641437204736235 0 0.45641437204736235 -0.92108239342893583 0 0 0 0 3.4880553597586186 2.986896773318847 0 2.986896773318847 3.5941523071489812 0 0 0 0 76.144419232485234 -3.7375948880940086 0 -3.7375948880940086 -9.5450915774857776 0 0 0 0 75.008652257922222 -9.0182578772229363 0 -9.0182578772229363 5.6968744455533624 0 0 0 0 100.33037274474918 -10.026046347385318 0 -10.026046347385318 -21.34497555714006 0 0 0 0 85.328313495243492 -13.728768097121929 0 -13.728768097121929 0.53429645905134748 0 0 0 0 84.973090699313616 33.652477827779677 0 33.652477827779677 -37.350268485405195 0 0 0 0 2.3818316464021336 25.864819009284588 0 25.864819009284588 -4.8975221683867858 0 0 0 0 77.22265022231295 -6.9369634107131333 0 -6.9369634107131333 -22.478741864035328 0 0 0 0 90.136419477596064 7.0200822155748028 0 7.0200822155748028 -35.36431515284994 0 0 0 0 90.995972811011598 26.132682668426241 0 26.132682668426241 -7.8049972850676568 0 0 0 0 90.104455970766139 4.7274642022011903 0 4.7274642022011903 -4.506502032045546 0 0 0 0 68.33211783607112 31.779070637571294 0 31.779070637571294 11.661252053072985 0 0 0 0 31.590107864598394 34.987220697656539 0 34.987220697656539 16.313344810200988 0 0 0 0 61.762899831282994 13.659087843855218 0 13.659087843855218 30.419739578824647 0 0 0 0 13.855562798700802 12.119302623194443 0 12.119302623194443 -2.6777376797442987 0 0 0 0 28.52378027071245 34.592006997003409 0 34.592006997003409 36.282987454777299 0 0 0 0 92.790503250336769 61.120455578911418 0 61.120455578911418 124.3410701159296 0 0 0 0 44.155152121908031 -15.299596056745372 0 -15.299596056745372 55.910859654694832 0 0 0 0 132.90231174887595 -116.96369215490222 0 -116.96369215490222 127.35425968834443 0 0 0 0 12.622835900355348 4.9783540348144442 0 4.9783540348144442 -1.895297515200276 0 0 0 0 -50.715033520245925 -2.8527609006639523 0 -2.8527609006639523 207.95176626798343 0 0 0 0 -87.530402150703594 110.8486970938286 0 110.8486970938286 81.772439476768795 0 0 0 0 35.34920095858979 15.341577713467132 0 15.341577713467132 88.185386802045969 0 0 0 0 112.71542330601369 -1.2773389482140942 0 -1.2773389482140942 -28.030893331251264 0 0 0 0 52.154851964554894 11.081127560911291 0 11.081127560911291 -0.13286035098853555 0 0 0 0 10.843299017341224 -0.78003459279281628 0 -0.78003459279281628 -1.7910319089545683 0 0 0 0 36.663233923807638 2.890814418337186 0 2.890814418337186 -1.7451714924955013 0 0 0 0 30.428387354565928 3.3556533368664692 0 3.3556533368664692 0.5477868646723042 0 0 0 0 26.638473781742505 0.81152801855137113 0 0.81152801855137113 -1.3760258946112174 0 0 0 0 15.524767596618574 -5.7118878487971187 0 -5.7118878487971187 -0.91724655346231465 0 0 0 0 23.940115713507112 0.39385464720112395 0 0.39385464720112395 -0.49852111645236619 0 0 0 0 41.596619842690416 -10.595072957661614 0 -10.595072957661614 -2.6143866746151616 0 0 0 0 54.645689610086265 0.80954052443917135 0 0.80954052443917135 -21.017871833299068 0 0 0 0 58.707201705859916 35.945657112827348 0 35.945657112827348 9.1360417680543833 0 0 0 0 84.7867462059221 -25.946237330613712 0 -25.946237330613712 1.142190102588529 0 0 0 0 70.530908995540813 26.748958903013317 0 26.748958903013317 13.278799629680179 0 0 0 0 3.5098396442172657 -2.9013298083412451 0 -2.9013298083412451 -1.2383771243258233 0 0 0 0 15.150625722562836 -2.1559247544175264 0 -2.1559247544175264 -0.67271321248722415 0 0 0 0 35.641071347548859 5.5326069017230566 0 5.5326069017230566 -5.5052418089010189 0 0 0 0 24.897108193174063 0.30844883214643914 0 0.30844883214643914 -3.7966197098560315 0 0 0 0 25.38030378360105 -0.72268709627072703 0 -0.72268709627072703 -0.41528234084627663 0 0 0 0 46.076302121626213 34.829807546203938 0 34.829807546203938 12.230416815507397 0 0 0 0 23.137867012686911 -1.8836333590584786 0 -1.8836333590584786 1.3732751086560029 0 0 0 0 17.986474415915922 2.5335034387005493 0 2.5335034387005493 -0.96864455059759669 0 0 0 0 24.910827507876093 -3.891041875760834 0 -3.891041875760834 -2.8369892094940496 0 0 0 0 17.394420592108872 9.3019145180708804 0 9.3019145180708804 -1.6887840199518109 0 0 0 0 18.522809400505423 3.5022495134830294 0 3.5022495134830294 -0.64176976178624967 0 0 0 0 28.771530473808525 4.3970121916979679 0 4.3970121916979679 -5.2335446400229557 0 0 0 0 23.864299422479235 1.2426459662033835 0 1.2426459662033835 3.0899279208296093 0 0 0 0 26.063792086693297 9.9464777850559329 0 9.9464777850559329 -0.92338771078165838 0 0 0 0 49.971799555278267 11.00262370740154 0 11.00262370740154 -6.5554656165861616 0 0 0 0 26.10544385036701 2.2419590262826219 0 2.2419590262826219 -0.15353690383244611 0 0 0 0 17.054893768828368 0.037079983133835981 0 0.037079983133835981 0.84238992804938118 0 0 0 0 -19.028603002458112 28.252843143617156 0 28.252843143617156 -0.23286068911261282 0 0 0 0 27.316627313790377 16.286088125698598 0 16.286088125698598 1.8084474313413921 0 0 0 0 -0.40223789336552773 0.56964468635229082 0 0.56964468635229082 -0.2484069798793751 0 0 0 0 11.487337353355542 33.76172595713399 0 33.76172595713399 -23.305645483499575 0 0 0 0 32.032417835805973 18.222905743183503 0 18.222905743183503 -3.1232001230177957 0 0 0 0 6.5570576699624965 5.815101322233545 0 5.815101322233545 -3.6584783838457371 0 0 0 0 36.070571334930719 19.601961440883088 0 19.601961440883088 -16.433455883872284 0 0 0 0 15.963897306020954 -10.562235367860467 0 -10.562235367860467 0.67401596138711284 0 0 0 0 10.96314653825641 1.9206734443737474 0 1.9206734443737474 -3.3117425892546324 0 0 0 0 -10.120327931879729 13.867247236575167 0 13.867247236575167 42.065303807326018 0 0 0 0 12.507241318468004 2.3688009514744408 0 2.3688009514744408 -1.879331823098255 0 0 0 0 3.0292475585562499 1.6696437305285343 0 1.6696437305285343 0.76827862857340534 0 0 0 0 8.5336960107082405 5.6856666612828235 0 5.6856666612828235 -0.73191794929164899 0 0 0 0 60.509960952607798 38.228357307933493 0 38.228357307933493 -49.710333627745399 0 0 0 0 45.037296105670976 68.326899078468159 0 68.326899078468159 -31.082520270167379 0 0 0 0 71.513083687110338 21.708310675073221 0 21.708310675073221 -37.253216346957686 0 0 0 0 51.426500720044714 32.237631041471616 0 32.237631041471616 -13.309879500551688 0 0 0 0 55.248831774661085 26.888602196494503 0 26.888602196494503 -26.76136212444419 0 0 0 0 52.016406638198532 33.248016676936459 0 33.248016676936459 -22.514174749781432 0 0 0 0 54.044035320184776 26.597529343758993 0 26.597529343758993 -21.637718179016474 0 0 0 0 43.14295718203357 35.801248868706125 0 35.801248868706125 -14.81289634954328 0 0 0 0 37.290091241708069 28.415198361527445 0 28.415198361527445 -2.7219432288038661 0 0 0 0 37.598938912531594 33.326732569843671 0 33.326732569843671 -15.62953694182886 0 0 0 0 25.757092282205122 21.904462199907925 0 21.904462199907925 -5.2507486459808206 0 0 0 0 26.834261781055829 29.332141048921358 0 29.332141048921358 8.769955289016707 0 0 0 0 36.055929247202585 37.005317518564993 0 37.005317518564993 -4.6526767424938953 0 0 0 0 45.859052511041227 80.621572997257886 0 80.621572997257886 10.185121678865244 0 0 0 0 34.520767941318809 47.072701096577788 0 47.072701096577788 -1.2388722234916258 0 0 0 0 24.515180416361545 50.089741934104381 0 50.089741934104381 8.1166482644966891 0 0 0 0 24.477762272144901 55.708659254607369 0 55.708659254607369 35.452525823802944 0 0 0 0 12.461037196815596 35.088042054879793 0 35.088042054879793 24.625098642737953 0 0 0 0 17.106491052800266 42.0546417990181 0 42.0546417990181 34.725476966868882 0 0 0 0 -4.8939004543644842 17.746641895830749 0 17.746641895830749 24.593810721441628 0 0 0 0 18.70899471580924 43.883979915281202 0 43.883979915281202 28.18961931432284 0 0 0 0 12.602785444669166 24.0759768605167 0 24.0759768605167 7.8714235129300505 0 0 0 0 18.004888819603366 19.004279101458678 0 19.004279101458678 12.292548631716727 0 0 0 0 18.560698702990067 9.9380482999576358 0 9.9380482999576358 3.9786825014496117 0 0 0 0 8.6953347005328396 2.053802837800589 0 2.053802837800589 3.8759591578455002 0 0 0 0 -0.3465212920925751 0.58022598340284048 0 0.58022598340284048 -1.3266399431354277 0 0 0 0 -18.395223459228873 6.8471804717277109 0 6.8471804717277109 4.6518598535245133 0 0 0 0 4.303891003044555 6.8151202750717061 0 6.8151202750717061 4.5010927685323168 0 0 0 0 6.0823604755714769 10.045905640561955 0 10.045905640561955 10.248890814543614 0 0 0 0 -7.655478243901598 22.114146826079491 0 22.114146826079491 20.454679900858764 0 0 0 0 13.250393300550058 15.094004537757655 0 15.094004537757655 -4.6874327537916542 0 0 0 0 20.348577117809327 17.151683606275355 0 17.151683606275355 -4.6593493623240647 0 0 0 0 11.055914868352858 5.9378350449604653 0 5.9378350449604653 0.72511152060337025 0 0 0 0 17.141354269006115 0.66539014221285697 0 0.66539014221285697 -1.7097583062513877 0 0 0 0 30.337766352698964 16.145899938311686 0 16.145899938311686 1.9678725263399883 0 0 0 0 -5.5437764030648395 8.5483632437986898 0 8.5483632437986898 1.883436653607987 0 0 0 0 -19.914683188631898 7.6177310131254785 0 7.6177310131254785 2.1580008644118607 0 0 0 0 0.54896891122766078 3.5460280598946667 0 3.5460280598946667 -5.3566759759314477 0 0 0 0 1.1214154797708034 -1.108686940760208 0 -1.108686940760208 -2.356132198459818 0 0 0 0 18.48099245375488 15.491027345872567 0 15.491027345872567 -20.392758178562872 0 0 0 0 -0.42320143528490534 0.89366737398125906 0 0.89366737398125906 -3.926719412329164 0 0 0 0 36.192562599964731 8.8702801682304653 0 8.8702801682304653 -7.2689983632981239 0 0 0 0 0.67469142760629808 1.104497721211871 0 1.104497721211871 -1.13273027425228 0 0 0 0 -1.0780921138284612 -0.82451105274549263 0 -0.82451105274549263 27.496234382800139 0 0 0 0 30.662391318066511 14.192281844846775 0 14.192281844846775 -4.6456900180882652 0 0 0 0 -0.0061347289931248383 -0.077410240369374606 0 -0.077410240369374606 -0.54214480098069728 0 0 0 0 94.387664448455325 -7.3354497597148338 0 -7.3354497597148338 -83.164191176266741 0 0 0 0 -46.987506504548946 24.325464999443568 0 24.325464999443568 23.734240449975459 0 0 0 0 -12.925480417907238 -19.011008732801201 0 -19.011008732801201 13.06930966973232 0 0 0 0 0.048986848393478333 0.11273873360197229 0 0.11273873360197229 -2.812187403950074 0 0 0 0 -17.9310063750967 20.243769261435308 0 20.243769261435308 -22.775565450221393 0 0 0 0 55.283108925774286 11.881012477039576 0 11.881012477039576 -17.929729605782313 0 0 0 0 -11.853111834192532 -34.481440909460503 0 -34.481440909460503 2.8444996495876751 0 0 0 0 10.8389272480199 46.647619479400646 0 46.647619479400646 -8.3223031221889414 0 0 0 0 33.729627872584388 -18.228303187961728 0 -18.228303187961728 46.953731276709277 0 0 0 0 2.585392659457284 21.385903554205925 0 21.385903554205925 38.080551030842344 0 0 0 0 -21.812194911704864 -12.938478049232572 0 -12.938478049232572 11.692216216547081 0 0 0 0 21.683978337434382 23.352283854488221 0 23.352283854488221 -55.09224805928352 0 0 0 0 -21.987476947208052 41.890159367137585 0 41.890159367137585 -22.700183971261595 0 0 0 0 -8.388485433650203 32.681431640352571 0 32.681431640352571 -43.022140966058373 0 0 0 0 -2.0084942114335718 4.8642520661780964 0 4.8642520661780964 -49.506129748850071 0 0 0 0 -0.21695135720375447 0.24528692963880872 0 0.24528692963880872 -0.28791879701070444 0 0 0 0 -2.9703865418414352 -2.1083329407334759 0 -2.1083329407334759 -1.99567678734536 0 0 0 0 -9.323817418247927 29.726743929124154 0 29.726743929124154 -12.445863804987312 0 0 0 0 -37.256777597518521 19.847160700399058 0 19.847160700399058 -15.275245925276749 0 0 0 0 -4.9167073326243553 43.692397715150264 0 43.692397715150264 -7.5664766690709087 0 0 0 0 6.672262720308936 15.801227725983608 0 15.801227725983608 -8.0732197623019601 0 0 0 0 550.24450713554597 -445.64258400905499 0 -445.64258400905499 -57.226561546766334 0 0 0 0 39.948395981351496 -24.932932743637252 0 -24.932932743637252 -4.8858289706533924 0 0 0 0 8.0418299789795924 4.769101347920639 0 4.769101347920639 0.66992993975025517 0 0 0 0 -19.772862468074891 37.897589356243088 0 37.897589356243088 -11.500102963813788 0 0 0 0 43.171023532369873 30.075285820664249 0 30.075285820664249 -11.500672430965778 0 0 0 0 740.82390763882722 -357.81379536340251 0 -357.81379536340251 -29.395258707107473 0 0 0 0 289.55764705194451 -212.64112588414241 0 -212.64112588414241 848.93483062887753 0 0 0 0 310.90350848203525 -18.585192210305649 0 -18.585192210305649 228.78066447165202 0 0 0 0 51.170809262315743 -32.003352275763973 0 -32.003352275763973 39.841345920615368 0 0 0 0 8.668882295364142 7.7161201292728236 0 7.7161201292728236 3.2633501203170479 0 0 0 0 342.94822042353917 -1.2054064601315986 0 -1.2054064601315986 122.13316110112373 0 0 0 0 49.015029757269076 -51.347955606145433 0 -51.347955606145433 0.10206774301116184 0 0 0 0 -0.066334367133094929 26.638373930537227 0 26.638373930537227 25.913060630126211 0 0 0 0 -8.7134172836085781 7.0629985550883703 0 7.0629985550883703 -14.564864110745475 0 0 0 0 -71.483768965797935 87.604355582042928 0 87.604355582042928 -17.480561182896054 0 0 0 0 89.375118536685477 64.155971491833498 0 64.155971491833498 -114.88646770626428 0 0 0 0 62.134544443819323 43.041145975534448 0 43.041145975534448 -108.01744841324353 0 0 0 0 57.446439497769461 -3.0018288606159444 0 -3.0018288606159444 137.22565568770779 0 0 0 0 1.6853671680652216 0.92212101045575423 0 0.92212101045575423 0.20897579070990036 0 0 0 0 211.30581622833415 -75.705637854982527 0 -75.705637854982527 22.713135835576395 0 0 0 0 144.96541431423975 -87.424732541143385 0 -87.424732541143385 40.058037961739387 0 0 0 0 60.843722211502609 31.682633250351671 0 31.682633250351671 8.8474167953781944 0 0 0 0 -4.0159662974579646 -0.29325256224178986 0 -0.29325256224178986 2.8129361228679941 0 0 0 0 467.31114782797522 -196.48054420784092 0 -196.48054420784092 -61.415049681001165 0 0 0 0 460.41556935021072 -210.90806178779474 0 -210.90806178779474 -33.240311766345258 0 0 0 0 535.10232585010817 -214.91797194728406 0 -214.91797194728406 -98.828352850285228 0 0 0 0 449.08068821956476 -248.13292097983657 0 -248.13292097983657 219.00751873344507 0 0 0 0 457.43138520556386 -177.04208721231998 0 -177.04208721231998 -71.007078900427359 0 0 0 0 439.66562712503946 -185.18191926314512 0 -185.18191926314512 -49.96455103815515 0 0 0 0 859.22260767867556 -283.1186412755776 0 -283.1186412755776 -53.36172903813349 0 0 0 0 535.06310388016573 -174.36973178881783 0 -174.36973178881783 -88.939890317148638 0 0 0 0 578.25386864716711 -266.32939519428623 0 -266.32939519428623 -66.539542376028294 0 0 0 0 520.54062444620649 -186.65346244422847 0 -186.65346244422847 -133.23775747350373 0 0 0 0 283.23048413285869 -0.96731757255020057 0 -0.96731757255020057 -117.815171414926 0 0 0 0 693.46933138763416 0.96261614135300988 0 0.96261614135300988 -180.37241740939407 0 0 0 0 852.37796016212087 -40.367641937606322 0 -40.367641937606322 -170.4273990359593 0 0 0 0 -91.469624486046087 29.893290642201492 0 29.893290642201492 12.966407444909237 0 0 0 0 112.13161539553221 -12.344422024806249 0 -12.344422024806249 -5.7636865250683513 0 0 0 0 -0.089872562259373012 -0.37817139940639777 0 -0.37817139940639777 -0.094171250126446893 0 0 0 0 -0.022057391319570463 -0.14567533901697516 0 -0.14567533901697516 -1.0525769335935355 0 0 0 0 -139.94736772852775 33.488259540425986 0 33.488259540425986 18.233431707932027 0 0 0 0 94.795840058075555 7.4004878487333485 0 7.4004878487333485 -54.530025369433133 0 0 0 0 -3.1494517942046514 58.378058377859986 0 58.378058377859986 -45.566555362551981 0 0 0 0 12.805528119468363 -50.097092841356925 0 -50.097092841356925 -138.82111209281246 0 0 0 0 -8.7627685573679628 58.809632296013461 0 58.809632296013461 -45.323557273566507 0 0 0 0 67.635307238513633 46.897345947803871 0 46.897345947803871 29.195876743798635 0 0 0 0 -59.02013287544105 28.420749765537792 0 28.420749765537792 69.307380828286909 0 0 0 0 -21.292726151383249 -55.467881453653433 0 -55.467881453653433 78.160286111646514 0 0 0 0 2.7314279106758477 24.679234398952168 0 24.679234398952168 29.679288086873498 0 0 0 0 124.32865278312238 -1.5944137222753625 0 -1.5944137222753625 40.691232888746981 0 0 0 0 19.375270031217951 -13.134027181423619 0 -13.134027181423619 31.481341628462019 0 0 0 0 18.061613735131687 -19.221768633203453 0 -19.221768633203453 44.022753132444961 0 0 0 0 3.4730064294490148 15.364199234402676 0 15.364199234402676 8.3833524340480494 0 0 0 0 2.9135586001066258 16.496039944781167 0 16.496039944781167 10.431845576532993 0 0 0 0 12.059220848415862 21.321347349290576 0 21.321347349290576 -16.976182692279298 0 0 0 0 23.191271331059397 4.326273973916301 0 4.326273973916301 -39.388508455316128 0 0 0 0 19.786426648148336 17.27014155534323 0 17.27014155534323 -9.6535500026930094 0 0 0 0 3.5558217835059622 21.353631836013477 0 21.353631836013477 -8.0147029430729617 0 0 0 0 63.953556985245086 32.719310423808565 0 32.719310423808565 -18.377578959426117 0 0 0 0 20.811856303786044 11.754029172018932 0 11.754029172018932 20.002788546603142 0 0 0 0 35.297293263615302 21.799502047910611 0 21.799502047910611 9.8266288316413011 0 0 0 0 17.871117958187824 42.050832829742603 0 42.050832829742603 -2.7852972954710822 0 0 0 0 4.6339371605718043 18.678086488531335 0 18.678086488531335 17.56402908483301 0 0 0 0 9.9340626010816777 36.255286596229098 0 36.255286596229098 12.865471499453179 0 0 0 0 -9.0117617264818364 34.438459520605953 0 34.438459520605953 32.886246036203829 0 0 0 0 7.5026676751076593 32.185533192289114 0 32.185533192289114 19.840299853269244 0 0 0 0 -6.7286751408391865 10.709550850483083 0 10.709550850483083 5.200519669781329 0 0 0 0 17.657795768369397 14.054211981500885 0 14.054211981500885 -30.843226052121736 0 0 0 0 170.41328123740095 85.14657747877618 0 85.14657747877618 -11.907725786298442 0 0 0 0 53.985495871129388 -3.5474004494238329 0 -3.5474004494238329 3.2963013553392102 0 0 0 0 0.93777077403305498 1.0648059593500108 0 1.0648059593500108 1.3679910480602491 0 0 0 0 228.61344521178398 -78.773612969757892 0 -78.773612969757892 13.024752023679923 0 0 0 0 20.919583186525415 63.271602920212302 0 63.271602920212302 38.749639939602957 0 0 0 0 23.464442227897962 -18.444528497693057 0 -18.444528497693057 -6.6754203961368148 0 0 0 0 52.910736533282034 48.198409838886732 0 48.198409838886732 113.47630188863309 0 0 0 0 146.05707929805794 -72.754543480256075 0 -72.754543480256075 36.132437967562566 0 0 0 0 15.737418539407372 -25.145103376189752 0 -25.145103376189752 63.070237162575893 0 0 0 0 25.167558723912407 -56.036111315455614 0 -56.036111315455614 -105.51593055232433 0 0 0 0 211.16201343520515 47.699110020104285 0 47.699110020104285 -69.793761230179712 0 0 0 0 1.6740568980196144 0.11487809676728489 0 0.11487809676728489 -0.96720087477941297 0 0 0 0 20.42954169834411 36.363781456585784 0 36.363781456585784 105.48066913705134 0 0 0 0 129.25279734967626 183.56728893386043 0 183.56728893386043 102.21345238247125 0 0 0 0 80.384548611662467 -51.643478499845287 0 -51.643478499845287 -58.749113987114768 0 0 0 0 204.37484483929802 100.86371432428172 0 100.86371432428172 -65.259716104509607 0 0 0 0 51.352465803795894 20.292129689307558 0 20.292129689307558 -5.72830341107192 0 0 0 0 54.059262889124511 19.920944292797458 0 19.920944292797458 -20.838018997419567 0 0 0 0 23.72650897475404 -5.1862999371438434 0 -5.1862999371438434 -10.04788913110198 0 0 0 0 45.360243242685101 16.221861142089438 0 16.221861142089438 -6.3017361292777423 0 0 0 0 79.77654780735611 83.182884903321067 0 83.182884903321067 48.06456943568412 0 0 0 0 98.857467441164772 54.946417296231616 0 54.946417296231616 -2.5255060549149562 0 0 0 0 62.705254094529664 10.392560469650789 0 10.392560469650789 -1.5362299215719553 0 0 0 0 48.288801959090051 40.202098374515685 0 40.202098374515685 48.253717961638678 0 0 0 0 3.6918217196150351 -0.35858505417182585 0 -0.35858505417182585 -1.358543503988169 0 0 0 0 49.591936798044117 31.323382333462376 0 31.323382333462376 24.419991863084306 0 0 0 0 24.322341503694901 -4.4010029312442072 0 -4.4010029312442072 -10.654250399768156 0 0 0 0 43.685449290756424 -16.862488751853952 0 -16.862488751853952 -35.159955580691985 0 0 0 0 23.691945336772051 -2.7924100860201477 0 -2.7924100860201477 -15.415566842234057 0 0 0 0 59.302464152337052 6.6968119148880305 0 6.6968119148880305 -33.471820350324634 0 0 0 0 50.164911911255331 31.579610559372895 0 31.579610559372895 24.418862399453722 0 0 0 0 24.803689661050498 -38.810878066852183 0 -38.810878066852183 -59.99040846291382 0 0 0 0 22.965034164472343 -3.6573927844477083 0 -3.6573927844477083 -11.049737558658855 0 0 0 0 19.801619425845274 2.2166921040868601 0 2.2166921040868601 -40.330485997625374 0 0 0 0 54.990668795173406 -4.3951218655355433 0 -4.3951218655355433 -52.058755519497254 0 0 0 0 84.491475246293703 13.094183756704524 0 13.094183756704524 -26.327626087761246 0 0 0 0 56.739352727934602 30.200522028312776 0 30.200522028312776 12.703450594574633 0 0 0 0 94.168237688143563 48.42546516300979 0 48.42546516300979 -4.1268946933337247 0 0 0 0 71.438520030249492 39.20293705985614 0 39.20293705985614 71.341759279539019 0 0 0 0 86.722402412138763 23.675598178160499 0 23.675598178160499 -20.898112862307002 0 0 0 0 109.31680774408596 28.870848087186005 0 28.870848087186005 -5.4952410982800757 0 0 0 0 55.259649660350988 36.87489017197322 0 36.87489017197322 -5.7330879577561973 0 0 0 0 55.999333689171181 12.995447196817508 0 12.995447196817508 -0.37563969746088333 0 0 0 0 4.0458524395137658 -2.1426806020434555 0 -2.1426806020434555 0.1823887988211701 0 0 0 0 88.833059248914651 -286.50914021812298 0 -286.50914021812298 -231.04252856756506 0 0 0 0 -38.876768423222529 -84.487445909818348 0 -84.487445909818348 -123.88063022441993 0 0 0 0 891.89241909536213 276.12642515831152 0 276.12642515831152 -62.656167534255133 0 0 0 0 261.46545752779639 -44.495535851352315 0 -44.495535851352315 -123.87719088881411 0 0 0 0 571.43596452323254 -110.07587522234849 0 -110.07587522234849 -131.38066407039514 0 0 0 0 511.31914189303643 -180.81114130914057 0 -180.81114130914057 -129.33338023477609 0 0 0 0 563.65705073330901 -233.38339730521466 0 -233.38339730521466 -247.44483185551553 0 0 0 0 221.54779223466903 -92.139552670952412 0 -92.139552670952412 -124.43122398960531 0 0 0 0 369.35123988726991 -124.58154450499603 0 -124.58154450499603 14.324078730688598 0 0 0 0 0.94454521736812325 8.2346247513691537 0 8.2346247513691537 6.2474888450521648 0 0 0 0 473.65475389446146 111.21784106015554 0 111.21784106015554 155.77397659240705 0 0 0 0 49.319350418852991 6.397765887731623 0 6.397765887731623 7.3512651444164021 0 0 0 0 391.28048405229492 -39.392034780070162 0 -39.392034780070162 33.673308190758235 0 0 0 0 554.46752114922856 212.82658257121739 0 212.82658257121739 283.33811556252567 0 0 0 0 776.43314240223845 -0.6786774443989998 0 -0.6786774443989998 -71.73106728100538 0 0 0 0 588.13934055925347 -153.64777720576603 0 -153.64777720576603 -194.51950285073235 0 0 0 0 514.67947293177713 -169.23325855464145 0 -169.23325855464145 -113.43098818427165 0 0 0 0 523.06981034917408 -192.06161599531799 0 -192.06161599531799 -157.35464341187162 0 0 0 0 42.637743527782732 13.567141170561058 0 13.567141170561058 7.0628197924636424 0 0 0 0 31.591262538466253 4.1647677716791804 0 4.1647677716791804 3.4875530044304242 0 0 0 0 679.71417882156675 176.97063257964163 0 176.97063257964163 7.808323705667835 0 0 0 0 0.49326751046797845 8.6011023494036891 0 8.6011023494036891 6.9644523438058945 0 0 0 0 600.70602476832573 8.5966874911630882 0 8.5966874911630882 -23.161562302844505 0 0 0 0 1016.0021682358492 61.32874918584821 0 61.32874918584821 -222.43435909043546 0 0 0 0 999.56321522558574 -45.332345480980166 0 -45.332345480980166 -173.51493672715719 0 0 0 0 13.701916182602872 9.4492916532132085 0 9.4492916532132085 12.165885553056739 0 0 0 0 28.849023125279928 7.495140922221367 0 7.495140922221367 0.71697372530741177 0 0 0 0 25.483321343075659 -2.896694688119041 0 -2.896694688119041 9.8487176301031241 0 0 0 0 8.2532180141170102 -0.54544002416639792 0 -0.54544002416639792 17.769750198565035 0 0 0 0 57.627849591245649 -18.946705409896335 0 -18.946705409896335 21.828017230866863 0 0 0 0 26.833935915055918 1.7775588906521307 0 1.7775588906521307 11.725354293834016 0 0 0 0 0.019519937706718338 13.888838115678171 0 13.888838115678171 8.1062327283437696 0 0 0 0 5.9159461724193534 -10.023589955520919 0 -10.023589955520919 35.486782262901329 0 0 0 0 6.7339118108648108 4.6632324248938346 0 4.6632324248938346 0.31326225216655246 0 0 0 0 49.821651550355455 30.803225650029901 0 30.803225650029901 24.064541978779062 0 0 0 0 4.8136928906812386 -1.6384593228643354 0 -1.6384593228643354 -0.88162743421053302 0 0 0 0 50.322355103489826 31.049773308575141 0 31.049773308575141 24.067296887726087 0 0 0 0 25.770238513876393 19.144954943527182 0 19.144954943527182 27.067814857442045 0 0 0 0 -6.4570390756089182 -67.727006434900204 0 -67.727006434900204 -92.754049121072853 0 0 0 0 21.233725674334067 -2.725342799283311 0 -2.725342799283311 -11.645671301696176 0 0 0 0 45.069135861020186 33.719835144937861 0 33.719835144937861 26.041864345543672 0 0 0 0 23.405916057570721 9.4341644470403025 0 9.4341644470403025 18.617211918151042 0 0 0 0 43.480871819891036 14.373505106129642 0 14.373505106129642 11.049732582976958 0 0 0 0 8.9021720256186256 -0.43804924099087827 0 -0.43804924099087827 0.84578702428819952 0 0 0 0 30.840637873596279 10.611185797821861 0 10.611185797821861 14.022197988309927 0 0 0 0 23.700480737519683 21.021448190144156 0 21.021448190144156 15.305040238262336 0 0 0 0 704.35390143549739 200.03874686117459 0 200.03874686117459 17.499378156256455 0 0 0 0 8.2683523735117888 2.5971396289403685 0 2.5971396289403685 0.71409179288510227 0 0 0 0 905.82571077316243 336.68414997607022 0 336.68414997607022 64.039329379735932 0 0 0 0 4.7116163963219151 15.031465495786279 0 15.031465495786279 23.30337867584376 0 0 0 0 2.174508667090409 8.5870661050977191 0 8.5870661050977191 8.5688706890952009 0 0 0 0 171.12214229613437 -136.58749202416092 0 -136.58749202416092 159.67396358572557 0 0 0 0 756.40244022823754 0.2299743505633387 0 0.2299743505633387 -91.364265218248647 0 0 0 0 611.75960069327266 -50.621043138822017 0 -50.621043138822017 -99.481764057267767 0 0 0 0 718.62855356892214 216.49132078401897 0 216.49132078401897 3.8617649993151417 0 0 0 0 519.8112403783598 164.24860207771565 0 164.24860207771565 2.0877058165151343 0 0 0 0 314.8694534880633 157.47442671747251 0 157.47442671747251 331.89544516684907 0 0 0 0 137.05186173974653 194.29044693637599 0 194.29044693637599 164.67867280885832 0 0 0 0 714.13136656535789 -43.166680655444921 0 -43.166680655444921 161.50642307997146 0 0 0 0 674.68675807570617 257.27676361807528 0 257.27676361807528 -6.1804894309157135 0 0 0 0 334.79929448131588 54.927797803311968 0 54.927797803311968 -164.02130146515805 0 0 0 0 267.81454428976576 100.12571450637272 0 100.12571450637272 -95.624053748167441 0 0 0 0 445.17482687189477 84.496884211046279 0 84.496884211046279 -148.82049924624053 0 0 0 0 313.63163811976847 47.494246954358061 0 47.494246954358061 -147.77549369077218 0 0 0 0 323.38114127943118 124.41153333560152 0 124.41153333560152 -57.589394964606981 0 0 0 0 287.26975653807312 86.972733395288316 0 86.972733395288316 -93.268451578518352 0 0 0 0 451.98765644439845 94.707163031035975 0 94.707163031035975 -87.677892607877538 0 0 0 0 349.85487393623771 59.445902290761666 0 59.445902290761666 -47.165655205684288 0 0 0 0 467.70093816645021 -12.611120275298056 0 -12.611120275298056 -34.529003282105691 0 0 0 0 404.51137513875437 41.553179491594221 0 41.553179491594221 -86.158887302533003 0 0 0 0 466.8118599865702 1.86650145579938 0 1.86650145579938 -43.1850397924498 0 0 0 0 392.08451785557554 61.98662505979496 0 61.98662505979496 10.8867171306307 0 0 0 0 0.74354832687845906 10.288406995151874 0 10.288406995151874 13.229795930763913 0 0 0 0 483.91132817568723 -57.848121755515422 0 -57.848121755515422 40.147102222031549 0 0 0 0 414.98533368192147 91.91158372001388 0 91.91158372001388 141.11845729265514 0 0 0 0 31.701894970683497 26.655527653223089 0 26.655527653223089 18.93319446037976 0 0 0 0 467.7003646939902 -17.203282176655023 0 -17.203282176655023 -38.443766240039849 0 0 0 0 713.54384321422549 124.15522387736797 0 124.15522387736797 27.318447284780518 0 0 0 0 2.1725110856452545 0.98776303444452651 0 0.98776303444452651 -0.14455267932105031 0 0 0 0 486.59408727535629 -26.996413773797798 0 -26.996413773797798 -89.179527990446388 0 0 0 0 -69.271260678593535 -118.86848405088773 0 -118.86848405088773 -136.14685945991164 0 0 0 0 -349.28470985437161 -256.21252415899602 0 -256.21252415899602 -196.71648711438931 0 0 0 0 -20.126330867075012 -108.46326309243031 0 -108.46326309243031 -210.30758233821996 0 0 0 0 50.387713755713776 -176.75516509621781 0 -176.75516509621781 -387.22084504525276 0 0 0 0 5.3787433674729588 3.0818350055936321 0 3.0818350055936321 -0.95963956611527002 0 0 0 0 476.01458881450526 -101.65447174898506 0 -101.65447174898506 -439.13989954686144 0 0 0 0 534.0086233918264 -68.505342685980338 0 -68.505342685980338 18.535100731738467 0 0 0 0 596.28215224729502 110.8538480874719 0 110.8538480874719 -206.30874920751455 0 0 0 0 424.86748098037788 117.96556674416806 0 117.96556674416806 -75.068563886421884 0 0 0 0 133.42102008455549 -111.30965876984637 0 -111.30965876984637 -159.47631323287411 0 0 0 0 -1.9288996997929644 -119.7703571594372 0 -119.7703571594372 -159.79713625170643 0 0 0 0 107.05049094959395 -28.693664820558155 0 -28.693664820558155 -146.19846985312643 0 0 0 0 16.413532560196472 -41.982219751587735 0 -41.982219751587735 -140.98446901658048 0 0 0 0 93.450710247445386 -50.143488829589444 0 -50.143488829589444 -238.95973794306997 0 0 0 0 74.346652049687691 -33.108199934522958 0 -33.108199934522958 -308.92460122492798 0 0 0 0 129.65238987759221 2.9504161065910068 0 2.9504161065910068 -133.74486306646492 0 0 0 0 58.151001574267866 -10.131405923328202 0 -10.131405923328202 -121.03376155368167 0 0 0 0 96.632710928111919 11.296564409025038 0 11.296564409025038 -38.147372189516034 0 0 0 0 146.77297319981153 73.707721816371574 0 73.707721816371574 -58.133629304977305 0 0 0 0 107.30303408109467 7.0287812508008614 0 7.0287812508008614 -120.44259969824429 0 0 0 0 64.104172713967273 -59.77361518501408 0 -59.77361518501408 -210.1857288199954 0 0 0 0 65.272330621788569 -73.337310706922608 0 -73.337310706922608 -179.24765429418937 0 0 0 0 19.337894256264036 -1.0580815226593074 0 -1.0580815226593074 -11.533567029297972 0 0 0 0 43.768989825301105 -73.23137042473536 0 -73.23137042473536 -126.26817800256799 0 0 0 0 -4.488833293056814 -139.88920087809959 0 -139.88920087809959 -191.97155062675645 0 0 0 0 -36.382887069397839 -128.07978847316451 0 -128.07978847316451 -133.89060863696318 0 0 0 0 -51.858316768906661 -115.14696816161285 0 -115.14696816161285 -115.93628344216177 0 0 0 0 -30.269740652322071 -39.136298116888128 0 -39.136298116888128 -90.215761645543125 0 0 0 0 22.922525903835776 -58.792388850109205 0 -58.792388850109205 -129.94681377727886 0 0 0 0 99.115703794988804 6.6621195394641859 0 6.6621195394641859 -105.57364792502906 0 0 0 0 61.655917617237719 20.502762826585325 0 20.502762826585325 -63.576469813424183 0 0 0 0 39.981981004413683 -9.6717489661954232 0 -9.6717489661954232 -92.597566229244023 0 0 0 0 31.264171405244269 -14.76326605037633 0 -14.76326605037633 -64.334039498514585 0 0 0 0 137.0701451791283 82.980167280863327 0 82.980167280863327 -49.45125664724219 0 0 0 0 87.908140045241453 -1.3601256346615855 0 -1.3601256346615855 -89.777840444233561 0 0 0 0 108.76313556755485 63.790627771266387 0 63.790627771266387 -17.595212836842279 0 0 0 0 164.58155904019077 129.40822910274647 0 129.40822910274647 8.2622637186709085 0 0 0 0 102.71123092263588 109.26194540136657 0 109.26194540136657 84.589326455352222 0 0 0 0 190.23925180615333 55.468740384277879 0 55.468740384277879 -50.494018492694664 0 0 0 0 135.93998561541957 98.414589160223954 0 98.414589160223954 26.25954076390326 0 0 0 0 234.95652638270985 156.49957249488583 0 156.49957249488583 45.385174443471136 0 0 0 0 210.60033881780691 236.47687464600457 0 236.47687464600457 257.2761980874875 0 0 0 0 154.64324555637722 133.24799533840471 0 133.24799533840471 137.13744240039293 0 0 0 0 161.49267343231986 153.03984962537447 0 153.03984962537447 97.708477685249846 0 0 0 0 228.50046884225594 109.92796823392514 0 109.92796823392514 -146.34099310216089 0 0 0 0 2.2584889444891019 0.76337642925750515 0 0.76337642925750515 -0.0059355508408315272 0 0 0 0 77.156892172773951 232.56727876942375 0 232.56727876942375 482.73024096651295 0 0 0 0 330.30299036236829 321.67409285662768 0 321.67409285662768 247.9549224509901 0 0 0 0 456.60008899556124 196.52333695666562 0 196.52333695666562 104.40899317038348 0 0 0 0 285.90599921753892 9.2980626380651543 0 9.2980626380651543 100.31861669922904 0 0 0 0 271.36644713523856 108.21430417109153 0 108.21430417109153 0.19681049520252231 0 0 0 0 356.35667315097817 322.76046745387873 0 322.76046745387873 186.91650007131258 0 0 0 0 195.28482246380008 79.163801496527938 0 79.163801496527938 101.84589845751616 0 0 0 0 152.01786389158224 10.208758055628152 0 10.208758055628152 79.827485357743711 0 0 0 0 232.64157244883245 45.51588684558034 0 45.51588684558034 15.766323728384542 0 0 0 0 159.5339896374353 8.1315212851743031 0 8.1315212851743031 17.707327781020489 0 0 0 0 200.37064780676155 111.79699291828808 0 111.79699291828808 70.592787610389394 0 0 0 0 291.749510905036 86.468040217734782 0 86.468040217734782 71.140539682826073 0 0 0 0 207.6609010934917 62.715770941693357 0 62.715770941693357 28.259382395903337 0 0 0 0 162.56290684692794 89.76347956863404 0 89.76347956863404 12.10446764475536 0 0 0 0 175.41144155128131 40.765130394407223 0 40.765130394407223 -48.587144578774712 0 0 0 0 58.670357371345744 1.6837598923843231 0 1.6837598923843231 -44.822337131546654 0 0 0 0 145.06155655913608 2.0341258566473073 0 2.0341258566473073 -47.837111868130037 0 0 0 0 120.16305457238923 34.14313366385224 0 34.14313366385224 15.983827204971602 0 0 0 0 211.04583907651249 -26.456057493486689 0 -26.456057493486689 -68.923026574708175 0 0 0 0 59.752604283101391 -16.37804070602623 0 -16.37804070602623 -39.552186908490775 0 0 0 0 108.89133728572051 -46.230183632121694 0 -46.230183632121694 -23.707223536035595 0 0 0 0 98.787814680341398 15.547107345156935 0 15.547107345156935 17.47300075317203 0 0 0 0 124.39818476634173 -43.412479737769715 0 -43.412479737769715 -5.1945873331236925 0 0 0 0 142.02140500134556 -5.6759042532783965 0 -5.6759042532783965 12.060344552608683 0 0 0 0 117.85155293771822 -2.2137544038218273 0 -2.2137544038218273 63.234853827781521 0 0 0 0 170.73860000414425 25.830485914492609 0 25.830485914492609 53.672778085738074 0 0 0 0 161.66721631569453 14.124326384997406 0 14.124326384997406 23.217417175435905 0 0 0 0 155.97142111667199 51.538844925890437 0 51.538844925890437 102.90138165513208 0 0 0 0 170.81260642778943 13.969131487336185 0 13.969131487336185 -0.014401713824916569 0 0 0 0 205.07245156221313 -3.1111305459939151 0 -3.1111305459939151 -15.060708751784489 0 0 0 0 215.96725148282712 30.950385181479128 0 30.950385181479128 -26.132447690401133 0 0 0 0 206.68991518510666 -10.365866956950624 0 -10.365866956950624 -100.07676878016396 0 0 0 0 0.59810763588504301 -0.82477113078455488 0 -0.82477113078455488 1.1889643416406122 0 0 0 0 129.30945234747196 102.50675132427598 0 102.50675132427598 36.287039104368183 0 0 0 0 9.6329573653147236 -8.3555908395342087 0 -8.3555908395342087 14.359484167815481 0 0 0 0 124.27802506947774 75.871355387951823 0 75.871355387951823 38.672076509422475 0 0 0 0 13.767603643187613 21.860978456536387 0 21.860978456536387 11.551125835540688 0 0 0 0 16.394653170733363 15.210726196160891 0 15.210726196160891 26.220698825857454 0 0 0 0 0.3373079243253585 -0.53649189800717068 0 -0.53649189800717068 0.12269126429147292 0 0 0 0 2.1735128617331441 -0.49163152339809812 0 -0.49163152339809812 -0.3836786666450227 0 0 0 0 17.088691896295131 19.952373434366525 0 19.952373434366525 10.236676464199064 0 0 0 0 23.578663730877452 12.497603248405042 0 12.497603248405042 13.177347286986787 0 0 0 0 0.77847351172455603 -0.49743594833604732 0 -0.49743594833604732 -0.053969262215785907 0 0 0 0 160.62015164431068 91.236886746996504 0 91.236886746996504 31.858920736128852 0 0 0 0 11.130705891970138 -8.556377434519959 0 -8.556377434519959 4.9181682125166617 0 0 0 0 21.714188164434745 18.847135566851222 0 18.847135566851222 -6.6930890232346201 0 0 0 0 97.107802865655344 55.327761337278261 0 55.327761337278261 15.865445037792597 0 0 0 0 96.847313885962421 73.434854462780379 0 73.434854462780379 67.683003231357475 0 0 0 0 93.656180008227238 64.552590691244177 0 64.552590691244177 -2.0811910546773618 0 0 0 0 72.018941368281958 63.410072320439809 0 63.410072320439809 20.277828898547682 0 0 0 0 62.209508641681168 38.317473457145525 0 38.317473457145525 -23.027231854588649 0 0 0 0 79.391028746889788 73.200883680936769 0 73.200883680936769 8.0142967399872305 0 0 0 0 78.727828015922569 46.126103257933323 0 46.126103257933323 -35.67757045537445 0 0 0 0 94.762164869694971 37.624643918839411 0 37.624643918839411 -64.56675198189582 0 0 0 0 84.55916780885309 86.681685842025047 0 86.681685842025047 -0.77619779697053204 0 0 0 0 90.1916114100095 107.89054712991539 0 107.89054712991539 49.085336231669388 0 0 0 0 78.177207228800398 96.81893473889339 0 96.81893473889339 49.539988955386214 0 0 0 0 86.420731889491435 82.339010534318049 0 82.339010534318049 47.061028734628508 0 0 0 0 87.410119405889418 73.417762992121652 0 73.417762992121652 8.8799934260242139 0 0 0 0 70.539079869580746 87.459650718317988 0 87.459650718317988 63.454670550850807 0 0 0 0 76.450115554463991 72.123555080251364 0 72.123555080251364 52.19245745688044 0 0 0 0 46.689770533168485 57.914829838822783 0 57.914829838822783 66.202661757186377 0 0 0 0 53.379215574546834 88.335989727711649 0 88.335989727711649 66.796117690703795 0 0 0 0 50.931227559893159 71.311802054435589 0 71.311802054435589 103.97936459936682 0 0 0 0 105.25000168684528 127.97854043534529 0 127.97854043534529 55.103716303946882 0 0 0 0 57.715643459014245 104.86807432918852 0 104.86807432918852 106.16844207780895 0 0 0 0 56.850832322830684 102.40588594248941 0 102.40588594248941 123.24977621303424 0 0 0 0 85.471006434730953 162.0658893829746 0 162.0658893829746 218.1759170212834 0 0 0 0 -27.405220956905396 12.332719362188108 0 12.332719362188108 -1.0742013368660648 0 0 0 0 -39.727571432682453 5.9362778956638671 0 5.9362778956638671 -0.28167515853037289 0 0 0 0 47.803866683738306 53.300085005692267 0 53.300085005692267 86.037427866434882 0 0 0 0 16.821527053485624 48.442746690432841 0 48.442746690432841 275.09705188274665 0 0 0 0 29.338890842103865 35.87766627038684 0 35.87766627038684 130.32271242420097 0 0 0 0 6.1809616786848949 1.4238316486214355 0 1.4238316486214355 0.3610470540802343 0 0 0 0 17.687072642642306 3.8563182550660895 0 3.8563182550660895 0.089781645048314457 0 0 0 0 9.2860093280032743 5.7291131647743541 0 5.7291131647743541 -7.5384487725853768 0 0 0 0 8.8511282199979178 0.98325337543989155 0 0.98325337543989155 -0.72335196289261472 0 0 0 0 2.3439573571470476 1.2710994302600795 0 1.2710994302600795 0.71293656453493348 0 0 0 0 9.6426593987023068 2.5939783678446648 0 2.5939783678446648 -1.0726462587559844 0 0 0 0 15.204789600960794 4.4663250341417484 0 4.4663250341417484 -0.29959764707221348 0 0 0 0 2.5151494282260103 1.3097205629367608 0 1.3097205629367608 0.66656725150386464 0 0 0 0 4.5562232835945906 9.7367487490043914 0 9.7367487490043914 5.9595000077956684 0 0 0 0 15.736902027041651 6.1312996347068065 0 6.1312996347068065 5.3807519830022841 0 0 0 0 1.9995641005973823 -0.31007471664180741 0 -0.31007471664180741 3.0124662347946609 0 0 0 0 19.691392061962688 17.195919152529541 0 17.195919152529541 5.2019885169897861 0 0 0 0 7.8757126590026019 1.8039398417444943 0 1.8039398417444943 -0.92378026163800087 0 0 0 0 5.851620267916644 -0.59593170883141511 0 -0.59593170883141511 -1.8018946239811955 0 0 0 0 15.903710924903862 7.233600003334459 0 7.233600003334459 -0.24573049300443017 0 0 0 0 39.910271176850074 0.81744409351711056 0 0.81744409351711056 -2.1003885357514491 0 0 0 0 7.9015305693457663 0.80330519332095207 0 0.80330519332095207 -0.66850331313625166 0 0 0 0 4.7156279714690754 -0.97062583488621301 0 -0.97062583488621301 0.010610027801966957 0 0 0 0 16.235661342092499 2.8087910490007189 0 2.8087910490007189 -1.8933218168137249 0 0 0 0 9.0375962859252468 0.21671700452851547 0 0.21671700452851547 0.0027450662783539306 0 0 0 0 1.281712048095244 0.70747540440606826 0 0.70747540440606826 0.3192864551999372 0 0 0 0 12.756609531017602 2.4677710863112807 0 2.4677710863112807 0.28363286788555131 0 0 0 0 9.2091801749934916 0.59581448806806314 0 0.59581448806806314 -0.58852679340087966 0 0 0 0 9.9826400423751807 -0.77130642584493359 0 -0.77130642584493359 -0.88953605135301639 0 0 0 0 8.4955228464386892 0.081659135008489869 0 0.081659135008489869 -6.1694799211890725 0 0 0 0 9.1781138626686527 3.405089388238622 0 3.405089388238622 -1.7101387306463007 0 0 0 0 10.293344478850486 1.5672811087604259 0 1.5672811087604259 -2.7224092184706592 0 0 0 0 6.9347052454153015 3.0933860099651227 0 3.0933860099651227 -0.093954216887298658 0 0 0 0 9.6101493746391498 1.0242189066595415 0 1.0242189066595415 2.3102277935545317 0 0 0 0 12.241193057387136 -4.0096131131019774 0 -4.0096131131019774 6.1210073892871719 0 0 0 0 15.668317317235051 -9.807320941750552 0 -9.807320941750552 -2.9394775589605806 0 0 0 0 18.820880660001421 2.5165418544754639 0 2.5165418544754639 1.4229385245571882 0 0 0 0 3.2524305196711509 1.0232524398913512 0 1.0232524398913512 -3.1328553738794636 0 0 0 0 15.915829086101439 -1.9166241332466996 0 -1.9166241332466996 0.44683998500022426 0 0 0 0 -6.7017220117304532 34.759176718416455 0 34.759176718416455 18.441118706757607 0 0 0 0 -154.13212737010326 -23.919046731107073 0 -23.919046731107073 39.283657557660035 0 0 0 0 -30.581249486363959 35.821518483917089 0 35.821518483917089 -12.371178164613752 0 0 0 0 -8.6901903498219326 5.1223432929716637 0 5.1223432929716637 -1.4878292057396223 0 0 0 0 7.6517350448347301 -1.1270363626600925 0 -1.1270363626600925 -0.33953417608269332 0 0 0 0 -16.689515400619712 -2.1289339945227539 0 -2.1289339945227539 -9.9527241089217569 0 0 0 0 -75.886038084390748 31.537275670522675 0 31.537275670522675 10.881124062735068 0 0 0 0 -14.43630884536833 0.90605744617815276 0 0.90605744617815276 3.494627429436207 0 0 0 0 -53.706126363249496 18.865982469711639 0 18.865982469711639 2.551875484784297 0 0 0 0 -60.479745979318977 6.1109082344070202 0 6.1109082344070202 2.3487285452461037 0 0 0 0 -50.274896682822146 -8.6264137879095415 0 -8.6264137879095415 -7.6712527098679857 0 0 0 0 -114.41631123045227 46.022772688308123 0 46.022772688308123 -21.442391880544164 0 0 0 0 0.58370244584094166 4.140442383496854 0 4.140442383496854 -0.34068153182738098 0 0 0 0 -17.956275117099722 -3.1199646623290818 0 -3.1199646623290818 23.779940564712206 0 0 0 0 11.854125572465819 2.0664675730165705 0 2.0664675730165705 26.833761242262653 0 0 0 0 33.173693940472731 21.768836811153392 0 21.768836811153392 10.620106637297226 0 0 0 0 0.89811435182208754 -0.4708548073462282 0 -0.4708548073462282 -0.57796666020881371 0 0 0 0 31.788931285453145 6.0059524519297316 0 6.0059524519297316 -2.6434272362946638 0 0 0 0 28.940353153899196 -5.3046658268301874 0 -5.3046658268301874 -5.3871954587072288 0 0 0 0 34.775047586910659 -0.87394537897066016 0 -0.87394537897066016 11.251106622939204 0 0 0 0 24.229843605115093 -8.9324713849227955 0 -8.9324713849227955 8.9077031375954903 0 0 0 0 28.644872169505106 -0.47236102037628136 0 -0.47236102037628136 25.390676493062784 0 0 0 0 31.135929676513769 -2.0421089280121683 0 -2.0421089280121683 -0.092326380835784261 0 0 0 0 32.842588405605056 12.950891261331918 0 12.950891261331918 7.1318074274228991 0 0 0 0 9.5592986407941964 -1.6499201878300198 0 -1.6499201878300198 0.021648322651988128 0 0 0 0 9.3777945188921876 -55.264353006602192 0 -55.264353006602192 -7.3598186844840257 0 0 0 0 53.666771184485697 9.0482565806838124 0 9.0482565806838124 -4.3975040970459283 0 0 0 0 18.276486171773286 11.310130200651116 0 11.310130200651116 7.5648965235734451 0 0 0 0 14.961257579248922 -1.7357834834850507 0 -1.7357834834850507 -12.605062646042228 0 0 0 0 16.839396054056124 -1.431453167940191 0 -1.431453167940191 2.6026023858094689 0 0 0 0 28.128697865453432 5.7771439304333398 0 5.7771439304333398 4.7922638413251661 0 0 0 0 22.344565658357169 -1.9991617282535543 0 -1.9991617282535543 -8.5106136880216354 0 0 0 0 8.2897604577376001 0.51644975964723905 0 0.51644975964723905 -0.1668151922822575 0 0 0 0 10.167699492191701 0.69472403260107995 0 0.69472403260107995 0.43872091689512538 0 0 0 0 -4.6905173028062563 11.909548358127466 0 11.909548358127466 -14.205239348223955 0 0 0 0 5.1646766977355583 -0.28887733085846889 0 -0.28887733085846889 -2.6732885395871762 0 0 0 0 25.632607699437358 3.6902829693800641 0 3.6902829693800641 -28.745573690371771 0 0 0 0 18.529333154241613 11.140578910389763 0 11.140578910389763 -7.6395587503642162 0 0 0 0 15.166014770929905 0.41318964694743571 0 0.41318964694743571 -0.0021702973143312631 0 0 0 0 13.224178273077996 -0.16126277563695868 0 -0.16126277563695868 1.1870273169910202 0 0 0 0 13.729575039453891 2.2351271024659312 0 2.2351271024659312 -0.091558848861197473 0 0 0 0 12.33443366910069 1.2462027488893754 0 1.2462027488893754 -0.26341709983564021 0 0 0 0 12.811709023080766 -0.20534575301700136 0 -0.20534575301700136 0.001420461846842987 0 0 0 0 12.695470977720106 0.80989307443415814 0 0.80989307443415814 -0.87913050879799814 0 0 0 0 23.667207901802612 16.208727278262359 0 16.208727278262359 -7.3510857853743303 0 0 0 0 6.9601404974237084 -4.2094729186635043 0 -4.2094729186635043 -2.5054031317577694 0 0 0 0 3.0343630631032568 -0.15794033417597575 0 -0.15794033417597575 -0.79210195846585252 0 0 0 0 6.7896660392580088 -15.045129570917748 0 -15.045129570917748 12.512210412227851 0 0 0 0 25.768040272199869 25.012929333368142 0 25.012929333368142 8.6099818841291693 0 0 0 0 2.7333286243990074 -0.27174964685853098 0 -0.27174964685853098 0.019007496374900457 0 0 0 0 176.19853953158599 -172.08305065599711 0 -172.08305065599711 -190.82181765284531 0 0 0 0 32.605135273304768 -26.686748345412866 0 -26.686748345412866 -3.9173040938765666 0 0 0 0 8.5355727397835039 -6.9426938473379352 0 -6.9426938473379352 -0.27888640082737515 0 0 0 0 208.69888045455446 286.02574323876775 0 286.02574323876775 156.53793984235728 0 0 0 0 13.714950737252366 16.916405893697721 0 16.916405893697721 21.152629602668078 0 0 0 0 19.705812928878004 -23.876619986782998 0 -23.876619986782998 -1.9295335941395706 0 0 0 0 0.51478336482250597 -18.993667663082078 0 -18.993667663082078 0.08599976921692587 0 0 0 0 5.7898553290760901 -2.4239908651235798 0 -2.4239908651235798 4.5372040113485141 0 0 0 0 22.297652733494033 7.4828874453065062 0 7.4828874453065062 11.855366371743051 0 0 0 0 15.550330213067355 -8.0560573523289278 0 -8.0560573523289278 6.0374669816610442 0 0 0 0 30.899542056664359 -0.71011963893252794 0 -0.71011963893252794 9.547338200804278 0 0 0 0 34.746033861127216 -3.3847452633027744 0 -3.3847452633027744 11.137668036399029 0 0 0 0 6.9776057596448595 -0.83289897784832712 0 -0.83289897784832712 -2.5694383667062421 0 0 0 0 25.451552219921723 -16.637971767118341 0 -16.637971767118341 -0.017713586306700113 0 0 0 0 14.953584786941065 -24.092663918155587 0 -24.092663918155587 18.321934704995869 0 0 0 0 0.80185570962868269 -1.3467567316046569 0 -1.3467567316046569 0.10660642576282028 0 0 0 0 7.8802550928085111 -19.528530703557216 0 -19.528530703557216 17.698343481722784 0 0 0 0 35.591474437433135 -21.069909236073375 0 -21.069909236073375 6.9787735196557374 0 0 0 0 17.828979675250594 -14.364658716858251 0 -14.364658716858251 4.6848938108831986 0 0 0 0 20.193606849614298 -20.206558232555984 0 -20.206558232555984 5.9935477157076633 0 0 0 0 20.14012424943212 -4.675119913900982 0 -4.675119913900982 -8.3264001712312936 0 0 0 0 20.107651655882364 -12.090535390206659 0 -12.090535390206659 -10.186651513916811 0 0 0 0 9.9405686774844071 -9.9618879113130969 0 -9.9618879113130969 2.3422947794791646 0 0 0 0 19.20770232299401 -17.645102984179836 0 -17.645102984179836 0.52674756577033754 0 0 0 0 19.51262859745475 -4.4582198856939268 0 -4.4582198856939268 2.5238579696148253 0 0 0 0 -14.263661977311131 -15.179024067976385 0 -15.179024067976385 -4.717177882768306 0 0 0 0 18.483595305049676 -7.8959971114307228 0 -7.8959971114307228 -3.2317067376262081 0 0 0 0 22.446770346332414 34.951346178053555 0 34.951346178053555 25.63696037580678 0 0 0 0 7.7685738808378915 0.29069644162900943 0 0.29069644162900943 0.94291014257209838 0 0 0 0 55.661563624875271 -47.588946174601119 0 -47.588946174601119 4.2100055040840516 0 0 0 0 20.756138464057585 -7.9684591110784266 0 -7.9684591110784266 -23.955303778882353 0 0 0 0 8.9819587516078201 -7.3543855347414819 0 -7.3543855347414819 0.89652656923395957 0 0 0 0 -30.659343738800089 -8.1995617551603175 0 -8.1995617551603175 15.451355517999104 0 0 0 0 25.746046993663185 -6.8180246779511533 0 -6.8180246779511533 2.1162259964005443 0 0 0 0 22.716903963191726 -8.9194755398893051 0 -8.9194755398893051 7.4443758802408411 0 0 0 0 14.073474952441245 -8.954810789938918 0 -8.954810789938918 5.1595396048766595 0 0 0 0 24.799695305860951 -4.6508449700426562 0 -4.6508449700426562 -0.41716686560076965 0 0 0 0 9.3271208652149653 -47.858428871852311 0 -47.858428871852311 21.471469047162259 0 0 0 0 24.310012095724232 -8.138934886750917 0 -8.138934886750917 11.031328285292147 0 0 0 0 105.27022880486038 -11.263831343822403 0 -11.263831343822403 -0.39742474838999442 0 0 0 0 19.105306701079826 -18.446172422602913 0 -18.446172422602913 -1.4811609447002354 0 0 0 0 12.866247073405248 -3.0871070856492793 0 -3.0871070856492793 5.9657227676136699 0 0 0 0 19.123809933371376 -17.624287649676575 0 -17.624287649676575 -2.1278667347670535 0 0 0 0 32.133192686524126 -21.473512369799636 0 -21.473512369799636 -10.7310570693611 0 0 0 0 22.399850906258507 -24.636194282111944 0 -24.636194282111944 -4.187906010059578 0 0 0 0 29.241315148145077 -3.0023935044407963 0 -3.0023935044407963 -5.6259276667946949 0 0 0 0 23.587973867164692 -11.894752672317104 0 -11.894752672317104 -6.6248373809503569 0 0 0 0 43.46440965909278 -26.698799414182133 0 -26.698799414182133 -8.8563904623101735 0 0 0 0 18.977356219184003 -3.6289749151148527 0 -3.6289749151148527 1.3126882462216543 0 0 0 0 14.197316826880098 -1.307228270968956 0 -1.307228270968956 -1.0223142736530453 0 0 0 0 19.531767180684255 -5.3853859225366136 0 -5.3853859225366136 6.3229696746384292 0 0 0 0 17.083138793288157 0.50193323178975646 0 0.50193323178975646 -0.13943824975581948 0 0 0 0 27.725906242179917 -16.828464094549005 0 -16.828464094549005 13.000841338623337 0 0 0 0 20.955411848088261 -12.088506941438965 0 -12.088506941438965 10.706174798408512 0 0 0 0 35.620825880396296 -2.629030945786738 0 -2.629030945786738 11.625013007111876 0 0 0 0 39.788129416396259 3.3864830874169911 0 3.3864830874169911 -36.366922098560963 0 0 0 0 25.126166463844129 8.3522393524970084 0 8.3522393524970084 -31.236231763376281 0 0 0 0 21.178301839694768 -1.5744519167429534 0 -1.5744519167429534 0.18981277451529222 0 0 0 0 42.226337103209516 3.4903761184694986 0 3.4903761184694986 -35.377035837691437 0 0 0 0 38.771809368161485 -4.2274775058222076 0 -4.2274775058222076 -18.751666838211349 0 0 0 0 20.897948086065298 3.1284449012742925 0 3.1284449012742925 -12.133898735325829 0 0 0 0 22.783372102783687 -27.400473416912199 0 -27.400473416912199 6.2069513964238467 0 0 0 0 40.338761019113008 6.5508150710618338 0 6.5508150710618338 -33.55456940183285 0 0 0 0 56.428186055127298 -19.451199579873901 0 -19.451199579873901 1.862928514586315 0 0 0 0 41.608586365668998 -18.390954107787323 0 -18.390954107787323 4.0069234910538398 0 0 0 0 48.096243003252312 -39.811123636073717 0 -39.811123636073717 22.271210375261035 0 0 0 0 43.061279282323085 -33.143515880179621 0 -33.143515880179621 30.49651236677164 0 0 0 0 51.457079975632951 -27.981606588001569 0 -27.981606588001569 32.448814617829271 0 0 0 0 81.111757099453826 -32.765911221662464 0 -32.765911221662464 12.92314566091116 0 0 0 0 41.553155161687755 -16.648767294211666 0 -16.648767294211666 14.481361104057896 0 0 0 0 39.468902833759785 0.48539919679797094 0 0.48539919679797094 -2.9534337991287885 0 0 0 0 50.937123036434059 -16.126439960069661 0 -16.126439960069661 3.5702410776139573 0 0 0 0 30.230467735367711 -10.712039732101857 0 -10.712039732101857 -15.849073439969516 0 0 0 0 49.84773307479918 -18.434195329274417 0 -18.434195329274417 -2.2256556762240507 0 0 0 0 39.019547535857782 -0.0063845167411358261 0 -0.0063845167411358261 -14.015033860966923 0 0 0 0 21.292091845883988 1.4650640050477648 0 1.4650640050477648 1.5690710164681718 0 0 0 0 15.070084956372312 -1.9595212448259787 0 -1.9595212448259787 1.3310638008233895 0 0 0 0 55.336176333395997 -23.658857947790125 0 -23.658857947790125 -45.319489865451033 0 0 0 0 25.148082743241588 -5.2851497874661497 0 -5.2851497874661497 0.12148460345090903 0 0 0 0 13.877025909503573 -4.5242897529354309 0 -4.5242897529354309 -2.5990788961366889 0 0 0 0 16.669794276996981 -25.050557515449213 0 -25.050557515449213 11.440823012737383 0 0 0 0 18.679901730518566 -8.0290336448768329 0 -8.0290336448768329 3.6298236116851728 0 0 0 0 23.910846748593372 -7.5272842343983868 0 -7.5272842343983868 1.8539802858484591 0 0 0 0 43.175723676205962 -23.412670554805118 0 -23.412670554805118 -24.977734773495627 0 0 0 0 39.368762014986714 -17.534471968255048 0 -17.534471968255048 12.106572722389956 0 0 0 0 45.435069448547438 -33.031168622904033 0 -33.031168622904033 8.0653270962789065 0 0 0 0 24.174044297556975 -16.798763644743985 0 -16.798763644743985 -4.1710696283694233 0 0 0 0 38.814546591005637 -33.198181144794944 0 -33.198181144794944 -11.827790473063942 0 0 0 0 41.293638212577207 -24.835378149381313 0 -24.835378149381313 5.995462456724681 0 0 0 0 39.697108261546418 -38.685641367436489 0 -38.685641367436489 35.781450671326638 0 0 0 0 1.4368602377741979 -0.80734236705028195 0 -0.80734236705028195 -0.34960603208828278 0 0 0 0 22.057104443782009 17.816312841622221 0 17.816312841622221 -36.375868686874128 0 0 0 0 48.669575232386705 -45.106403639728796 0 -45.106403639728796 31.734958433063298 0 0 0 0 56.267221901900484 -33.770841712450192 0 -33.770841712450192 26.305225334234365 0 0 0 0 8.1401474104932277 -13.299766386438023 0 -13.299766386438023 -93.152237013587182 0 0 0 0 51.839427509868983 -36.825042017078886 0 -36.825042017078886 35.003735721459179 0 0 0 0 -0.54446949984000526 -0.49954591178696717 0 -0.49954591178696717 0.68468262657647472 0 0 0 0 9.3974497447852627 -36.908358967355639 0 -36.908358967355639 55.597701417860662 0 0 0 0 1.6581798202362279 -5.0504092372330689 0 -5.0504092372330689 2.1621293825273744 0 0 0 0 7.0927821157165454 -4.1767925485357296 0 -4.1767925485357296 -0.84554988972354295 0 0 0 0 15.21890327957226 -21.345653110988223 0 -21.345653110988223 12.888960695719334 0 0 0 0 -14.295811376534402 -5.7863516098248056 0 -5.7863516098248056 -12.409149310084558 0 0 0 0 4.5596341504104885 -3.4241834489433174 0 -3.4241834489433174 1.1034177348626319 0 0 0 0 14.614961471997958 -0.96548245380651565 0 -0.96548245380651565 5.0166115392713664 0 0 0 0 6.1714991012071039 -2.802763581238068 0 -2.802763581238068 1.3541201419941342 0 0 0 0 -21.919110525544966 -70.514047524790612 0 -70.514047524790612 -78.608906450715978 0 0 0 0 -28.265962792822393 -25.334501403043703 0 -25.334501403043703 -45.10260370909009 0 0 0 0 3.9097820026581758 -22.788399521412316 0 -22.788399521412316 -49.277921863726988 0 0 0 0 -11.3701745226208 -45.272148741081878 0 -45.272148741081878 -47.081513347564396 0 0 0 0 -40.526739664681372 -43.974533983385641 0 -43.974533983385641 -39.685976106543194 0 0 0 0 0.094083653510921295 -0.13087922251250461 0 -0.13087922251250461 0.12688117967334289 0 0 0 0 78.081731468294493 69.290864806187102 0 69.290864806187102 -11.931299715397472 0 0 0 0 38.405657976472867 33.722820267193988 0 33.722820267193988 17.292217273725555 0 0 0 0 89.575916453672107 -19.535718608314369 0 -19.535718608314369 -68.848130651249448 0 0 0 0 -10.986877432456822 25.910654540926885 0 25.910654540926885 -16.741838754551509 0 0 0 0 40.485115601619327 15.975890670615456 0 15.975890670615456 -39.184895366697674 0 0 0 0 28.193634209033917 2.4016385772044941 0 2.4016385772044941 2.6851935208172222 0 0 0 0 34.21710528661788 4.0089848515561357 0 4.0089848515561357 -20.816335208007217 0 0 0 0 15.160657002299558 4.0665057583190674 0 4.0665057583190674 -15.263382698029659 0 0 0 0 32.204944266028178 -0.75247291096673052 0 -0.75247291096673052 -22.497079599057997 0 0 0 0 55.910641116450279 -16.264795702002488 0 -16.264795702002488 -2.8806273398845406 0 0 0 0 58.103584842210694 -13.059381925956131 0 -13.059381925956131 -11.689628083348452 0 0 0 0 96.086671162149287 -35.607121895989849 0 -35.607121895989849 1.2430657318230942 0 0 0 0 46.280157324013999 -17.298426302415919 0 -17.298426302415919 16.465272984476996 0 0 0 0 90.744482798923855 -81.672613816139801 0 -81.672613816139801 47.705657562750787 0 0 0 0 44.581022122045397 -42.003575909685651 0 -42.003575909685651 54.938383918520231 0 0 0 0 0.50352759727485363 -0.060423241259201177 0 -0.060423241259201177 -0.45448706489291535 0 0 0 0 -1.2234590613861656 59.398747032656075 0 59.398747032656075 -61.881297760398866 0 0 0 0 25.577811099065002 12.255939350280073 0 12.255939350280073 -55.27622772699857 0 0 0 0 19.517053465628123 1.0668837714591746 0 1.0668837714591746 -17.384138553360003 0 0 0 0 44.391864445886313 -16.746261616257812 0 -16.746261616257812 -11.203976981052051 0 0 0 0 57.156807763814868 -8.3403882043355111 0 -8.3403882043355111 -26.289408427821854 0 0 0 0 127.37640523284063 -9.8152605636201997 0 -9.8152605636201997 -26.501876282457857 0 0 0 0 39.168293582519254 -2.5396768472172653 0 -2.5396768472172653 -3.0643490709135222 0 0 0 0 68.200857349969738 2.3845903858184556 0 2.3845903858184556 -15.882110475900276 0 0 0 0 68.991799093673762 19.822000532677919 0 19.822000532677919 -6.3604837388998021 0 0 0 0 52.257785806429183 14.594047627130024 0 14.594047627130024 2.0634088629517464 0 0 0 0 52.874996203074261 23.816247646256784 0 23.816247646256784 -1.5211603021039082 0 0 0 0 25.691777423759049 40.935230254041244 0 40.935230254041244 -4.9398809727188109 0 0 0 0 6.5326355814021611 18.998165777445948 0 18.998165777445948 7.4000163293872934 0 0 0 0 32.686649650757317 42.128097415702996 0 42.128097415702996 12.744747567598893 0 0 0 0 51.033495447611131 6.9554493678541007 0 6.9554493678541007 -10.833805570114919 0 0 0 0 -21.368981660329155 19.215891358571525 0 19.215891358571525 11.303283111501742 0 0 0 0 55.647140822649817 36.385031567091801 0 36.385031567091801 -11.92100248025406 0 0 0 0 47.929485366599692 63.206705776855074 0 63.206705776855074 33.617102222215635 0 0 0 0 19.241436252661515 13.557570392501248 0 13.557570392501248 42.773738252024259 0 0 0 0 -3.4987945408647647 47.143500922413978 0 47.143500922413978 10.694111016893203 0 0 0 0 -46.519738215898542 44.607761997193251 0 44.607761997193251 31.145211462917814 0 0 0 0 8.3368705902995757 16.912657789212687 0 16.912657789212687 0.8045721290858916 0 0 0 0 -6.7169179959892062 35.051465697454319 0 35.051465697454319 -27.505904145288753 0 0 0 0 -63.115594948190846 11.251513351275889 0 11.251513351275889 -15.816988343934469 0 0 0 0 59.724148866182077 -0.42294372313108397 0 -0.42294372313108397 -7.3822675801549451 0 0 0 0 54.87604176797322 1.3149438908096727 0 1.3149438908096727 -7.2886555857303392 0 0 0 0 27.78198006846651 -32.325739769303254 0 -32.325739769303254 13.186725468429813 0 0 0 0 23.563956749750318 -1.376938902396958 0 -1.376938902396958 -0.39343492439200878 0 0 0 0 19.510407217731512 -3.6125099133352094 0 -3.6125099133352094 0.41890716169547471 0 0 0 0 26.833413938351441 14.765612276414004 0 14.765612276414004 -8.2955097634578578 0 0 0 0 13.647521533450345 -2.3246135216481889 0 -2.3246135216481889 -7.8384949317744486 0 0 0 0 22.313096619865576 -2.3924281208794786 0 -2.3924281208794786 -0.11051950788823117 0 0 0 0 21.043841780912771 -9.9622492120272454 0 -9.9622492120272454 -48.373384045629791 0 0 0 0 3.8399605989003192 0.88730603225849336 0 0.88730603225849336 -1.4239868080334945 0 0 0 0 31.919357119768392 19.773876930691813 0 19.773876930691813 -28.787692448640655 0 0 0 0 2.9285720067397278 -2.4159655408978651 0 -2.4159655408978651 -0.70056058393530707 0 0 0 0 44.199164445872668 12.200985256322562 0 12.200985256322562 -12.770996747442496 0 0 0 0 44.010157818876905 -1.1521079597162043 0 -1.1521079597162043 -5.9603783669558652 0 0 0 0 24.535674902344908 12.828082519322294 0 12.828082519322294 -15.691178056219997 0 0 0 0 58.261976980596955 0.85989282624097996 0 0.85989282624097996 -22.534865617181595 0 0 0 0 2495.9004360242725 335.02070440336297 0 335.02070440336297 96.466322931171803 0 0 0 0 1097.4094939383795 -254.47433338682922 0 -254.47433338682922 -46.924292339658038 0 0 0 0 2718.3197748944876 -258.71917967159987 0 -258.71917967159987 -83.373223544566642 0 0 0 0 2319.3170517793078 113.49563843702009 0 113.49563843702009 674.72258667684298 0 0 0 0 1592.457731336799 33.504323764366333 0 33.504323764366333 -0.21362056205081398 0 0 0 0 2652.9997233551439 76.972719760148607 0 76.972719760148607 -276.21996089078664 0 0 0 0 156.67686041702109 -8.2284424552923383 0 -8.2284424552923383 109.29372811447456 0 0 0 0 238.48429043825308 201.53333881863551 0 201.53333881863551 269.29516356676419 0 0 0 0 306.34267759367503 -43.906160076421507 0 -43.906160076421507 0.4079593564880023 0 0 0 0 1270.9742035983727 1050.6497941915429 0 1050.6497941915429 544.803406350263 0 0 0 0 1019.8235134689094 516.49749937738204 0 516.49749937738204 124.87764893797248 0 0 0 0 184.27793261141051 -126.21332795055201 0 -126.21332795055201 45.0265339838096 0 0 0 0 399.90778332069749 53.454959738528117 0 53.454959738528117 -85.542729082911592 0 0 0 0 125.65730752858508 85.355792241085851 0 85.355792241085851 -84.927557217318224 0 0 0 0 4.5212168179568835 0.58162188953974692 0 0.58162188953974692 -1.9211820850262029 0 0 0 0 265.11324401985621 44.738474106925992 0 44.738474106925992 -135.33793106790245 0 0 0 0 2.4880634691290595 -0.16952773631410167 0 -0.16952773631410167 -0.43803673443798907 0 0 0 0 316.70472062659974 3.4547553083029356 0 3.4547553083029356 -234.64334789833208 0 0 0 0 28.382998302438921 -2.3833453597992467 0 -2.3833453597992467 0.012420900545489666 0 0 0 0 589.30039851503534 268.14508410607732 0 268.14508410607732 -439.95147899607991 0 0 0 0 -292.57386882265564 -228.32844249148684 0 -228.32844249148684 42.766448961128162 0 0 0 0 201.42316564663997 115.98980295562689 0 115.98980295562689 139.72366333478044 0 0 0 0 204.45481254957849 -755.17663130920971 0 -755.17663130920971 797.98820881565518 0 0 0 0 12.936720678215551 -1.0753552398171351 0 -1.0753552398171351 0.80384322959228593 0 0 0 0 1103.5338298338465 -981.967078594746 0 -981.967078594746 500.8440228533218 0 0 0 0 255.78965618260554 -50.839441557901523 0 -50.839441557901523 586.31475492764321 0 0 0 0 -441.66931392376137 386.77904699824035 0 386.77904699824035 312.34899518201269 0 0 0 0 381.86799374662223 -207.3105394601269 0 -207.3105394601269 276.58994063328873 0 0 0 0 360.414770802774 -235.12895031430799 0 -235.12895031430799 310.24296989296738 0 0 0 0 868.9963378666871 -497.65593536166438 0 -497.65593536166438 161.62930451160847 0 0 0 0 -18.114727565836802 -125.30286680199796 0 -125.30286680199796 119.97541852845583 0 0 0 0 106.398533196676 11.168793308553731 0 11.168793308553731 182.37016046824073 0 0 0 0 414.74894003827649 -214.14477592582688 0 -214.14477592582688 150.62963870725639 0 0 0 0 0.15390868844810335 1.2436394048436341 0 1.2436394048436341 1.2976522586883394 0 0 0 0 7.9421187514890335 4.5938551423457739 0 4.5938551423457739 2.1580884513687124 0 0 0 0 13.550258557203051 4.5026695708162947 0 4.5026695708162947 -0.090213618855159439 0 0 0 0 7.5232394634210493 3.4219009308580013 0 3.4219009308580013 -1.0146887423335644 0 0 0 0 12.52047793476595 5.4835098374187794 0 5.4835098374187794 -0.75446876931795259 0 0 0 0 14.172469702416549 9.5314384057212465 0 9.5314384057212465 -6.5933644278127268 0 0 0 0 -1.0235060845334374 12.949604368923545 0 12.949604368923545 1.3669629542163193 0 0 0 0 -9.2436916694805404 8.1024207153437828 0 8.1024207153437828 -7.3974710993516055 0 0 0 0 -0.90568741798051633 8.8171020280046832 0 8.8171020280046832 -11.315578954766806 0 0 0 0 30.077078057981311 -0.28108830567547649 0 -0.28108830567547649 -1.9148146597601796 0 0 0 0 3.0673566631953975 5.0085488988172244 0 5.0085488988172244 0.26617891455109466 0 0 0 0 175.66387891437626 185.90736378690281 0 185.90736378690281 -146.93316188993413 0 0 0 0 1.1628334204187531 0.71688682285849836 0 0.71688682285849836 0.6219700038816125 0 0 0 0 -39.928937123695505 -109.56636084914086 0 -109.56636084914086 -38.224562397402565 0 0 0 0 -7.5171838493552059 -80.792158373082771 0 -80.792158373082771 -106.94448857099454 0 0 0 0 -72.130960418158793 -66.13575407557741 0 -66.13575407557741 44.882686934932224 0 0 0 0 -70.078993110277224 -54.032114329693883 0 -54.032114329693883 83.195855298144494 0 0 0 0 -86.785360259811569 33.718774119881857 0 33.718774119881857 31.478571878973696 0 0 0 0 -57.089849291027349 -23.666367731747993 0 -23.666367731747993 139.17952396227307 0 0 0 0 -64.984333562566462 -16.354303342619414 0 -16.354303342619414 41.246496242384111 0 0 0 0 68.2779911190446 -6.9466354356451268 0 -6.9466354356451268 -0.043386845867750913 0 0 0 0 -0.19614484003068355 -0.37967755061150399 0 -0.37967755061150399 -0.3285412188260845 0 0 0 0 4.7792237147529448 -0.68750365529542989 0 -0.68750365529542989 -1.9529817962119103 0 0 0 0 2.6715042509997602 2.3129194017985206 0 2.3129194017985206 -0.55955648737016062 0 0 0 0 42.300594017477124 48.632820352345931 0 48.632820352345931 -140.76408577810895 0 0 0 0 -51.451433225054643 -30.619127571353715 0 -30.619127571353715 -26.569491007554717 0 0 0 0 -7.525042406967259 39.227857205827128 0 39.227857205827128 -0.42166660595242345 0 0 0 0 -65.758109658243484 48.143094481407211 0 48.143094481407211 27.102324957228525 0 0 0 0 166.70596798779661 -218.37179822941431 0 -218.37179822941431 5.3716185486684367 0 0 0 0 52.156622661961592 147.79513061867883 0 147.79513061867883 37.273803102748488 0 0 0 0 0.97092184448089824 -0.94645911775418412 0 -0.94645911775418412 0.18285542448371345 0 0 0 0 25.8691907896864 -55.127333605173376 0 -55.127333605173376 180.12840257899822 0 0 0 0 257.650647367278 -44.170504390683455 0 -44.170504390683455 -10.116274239154356 0 0 0 0 99.284328757377807 -17.510365810927464 0 -17.510365810927464 -9.6307298797775669 0 0 0 0 39.528494856975158 -0.014765355712920925 0 -0.014765355712920925 0.02817181096170249 0 0 0 0 58.13530944797094 4.7420907809461301 0 4.7420907809461301 1.1701783582625351 0 0 0 0 37.475737884902628 15.502888814355671 0 15.502888814355671 -7.007245019499706 0 0 0 0 122.00912197339494 31.332420076743642 0 31.332420076743642 -4.7182909060486367 0 0 0 0 36.856296387966722 45.099833354501918 0 45.099833354501918 -24.69381646588662 0 0 0 0 30.867437515291385 21.795512530370146 0 21.795512530370146 -1.4201945253003565 0 0 0 0 -1.1648613923171069 0.095202937113797459 0 0.095202937113797459 9.5548523109625503 0 0 0 0 2.296577777445151 1.0149488501921553 0 1.0149488501921553 0.22256283747507036 0 0 0 0 233.59498846298084 -99.648470080962397 0 -99.648470080962397 137.64980679438236 0 0 0 0 117.49863663391443 41.673992112002338 0 41.673992112002338 -24.680734307434896 0 0 0 0 -13.558970849971274 17.605141424000344 0 17.605141424000344 1.2197623108872904 0 0 0 0 1.1777395744116745 0.27254169441638965 0 0.27254169441638965 0.15077879831223395 0 0 0 0 82.499440525774844 -117.07894638804959 0 -117.07894638804959 -2.8396424009442285 0 0 0 0 210.17906238048454 -237.99612012122424 0 -237.99612012122424 56.806400829088432 0 0 0 0 -36.758005827647139 -99.227014684787278 0 -99.227014684787278 16.523410385043235 0 0 0 0 -4.6440993442956824 -25.482867097735834 0 -25.482867097735834 -6.0586301332988981 0 0 0 0 272.26481280890948 -13.370848456661946 0 -13.370848456661946 -5.6089280851156218 0 0 0 0 -2.3038470336759929 16.756871172873502 0 16.756871172873502 6.3745121602979395 0 0 0 0 1.5141824636521051 4.4920871130059936 0 4.4920871130059936 26.053691868979627 0 0 0 0 24.124117131512321 37.697323308040154 0 37.697323308040154 -52.369758260478989 0 0 0 0 79.219647822203115 72.152769307212793 0 72.152769307212793 84.478198578643344 0 0 0 0 18.75188556680223 61.539777006145869 0 61.539777006145869 2.7364961786249751 0 0 0 0 15.092934881289068 4.2463786861690913 0 4.2463786861690913 -2.6081078371517297 0 0 0 0 13.408182396087795 3.6136256631776558 0 3.6136256631776558 -8.9979017762295435 0 0 0 0 14.263234462152468 6.8212271357582495 0 6.8212271357582495 -7.3670921071205271 0 0 0 0 0.22427292919019237 10.15783356243552 0 10.15783356243552 -8.1788570188412564 0 0 0 0 -0.31418159895909525 0.20406852758712546 0 0.20406852758712546 -0.055161965844519434 0 0 0 0 12.809695471379086 1.584272700829672 0 1.584272700829672 -3.450243576384227 0 0 0 0 13.799901308630069 4.4589260495265535 0 4.4589260495265535 -1.9817595217473354 0 0 0 0 12.369456665415782 18.712717964382591 0 18.712717964382591 -18.019689593361136 0 0 0 0 96.27590920575858 18.863863526871071 0 18.863863526871071 2.3241035607821914 0 0 0 0 17.633229759431316 3.0940504680846885 0 3.0940504680846885 -1.7699286539959167 0 0 0 0 37.537441637716256 43.361395452558781 0 43.361395452558781 4.8073489782672141 0 0 0 0 -0.048999638553254954 0.67088412446894452 0 0.67088412446894452 -0.093988562367178896 0 0 0 0 6.6938026380586564 13.09468159993466 0 13.09468159993466 -7.6951797005271549 0 0 0 0 26.406670034775743 3.8966004813764812 0 3.8966004813764812 -0.69834636417014195 0 0 0 0 20.998605882370612 4.2900248212877159 0 4.2900248212877159 4.2210549043142009 0 0 0 0 15.933953551796378 2.8044269177427612 0 2.8044269177427612 -0.38060575236867411 0 0 0 0 31.126289440144319 7.1676703933282511 0 7.1676703933282511 1.4721154457010925 0 0 0 0 15.707047551419237 3.0127101842107322 0 3.0127101842107322 -3.1555537061005907 0 0 0 0 12.021282032743329 4.2653875144937388 0 4.2653875144937388 -1.3155490086896862 0 0 0 0 15.156804099318322 1.3127047359388797 0 1.3127047359388797 -1.6899301013629162 0 0 0 0 33.27405212938902 8.6121819325321098 0 8.6121819325321098 1.533462248276237 0 0 0 0 2.4932116955870498 -0.26518466963777598 0 -0.26518466963777598 -0.075171022213299521 0 0 0 0 23.513806167989969 5.4062060569390269 0 5.4062060569390269 3.4574415578169919 0 0 0 0 0.95121073550762958 12.273215096714992 0 12.273215096714992 0.75339434920317672 0 0 0 0 19.643224593033665 9.3868979410782458 0 9.3868979410782458 9.2426487117797933 0 0 0 0 29.389862276540953 10.786250409636864 0 10.786250409636864 7.4177317400233278 0 0 0 0 20.546300437039463 5.5872157548767518 0 5.5872157548767518 7.9827787569805793 0 0 0 0 19.119869346526684 5.7136137148927446 0 5.7136137148927446 10.338311843809208 0 0 0 0 22.042330959331593 5.7843892812669537 0 5.7843892812669537 7.957029438837246 0 0 0 0 21.048259462579153 3.7766994903547726 0 3.7766994903547726 4.1578156060088531 0 0 0 0 16.79916396480985 3.0794135862719259 0 3.0794135862719259 9.0944797562243025 0 0 0 0 8.4327042118584643 -3.2988235018190863 0 -3.2988235018190863 0.87399613472499049 0 0 0 0 2.7856407645355006 -0.18857756748430177 0 -0.18857756748430177 -0.76988283393741952 0 0 0 0 0.42167906148824841 -15.167446387924883 0 -15.167446387924883 -45.518793811336423 0 0 0 0 14.95148471056018 -2.6295866440656823 0 -2.6295866440656823 -34.685468812208001 0 0 0 0 0.56194747077097418 -18.21479955168229 0 -18.21479955168229 -39.079576992347029 0 0 0 0 0.68121193692732618 -0.3612496942793797 0 -0.3612496942793797 -0.01208452164809426 0 0 0 0 -1.9249972582983901 -22.078928634318686 0 -22.078928634318686 -44.698309025259121 0 0 0 0 -1.1481659831697471 -18.699943328030145 0 -18.699943328030145 -30.64782009204373 0 0 0 0 5.891426506175776 -12.077696564645976 0 -12.077696564645976 -42.035751040432842 0 0 0 0 9.0403771207347745 -16.70407560475536 0 -16.70407560475536 -52.459539505507109 0 0 0 0 6.3517623211373575 -22.948979728505492 0 -22.948979728505492 -53.728732179801 0 0 0 0 12.553737659160106 10.334110826893721 0 10.334110826893721 22.015716411178119 0 0 0 0 31.026311178386095 28.977430571996592 0 28.977430571996592 29.496462693360741 0 0 0 0 5.4006033712173007 -1.6209369188541345 0 -1.6209369188541345 0.40783488425979564 0 0 0 0 0.14874172628333326 -19.814457964925168 0 -19.814457964925168 -43.787692373058178 0 0 0 0 43.231129254287225 7.0089383548967135 0 7.0089383548967135 13.140082426010849 0 0 0 0 30.973339851014316 12.897249019500578 0 12.897249019500578 11.17042796132921 0 0 0 0 32.514667533469037 13.467973471883283 0 13.467973471883283 57.987100548971966 0 0 0 0 14.673672190023353 -61.894606175287549 0 -61.894606175287549 0.2065394388604318 0 0 0 0 -1.683282892772695 -13.333017690086479 0 -13.333017690086479 -33.869197387593772 0 0 0 0 -88.459296056782478 15.755647190744526 0 15.755647190744526 225.34219038189394 0 0 0 0 1.8076768651599195 -0.52020657844683171 0 -0.52020657844683171 0.19803432193668691 0 0 0 0 61.76907480203954 123.15916073732069 0 123.15916073732069 93.887104469093401 0 0 0 0 169.27056837975397 84.240882871315478 0 84.240882871315478 -123.77673805539303 0 0 0 0 32.28363559753052 -47.263576753963378 0 -47.263576753963378 -56.949804658630228 0 0 0 0 -33.06127394552459 -34.143755531630802 0 -34.143755531630802 -1.0570745841571352 0 0 0 0 69.713706587426714 18.92464983498769 0 18.92464983498769 -7.5695370156213357 0 0 0 0 22.080037140214699 -14.826996766442562 0 -14.826996766442562 -6.372048560564739 0 0 0 0 17.487047464877833 -9.7079251137575255 0 -9.7079251137575255 -9.7485541029727827 0 0 0 0 10.704001651145518 -2.6419014469717013 0 -2.6419014469717013 -6.6048508352303088 0 0 0 0 10.592749449365698 -2.3980005900469905 0 -2.3980005900469905 -1.0977403441587255 0 0 0 0 20.594330875435844 -7.6848712514555473 0 -7.6848712514555473 -10.501263871641584 0 0 0 0 19.082640925538726 -7.6369041153789112 0 -7.6369041153789112 -7.4164575489915308 0 0 0 0 40.238905877413345 -2.1816475579247481 0 -2.1816475579247481 -8.9344696594314428 0 0 0 0 25.696939053697861 23.65906256731256 0 23.65906256731256 3.8463059494881122 0 0 0 0 21.536252844773117 2.0680560446532468 0 2.0680560446532468 -0.7045016083795872 0 0 0 0 30.37875985170831 0.73844212164937062 0 0.73844212164937062 -6.3076858743320372 0 0 0 0 7.9746451839455403 -0.81473153060329651 0 -0.81473153060329651 -5.8483076265317351 0 0 0 0 10.477330691086536 2.9041820054682859 0 2.9041820054682859 -7.9899611234257293 0 0 0 0 7.3849675990999515 1.991964292465596 0 1.991964292465596 -0.56908320908530263 0 0 0 0 13.075187461974565 4.3743921641482757 0 4.3743921641482757 -0.08372832096165439 0 0 0 0 7.5648307979863603 1.3557198909738872 0 1.3557198909738872 -3.0440606058618584 0 0 0 0 14.008276316017145 2.7519491950072279 0 2.7519491950072279 0.30229735473267283 0 0 0 0 8.4410980975864902 1.1950790281344341 0 1.1950790281344341 -1.9955737231106916 0 0 0 0 13.044533715117723 1.4125128718827114 0 1.4125128718827114 2.8990886192375456 0 0 0 0 11.941001212151605 3.0880288239650326 0 3.0880288239650326 2.945120309421327 0 0 0 0 12.788209598325011 3.7515738120075426 0 3.7515738120075426 3.3837256934843936 0 0 0 0 12.854678587929811 2.5071149716034142 0 2.5071149716034142 3.0236579411021012 0 0 0 0 12.31767816755746 3.6402443002409655 0 3.6402443002409655 5.0822340181482559 0 0 0 0 2.0132761064804932 0.71322890872333744 0 0.71322890872333744 4.6964988422984009 0 0 0 0 564.72243003127369 -102.32662685163174 0 -102.32662685163174 -99.948044921382262 0 0 0 0 367.94947802944898 -132.68032276811843 0 -132.68032276811843 25.145532113133754 0 0 0 0 595.79720054999052 -348.18570377791445 0 -348.18570377791445 121.90081725149801 0 0 0 0 1122.0443248922238 -336.47458160537275 0 -336.47458160537275 -64.87142227528048 0 0 0 0 857.93257292887574 -207.06953952690355 0 -207.06953952690355 -93.984140030096427 0 0 0 0 891.40793449382181 -277.03778787816032 0 -277.03778787816032 -126.22630985623039 0 0 0 0 966.48565239954769 -234.31236486140381 0 -234.31236486140381 -153.69039375413831 0 0 0 0 872.30598185423878 -179.32006241014022 0 -179.32006241014022 -185.74469140889855 0 0 0 0 779.68918074572866 -210.6584804623962 0 -210.6584804623962 -46.434731204959405 0 0 0 0 884.23722148692468 -124.26012156790111 0 -124.26012156790111 18.330124044181957 0 0 0 0 979.09048171903123 32.488666771788246 0 32.488666771788246 -137.82095180917952 0 0 0 0 -0.55331847239793319 -0.59459437426900053 0 -0.59459437426900053 2.3060698467749541 0 0 0 0 822.3549173473948 98.190356148989849 0 98.190356148989849 -96.934762696711005 0 0 0 0 602.17712385764753 -203.84819290022892 0 -203.84819290022892 75.111055757337851 0 0 0 0 2.9204272777567155 -3.7955550088177716 0 -3.7955550088177716 4.9552357261029458 0 0 0 0 889.31218850208097 0.71747749750841194 0 0.71747749750841194 -30.926899764594708 0 0 0 0 974.03606485002911 -6.776152870830245 0 -6.776152870830245 -146.57109954470479 0 0 0 0 982.67964130359906 112.50407690861535 0 112.50407690861535 -154.47805540742434 0 0 0 0 0.69222020291068809 -2.8380095495732292 0 -2.8380095495732292 7.1253646685764531 0 0 0 0 592.98811811555788 152.19897125789203 0 152.19897125789203 84.199652345461232 0 0 0 0 1095.3919827699065 7.3021895031347697 0 7.3021895031347697 -162.29567134002536 0 0 0 0 1056.043621977602 94.142933712935474 0 94.142933712935474 -153.04891935644014 0 0 0 0 1397.2759014332696 -319.82311489067786 0 -319.82311489067786 51.935109661449637 0 0 0 0 944.78313661464927 -109.65196941564923 0 -109.65196941564923 54.649785842386564 0 0 0 0 853.87169334444479 17.500918678152402 0 17.500918678152402 -88.525909359946183 0 0 0 0 948.67972767498577 -72.315758870710511 0 -72.315758870710511 -137.2889281408427 0 0 0 0 936.04513169133861 -14.72113940631948 0 -14.72113940631948 -134.84681341217993 0 0 0 0 876.8380828783047 -117.52097381030273 0 -117.52097381030273 -128.29132320047188 0 0 0 0 11.51940503271517 8.0479626460553391 0 8.0479626460553391 -0.31689224244235259 0 0 0 0 862.38052410196906 5.5911535852774392 0 5.5911535852774392 -224.36627894696736 0 0 0 0 890.51578459013399 -108.04643077944957 0 -108.04643077944957 -309.41581197669819 0 0 0 0 2499.3244980545023 67.273286514080553 0 67.273286514080553 -827.72525579722435 0 0 0 0 904.1000141161494 75.518775378556995 0 75.518775378556995 -389.94405933339499 0 0 0 0 6.9058798740393286 3.4598685929968269 0 3.4598685929968269 -0.32551283067260967 0 0 0 0 2498.7823396880849 -825.34891594682608 0 -825.34891594682608 116.99914984907234 0 0 0 0 -83.027931114687817 629.19039145952968 0 629.19039145952968 -30.244141337652433 0 0 0 0 623.35112892471079 -228.87867459708184 0 -228.87867459708184 -202.40918846630339 0 0 0 0 951.46665872377434 -101.6931678380663 0 -101.6931678380663 -190.62755907873387 0 0 0 0 1324.1626644469288 -237.30977791332296 0 -237.30977791332296 -173.84085971356234 0 0 0 0 1624.0747649935056 895.12704287199665 0 895.12704287199665 -8.8510637799096923 0 0 0 0 2495.0044150470712 -491.05482965891366 0 -491.05482965891366 -357.41863883122727 0 0 0 0 710.8231706492079 531.98098928032744 0 531.98098928032744 397.02990677687427 0 0 0 0 7.7412792945636824 12.036830959480781 0 12.036830959480781 17.622371089241675 0 0 0 0 -93.617999014881207 108.14761483111397 0 108.14761483111397 -9.2167498758690272 0 0 0 0 4.3202806269109715 198.13402439912761 0 198.13402439912761 56.156108389097881 0 0 0 0 221.83789088967751 249.97117069041781 0 249.97117069041781 44.425216039199768 0 0 0 0 209.86847609663528 213.59877387070264 0 213.59877387070264 -195.04136961347649 0 0 0 0 30.304851062872331 -61.959848454704115 0 -61.959848454704115 -188.92997127088574 0 0 0 0 192.59193005040288 10.567266142268068 0 10.567266142268068 -249.52850613307601 0 0 0 0 -16.266613550229522 263.01990606606648 0 263.01990606606648 565.36300645622737 0 0 0 0 152.1501570980181 66.06700308794359 0 66.06700308794359 234.90782506252117 0 0 0 0 473.02332448709058 1419.1561932756176 0 1419.1561932756176 1231.0716012210141 0 0 0 0 -355.83538015819795 59.319323260596946 0 59.319323260596946 1326.9068432083752 0 0 0 0 3.0786365665562698 2.8402163730333854 0 2.8402163730333854 8.7309131451005815 0 0 0 0 2495.4789987999661 1125.8439977966596 0 1125.8439977966596 -269.53775876852518 0 0 0 0 504.13636932718509 402.31090719364613 0 402.31090719364613 -511.31212184228929 0 0 0 0 30.341784479202033 1268.9607404332921 0 1268.9607404332921 -142.53961479227735 0 0 0 0 481.64377666195276 746.93038304031882 0 746.93038304031882 155.77050993270382 0 0 0 0 599.59374775036849 714.45354499976645 0 714.45354499976645 36.615060985317854 0 0 0 0 764.30963888548285 111.65273001816445 0 111.65273001816445 185.95201296277679 0 0 0 0 359.70044289774523 379.01582425593324 0 379.01582425593324 48.7176960004374 0 0 0 0 5.3265350170175623 3.811821741194791 0 3.811821741194791 0.70764209920886412 0 0 0 0 2556.6487596908555 -222.46042778630627 0 -222.46042778630627 -217.76235690952603 0 0 0 0 868.10133968023001 424.28261651927079 0 424.28261651927079 484.0757338126628 0 0 0 0 1094.6901701718889 434.94100429065782 0 434.94100429065782 34.721492389738387 0 0 0 0 755.56890125259815 -141.26457446596567 0 -141.26457446596567 3.6449774725245305 0 0 0 0 443.30155959453987 -72.864871992036853 0 -72.864871992036853 318.88588932192226 0 0 0 0 0.37367923769611266 -1.4872198600115638 0 -1.4872198600115638 3.4650208367945377 0 0 0 0 -245.90606404923346 -149.10750413370857 0 -149.10750413370857 -120.53464774626036 0 0 0 0 412.23042136359436 -153.91999368902759 0 -153.91999368902759 200.54061512984799 0 0 0 0 -284.33206676376926 418.25232287812707 0 418.25232287812707 -226.42599810701313 0 0 0 0 253.43164889296168 -212.36178602782002 0 -212.36178602782002 -632.4058066752284 0 0 0 0 49.428351530092186 55.644026903089099 0 55.644026903089099 58.735996718377805 0 0 0 0 1.0521262922271717 2.5970958801388448 0 2.5970958801388448 -6.8154283820319765 0 0 0 0 65.668226493129623 304.10162059158893 0 304.10162059158893 227.42125112435224 0 0 0 0 33.842781020284747 -117.83458606222098 0 -117.83458606222098 -175.60280779133814 0 0 0 0 13.228028168319725 22.059657574090352 0 22.059657574090352 39.762351869918177 0 0 0 0 54.011641396660707 62.145057806090534 0 62.145057806090534 54.493124054334032 0 0 0 0 124.73806245955348 43.999908455361776 0 43.999908455361776 -10.883155252715838 0 0 0 0 124.26864046827541 -20.43125658412491 0 -20.43125658412491 -25.901316014105042 0 0 0 0 73.193600257403887 36.694255790964974 0 36.694255790964974 22.899514406666299 0 0 0 0 220.46985168237006 21.491850694481002 0 21.491850694481002 -9.4159747968272143 0 0 0 0 117.21835670209111 -106.19252292623021 0 -106.19252292623021 17.158451409515351 0 0 0 0 245.9085319603837 151.28711509878264 0 151.28711509878264 109.62532796706029 0 0 0 0 165.09219738199317 50.100766420786101 0 50.100766420786101 57.33502875999352 0 0 0 0 173.31123653771647 73.738718387480162 0 73.738718387480162 30.497282441785572 0 0 0 0 67.695697841540095 94.771213667566059 0 94.771213667566059 108.24550813910628 0 0 0 0 371.24893277467345 50.96446575649918 0 50.96446575649918 30.149139194277154 0 0 0 0 1.7848424277057688 -0.28541251385319555 0 -0.28541251385319555 -1.0618561709837504 0 0 0 0 -329.72090948759524 -690.37397144895294 0 -690.37397144895294 183.81829859496565 0 0 0 0 -113.51366702970699 -198.77369153479668 0 -198.77369153479668 -225.04374067363938 0 0 0 0 12.193113813831587 -109.60135335257016 0 -109.60135335257016 -56.392812994561382 0 0 0 0 -132.10410212211718 -29.680838427206822 0 -29.680838427206822 -60.592230831009147 0 0 0 0 23.206871659382159 -172.72857728067692 0 -172.72857728067692 -220.09378554335683 0 0 0 0 50.955469507054659 -43.770864525703814 0 -43.770864525703814 -61.456321315689365 0 0 0 0 13.447969415916305 -15.352946871873087 0 -15.352946871873087 -35.189912773505455 0 0 0 0 129.97572994143411 -50.516791621878383 0 -50.516791621878383 -115.94471449950748 0 0 0 0 85.331501038650458 39.709976186320716 0 39.709976186320716 0.45347202435812051 0 0 0 0 352.82172091926805 -30.982654275270342 0 -30.982654275270342 15.832639508040074 0 0 0 0 -18.321240065444726 -79.143918214036688 0 -79.143918214036688 22.448708991572232 0 0 0 0 0.37446811489857623 -0.31042295499929651 0 -0.31042295499929651 0.32459539369619606 0 0 0 0 -14.022441213186539 0.7339913738614996 0 0.7339913738614996 -7.5139801402766579 0 0 0 0 0.88230769512864526 -0.5660434152142102 0 -0.5660434152142102 0.22002087898235834 0 0 0 0 13.213847394742174 4.4476787519490708 0 4.4476787519490708 -15.919507425795473 0 0 0 0 11.625672224632581 -29.608426759072216 0 -29.608426759072216 -45.310089378490829 0 0 0 0 16.559611072994812 -0.65964995434632101 0 -0.65964995434632101 -23.487892871749409 0 0 0 0 21.899077322581434 -29.24783226726025 0 -29.24783226726025 4.9227305339667282 0 0 0 0 38.209687468970515 -30.736184264288326 0 -30.736184264288326 10.971028456706961 0 0 0 0 24.788547418072994 -35.474213267305529 0 -35.474213267305529 15.674188854110554 0 0 0 0 37.377964867766423 -41.909249043822705 0 -41.909249043822705 16.645835208084748 0 0 0 0 30.573877941882529 -30.722233950072372 0 -30.722233950072372 0.049416261460102362 0 0 0 0 7.2802567597609595 -48.754285270998139 0 -48.754285270998139 18.598928745743308 0 0 0 0 49.941555612167576 -47.666307857213326 0 -47.666307857213326 16.738096068397056 0 0 0 0 0.58130049040482845 -5.7052872412110318 0 -5.7052872412110318 -14.552578628853759 0 0 0 0 38.607713667939606 -1.1714853356381489 0 -1.1714853356381489 -34.870121754278614 0 0 0 0 108.70716148707288 117.11627962750799 0 117.11627962750799 98.872915638715085 0 0 0 0 22.434346491467295 -47.31690154044783 0 -47.31690154044783 -54.490349224620559 0 0 0 0 6.4877016711145075 -4.9753943461700061 0 -4.9753943461700061 2.4972126778987875 0 0 0 0 61.659393494267377 17.011844152150505 0 17.011844152150505 3.5489744537226269 0 0 0 0 76.52585299765633 26.864018970274742 0 26.864018970274742 -29.928417630324475 0 0 0 0 106.42284086158907 60.638214719180041 0 60.638214719180041 6.2266796126974668 0 0 0 0 54.526093346932711 10.4829208168794 0 10.4829208168794 4.7281544151915069 0 0 0 0 88.298080606618896 22.832361285468323 0 22.832361285468323 -15.450049883126894 0 0 0 0 105.87112277415144 -11.234431431217672 0 -11.234431431217672 -4.1646996549868618 0 0 0 0 99.089008611204918 2.0848962952376837 0 2.0848962952376837 -22.869358419855587 0 0 0 0 22.46523412031712 -1.6088491699496856 0 -1.6088491699496856 4.9623682644715972 0 0 0 0 70.177810476191553 60.957050980622981 0 60.957050980622981 16.010711382328736 0 0 0 0 75.925822737364797 10.546979620557295 0 10.546979620557295 -1.864587080320689 0 0 0 0 63.389285874305642 -4.3701312126723906 0 -4.3701312126723906 -37.602566439070273 0 0 0 0 63.710601265003788 -7.3229209638687749 0 -7.3229209638687749 -13.015126616162803 0 0 0 0 66.853349809272913 74.957450153887265 0 74.957450153887265 3.6494955307377239 0 0 0 0 63.222317278128742 12.918049505146939 0 12.918049505146939 -0.50388787264660739 0 0 0 0 14.488106153115325 -11.590339464657337 0 -11.590339464657337 -9.2237031349281597 0 0 0 0 97.488013240690634 3.2574646109304126 0 3.2574646109304126 6.9144735015634069 0 0 0 0 60.384849124733591 28.773133228164966 0 28.773133228164966 12.108493010954362 0 0 0 0 13.98714553155736 7.7850473852595528 0 7.7850473852595528 -1.9196354788416619 0 0 0 0 63.451463718111427 -5.1785115391764762 0 -5.1785115391764762 14.054002046128289 0 0 0 0 79.393009333827649 -6.4446286913077984 0 -6.4446286913077984 13.88328536739894 0 0 0 0 79.296774002512393 -5.3757493921907553 0 -5.3757493921907553 3.3437492427324287 0 0 0 0 98.91080341163979 8.0144446769404567 0 8.0144446769404567 4.9968900079143168 0 0 0 0 51.37871377148258 25.018455093580542 0 25.018455093580542 38.958828833241 0 0 0 0 85.527238864298852 -17.487415002530661 0 -17.487415002530661 7.3514103975074718 0 0 0 0 32.981363175150364 2.733857188611303 0 2.733857188611303 -1.222146730651831 0 0 0 0 53.277865756725078 12.871673924428279 0 12.871673924428279 -19.50878441482115 0 0 0 0 28.785698855861142 7.848022750015879 0 7.848022750015879 -0.45018488514279242 0 0 0 0 69.851892134516675 12.716957811748632 0 12.716957811748632 -55.383627313089896 0 0 0 0 65.26840457990329 4.0483065781629435 0 4.0483065781629435 -44.900039819376332 0 0 0 0 74.540061293970211 0.086936205795073107 0 0.086936205795073107 -49.818201680981538 0 0 0 0 86.240493799590695 -3.928309696875683 0 -3.928309696875683 -30.118040251076053 0 0 0 0 93.509739394343342 -22.332259229844166 0 -22.332259229844166 -37.285497189069361 0 0 0 0 66.353944904061791 -20.831963980661719 0 -20.831963980661719 -36.769736085901613 0 0 0 0 88.374159102306294 -11.27705456241037 0 -11.27705456241037 -40.577266878854559 0 0 0 0 88.851651924997668 23.425136324434021 0 23.425136324434021 -45.880920373370671 0 0 0 0 73.759762275978574 11.194206344616831 0 11.194206344616831 -30.299152109127149 0 0 0 0 54.723012341928552 16.649492546989222 0 16.649492546989222 -60.768485233118042 0 0 0 0 70.198487038589519 49.041006358438239 0 49.041006358438239 -14.044763338764312 0 0 0 0 8.258772155008046 2.7561748117105083 0 2.7561748117105083 7.9039332950997334 0 0 0 0 32.222727514555118 77.387046980245486 0 77.387046980245486 -20.599768889613841 0 0 0 0 9.1689295937572695 3.3942241309786141 0 3.3942241309786141 -2.6742987998789687 0 0 0 0 22.949458109353145 2.7378072737315051 0 2.7378072737315051 -4.2231450362447163 0 0 0 0 28.489165532126208 10.028973231105397 0 10.028973231105397 -17.223977745230172 0 0 0 0 -5.8296220922275097 44.497186815128714 0 44.497186815128714 -31.164300380236913 0 0 0 0 28.091779383103557 2.4797455247428815 0 2.4797455247428815 -1.5627762344740328 0 0 0 0 26.744561962194524 6.4582401704159977 0 6.4582401704159977 -0.80844634966602369 0 0 0 0 42.687836799574143 9.0112300876789035 0 9.0112300876789035 -45.155119992528256 0 0 0 0 30.795904149410489 58.918471041415827 0 58.918471041415827 -56.966867077677065 0 0 0 0 17.525454642105615 10.711399145637415 0 10.711399145637415 -10.202345608936298 0 0 0 0 24.53647689747595 2.7241476658379611 0 2.7241476658379611 12.149588923918486 0 0 0 0 28.781565943849273 18.366681151069315 0 18.366681151069315 -37.982879850966924 0 0 0 0 47.875608324386121 12.147518940481973 0 12.147518940481973 -0.59795489440170968 0 0 0 0 11.155199379787518 22.568186634070457 0 22.568186634070457 3.0955540196598008 0 0 0 0 21.766715259102057 2.696614383498229 0 2.696614383498229 -4.1604657602629231 0 0 0 0 24.444886152968593 3.9923769252411603 0 3.9923769252411603 -5.1387351112208535 0 0 0 0 19.202679075857304 6.9619331152583754 0 6.9619331152583754 -4.9228089881769392 0 0 0 0 17.750785305912203 13.650961264189647 0 13.650961264189647 -12.531454742208602 0 0 0 0 106.16383926591152 -87.085840252468643 0 -87.085840252468643 87.921929585305406 0 0 0 0 19.555537512038043 -12.334643675200113 0 -12.334643675200113 11.948171364926205 0 0 0 0 349.71481313207914 115.68748377867678 0 115.68748377867678 243.01884164913736 0 0 0 0 1091.8142268066404 -1143.8370857755708 0 -1143.8370857755708 735.69169422023481 0 0 0 0 2494.2625425237311 -2157.1210753413593 0 -2157.1210753413593 977.4918140977062 0 0 0 0 -213.52249398743152 -555.20317342702947 0 -555.20317342702947 2023.1512783549551 0 0 0 0 2492.6271135567185 479.31046180334096 0 479.31046180334096 -278.06988345473655 0 0 0 0 5.2778371769192631 -4.8572916663014354 0 -4.8572916663014354 8.0242328855325979 0 0 0 0 724.27571005650361 -57.478617282492635 0 -57.478617282492635 -23.970890383306909 0 0 0 0 798.29644991525129 -730.50355971379656 0 -730.50355971379656 263.08932578134204 0 0 0 0 5.2402690037811084 0.89659444179989833 0 0.89659444179989833 2.8493925946705989 0 0 0 0 2487.1264990057098 1.5791345462936086 0 1.5791345462936086 3.7444242196792938 0 0 0 0 -48.442490219786123 -234.58522685627287 0 -234.58522685627287 563.02408707892266 0 0 0 0 13.307237603657995 5.0213531422377855 0 5.0213531422377855 -1.6740012907276878 0 0 0 0 284.33396030796939 40.574534814078078 0 40.574534814078078 -146.96199427552301 0 0 0 0 13.535415172667001 4.2572438834975372 0 4.2572438834975372 1.546405092331355 0 0 0 0 19.907076108480396 4.7286982137699169 0 4.7286982137699169 -3.4695768129045064 0 0 0 0 -136.92720210675907 75.334591251121481 0 75.334591251121481 175.56747669998123 0 0 0 0 17.940817197400285 0.39006231101548394 0 0.39006231101548394 4.5426745648853393 0 0 0 0 28.66914598911535 6.3065308729371736 0 6.3065308729371736 -8.5067497144912068 0 0 0 0 21.338003522418248 7.513845189022895 0 7.513845189022895 -2.2433186902034006 0 0 0 0 24.125901286010048 8.5858974047432639 0 8.5858974047432639 -9.5535265464748136 0 0 0 0 22.224031959300078 9.9656818578596713 0 9.9656818578596713 -3.6821742096461731 0 0 0 0 23.369297141834977 10.37759438476769 0 10.37759438476769 -6.1065528959672974 0 0 0 0 20.936666018707911 9.3863696260330016 0 9.3863696260330016 -2.3988546791385943 0 0 0 0 17.537927208210078 5.8174070935205933 0 5.8174070935205933 0.51063677259255247 0 0 0 0 14.200477584527107 8.1487081634152219 0 8.1487081634152219 -5.1895503097098299 0 0 0 0 -2.1213276481435059 14.298899374748395 0 14.298899374748395 -11.756498213135261 0 0 0 0 25.334425964467073 8.2857000839947759 0 8.2857000839947759 -3.2199502604998629 0 0 0 0 32.144762401585467 5.4596832264346347 0 5.4596832264346347 -23.487337159262779 0 0 0 0 16.435667276797815 3.534821572790932 0 3.534821572790932 -1.1317053041754419 0 0 0 0 22.513358198790229 12.931470292615131 0 12.931470292615131 -8.5679399662338653 0 0 0 0 -29.496278885009815 77.395802120921871 0 77.395802120921871 -41.20334752200506 0 0 0 0 1359.6417915706843 -381.80099065408291 0 -381.80099065408291 223.44738153818031 0 0 0 0 0.10888286696271621 3.3460872784372313 0 3.3460872784372313 4.4459825294434836 0 0 0 0 2.0345369775680524 -0.1452730308969663 0 -0.1452730308969663 2.9793114878358562 0 0 0 0 2489.5876707858665 331.86525364875575 0 331.86525364875575 -359.64806875421357 0 0 0 0 644.22335466316144 683.52094323459187 0 683.52094323459187 85.266405720048994 0 0 0 0 8.5345373316496165 7.4812074496008165 0 7.4812074496008165 4.4218687321459687 0 0 0 0 -14.130105270109198 -438.54126827419822 0 -438.54126827419822 40.85119172158187 0 0 0 0 -482.306912936765 1.7420494538123918 0 1.7420494538123918 234.9480668751126 0 0 0 0 3.1695595083583612 11.583071078327521 0 11.583071078327521 -4.0729850184347924 0 0 0 0 9.9838524099280193 8.8776376721569505 0 8.8776376721569505 4.3384056874233501 0 0 0 0 3.2337866581454762 22.151301535991024 0 22.151301535991024 7.2515525304110025 0 0 0 0 22.930279440017586 17.267014773389661 0 17.267014773389661 -0.24287788880704619 0 0 0 0 132.68674971052678 71.098997347539012 0 71.098997347539012 -22.884220575187015 0 0 0 0 220.32877392306546 76.386666984419548 0 76.386666984419548 34.601983991402562 0 0 0 0 112.64546232155044 50.998101186888334 0 50.998101186888334 96.977544410076234 0 0 0 0 35.157329897261661 59.415677360251436 0 59.415677360251436 95.918161701363715 0 0 0 0 35.953748026469839 -20.12825307121193 0 -20.12825307121193 -62.960929520496848 0 0 0 0 67.459930791053921 -49.255569279973201 0 -49.255569279973201 -14.026659620404153 0 0 0 0 11.496153470151654 -6.8037296365633324 0 -6.8037296365633324 1.6874277265964683 0 0 0 0 12.406979840301574 -9.9060415254041487 0 -9.9060415254041487 -7.1764903759913068 0 0 0 0 35.609996326660621 17.084994555904359 0 17.084994555904359 9.0005378618586462 0 0 0 0 10.799338389445438 -34.204570410108204 0 -34.204570410108204 -22.999985619432209 0 0 0 0 0.13556283098337474 0.10063553102820322 0 0.10063553102820322 -0.50151267552182865 0 0 0 0 4.3719690607017156 12.037136409980789 0 12.037136409980789 0.037401228765728156 0 0 0 0 41.348337031049596 28.714002110356091 0 28.714002110356091 1.4652463367149267 0 0 0 0 65.304820757239213 11.39207000336728 0 11.39207000336728 -1.3956968868615149 0 0 0 0 -35.577469634146837 81.139992591403484 0 81.139992591403484 13.081706830749823 0 0 0 0 10.063940157150306 12.052748090068235 0 12.052748090068235 -0.18232588317232601 0 0 0 0 -92.659991060150787 6.1294944340186817 0 6.1294944340186817 73.849756476504922 0 0 0 0 70.467109707467898 -17.898208869313521 0 -17.898208869313521 -16.558679919089826 0 0 0 0 16.090055653320661 -2.6098789825288478 0 -2.6098789825288478 2.6194965254902973 0 0 0 0 26.806683318274736 27.893040499960989 0 27.893040499960989 0.75533598880750219 0 0 0 0 59.057388952976908 8.2905663794444138 0 8.2905663794444138 -5.9995060588593105 0 0 0 0 9.3718289758180617 -52.228973563995794 0 -52.228973563995794 4.5027389476599637 0 0 0 0 20.841905840005893 -42.494094265252642 0 -42.494094265252642 -43.035114910125003 0 0 0 0 11.136612226034025 20.332898929974249 0 20.332898929974249 13.321483207036962 0 0 0 0 56.546797735019936 25.44362795820939 0 25.44362795820939 12.09174552035438 0 0 0 0 27.865227766269896 -1.3591353078873851 0 -1.3591353078873851 -8.9987456307017553 0 0 0 0 -9.2648542401439045 58.569758835378039 0 58.569758835378039 43.719701449727381 0 0 0 0 68.030779964210524 40.840514351859781 0 40.840514351859781 107.99107292983012 0 0 0 0 -1.2476347070514748 45.649044327089342 0 45.649044327089342 81.568102841907375 0 0 0 0 214.91521333516721 17.843711350073136 0 17.843711350073136 -17.728417126981753 0 0 0 0 262.55091553897546 202.37133818604352 0 202.37133818604352 92.814451996028197 0 0 0 0 1.2278146477233065 -0.65073965193997196 0 -0.65073965193997196 0.32222974466908405 0 0 0 0 -29.297503962727205 -42.843436384021174 0 -42.843436384021174 -18.042512141618161 0 0 0 0 54.701279644745227 -38.868808365656491 0 -38.868808365656491 -17.930974256882678 0 0 0 0 27.472490691405255 1.8803843424943807 0 1.8803843424943807 -21.612002956779236 0 0 0 0 15.636549774546438 2.7269164819009575 0 2.7269164819009575 -21.028708272828794 0 0 0 0 19.620551395004441 2.6669490798288109 0 2.6669490798288109 -21.867413920452492 0 0 0 0 16.151165851690166 4.4523814648883331 0 4.4523814648883331 -21.335729076118611 0 0 0 0 13.227020413651189 4.7573800751699906 0 4.7573800751699906 -20.388479821984163 0 0 0 0 31.369987949838105 6.541829392463967 0 6.541829392463967 -22.565046688231266 0 0 0 0 33.963767932669725 4.1424047839188916 0 4.1424047839188916 -27.469609137979205 0 0 0 0 26.285975166865683 2.9174610801642871 0 2.9174610801642871 -19.722154336122486 0 0 0 0 34.274254817617475 7.3254241900158377 0 7.3254241900158377 -28.523555705185117 0 0 0 0 23.951287188981951 13.051407660399377 0 13.051407660399377 -23.874619793048794 0 0 0 0 42.702050797466654 -4.4104183317583647 0 -4.4104183317583647 -26.866317411451433 0 0 0 0 46.296091529504338 9.9881349966489097 0 9.9881349966489097 -31.078821093129136 0 0 0 0 49.444634795530874 -3.2620756712655918 0 -3.2620756712655918 -27.416543407942299 0 0 0 0 81.296620639346656 -20.087357654029773 0 -20.087357654029773 -20.064695330413628 0 0 0 0 59.905500003816996 12.195880719826789 0 12.195880719826789 -26.447964474562241 0 0 0 0 34.664860269585915 15.084167678630877 0 15.084167678630877 -26.741431513554517 0 0 0 0 242.99940796013107 -3.1642703067909963 0 -3.1642703067909963 -36.931947839798546 0 0 0 0 56.76405980069103 6.3008896129277474 0 6.3008896129277474 -36.718105355329214 0 0 0 0 77.435410743062675 -88.870572251571417 0 -88.870572251571417 13.598079428377204 0 0 0 0 204.52186457703647 179.16020666169635 0 179.16020666169635 62.765329775266991 0 0 0 0 3.6834911377318349 -2.5929508735803068 0 -2.5929508735803068 1.1733694406434416 0 0 0 0 18.011953137411183 37.472267257996236 0 37.472267257996236 13.32178050331288 0 0 0 0 -44.379033165394503 -15.013650400628691 0 -15.013650400628691 -12.818424081172537 0 0 0 0 -123.28035938130051 -63.374547191917657 0 -63.374547191917657 14.444900978977124 0 0 0 0 129.41112866497133 65.283205639887342 0 65.283205639887342 109.29711338285571 0 0 0 0 138.49720919881293 69.201396280008566 0 69.201396280008566 9.5658151132731746 0 0 0 0 11.409162773187887 -5.7453011853963645 0 -5.7453011853963645 1.4930036927854484 0 0 0 0 6.6604607850525497 -4.992328929182392 0 -4.992328929182392 2.5544703142836225 0 0 0 0 156.25859693304301 131.7169832466098 0 131.7169832466098 86.837471603487529 0 0 0 0 7.6925732346016389 -3.8616816672628715 0 -3.8616816672628715 1.0229599064976966 0 0 0 0 -39.370929750024516 -138.63416774946359 0 -138.63416774946359 -74.205928828861033 0 0 0 0 187.58975639479468 133.33328560337679 0 133.33328560337679 86.119363998859967 0 0 0 0 34.471448891425098 -23.005029410850057 0 -23.005029410850057 56.147531276249538 0 0 0 0 89.610988631669898 -2.4643412500001887 0 -2.4643412500001887 -114.42082773049788 0 0 0 0 -36.908612016850384 45.378355297654252 0 45.378355297654252 -9.3335744849766797 0 0 0 0 3.2204309832394244 -1.088911553983003 0 -1.088911553983003 0.23676999424533579 0 0 0 0 -29.325102757535205 -79.833988640301541 0 -79.833988640301541 17.468044970751819 0 0 0 0 283.76184358407045 267.03351103738271 0 267.03351103738271 141.8135068129385 0 0 0 0 372.38175006542588 -74.580213341678984 0 -74.580213341678984 -177.46025188961477 0 0 0 0 -38.37737807839585 135.96742738388559 0 135.96742738388559 197.68256123648362 0 0 0 0 10.935056115435145 -228.20129947262797 0 -228.20129947262797 -30.16027282598418 0 0 0 0 6.8386039919911354 -6.872377439310057 0 -6.872377439310057 2.1430571638445959 0 0 0 0 183.09876749038085 74.386941616128297 0 74.386941616128297 125.6418600921952 0 0 0 0 -24.504753814457217 67.125351309048256 0 67.125351309048256 144.61131918403109 0 0 0 0 135.93618955624515 60.375000437446232 0 60.375000437446232 -72.510200621478589 0 0 0 0 18.333604111034177 0.75026827406526309 0 0.75026827406526309 0.2525447022412779 0 0 0 0 65.964589429776424 -29.461955909559222 0 -29.461955909559222 -29.268809046942579 0 0 0 0 2.6296809158426129 -1.1987585603461923 0 -1.1987585603461923 0.48182175167246744 0 0 0 0 174.89888370480185 332.54862280175519 0 332.54862280175519 158.61189007678149 0 0 0 0 -69.53316607353554 -118.82229803063984 0 -118.82229803063984 -81.87561795488773 0 0 0 0 -63.243465666302654 -55.194345731396425 0 -55.194345731396425 -40.880840146063292 0 0 0 0 -41.247121139545925 -48.796996375579738 0 -48.796996375579738 -97.861453411529965 0 0 0 0 382.47629655100172 193.98213075953845 0 193.98213075953845 -131.0771778503904 0 0 0 0 61.455952663410528 13.998026738950045 0 13.998026738950045 2.8222774491622111 0 0 0 0 336.34027799674368 -106.54235959341645 0 -106.54235959341645 -21.404293843007508 0 0 0 0 0.30104351860467204 -0.33014026951029507 0 -0.33014026951029507 0.71651900188482909 0 0 0 0 169.67406487274457 121.81897946207576 0 121.81897946207576 15.37527313555529 0 0 0 0 101.3402555269131 -73.948331659300038 0 -73.948331659300038 -17.309837679423254 0 0 0 0 29.849564246316731 0.70027183565184714 0 0.70027183565184714 -83.470787956718553 0 0 0 0 -106.11379527283498 -60.624989143550692 0 -60.624989143550692 -9.5704620234741924 0 0 0 0 31.009846209439274 -4.7942432360343901 0 -4.7942432360343901 -32.50426484975219 0 0 0 0 26.942747333683656 -4.0653907010514558 0 -4.0653907010514558 -28.773533365298249 0 0 0 0 74.061316840481595 -10.952998793999427 0 -10.952998793999427 -24.320963488854659 0 0 0 0 96.304731800344598 61.871159365407493 0 61.871159365407493 20.081788114099936 0 0 0 0 123.11104475571483 15.909765809544524 0 15.909765809544524 -16.91599677334807 0 0 0 0 8.1596116041550601 -4.9552808629714349 0 -4.9552808629714349 -9.4854333179068888 0 0 0 0 32.866588430559204 13.299258922906517 0 13.299258922906517 2.1025008982874098 0 0 0 0 28.100948268274806 5.8512280123597407 0 5.8512280123597407 -9.3301773394333622 0 0 0 0 11.793742756341089 4.454068755927608 0 4.454068755927608 25.086953177561099 0 0 0 0 24.161974434568521 7.464237365327417 0 7.464237365327417 -0.066402219917722771 0 0 0 0 24.234088674265877 12.05084330201089 0 12.05084330201089 -3.7408920816551472 0 0 0 0 22.918229983741185 10.139014582480513 0 10.139014582480513 -3.9142516077936307 0 0 0 0 26.359005171689205 13.822341814573747 0 13.822341814573747 -2.1365117615678173 0 0 0 0 2.7539114105668148 3.323818608675893 0 3.323818608675893 0.11564621192336588 0 0 0 0 22.918356454872992 10.54900462542173 0 10.54900462542173 -1.4359954583812851 0 0 0 0 -4.9461087433519424 -41.279236389573043 0 -41.279236389573043 6.092866527994147 0 0 0 0 28.504177578019153 36.888642467769955 0 36.888642467769955 -36.650952171847166 0 0 0 0 12.945771893748315 -17.509047875861143 0 -17.509047875861143 2.6581833270099651 0 0 0 0 111.64660909153463 94.41191487910919 0 94.41191487910919 -0.4934359792214309 0 0 0 0 161.74782489340578 28.042473183735638 0 28.042473183735638 -55.832361420248617 0 0 0 0 2.2814982092338312 -1.6960762389723811 0 -1.6960762389723811 1.1338650315833672 0 0 0 0 38.231159477931214 5.7410782367674074 0 5.7410782367674074 -26.472406867703285 0 0 0 0 19.706121518087457 13.236437317790887 0 13.236437317790887 4.0848084331992141 0 0 0 0 -1.2327995662908577 2.7005683304038541 0 2.7005683304038541 -2.5018972327592728 0 0 0 0 22.654375384765444 13.28603687524901 0 13.28603687524901 2.0453756295983112 0 0 0 0 21.273291484540096 13.15912828796445 0 13.15912828796445 2.3281650111543968 0 0 0 0 22.657087167892087 13.195671038606683 0 13.195671038606683 1.8383374666018426 0 0 0 0 24.605264066874952 13.58045809397106 0 13.58045809397106 1.8876839541471782 0 0 0 0 23.205894244922092 15.079183195042788 0 15.079183195042788 3.5257688427718676 0 0 0 0 20.576809150636109 15.102592685888567 0 15.102592685888567 5.1737177682534821 0 0 0 0 23.423006491226261 13.155274265088792 0 13.155274265088792 3.9235656414089135 0 0 0 0 0.87906973546755296 0.46843118631848313 0 0.46843118631848313 -1.4796619758738538 0 0 0 0 68.241624328543367 -15.12164313495515 0 -15.12164313495515 6.0249683017609641 0 0 0 0 63.550454458410968 32.917195806898235 0 32.917195806898235 -34.717744234361817 0 0 0 0 18.433499917809968 33.291932547640954 0 33.291932547640954 -39.688868538634324 0 0 0 0 -42.293829257556354 -20.9079869999415 0 -20.9079869999415 29.462136995632136 0 0 0 0 1.3816910336754518 -103.60639155152239 0 -103.60639155152239 -84.900883465504648 0 0 0 0 15.756419529003324 -27.531921851232255 0 -27.531921851232255 4.9379321064452597 0 0 0 0 88.055977298252401 50.12122536070342 0 50.12122536070342 -8.160283752408759 0 0 0 0 30.741290552366991 66.905447603657194 0 66.905447603657194 77.483766236679003 0 0 0 0 15.801384212740231 14.766473890557336 0 14.766473890557336 88.816052892942935 0 0 0 0 37.656043351933477 8.2627682404151983 0 8.2627682404151983 4.3546434958038844 0 0 0 0 39.423868775600567 13.970048032984209 0 13.970048032984209 1.560333669173815 0 0 0 0 23.462923829209103 12.796074794903689 0 12.796074794903689 6.9066328516064459 0 0 0 0 28.535906645207433 18.514496667522053 0 18.514496667522053 9.4978810034237995 0 0 0 0 29.376278614117837 11.302757500191603 0 11.302757500191603 2.7302348941238961 0 0 0 0 27.446526095765876 16.298355526058913 0 16.298355526058913 3.2781864439969013 0 0 0 0 31.580965150140401 13.68859372504312 0 13.68859372504312 -0.052225675611452971 0 0 0 0 33.493152624505456 4.8623314555968591 0 4.8623314555968591 0.071758035838911383 0 0 0 0 4.120591557264909 12.13244422408664 0 12.13244422408664 -0.84331638306926404 0 0 0 0 43.873134129707978 7.9505388724651311 0 7.9505388724651311 -1.0883694681210727 0 0 0 0 26.970411991445872 9.5813066932503261 0 9.5813066932503261 -1.2386942714020392 0 0 0 0 34.313445561791013 8.5127709971177126 0 8.5127709971177126 -10.254437092704393 0 0 0 0 28.844826022002962 11.561242486956871 0 11.561242486956871 -14.601657373825674 0 0 0 0 28.049162266324856 14.997606372676046 0 14.997606372676046 -6.9362838566710252 0 0 0 0 25.258622878851384 10.308904496708351 0 10.308904496708351 -1.8132705466591688 0 0 0 0 26.95268619281569 8.1259664605217825 0 8.1259664605217825 1.8417571931859245 0 0 0 0 55.32913531813756 16.89460263539263 0 16.89460263539263 -17.409053180746696 0 0 0 0 -62.844306210405193 -130.52135212973053 0 -130.52135212973053 293.1490122126479 0 0 0 0 123.7491826722835 55.339841465197196 0 55.339841465197196 24.524337481253724 0 0 0 0 27.297301664516993 10.896620592844942 0 10.896620592844942 3.0328246691720953 0 0 0 0 1.3037650956825928 1.1652281207013573 0 1.1652281207013573 0.58474665783785973 0 0 0 0 -49.463443126398488 99.002108749418539 0 99.002108749418539 -37.940259799043474 0 0 0 0 -163.84476268241997 137.89141236184821 0 137.89141236184821 63.481826636839401 0 0 0 0 15.985532341297585 211.51059395640914 0 211.51059395640914 91.572095348318726 0 0 0 0 -183.82660131145894 87.232868974387713 0 87.232868974387713 131.12202731292246 0 0 0 0 158.19468756262722 15.821852111249086 0 15.821852111249086 -2.6353653432170177 0 0 0 0 136.01603907386743 -55.606434955405717 0 -55.606434955405717 25.574799533966598 0 0 0 0 41.75237260236463 -12.865378417107422 0 -12.865378417107422 28.284361187448013 0 0 0 0 41.88853674240454 20.952818075496566 0 20.952818075496566 7.7436480643714276 0 0 0 0 53.249136429425562 42.355203170932555 0 42.355203170932555 32.482937917788604 0 0 0 0 103.20733304841997 -6.7932196198937618 0 -6.7932196198937618 11.496999774371034 0 0 0 0 29.136257782280609 48.253716051432463 0 48.253716051432463 1.1057473813320939 0 0 0 0 38.179953174927505 38.860823810079864 0 38.860823810079864 -45.251262718992621 0 0 0 0 20.597004442198426 11.450215584000244 0 11.450215584000244 4.7208949930146131 0 0 0 0 25.344968191118426 6.4109381849399689 0 6.4109381849399689 0.93194030224256963 0 0 0 0 26.347895354629145 12.376847639935704 0 12.376847639935704 10.20716167134141 0 0 0 0 17.957466896390542 16.44978302032041 0 16.44978302032041 -28.630883264291697 0 0 0 0 56.577680688405962 -13.595015730464979 0 -13.595015730464979 -23.760687887457152 0 0 0 0 40.478123948596476 25.359310824315116 0 25.359310824315116 -52.906254441507372 0 0 0 0 21.411177112227122 9.2066167960707084 0 9.2066167960707084 3.1238546128604519 0 0 0 0 -23.22747323004296 221.78665329608793 0 221.78665329608793 -227.24600228402687 0 0 0 0 22.044830098641853 6.1650464053229435 0 6.1650464053229435 1.5206335368605597 0 0 0 0 21.089094773975376 14.02789235099317 0 14.02789235099317 -16.046731274690046 0 0 0 0 16.423508456340642 22.188994020197242 0 22.188994020197242 -15.191841779445895 0 0 0 0 -106.3668098268754 193.35398173289559 0 193.35398173289559 -142.18848690984851 0 0 0 0 51.4336896607565 31.276032575678983 0 31.276032575678983 -250.69914825284195 0 0 0 0 47.960878171674267 134.49387447898243 0 134.49387447898243 -265.8503554363017 0 0 0 0 112.7914089562837 79.080250855610757 0 79.080250855610757 -279.51159039079903 0 0 0 0 164.98303339279664 81.515880406975157 0 81.515880406975157 -228.6637600882168 0 0 0 0 -108.36425922322087 76.634832975400968 0 76.634832975400968 -157.16940451284972 0 0 0 0 49.250391851726818 59.874205367988338 0 59.874205367988338 -148.31933588203174 0 0 0 0 68.235375039548671 131.09396470236015 0 131.09396470236015 -147.24205307714692 0 0 0 0 178.71518155121885 123.33398787532224 0 123.33398787532224 -117.49501817374676 0 0 0 0 63.927792259288253 77.764955822465708 0 77.764955822465708 -43.75405782775033 0 0 0 0 91.070786575932289 160.2735315164291 0 160.2735315164291 -59.978913862499212 0 0 0 0 -46.459489993561874 151.37281502790734 0 151.37281502790734 -36.552845700498438 0 0 0 0 4.1567450555048708 135.86241207475632 0 135.86241207475632 -162.07400917041923 0 0 0 0 -38.943302844163554 107.79272492902783 0 107.79272492902783 -77.686908930137179 0 0 0 0 111.79840399518434 -77.959748244310504 0 -77.959748244310504 -74.803997722292479 0 0 0 0 92.567395614692941 -46.079276802671757 0 -46.079276802671757 -123.45661444595135 0 0 0 0 82.300997505746636 -62.702161127863292 0 -62.702161127863292 -125.9457145487504 0 0 0 0 54.073532234615413 -2.1124140605861612 0 -2.1124140605861612 -74.005506756348041 0 0 0 0 35.674623839578999 -13.356257854445175 0 -13.356257854445175 -62.195924775303865 0 0 0 0 110.61516048736667 -61.079403162856579 0 -61.079403162856579 -77.039616961128559 0 0 0 0 46.269893898876035 -46.3705319951805 0 -46.3705319951805 14.037654017645764 0 0 0 0 227.52839651715476 -87.806261595568685 0 -87.806261595568685 -109.51829168894255 0 0 0 0 118.0189381717064 -78.369693628170353 0 -78.369693628170353 -41.824057401845494 0 0 0 0 355.63180260770605 -37.329593569322242 0 -37.329593569322242 -100.21275072917297 0 0 0 0 188.75228171298659 -7.1690810656964459 0 -7.1690810656964459 -105.60181134926279 0 0 0 0 248.66085095608287 -3.5581465294319514 0 -3.5581465294319514 -163.17127454625552 0 0 0 0 123.76802069134283 32.589931982844973 0 32.589931982844973 -169.22252976948403 0 0 0 0 131.44795523716311 -50.939295514049263 0 -50.939295514049263 -142.50731525780702 0 0 0 0 151.97690801821955 -40.190184944760858 0 -40.190184944760858 -139.52777658551531 0 0 0 0 78.380490597985045 -22.486984223732179 0 -22.486984223732179 -159.40826123891748 0 0 0 0 127.3020220909093 -35.731715528033419 0 -35.731715528033419 -162.95453445974181 0 0 0 0 56.643977448431542 52.877183560154663 0 52.877183560154663 -199.83488924220478 0 0 0 0 161.36109128562384 13.461786134082104 0 13.461786134082104 -191.67273142787053 0 0 0 0 115.16414026248094 -6.2594732347697573 0 -6.2594732347697573 -179.17179183863118 0 0 0 0 53.779467621672666 27.745977117485381 0 27.745977117485381 -189.89041168437961 0 0 0 0 69.567319573892746 -21.711907356077973 0 -21.711907356077973 -131.83786824781419 0 0 0 0 93.179173098185856 -29.234784382751059 0 -29.234784382751059 -157.53032267097205 0 0 0 0 86.002060569655441 -47.955438502125617 0 -47.955438502125617 -138.73481074165602 0 0 0 0 101.60133553844935 -68.919966629780902 0 -68.919966629780902 -134.71569761462888 0 0 0 0 77.919643539142271 -68.230026389498903 0 -68.230026389498903 -160.29765850938747 0 0 0 0 82.047238188162737 -55.223130566934742 0 -55.223130566934742 -143.64597180402416 0 0 0 0 54.457055008853786 -46.619637272918681 0 -46.619637272918681 -76.23103184845786 0 0 0 0 49.815509749824486 12.887672226259467 0 12.887672226259467 1.5134278898179936 0 0 0 0 58.608919952472206 -12.493088796277334 0 -12.493088796277334 -81.258116200673612 0 0 0 0 50.379156134287769 -5.3672768668564004 0 -5.3672768668564004 -55.829703689230882 0 0 0 0 -27.803403344049002 33.171623245870705 0 33.171623245870705 -146.20978667254167 0 0 0 0 66.490105986726121 33.69775844603555 0 33.69775844603555 -134.89494291066291 0 0 0 0 56.684408127141069 -4.2135078039545988 0 -4.2135078039545988 -181.03004039394182 0 0 0 0 48.816798598704153 13.889977532076447 0 13.889977532076447 2.4084320706640474 0 0 0 0 33.244335850089556 44.834974269504755 0 44.834974269504755 -30.543491541052617 0 0 0 0 23.879149387947109 29.74001394223751 0 29.74001394223751 24.062885754423782 0 0 0 0 34.819477554541663 28.730993550627204 0 28.730993550627204 6.3120934230321382 0 0 0 0 23.174233787962294 22.014401373536998 0 22.014401373536998 4.2632234344250719 0 0 0 0 35.659098517851817 26.300772723521106 0 26.300772723521106 -10.196979755464326 0 0 0 0 47.843439905023843 18.003139664788137 0 18.003139664788137 -5.6117645384765638 0 0 0 0 31.51437431294471 15.367462692803429 0 15.367462692803429 1.9386169428625095 0 0 0 0 23.243256027518228 -1.9063304419063059 0 -1.9063304419063059 -8.8573853538080556 0 0 0 0 91.026059066527523 20.300935979866495 0 20.300935979866495 -17.45205244385852 0 0 0 0 68.772040745459208 16.495436381947911 0 16.495436381947911 0.78796514709391996 0 0 0 0 67.294501319462142 30.604358597257487 0 30.604358597257487 -11.46310036733621 0 0 0 0 91.396603592344036 26.972579153620472 0 26.972579153620472 2.0865009192332309 0 0 0 0 72.462859140898217 41.743025979058302 0 41.743025979058302 -7.9543469675699043 0 0 0 0 61.138532039236452 23.010627054119141 0 23.010627054119141 -18.52256631790533 0 0 0 0 72.550698594935966 30.416469887947642 0 30.416469887947642 -19.085181294829454 0 0 0 0 71.633131986971421 32.694599994264536 0 32.694599994264536 -24.658242408124352 0 0 0 0 69.659446410434612 17.323455831841329 0 17.323455831841329 -52.491549366781328 0 0 0 0 15.521585935962911 6.7412976711304111 0 6.7412976711304111 -5.1799514286776009 0 0 0 0 79.392108095613366 35.375912563637485 0 35.375912563637485 -19.39903585361435 0 0 0 0 73.207882317517942 11.884317189596914 0 11.884317189596914 -16.155158852551722 0 0 0 0 63.169121756178356 21.098971589711482 0 21.098971589711482 -23.92540734517479 0 0 0 0 15.64244193979539 -30.7948966185877 0 -30.7948966185877 -60.669561623500499 0 0 0 0 59.30246268188057 26.920146895241601 0 26.920146895241601 -22.852007724237865 0 0 0 0 66.745481529949757 25.751989106470319 0 25.751989106470319 -23.624419551898427 0 0 0 0 64.546980299716608 16.236903591510391 0 16.236903591510391 3.586531951003928 0 0 0 0 50.374557889466814 40.699373241944159 0 40.699373241944159 -35.486635659975491 0 0 0 0 72.263814452227962 29.100111618742403 0 29.100111618742403 -30.054419672920631 0 0 0 0 80.976504976038996 16.395801319756174 0 16.395801319756174 -24.917520860858929 0 0 0 0 82.699194973978592 10.302034176647794 0 10.302034176647794 -46.039041566756168 0 0 0 0 156.02845036840517 0.99007288541383787 0 0.99007288541383787 -47.16243905199417 0 0 0 0 97.936419033398124 38.352041049744003 0 38.352041049744003 -45.965935564858228 0 0 0 0 87.39234657306406 18.916593891032107 0 18.916593891032107 -67.498657312099567 0 0 0 0 29.148433130751073 15.86946649229867 0 15.86946649229867 -42.215743557449059 0 0 0 0 -157.80294730091191 -14.730273744296028 0 -14.730273744296028 122.45974693774406 0 0 0 0 99.788985836719803 30.709822072611132 0 30.709822072611132 -87.497022394401029 0 0 0 0 260.38629059320374 132.29225081584354 0 132.29225081584354 104.94844770023155 0 0 0 0 113.39661899590283 -12.765876412859143 0 -12.765876412859143 -37.749488532820351 0 0 0 0 173.67482062976342 -189.96453127294444 0 -189.96453127294444 142.89914221923925 0 0 0 0 220.27228908907955 -82.011648665522955 0 -82.011648665522955 -60.314642585065485 0 0 0 0 -1.2778164699855239 1.2951544963736552 0 1.2951544963736552 -1.691859945813448 0 0 0 0 -88.29258446314816 -160.54760817220176 0 -160.54760817220176 -158.95024038736483 0 0 0 0 -16.472188991057919 -49.391787378997833 0 -49.391787378997833 -29.389505259876387 0 0 0 0 26.271845060353371 -85.891409174740147 0 -85.891409174740147 -129.94800898238009 0 0 0 0 2.4156836441470659 31.295776513798046 0 31.295776513798046 160.01022920679497 0 0 0 0 91.224760516415699 70.115707675757676 0 70.115707675757676 -18.40453361198044 0 0 0 0 90.213581267475092 54.576014943714199 0 54.576014943714199 -84.789034676205574 0 0 0 0 58.009549079850331 19.73874648236017 0 19.73874648236017 -36.97909205277756 0 0 0 0 55.461258279156027 -38.416271005080148 0 -38.416271005080148 -194.38001672132395 0 0 0 0 167.41338349100261 -214.08745411165228 0 -214.08745411165228 -468.24990372439697 0 0 0 0 236.18076731807741 63.70386537937901 0 63.70386537937901 -147.79311859355494 0 0 0 0 0.076217960029396181 -0.4744875559454016 0 -0.4744875559454016 1.3548388438995396 0 0 0 0 -175.5802246445528 -165.58843446776291 0 -165.58843446776291 -21.882985149612978 0 0 0 0 30.14887683948109 49.684993884639425 0 49.684993884639425 -84.827486684542237 0 0 0 0 44.600559989354224 20.291593519076741 0 20.291593519076741 -231.85402150855225 0 0 0 0 66.485356752222287 -80.850589142945864 0 -80.850589142945864 -311.82565746524961 0 0 0 0 38.176472210685461 -67.7629976847943 0 -67.7629976847943 -166.14082603838324 0 0 0 0 56.674193711856788 -42.985065500998644 0 -42.985065500998644 -140.95848494206348 0 0 0 0 32.865492953940702 41.114541061457317 0 41.114541061457317 -73.169709853858876 0 0 0 0 53.864726908825105 -6.5707937583165403 0 -6.5707937583165403 -169.17807702811712 0 0 0 0 21.120050001838536 20.662666092953259 0 20.662666092953259 -69.630716991827512 0 0 0 0 45.294857753258839 37.000441671234512 0 37.000441671234512 -60.608434808151287 0 0 0 0 32.048805853606609 122.6421066363082 0 122.6421066363082 -76.567521082053645 0 0 0 0 91.693730381171918 37.560654602697014 0 37.560654602697014 -65.442584436426841 0 0 0 0 127.89574498693401 41.711782190120175 0 41.711782190120175 -88.170841812852814 0 0 0 0 56.120238226565561 -26.58394591174681 0 -26.58394591174681 -43.606175457087375 0 0 0 0 69.46230900836963 -28.766109018756197 0 -28.766109018756197 -63.426390414239904 0 0 0 0 75.653676792323495 -50.482136927432407 0 -50.482136927432407 -5.2492466376079392 0 0 0 0 51.324980544937716 -118.81691369455075 0 -118.81691369455075 56.472686390315175 0 0 0 0 265.89749624643446 -107.79216407691365 0 -107.79216407691365 -77.827173667154057 0 0 0 0 209.45582099621242 -2.438087754389926 0 -2.438087754389926 -175.95995318812584 0 0 0 0 453.28900976892328 219.47729538997589 0 219.47729538997589 -256.57580757576034 0 0 0 0 528.69415198932256 -155.36648177732968 0 -155.36648177732968 -111.35130510206636 0 0 0 0 181.8629758314828 126.85548614717732 0 126.85548614717732 -76.47911500610644 0 0 0 0 160.53619216076368 44.077005915347854 0 44.077005915347854 -112.13643980469715 0 0 0 0 131.07048624717572 -50.983148169494598 0 -50.983148169494598 -72.794325726470561 0 0 0 0 471.21684125823231 -87.566885401071204 0 -87.566885401071204 -116.73369180533518 0 0 0 0 305.29610120799407 287.80546430988079 0 287.80546430988079 -49.67811691021052 0 0 0 0 171.64964245710871 16.775217889159649 0 16.775217889159649 -130.18442356058131 0 0 0 0 199.62350798982516 -98.877956802313747 0 -98.877956802313747 -95.417484396981081 0 0 0 0 36.322127255109081 18.725072754017901 0 18.725072754017901 -57.899053317102698 0 0 0 0 50.183373875908728 -108.22183531697283 0 -108.22183531697283 -31.277572334218348 0 0 0 0 -38.991090291639921 -115.61181867002915 0 -115.61181867002915 6.4946537202181389 0 0 0 0 33.643197129873442 -93.819051225258136 0 -93.819051225258136 -52.556078166882344 0 0 0 0 0.88384205854713827 -1.5987709184246555 0 -1.5987709184246555 1.9582501156894061 0 0 0 0 88.774744207939875 16.135235858716896 0 16.135235858716896 4.957334964531583 0 0 0 0 204.7575798399921 82.154266262896272 0 82.154266262896272 -76.745146277582535 0 0 0 0 2.3107799580829536 0.35711496753743432 0 0.35711496753743432 -0.27805797000032939 0 0 0 0 -173.25012209061651 -74.55175740088356 0 -74.55175740088356 25.073044601462243 0 0 0 0 0.20115250315306099 -0.50925909906757028 0 -0.50925909906757028 1.2948043474376831 0 0 0 0 281.78101805144979 5.4132698077846726 0 5.4132698077846726 -36.868874137116109 0 0 0 0 203.14685187487339 27.369801657835069 0 27.369801657835069 -17.348015749723345 0 0 0 0 2.6805436726992049 5.9786744381087189 0 5.9786744381087189 -1.1223721632493167 0 0 0 0 -80.448047684294579 20.866222249640941 0 20.866222249640941 19.606531094055754 0 0 0 0 -169.12722990792099 -23.488854753582928 0 -23.488854753582928 38.331514694942598 0 0 0 0 17.50840912896409 -9.115975560177727 0 -9.115975560177727 3.373935267114275 0 0 0 0 -109.93013578233149 -64.246546989408216 0 -64.246546989408216 -15.0722524447674 0 0 0 0 -43.410852707071172 -42.892341933891657 0 -42.892341933891657 -8.2173498776528504 0 0 0 0 5.1524635477771739 3.0483087309787891 0 3.0483087309787891 -8.6788873693851656 0 0 0 0 21.749563274541288 -31.259800673893551 0 -31.259800673893551 -39.695865493123165 0 0 0 0 238.65573414752726 -54.005413304824287 0 -54.005413304824287 38.705898987842374 0 0 0 0 12.091765932120325 3.556678472870999 0 3.556678472870999 2.7716407486550452 0 0 0 0 1.29324647525209 -142.76693301031628 0 -142.76693301031628 32.189498215404456 0 0 0 0 244.97443202827708 -147.16764529256579 0 -147.16764529256579 -248.7100174281768 0 0 0 0 891.4643398375556 -445.19762989130322 0 -445.19762989130322 495.94609928327918 0 0 0 0 211.94481236998763 -234.04650149906729 0 -234.04650149906729 138.99243809018844 0 0 0 0 6.5760428639295725 -4.3888970619918268 0 -4.3888970619918268 3.0354226761687784 0 0 0 0 5.3962495837475899 -2.2690714840749777 0 -2.2690714840749777 1.6431205827523261 0 0 0 0 42.430645752996497 -30.240027264128912 0 -30.240027264128912 181.95229564220483 0 0 0 0 -286.37817702132452 583.50581079561198 0 583.50581079561198 4.5454162887945131 0 0 0 0 30.122732370371523 20.543872321999515 0 20.543872321999515 -22.261876094457875 0 0 0 0 6.4115070230267293 -3.9919618601764242 0 -3.9919618601764242 2.2012892321663919 0 0 0 0 135.45550352469581 -75.832746996531114 0 -75.832746996531114 351.38445868049166 0 0 0 0 85.456155004407947 47.270711302082447 0 47.270711302082447 11.118245115304035 0 0 0 0 85.793199733903748 50.560892671328929 0 50.560892671328929 39.838198478523736 0 0 0 0 78.710632392838306 81.289761966352671 0 81.289761966352671 77.592472192472542 0 0 0 0 78.409530008590082 59.997942022392635 0 59.997942022392635 35.144971601135012 0 0 0 0 113.33233914822267 31.459988830641578 0 31.459988830641578 0.72344459478244971 0 0 0 0 106.06747109002026 65.268482071819562 0 65.268482071819562 30.686396969536872 0 0 0 0 104.29754007661177 90.774831682106196 0 90.774831682106196 71.897191049102048 0 0 0 0 110.48071089895529 83.913573014164285 0 83.913573014164285 62.407970924619804 0 0 0 0 110.95479126785358 67.470067396936429 0 67.470067396936429 80.03703063224475 0 0 0 0 157.35550704565321 19.90431220764799 0 19.90431220764799 25.294720006278112 0 0 0 0 171.73755665104545 39.635765136787086 0 39.635765136787086 41.001775919221018 0 0 0 0 69.971057366554305 32.159276955385394 0 32.159276955385394 29.544481826786523 0 0 0 0 25.899700715839572 -2.2143709791080255 0 -2.2143709791080255 14.217974269488423 0 0 0 0 125.72584178474062 -21.554665522579853 0 -21.554665522579853 17.784224668954494 0 0 0 0 71.747832899192872 -63.168610301064291 0 -63.168610301064291 30.060418259797189 0 0 0 0 43.177715654514031 -50.453455559995518 0 -50.453455559995518 36.959891463860913 0 0 0 0 39.749991571338114 -75.826864793997999 0 -75.826864793997999 31.423020666224147 0 0 0 0 -13.823313518227224 -34.219759316824309 0 -34.219759316824309 38.985245291823048 0 0 0 0 122.01701027489617 -48.805982852243687 0 -48.805982852243687 24.565050639729861 0 0 0 0 152.18513265078946 -69.308136712687428 0 -69.308136712687428 32.546490230191012 0 0 0 0 181.31945311616437 -18.597516301637143 0 -18.597516301637143 35.096488987574048 0 0 0 0 277.18375044335698 -79.647504589290293 0 -79.647504589290293 41.202914379553476 0 0 0 0 106.51484580623583 -116.2324731515148 0 -116.2324731515148 17.115765318862032 0 0 0 0 5.0136283421961707 -87.262663981394553 0 -87.262663981394553 64.68865106147814 0 0 0 0 -33.107802655396881 36.751767612805452 0 36.751767612805452 71.645395760389874 0 0 0 0 -14.825656301267372 51.897299697437347 0 51.897299697437347 -83.728377672929128 0 0 0 0 -11.826640545790724 81.727532491673628 0 81.727532491673628 141.81861905413552 0 0 0 0 200.33848348160609 4.5589423935794002 0 4.5589423935794002 -39.171674710360094 0 0 0 0 0.40009134487711151 0.50904455707048868 0 0.50904455707048868 0.39627538282654307 0 0 0 0 233.27945118107164 76.70094080516219 0 76.70094080516219 116.46012199486358 0 0 0 0 316.98242699797993 197.25024212854805 0 197.25024212854805 12.611940051474448 0 0 0 0 268.49370164918946 -11.030653379226806 0 -11.030653379226806 -5.3611353415508347 0 0 0 0 -99.017281057713262 -58.170034154075893 0 -58.170034154075893 104.35714883204173 0 0 0 0 207.03462733542256 -83.246509904752202 0 -83.246509904752202 -11.01499353471263 0 0 0 0 466.66713570063723 -97.95817848526741 0 -97.95817848526741 -18.493392869895615 0 0 0 0 462.30570985744998 125.56900620019132 0 125.56900620019132 82.438095879337197 0 0 0 0 274.6379992788643 -65.423541794376433 0 -65.423541794376433 475.16935073410332 0 0 0 0 35.812602824065834 -95.546371053666917 0 -95.546371053666917 72.785756892707468 0 0 0 0 227.59683121574926 -123.49227248524221 0 -123.49227248524221 -23.401281944908987 0 0 0 0 212.42945168714505 -168.15779531786666 0 -168.15779531786666 90.935931155829167 0 0 0 0 14.764061483176192 -27.105405094431262 0 -27.105405094431262 3.3843679158553641 0 0 0 0 19.455846427846154 22.579901323683998 0 22.579901323683998 15.902567548919251 0 0 0 0 -50.263754022904322 74.006108450556894 0 74.006108450556894 -11.775905111910561 0 0 0 0 -32.329614915957791 21.507531335828617 0 21.507531335828617 98.065985467006612 0 0 0 0 -196.65121719717717 122.05311392537487 0 122.05311392537487 37.727232118783832 0 0 0 0 -69.788805077081633 307.82961495188056 0 307.82961495188056 -132.0116598080931 0 0 0 0 2.8639481561125422 -1.9713632855342524 0 -1.9713632855342524 1.6638738427259234 0 0 0 0 168.35512089006079 123.62287703105267 0 123.62287703105267 133.94432985304047 0 0 0 0 427.87917247076257 38.449272847788052 0 38.449272847788052 5.5038714294423698 0 0 0 0 340.42951620719396 180.2663141300327 0 180.2663141300327 99.281960504913513 0 0 0 0 279.19202083700657 71.753912556556315 0 71.753912556556315 69.87410808610457 0 0 0 0 257.06921386465183 31.133288013809079 0 31.133288013809079 25.789113714536143 0 0 0 0 1487.2076602166235 -160.36088452014141 0 -160.36088452014141 -535.71764724999832 0 0 0 0 10.803026922788284 -8.1789105350838156 0 -8.1789105350838156 -0.18171706881190541 0 0 0 0 2498.4337376863514 273.46787434446895 0 273.46787434446895 -836.79604025865933 0 0 0 0 1786.462970228491 645.82284363259487 0 645.82284363259487 -9.6580144301857729 0 0 0 0 1232.3702925822563 -42.699558191235347 0 -42.699558191235347 -363.38812619687434 0 0 0 0 1266.4240178293658 35.637594995877095 0 35.637594995877095 -202.92676820306355 0 0 0 0 2754.3095946695703 604.43404995824801 0 604.43404995824801 -32.697571257500044 0 0 0 0 214.54540151252331 -1364.1243346737954 0 -1364.1243346737954 -303.71439931621876 0 0 0 0 5.5094837410195083 -3.8045910729467494 0 -3.8045910729467494 -0.0047322460476642014 0 0 0 0 1094.4967738794148 -179.48358364329064 0 -179.48358364329064 -727.33718897700533 0 0 0 0 2219.3273374733108 69.231527090406928 0 69.231527090406928 -713.09594256823857 0 0 0 0 1336.8836454834345 -993.58311089775611 0 -993.58311089775611 -9.5600419826147913 0 0 0 0 2500.8201427626445 -864.92056912591318 0 -864.92056912591318 -691.65699440368064 0 0 0 0 1307.7299293697506 -1000.4714698826327 0 -1000.4714698826327 -6.8200916054104965 0 0 0 0 763.61316136668756 -643.44038114026841 0 -643.44038114026841 134.51166614846946 0 0 0 0 1608.8270144803937 -667.42982266015588 0 -667.42982266015588 106.86339118390427 0 0 0 0 1386.8709745091874 -966.53603162510751 0 -966.53603162510751 -262.30376931271735 0 0 0 0 1144.2151094917554 -422.21181649225991 0 -422.21181649225991 362.06482269306196 0 0 0 0 19.337633994031911 19.886501059418592 0 19.886501059418592 -10.439237584223845 0 0 0 0 16.763628774751822 17.9186600183317 0 17.9186600183317 -9.3491475644638502 0 0 0 0 31.995727057124896 23.499679076497728 0 23.499679076497728 15.133657464022463 0 0 0 0 27.478484317540278 11.306246814824249 0 11.306246814824249 -13.077926379128257 0 0 0 0 22.118825060533709 34.023099870773876 0 34.023099870773876 -2.1401709801224342 0 0 0 0 36.807783276548435 17.551391580560335 0 17.551391580560335 -16.32106723975312 0 0 0 0 47.997359043609322 23.340482816489157 0 23.340482816489157 -16.044855100484256 0 0 0 0 2014.5458382487195 -653.26248743503902 0 -653.26248743503902 -132.47343578077351 0 0 0 0 1332.1632693444699 -206.93522073517033 0 -206.93522073517033 -180.51796670134303 0 0 0 0 1433.7133606703519 9.4070559433475474 0 9.4070559433475474 -407.68753258134745 0 0 0 0 926.77874413565041 -66.039988208859256 0 -66.039988208859256 26.565069600323454 0 0 0 0 19.657469544948661 20.542319060276029 0 20.542319060276029 -14.652201108532307 0 0 0 0 51.223817851689091 23.409977444290917 0 23.409977444290917 -27.447003841454432 0 0 0 0 54.984647926321486 12.561060092582466 0 12.561060092582466 -44.291657287939415 0 0 0 0 15.080832168430788 -10.010357182140524 0 -10.010357182140524 -36.239499174209868 0 0 0 0 65.650691000570077 27.218580745970485 0 27.218580745970485 -18.371829684631621 0 0 0 0 43.11702051129032 13.225134258203298 0 13.225134258203298 -25.093502747733964 0 0 0 0 52.378214095833755 14.892356112505468 0 14.892356112505468 2.1750805446113191 0 0 0 0 48.836020835715317 29.505622900999924 0 29.505622900999924 -6.3729707958405015 0 0 0 0 58.545877833234044 14.718203272318021 0 14.718203272318021 8.9570929048204562 0 0 0 0 59.760181541809288 13.258342793052634 0 13.258342793052634 -9.8806595016771723 0 0 0 0 65.629995437666366 0.42760642714119967 0 0.42760642714119967 33.551803451473461 0 0 0 0 72.905720443075552 11.650607351890812 0 11.650607351890812 -4.1637175965252027 0 0 0 0 105.78250886092428 11.393128457850025 0 11.393128457850025 -7.8706036169401159 0 0 0 0 91.993094556059077 -17.19007224311099 0 -17.19007224311099 14.336325898670793 0 0 0 0 58.491655559688297 -2.4945103993117641 0 -2.4945103993117641 -9.7096255804578959 0 0 0 0 12.215227644989682 5.7288938763124335 0 5.7288938763124335 2.5438597528451297 0 0 0 0 87.30753003906284 -34.80713828877856 0 -34.80713828877856 -26.793547586188652 0 0 0 0 98.686364479399344 -19.585205504781698 0 -19.585205504781698 -9.777338515703013 0 0 0 0 63.729961670498597 -55.470177747283742 0 -55.470177747283742 -41.706087657435546 0 0 0 0 122.94211669004471 -35.718413584761606 0 -35.718413584761606 -35.117370554288755 0 0 0 0 26.164959002933756 1.003717823493389 0 1.003717823493389 -19.531023955695218 0 0 0 0 58.804777613571332 -9.5706229731401038 0 -9.5706229731401038 -16.114739760674638 0 0 0 0 -31.162963816299452 -12.38012463458108 0 -12.38012463458108 -33.292697713578491 0 0 0 0 75.037165697904129 -41.118401950183852 0 -41.118401950183852 -26.423663658631995 0 0 0 0 3.5522573507656574 -1.2107420441546353 0 -1.2107420441546353 0.54117593044483847 0 0 0 0 59.230340175061428 -106.26534271513992 0 -106.26534271513992 -50.877521666686789 0 0 0 0 -67.11482205791981 75.816031643848419 0 75.816031643848419 -73.698031541411183 0 0 0 0 -142.55835731602929 -26.542148473861744 0 -26.542148473861744 115.71622199887497 0 0 0 0 -249.07612212069216 304.15870459378311 0 304.15870459378311 181.67400674451346 0 0 0 0 159.30446093393039 -47.122923865212897 0 -47.122923865212897 -7.078288675593285 0 0 0 0 2.3556227983640916 0.15151880125408468 0 0.15151880125408468 -2.5391236561432216 0 0 0 0 -11.219740199441731 -169.19405721846942 0 -169.19405721846942 207.9601745001637 0 0 0 0 90.749467354413355 53.741701850309482 0 53.741701850309482 31.82054358590176 0 0 0 0 39.567701203472097 -15.591639146158286 0 -15.591639146158286 -106.2607512466202 0 0 0 0 11.434322514867247 -4.3571493354546327 0 -4.3571493354546327 1.9014835661154805 0 0 0 0 43.62241075392194 12.188313670662865 0 12.188313670662865 -9.2855657863101442 0 0 0 0 39.900346568130772 15.969581681103136 0 15.969581681103136 -31.355992351766872 0 0 0 0 20.686840339996706 -30.879088411203611 0 -30.879088411203611 -37.967896206541809 0 0 0 0 27.684437632546178 13.295022286929907 0 13.295022286929907 3.4319633609593438 0 0 0 0 7.8618416919331509 -5.3136237260247086 0 -5.3136237260247086 -7.606333420065944 0 0 0 0 6.5223563825658886 -5.8224606080805046 0 -5.8224606080805046 -6.3044638476034329 0 0 0 0 36.977232518933306 14.909538100929581 0 14.909538100929581 -0.97950579857297271 0 0 0 0 27.771064322292659 -4.9690680027683811 0 -4.9690680027683811 -9.9110030931910842 0 0 0 0 40.628705453071234 -1.6029956717636651 0 -1.6029956717636651 -19.227317309358114 0 0 0 0 50.351261713733038 6.1975159822759451 0 6.1975159822759451 -17.2748563785035 0 0 0 0 31.220726742736588 4.7581560934172558 0 4.7581560934172558 -10.84828077483462 0 0 0 0 20.138848698185029 1.1110825964515243 0 1.1110825964515243 -5.7219313241439522 0 0 0 0 40.68401788686424 0.41063327002814276 0 0.41063327002814276 -8.9835327520222563 0 0 0 0 11.698476497332983 6.1879320722850721 0 6.1879320722850721 -5.9888664181698612 0 0 0 0 46.41721080539719 4.3451302006076276 0 4.3451302006076276 -6.3789165401908576 0 0 0 0 0.79247139621293172 246.93781312061535 0 246.93781312061535 -52.426459828326529 0 0 0 0 13.128911946447261 13.751768881595126 0 13.751768881595126 -5.8871439058302713 0 0 0 0 -95.680918768121046 -60.495366047210169 0 -60.495366047210169 8.9642753507643924 0 0 0 0 15.03220568698557 6.0484106915022124 0 6.0484106915022124 -4.7298090980027432 0 0 0 0 23.460545557209116 0.39076143392730955 0 0.39076143392730955 -12.417371046556582 0 0 0 0 9.3677816776537099 6.8885343168163757 0 6.8885343168163757 -9.6398180575600989 0 0 0 0 26.248265670365072 10.189144490520675 0 10.189144490520675 -9.0067335523399379 0 0 0 0 32.15961680275359 6.3089052362156508 0 6.3089052362156508 -4.2380856027652953 0 0 0 0 32.697265814156708 5.8555429602015465 0 5.8555429602015465 -13.836240619446016 0 0 0 0 24.143073557095931 -3.7401648073807969 0 -3.7401648073807969 -3.4296785560420151 0 0 0 0 45.708998830672499 10.302815810941411 0 10.302815810941411 -47.181767035029225 0 0 0 0 53.586038874469523 -3.2550433112014616 0 -3.2550433112014616 -25.319859786864754 0 0 0 0 21.23587056823591 17.680416908096333 0 17.680416908096333 -22.307411340030885 0 0 0 0 664.38151065110651 -102.46906045676022 0 -102.46906045676022 -138.06798041644186 0 0 0 0 304.64169452648457 227.01380515283748 0 227.01380515283748 92.147138109679346 0 0 0 0 1541.2115808061353 45.257153459558651 0 45.257153459558651 -398.76674313832734 0 0 0 0 1424.3897015567418 40.277113507420488 0 40.277113507420488 -292.60653668625821 0 0 0 0 1393.1887540312055 286.71412734175237 0 286.71412734175237 -165.3811244763487 0 0 0 0 1196.70212279728 195.7355921710822 0 195.7355921710822 -123.09642774713504 0 0 0 0 1631.7653762711561 616.25104410661811 0 616.25104410661811 -5.4671064917265539 0 0 0 0 1667.9182951247785 163.26925175613167 0 163.26925175613167 -232.16139988950019 0 0 0 0 1989.6866173758281 -60.156385521587296 0 -60.156385521587296 -78.524390042638402 0 0 0 0 1770.192453905227 255.69682871597951 0 255.69682871597951 964.23847344388207 0 0 0 0 1737.7006744999771 -141.16187371899082 0 -141.16187371899082 159.68256898274046 0 0 0 0 2433.2160312293418 -378.69921709140544 0 -378.69921709140544 490.78643118858281 0 0 0 0 1768.6007708279867 92.040382973188116 0 92.040382973188116 188.8467755348521 0 0 0 0 1962.9633925459857 1223.1174247208014 0 1223.1174247208014 755.44903968915924 0 0 0 0 3.038117924689594 0.29106287439739376 0 0.29106287439739376 -2.6340709438032519 0 0 0 0 3067.1564615666503 581.53217859298127 0 581.53217859298127 -4.7862146655624684 0 0 0 0 6.491393207002659 -0.3084911412593172 0 -0.3084911412593172 -2.5494641628348811 0 0 0 0 414.61935129636913 25.086525574886423 0 25.086525574886423 -43.746541622931716 0 0 0 0 15.260901901354373 14.975955371343275 0 14.975955371343275 -11.164632496075797 0 0 0 0 2.2902698471908849 10.739015581309431 0 10.739015581309431 -9.0781003259394115 0 0 0 0 105.50822193742351 886.75222503300552 0 886.75222503300552 526.73440544264145 0 0 0 0 878.28294391587769 -265.69157710848822 0 -265.69157710848822 -165.9104228879836 0 0 0 0 330.55009907198109 215.39270700004735 0 215.39270700004735 5.900566917029991 0 0 0 0 13.432092772896333 4.4723313279883321 0 4.4723313279883321 -8.2923141138583407 0 0 0 0 -1.9270338344431366 -55.857353404963902 0 -55.857353404963902 148.24208679067362 0 0 0 0 438.46179653689251 -182.12820329022861 0 -182.12820329022861 -31.824161560777782 0 0 0 0 729.55142487818739 158.79559044137119 0 158.79559044137119 27.582063297478982 0 0 0 0 1698.5574761544085 -21.569524935706085 0 -21.569524935706085 -266.05449187020997 0 0 0 0 1922.5266740267762 -83.772634830736621 0 -83.772634830736621 -220.49905556280967 0 0 0 0 1008.9111940624862 18.057446088464573 0 18.057446088464573 -76.278790961079594 0 0 0 0 2235.7301376852083 285.33140182778612 0 285.33140182778612 10.245351959933487 0 0 0 0 742.91499971500525 -989.55955673031099 0 -989.55955673031099 189.81727853293376 0 0 0 0 1746.8749365466738 215.27478941453745 0 215.27478941453745 265.18675681570596 0 0 0 0 1761.5071821298498 138.01200999111074 0 138.01200999111074 215.33404110565084 0 0 0 0 1641.7628509416318 72.37073536492079 0 72.37073536492079 134.93698100312992 0 0 0 0 2019.0462524340292 -131.22341995120837 0 -131.22341995120837 -80.450909282324247 0 0 0 0 1329.3856315336525 -4.610844297143359 0 -4.610844297143359 315.81011006478622 0 0 0 0 1707.9670194395585 24.402118025455167 0 24.402118025455167 -135.41392497352729 0 0 0 0 1951.6804280446913 -269.92945852245805 0 -269.92945852245805 -156.75630410659471 0 0 0 0 2300.5753929342482 -354.03616924876593 0 -354.03616924876593 -185.65401876851772 0 0 0 0 2494.7678611252977 -519.58929019597144 0 -519.58929019597144 -91.322818615757996 0 0 0 0 1631.2175941678543 -719.96937869149929 0 -719.96937869149929 217.39951275293819 0 0 0 0 519.87638089290704 -784.96185714663523 0 -784.96185714663523 213.76538574631311 0 0 0 0 1475.8266545475126 -1.6657641249108224 0 -1.6657641249108224 184.62285777585345 0 0 0 0 1484.4253736385654 87.097031780798005 0 87.097031780798005 520.56979435549476 0 0 0 0 1473.2573100242153 69.88869254309833 0 69.88869254309833 7.744762733844027 0 0 0 0 1311.9118358160413 -97.316744246971723 0 -97.316744246971723 232.09484318102514 0 0 0 0 1644.6267713951806 -122.17952078393171 0 -122.17952078393171 -222.55462377112451 0 0 0 0 1394.3935655991336 -106.40184643965722 0 -106.40184643965722 -93.707429867355643 0 0 0 0 842.01457177168777 -243.49610020855798 0 -243.49610020855798 -98.526558098341695 0 0 0 0 946.84360879912856 132.75925496152306 0 132.75925496152306 -401.61724474067944 0 0 0 0 1397.0417856547829 -11.523154521351017 0 -11.523154521351017 -271.78696433536282 0 0 0 0 1415.0450939787006 -68.412794599581844 0 -68.412794599581844 -467.49825310336797 0 0 0 0 2499.3763937732074 1032.4678199236048 0 1032.4678199236048 187.82337552078792 0 0 0 0 6.3712905443243102 -3.7010088872969646 0 -3.7010088872969646 0.24056737984384347 0 0 0 0 -338.51850750809535 -661.52748364277102 0 -661.52748364277102 340.60734114600177 0 0 0 0 333.14144128650514 146.85088785897591 0 146.85088785897591 -142.83687653976898 0 0 0 0 2506.3048286707653 -168.06542601648715 0 -168.06542601648715 14.599344864262221 0 0 0 0 2006.8205920904347 -440.01125285728153 0 -440.01125285728153 -222.54747380769194 0 0 0 0 2525.0101340135752 -128.38522905694276 0 -128.38522905694276 -297.13097098770891 0 0 0 0 2610.8760229526952 223.77269476031657 0 223.77269476031657 207.76506725484774 0 0 0 0 2972.3137424142978 -110.55665263821813 0 -110.55665263821813 -334.47178207333667 0 0 0 0 2499.1123015111853 -189.70786598873218 0 -189.70786598873218 626.67425433403548 0 0 0 0 2501.4351886650711 -179.92198053510043 0 -179.92198053510043 -46.039232672726733 0 0 0 0 2256.5189505680996 18.322157950906018 0 18.322157950906018 -292.72806405633094 0 0 0 0 2526.235449734073 -610.29611483682788 0 -610.29611483682788 198.47979624201372 0 0 0 0 3155.2375086434877 28.460296950820048 0 28.460296950820048 -290.10077736186412 0 0 0 0 1820.0117378045779 1024.9703998978232 0 1024.9703998978232 275.2517958524702 0 0 0 0 1598.9798117460559 133.52479161423719 0 133.52479161423719 -89.976591901907014 0 0 0 0 1618.9375290296002 242.19279453413105 0 242.19279453413105 -32.995950552699185 0 0 0 0 243.06342298691197 -67.785320658681414 0 -67.785320658681414 -201.86173682865797 0 0 0 0 35.397576169215185 -3.9466994393494996 0 -3.9466994393494996 0.34268059614456237 0 0 0 0 18.14054809155823 179.51684713384861 0 179.51684713384861 390.74353239218425 0 0 0 0 249.66100568944148 -32.172538283932681 0 -32.172538283932681 -313.14310503725153 0 0 0 0 384.36298282431426 86.339280780125094 0 86.339280780125094 -209.49976617921652 0 0 0 0 243.96847817379785 -146.68952262349518 0 -146.68952262349518 302.50123757973375 0 0 0 0 1631.8893829457247 -1243.1186333535788 0 -1243.1186333535788 287.35801334363839 0 0 0 0 15.519329911800959 -1.3291200123774807 0 -1.3291200123774807 0.32076796466851631 0 0 0 0 1811.9967376396735 -101.77948262147419 0 -101.77948262147419 -160.14976869168061 0 0 0 0 1231.8746883729418 -526.22068610214683 0 -526.22068610214683 75.075871624125483 0 0 0 0 -0.5633897206871552 -146.02381801725508 0 -146.02381801725508 168.10400828941138 0 0 0 0 152.4316288122991 224.76109050119942 0 224.76109050119942 91.812567313850309 0 0 0 0 51.258091641591363 14.854678584836236 0 14.854678584836236 2.7758346456334806 0 0 0 0 53.811868727582805 14.292004565113643 0 14.292004565113643 -1.9805515994994494 0 0 0 0 8.4725267639832058 1.4836538902998679 0 1.4836538902998679 -9.7602099520239829 0 0 0 0 -21.095986212336129 84.093585113669434 0 84.093585113669434 -43.117268905758465 0 0 0 0 56.380943232979007 20.456461567955103 0 20.456461567955103 -4.1589027790739692 0 0 0 0 -21.848049025990804 88.166450522750779 0 88.166450522750779 -12.798973087658169 0 0 0 0 -30.373340000565804 -67.016526099963841 0 -67.016526099963841 -35.850765447583854 0 0 0 0 -18.616571331102023 -115.75981076998472 0 -115.75981076998472 143.78502514724138 0 0 0 0 187.46925380653011 140.38612475216797 0 140.38612475216797 134.30986109990835 0 0 0 0 -107.09928017462551 107.1268278244456 0 107.1268278244456 43.515508162368718 0 0 0 0 10.373092980934587 7.919229753940197 0 7.919229753940197 -4.6511073935958818 0 0 0 0 -27.433276872536226 -38.34335361715506 0 -38.34335361715506 20.984123944504169 0 0 0 0 18.155093531350282 1.3996499990687212 0 1.3996499990687212 -8.4251471117475383 0 0 0 0 20.15207486951202 12.899473534083576 0 12.899473534083576 -8.8484014718837756 0 0 0 0 3.8561916458274936 -47.016058023249968 0 -47.016058023249968 -81.324252042599142 0 0 0 0 -15.860121589437767 -35.274497208485343 0 -35.274497208485343 -38.568833988348047 0 0 0 0 30.619302746388712 5.5707692573822669 0 5.5707692573822669 -14.534284179739416 0 0 0 0 73.639505410083075 -7.0497138274345161 0 -7.0497138274345161 -75.90888463324444 0 0 0 0 43.658742553965517 -2.2915417474658648 0 -2.2915417474658648 -4.1541722504882852 0 0 0 0 31.926138370326953 -3.4451288111949907 0 -3.4451288111949907 -3.9123870264265861 0 0 0 0 39.4012423509988 6.344425702060299 0 6.344425702060299 -11.805995580798832 0 0 0 0 28.040620133837365 12.273259993231704 0 12.273259993231704 -13.532759713243649 0 0 0 0 16.297824275644761 17.105316917650335 0 17.105316917650335 -13.007402924922278 0 0 0 0 36.487126034066094 4.4922976625301079 0 4.4922976625301079 -18.900827411339531 0 0 0 0 2.4813715992459038 18.553028839318358 0 18.553028839318358 -10.031901066045521 0 0 0 0 16.54428693047506 12.417433660105146 0 12.417433660105146 -10.719824043027703 0 0 0 0 20.695915379885264 16.78363930842761 0 16.78363930842761 -13.190940220938501 0 0 0 0 17.350134578582214 19.785367133354427 0 19.785367133354427 -6.7281669651807174 0 0 0 0 17.666791437506078 13.758537707915357 0 13.758537707915357 -15.179509714098067 0 0 0 0 17.984683376052999 13.80281781352096 0 13.80281781352096 -6.174750648077179 0 0 0 0 27.445746640708634 4.2174643272509442 0 4.2174643272509442 -7.6278276466505552 0 0 0 0 5.2930163617451171 2.6064923233587791 0 2.6064923233587791 1.1455182379281084 0 0 0 0 15.621149760876833 1.5509934029636234 0 1.5509934029636234 -2.2236912023987543 0 0 0 0 32.306011942877376 2.0840620373357979 0 2.0840620373357979 -13.248952723262846 0 0 0 0 26.097491175576579 8.1592928492282226 0 8.1592928492282226 -14.048582244497538 0 0 0 0 27.785126972336002 5.2060513474052641 0 5.2060513474052641 -0.60639784344493819 0 0 0 0 24.828011951598455 8.1964434578285363 0 8.1964434578285363 -13.975290188910549 0 0 0 0 25.319715900195366 5.0294986722649568 0 5.0294986722649568 -7.9759916073659216 0 0 0 0 21.610655130280065 7.2049392643584724 0 7.2049392643584724 -9.0771806439104239 0 0 0 0 20.234380814254735 4.191912072630501 0 4.191912072630501 -3.4759263017707749 0 0 0 0 38.306187529231593 4.9817111052204481 0 4.9817111052204481 -7.5595152413355242 0 0 0 0 51.230296774097951 1.3524758353114521 0 1.3524758353114521 -4.5326345265448253 0 0 0 0 36.208140700782678 12.073124210950937 0 12.073124210950937 -7.6225037426938798 0 0 0 0 14.252323833881327 -5.1223760449863533 0 -5.1223760449863533 -5.7234964509978958 0 0 0 0 18.727232046076097 -0.15587394469957871 0 -0.15587394469957871 2.4958201472081214 0 0 0 0 19.581397648386883 -3.0178983854215176 0 -3.0178983854215176 -15.442788314602694 0 0 0 0 35.809155889673548 8.4184011513970347 0 8.4184011513970347 -10.770295327433814 0 0 0 0 10.054812201617381 -0.63739521258791143 0 -0.63739521258791143 -4.3581877672859139 0 0 0 0 5.1067815181995684 2.2739254600530785 0 2.2739254600530785 -1.122182255415737 0 0 0 0 11.535314051536261 0.16696920315416719 0 0.16696920315416719 -2.9241057840154099 0 0 0 0 6.2132092981395175 1.645567966587361 0 1.645567966587361 -0.82486344621915064 0 0 0 0 -9.4451243239218456 12.800778792045094 0 12.800778792045094 4.68345236757159 0 0 0 0 6.4838266320984985 0.78184239595975669 0 0.78184239595975669 0.49420207128105176 0 0 0 0 2.290137011102324 1.8187308710523418 0 1.8187308710523418 1.5433582362725335 0 0 0 0 52.053195024989918 18.838950922882105 0 18.838950922882105 -1.7424247869587361 0 0 0 0 -11.595575925039157 17.872421112113216 0 17.872421112113216 -6.9788804324421108 0 0 0 0 19.784701678868867 20.456071782284969 0 20.456071782284969 -4.2154762852977079 0 0 0 0 51.349444977740859 11.663062854526174 0 11.663062854526174 -8.3940080232101337 0 0 0 0 1.4529740203754002 -1.1056116430054743 0 -1.1056116430054743 -0.11527900483292619 0 0 0 0 -27.594748620978862 13.731679054530218 0 13.731679054530218 -25.478083901086393 0 0 0 0 -57.973198332587344 32.12509805671948 0 32.12509805671948 0.24092038134222094 0 0 0 0 15.564971599018413 20.233969067617529 0 20.233969067617529 -5.1355174484435642 0 0 0 0 37.140731928804598 32.4816894633679 0 32.4816894633679 58.645035403180373 0 0 0 0 -81.048861421921174 20.514395973570686 0 20.514395973570686 0.069983617958087052 0 0 0 0 -66.00919203569083 -53.341137291701301 0 -53.341137291701301 -56.783390069148027 0 0 0 0 38.320763736296158 21.590151815130724 0 21.590151815130724 -9.8122788395479148 0 0 0 0 33.909797936996938 22.667717944482426 0 22.667717944482426 -8.7083233596850107 0 0 0 0 24.153980342935938 13.293160231505453 0 13.293160231505453 3.9689559667581307 0 0 0 0 23.734094793728161 20.384301088584316 0 20.384301088584316 14.254137160477512 0 0 0 0 14.721763586469024 14.295634633117061 0 14.295634633117061 9.0616139821199795 0 0 0 0 -82.932755275116506 72.460194480036378 0 72.460194480036378 23.844790270457594 0 0 0 0 12.814968199953 18.262116105153893 0 18.262116105153893 6.8154501560288736 0 0 0 0 25.753742664193247 17.007499971051779 0 17.007499971051779 -7.1932818264485601 0 0 0 0 66.957444120809669 113.93716751205449 0 113.93716751205449 -10.169397876231699 0 0 0 0 48.346628400326303 -2.2692990142743863 0 -2.2692990142743863 -5.1034512020234333 0 0 0 0 14.72161619780033 2.4060806261072423 0 2.4060806261072423 -1.0850768500268695 0 0 0 0 36.803308059991195 -13.371895971645586 0 -13.371895971645586 -10.442415459238873 0 0 0 0 18.960114451589106 16.638524337462513 0 16.638524337462513 2.4458225204598421 0 0 0 0 36.416364234395587 -0.76425358372853225 0 -0.76425358372853225 -26.008336565215814 0 0 0 0 322.86547543358392 45.012958090545681 0 45.012958090545681 -252.14204853658543 0 0 0 0 0.098435523373701983 -4.1696850854403991 0 -4.1696850854403991 -1.5304260429703591 0 0 0 0 48.051585092290658 -1.99663426005778 0 -1.99663426005778 -0.82463990256805175 0 0 0 0 -39.027644662969578 -172.24176756504687 0 -172.24176756504687 14.256143405481907 0 0 0 0 236.24529813256913 219.48074839050918 0 219.48074839050918 159.96246896477487 0 0 0 0 206.49418287956541 65.439455424901325 0 65.439455424901325 -152.29196824353699 0 0 0 0 41.749472288785455 -29.582035949571264 0 -29.582035949571264 -62.139341415199851 0 0 0 0 4.7022478147860785 -0.2806998165869441 0 -0.2806998165869441 0.20245036030481245 0 0 0 0 70.834441695371424 76.353048714883357 0 76.353048714883357 79.976773220804432 0 0 0 0 -42.021355587703056 -70.633719215914653 0 -70.633719215914653 107.1396686473463 0 0 0 0 -4.217115602945789 3.2215839885571693 0 3.2215839885571693 -0.38163255157314335 0 0 0 0 45.159571579235866 1.1073548918766152 0 1.1073548918766152 -3.1913415879136062 0 0 0 0 530.0515470016262 -9.9447769647144924 0 -9.9447769647144924 -406.29254634736753 0 0 0 0 56.630887105615329 0.080726775795938011 0 0.080726775795938011 -189.41543535111578 0 0 0 0 4.0783899658472365 110.96746420457475 0 110.96746420457475 -13.030161782865889 0 0 0 0 242.62100239958409 -301.62029820018392 0 -301.62029820018392 306.73116763764938 0 0 0 0 15.856919063436465 -92.819701285435897 0 -92.819701285435897 -13.422157947155938 0 0 0 0 190.72943624967775 -3.6502963314859471 0 -3.6502963314859471 -3.6360202162829864 0 0 0 0 -178.5788605296957 219.21231233171125 0 219.21231233171125 34.959051778248522 0 0 0 0 42.364829429458496 -115.11861804400337 0 -115.11861804400337 89.854721939022511 0 0 0 0 45.926850871346915 43.487838341154429 0 43.487838341154429 -16.077051584146147 0 0 0 0 -32.758170178039279 -86.36973972151219 0 -86.36973972151219 86.941556874373873 0 0 0 0 55.757207337126601 42.453730233937407 0 42.453730233937407 8.4704055231439845 0 0 0 0 43.361144390969457 -1.1046626388936147 0 -1.1046626388936147 -25.39103040007069 0 0 0 0 79.881351861241455 14.362435472610414 0 14.362435472610414 -44.134134193808038 0 0 0 0 4.4371286467184614 -5.9056526448777475 0 -5.9056526448777475 0.26446124937813531 0 0 0 0 353.31274045627652 255.82618666482523 0 255.82618666482523 169.95963111924414 0 0 0 0 1320.3285585164131 247.31843370960732 0 247.31843370960732 -174.6021898675252 0 0 0 0 1671.9529635364952 -353.39370271570317 0 -353.39370271570317 -173.00188880799399 0 0 0 0 2086.9128722146479 -34.578388534739986 0 -34.578388534739986 -222.67998347319582 0 0 0 0 2607.3168703785223 -522.86009178891902 0 -522.86009178891902 -144.41759623648514 0 0 0 0 427.57649367381964 -157.19398225153577 0 -157.19398225153577 88.192434885859825 0 0 0 0 10.83088911423469 -8.3208809864345774 0 -8.3208809864345774 5.7178123446969726 0 0 0 0 30.435464412865805 -2.9892017409323959 0 -2.9892017409323959 1.7749345745885279 0 0 0 0 8.2618749910963931 -5.2975752153980933 0 -5.2975752153980933 9.7447913790440968 0 0 0 0 -3.0551750345678172 -2.8444301610892078 0 -2.8444301610892078 1.6921922257228026 0 0 0 0 69.11566780537396 -175.33308942072154 0 -175.33308942072154 539.84710363497379 0 0 0 0 50.22611235954264 159.43013974834798 0 159.43013974834798 -9.3194613468758689 0 0 0 0 -33.629933934567816 126.25981612852661 0 126.25981612852661 203.66123711615069 0 0 0 0 113.76307948994145 131.75050358604858 0 131.75050358604858 -209.6255642751853 0 0 0 0 3075.4229031027808 -488.10079730033078 0 -488.10079730033078 220.78261066264463 0 0 0 0 2989.5512741915181 -620.50925728689799 0 -620.50925728689799 208.48757376088815 0 0 0 0 2986.4787609717573 -626.22656510388003 0 -626.22656510388003 447.77414120793821 0 0 0 0 1645.271095142682 1081.6315133658684 0 1081.6315133658684 92.144072630118444 0 0 0 0 3083.2832661565385 -505.29411688519338 0 -505.29411688519338 1.00236830175254 0 0 0 0 8.6282824488129393 -2.0520203406753872 0 -2.0520203406753872 3.5265249098623981 0 0 0 0 2413.9066592678769 -219.38283885916837 0 -219.38283885916837 476.64635394057331 0 0 0 0 2784.6010502355357 -109.68285887136645 0 -109.68285887136645 420.99935572348835 0 0 0 0 2517.1447272029391 -319.69590827390255 0 -319.69590827390255 486.48998522391059 0 0 0 0 2499.7867476065921 -179.64764054036257 0 -179.64764054036257 389.50289617245994 0 0 0 0 2381.6121938539118 -414.3695161029114 0 -414.3695161029114 339.70111806417395 0 0 0 0 2457.6782785652049 -217.48044709832777 0 -217.48044709832777 356.2778741153075 0 0 0 0 2499.9479413738195 -252.61549381713237 0 -252.61549381713237 -11.305003685848549 0 0 0 0 2529.1805720116213 -344.12705681627313 0 -344.12705681627313 -313.98411796450148 0 0 0 0 2500.5249774146287 -233.2082729336521 0 -233.2082729336521 -145.47491309906079 0 0 0 0 2534.3990417452078 -303.62803747873488 0 -303.62803747873488 -78.710571498595172 0 0 0 0 -15.20708230069431 -105.87072926517021 0 -105.87072926517021 37.303673651622375 0 0 0 0 -33.244605465180939 -108.88804885935133 0 -108.88804885935133 38.810434927694587 0 0 0 0 -10.878953692030336 -121.32895059863768 0 -121.32895059863768 26.465700372232277 0 0 0 0 12.312198536295909 -73.569468820635393 0 -73.569468820635393 19.953923514237431 0 0 0 0 32.319504410559603 -35.101022034632251 0 -35.101022034632251 20.478414527754467 0 0 0 0 -19.503828485292615 -25.884706441813705 0 -25.884706441813705 20.593084836431444 0 0 0 0 51.238408610750412 -73.944607830246355 0 -73.944607830246355 12.75097621407258 0 0 0 0 9.3247774534465862 -118.16774513823157 0 -118.16774513823157 25.352202778892661 0 0 0 0 143.44772862792161 141.60738681157272 0 141.60738681157272 -66.058777016656109 0 0 0 0 -29.872078959546343 -89.870056262528351 0 -89.870056262528351 33.667516384940086 0 0 0 0 4.6965655206532517 -1.5980219322126175 0 -1.5980219322126175 0.027035845524752133 0 0 0 0 -46.113457323603143 12.11813151985416 0 12.11813151985416 -24.313859837497148 0 0 0 0 -65.920782080567733 -51.471857076966444 0 -51.471857076966444 13.732092438183031 0 0 0 0 228.85090492852669 133.03699803121589 0 133.03699803121589 -178.39783943618028 0 0 0 0 25.579984893712947 2.1858389563868883 0 2.1858389563868883 -10.965568968903169 0 0 0 0 24.705388720543851 7.828498740856503 0 7.828498740856503 -2.7880256049611489 0 0 0 0 40.856070442321652 10.559205990123246 0 10.559205990123246 -12.003864565863751 0 0 0 0 -44.950579974701213 -324.89666150716795 0 -324.89666150716795 74.573217977120294 0 0 0 0 27.847731273865065 -3.4771398289885838 0 -3.4771398289885838 -17.168412900120529 0 0 0 0 35.769093504346529 20.834353771288988 0 20.834353771288988 0.43715262529224219 0 0 0 0 23.101182401653048 -2.722002303655529 0 -2.722002303655529 -7.6171945144236819 0 0 0 0 20.662987944357155 6.2103716288779651 0 6.2103716288779651 -13.783995132454038 0 0 0 0 26.502051648917643 8.0317361215170955 0 8.0317361215170955 0.5900782275149794 0 0 0 0 30.286267822943046 -0.72339174183593968 0 -0.72339174183593968 -11.002638684200974 0 0 0 0 27.626840535587689 25.250256499587977 0 25.250256499587977 -11.825747921855168 0 0 0 0 7.3861136128216458 -17.723729384936405 0 -17.723729384936405 -81.432846054088714 0 0 0 0 25.444015816374304 11.997142183223787 0 11.997142183223787 -10.272397907289815 0 0 0 0 2.8005986023426459 3.4900448965830435 0 3.4900448965830435 -2.1648696417520688 0 0 0 0 1.6542723179843648 -1.3796884008226069 0 -1.3796884008226069 -1.2335463256175503 0 0 0 0 21.660828065178066 12.036204901588462 0 12.036204901588462 -108.14148601899933 0 0 0 0 181.90356483886353 140.20112504126223 0 140.20112504126223 -59.113330747389227 0 0 0 0 31.508623228640431 -28.199556187275668 0 -28.199556187275668 -68.149144495329892 0 0 0 0 30.758680380274598 8.0519362326855592 0 8.0519362326855592 -71.703699557494474 0 0 0 0 18.590649000208941 -14.692450208364789 0 -14.692450208364789 -80.617392829351047 0 0 0 0 -21.187517737414964 -88.275513131157481 0 -88.275513131157481 -110.26896638719427 0 0 0 0 50.925775911149685 22.569849690746196 0 22.569849690746196 -54.447086855606017 0 0 0 0 59.822916259167414 -36.031831929421998 0 -36.031831929421998 -96.409030491116937 0 0 0 0 66.502575259863079 -44.593218690950835 0 -44.593218690950835 37.368644544166727 0 0 0 0 19.730989233892615 7.3072442069565113 0 7.3072442069565113 13.472918190008386 0 0 0 0 52.752029678704275 -17.294740781200744 0 -17.294740781200744 -58.659590009352542 0 0 0 0 34.565278692012726 50.964384372826657 0 50.964384372826657 -3.5860003646776022 0 0 0 0 69.693965738231782 8.3443778890509748 0 8.3443778890509748 -29.241114146859218 0 0 0 0 31.583480557601433 32.174439798842286 0 32.174439798842286 -43.039303841509536 0 0 0 0 26.225233564866357 -13.641905950196815 0 -13.641905950196815 -95.449619721406407 0 0 0 0 -18.526479260004635 8.9284055120032235 0 8.9284055120032235 -53.552876687601383 0 0 0 0 22.413141912357787 100.86591939634945 0 100.86591939634945 -114.28513674125907 0 0 0 0 -0.17224154644208056 0.74736049300063456 0 0.74736049300063456 0.60092581308232607 0 0 0 0 69.164204380544106 -115.47681343743352 0 -115.47681343743352 20.77257856373285 0 0 0 0 105.45310442921254 38.596267814468092 0 38.596267814468092 -80.289208667571984 0 0 0 0 87.537983767349942 36.658371678176536 0 36.658371678176536 27.359110269860594 0 0 0 0 95.802820430129941 33.788204542258427 0 33.788204542258427 -7.9273738539361602 0 0 0 0 99.27108681795653 65.015621857632595 0 65.015621857632595 -11.767964893864701 0 0 0 0 69.702116637858126 55.3067334954535 0 55.3067334954535 10.766203897077773 0 0 0 0 24.447026711131912 38.816036861374414 0 38.816036861374414 64.050724811550936 0 0 0 0 72.984993728088739 13.850294250446495 0 13.850294250446495 50.706473499760705 0 0 0 0 79.821258253439737 13.171394468036397 0 13.171394468036397 48.376841025251451 0 0 0 0 75.900320814173028 29.483825618266337 0 29.483825618266337 33.212656853765111 0 0 0 0 168.94446287875689 -11.630522344872702 0 -11.630522344872702 8.0256655862831394 0 0 0 0 80.625551883160369 29.771183734617352 0 29.771183734617352 27.101104356262454 0 0 0 0 349.72670275426208 136.39662663102536 0 136.39662663102536 -120.73926355507763 0 0 0 0 5.554580688804716 -4.8131273127871665 0 -4.8131273127871665 0.77844301234794244 0 0 0 0 9.0656897512017167 1.0611157349103451 0 1.0611157349103451 -1.9350930384180174 0 0 0 0 11.374069894547574 -1.0020847359082836 0 -1.0020847359082836 -0.60752366977249039 0 0 0 0 23.768995038162302 -12.065218994295257 0 -12.065218994295257 4.739068746444044 0 0 0 0 8.255311453890279 -3.7216392115211647 0 -3.7216392115211647 -2.2907258783569091 0 0 0 0 -124.59607899902676 -200.54385780297855 0 -200.54385780297855 -38.269749098750253 0 0 0 0 292.89816197798791 210.51368407221798 0 210.51368407221798 10.35199254786653 0 0 0 0 51.859049590614632 -22.641933680689817 0 -22.641933680689817 90.065289041277538 0 0 0 0 336.02519682671118 178.14446277591151 0 178.14446277591151 -15.713245577384299 0 0 0 0 128.40128810300621 195.39001932539063 0 195.39001932539063 32.055339640952297 0 0 0 0 3.4320138050186628 -1.5075299265995667 0 -1.5075299265995667 0.22408845598712368 0 0 0 0 211.43413754030917 119.82514528616593 0 119.82514528616593 37.199523755361952 0 0 0 0 207.16039901784097 148.64140802394286 0 148.64140802394286 -14.701387029279431 0 0 0 0 118.97712208579833 -75.95254424084078 0 -75.95254424084078 123.12844546930319 0 0 0 0 63.843890645915963 -22.30296071052976 0 -22.30296071052976 83.181449455081747 0 0 0 0 168.29104000223015 -85.86499255632998 0 -85.86499255632998 33.931668227855425 0 0 0 0 202.05491732896189 -146.27484825367537 0 -146.27484825367537 98.621283886399624 0 0 0 0 143.9010568966587 12.613008109988868 0 12.613008109988868 400.62679948634104 0 0 0 0 24.611872212805793 1.4107664148547201 0 1.4107664148547201 -1.8443262836244685 0 0 0 0 3.0384312940995741 -2.969454296781521 0 -2.969454296781521 2.3256346972831974 0 0 0 0 289.94118385533329 -186.47453011554705 0 -186.47453011554705 -141.01419537617494 0 0 0 0 350.53716605923182 50.124345428311585 0 50.124345428311585 -89.83619349831406 0 0 0 0 2.2205322252613371 -0.33205354496686112 0 -0.33205354496686112 0.35741605509913121 0 0 0 0 19.603983836337648 -5.2551160658048275 0 -5.2551160658048275 3.4181787243433064 0 0 0 0 317.02975444341428 -2.9057744728863781 0 -2.9057744728863781 -173.32969158798369 0 0 0 0 255.67246862063621 12.271467206508987 0 12.271467206508987 -86.111680428845375 0 0 0 0 302.31121415635425 54.43567887305062 0 54.43567887305062 -72.446001298756528 0 0 0 0 246.2943673323316 -1.5231983404131597 0 -1.5231983404131597 -28.607354492140985 0 0 0 0 146.06859531994996 -24.905206396977519 0 -24.905206396977519 -29.15419497000903 0 0 0 0 162.62640119539719 30.228892147701117 0 30.228892147701117 -27.13536758148075 0 0 0 0 152.08950993687176 56.873713003289595 0 56.873713003289595 17.381500439636511 0 0 0 0 220.94622792696464 46.078953652249766 0 46.078953652249766 -23.143374487219717 0 0 0 0 177.16542576098072 41.372066536844954 0 41.372066536844954 7.0336732837185991 0 0 0 0 132.91793229464383 47.770252328976312 0 47.770252328976312 39.276439622944508 0 0 0 0 187.47570252328296 54.213250926311048 0 54.213250926311048 6.2096188232994791 0 0 0 0 212.82235372549621 73.480357070560785 0 73.480357070560785 38.539537210748676 0 0 0 0 276.88953597241198 108.59130977712766 0 108.59130977712766 37.295033564771074 0 0 0 0 190.40377488537524 73.063290280965987 0 73.063290280965987 46.60193361439633 0 0 0 0 181.92009358717769 23.960916629310304 0 23.960916629310304 65.661161381782676 0 0 0 0 206.70837105779356 41.475505434908882 0 41.475505434908882 61.423450718394633 0 0 0 0 217.51700422809517 35.560523458610533 0 35.560523458610533 138.75080475643335 0 0 0 0 211.90745517461619 20.675398893206875 0 20.675398893206875 110.81284403054383 0 0 0 0 213.92116239936877 69.206553316765394 0 69.206553316765394 52.676645022685989 0 0 0 0 242.19763329508714 111.76146504422559 0 111.76146504422559 116.51042001585506 0 0 0 0 276.14404019045469 104.16368385102396 0 104.16368385102396 26.369085055953747 0 0 0 0 243.93537836603355 68.469376288395324 0 68.469376288395324 -8.1935506279969559 0 0 0 0 233.03184330303884 75.981715612787525 0 75.981715612787525 -6.4037671943833629 0 0 0 0 13.40296632548052 0.32280962029904003 0 0.32280962029904003 0.48323042558695306 0 0 0 0 336.45652156445067 107.54492328115418 0 107.54492328115418 -14.31308252684812 0 0 0 0 -0.75369662707158813 -2.4590599147246621 0 -2.4590599147246621 2.1724924895407831 0 0 0 0 45.715767781784962 63.289276854242871 0 63.289276854242871 79.961226509233711 0 0 0 0 268.02582625663854 129.99299982097784 0 129.99299982097784 133.6091434893915 0 0 0 0 216.65190066143987 19.291996333993666 0 19.291996333993666 240.80955177568285 0 0 0 0 313.49876431096345 -78.008267383445855 0 -78.008267383445855 153.17815886868266 0 0 0 0 376.61357907796628 -9.7064527221336903 0 -9.7064527221336903 45.171971631425549 0 0 0 0 316.83619343672763 63.484407822357753 0 63.484407822357753 41.488873965796301 0 0 0 0 1.9540123444374231 1.8546829684264701 0 1.8546829684264701 0.4361936030107838 0 0 0 0 92.41318070259149 103.10751189445273 0 103.10751189445273 50.832707735213262 0 0 0 0 40.221916586859152 -29.424649821618004 0 -29.424649821618004 5.6700090592617016 0 0 0 0 54.785614253618405 -6.1580027790232634 0 -6.1580027790232634 0.70507785627955855 0 0 0 0 85.795788859199092 15.326747075069761 0 15.326747075069761 10.704659703288371 0 0 0 0 71.260384484929091 23.976798839083358 0 23.976798839083358 35.169711627280776 0 0 0 0 99.377672382819583 25.000712881489108 0 25.000712881489108 11.493935596381561 0 0 0 0 144.60620210106379 6.3185531887543505 0 6.3185531887543505 19.133981429558844 0 0 0 0 161.86335976428245 34.783246480229309 0 34.783246480229309 0.40870489975168312 0 0 0 0 99.463327167453826 24.491514585712594 0 24.491514585712594 13.14221322747926 0 0 0 0 65.313381578947883 33.665133408601832 0 33.665133408601832 11.413924912694256 0 0 0 0 35.786784538882785 20.070875928489841 0 20.070875928489841 4.042964905633653 0 0 0 0 95.385613449513585 21.347073842224802 0 21.347073842224802 -10.869194773626077 0 0 0 0 92.683719237647892 34.193558046758426 0 34.193558046758426 6.0577491466622178 0 0 0 0 151.90368543484965 54.745733495880813 0 54.745733495880813 -3.1684034328100097 0 0 0 0 127.23973726567056 17.710104263749145 0 17.710104263749145 -0.69534488760183422 0 0 0 0 59.760287490218616 45.602896592421331 0 45.602896592421331 19.937313098425875 0 0 0 0 57.287788693756738 -12.386411732404895 0 -12.386411732404895 -34.672631094953886 0 0 0 0 17.142922835264471 10.208083709305811 0 10.208083709305811 -82.146796329724054 0 0 0 0 32.668655731618628 -24.473228848221183 0 -24.473228848221183 -37.042738925603771 0 0 0 0 11.712931955400563 10.041737648310118 0 10.041737648310118 -2.9904487371181858 0 0 0 0 13.453854356550437 -23.777776070639902 0 -23.777776070639902 -3.1833730190783172 0 0 0 0 56.941925690338394 -156.28681904849822 0 -156.28681904849822 -57.723314885153854 0 0 0 0 1.6567413327902614 -84.125356748502099 0 -84.125356748502099 -94.621013103881779 0 0 0 0 6.7194599237345187 -3.4298133268799553 0 -3.4298133268799553 1.2121646440929146 0 0 0 0 151.76931097112538 -60.633520284418182 0 -60.633520284418182 -42.679561626079703 0 0 0 0 112.60791422519833 -10.930741856008694 0 -10.930741856008694 -53.403655732183324 0 0 0 0 154.40627192558168 46.652395394945188 0 46.652395394945188 -29.007501082208478 0 0 0 0 -59.538708967997081 -30.312107999399473 0 -30.312107999399473 25.145989790336785 0 0 0 0 140.37997139329673 14.777580122263203 0 14.777580122263203 -27.279505526684602 0 0 0 0 15.469591847289848 71.146193628040976 0 71.146193628040976 -9.6807114348475807 0 0 0 0 -40.420313421160245 -90.946789206161966 0 -90.946789206161966 -51.463096240240304 0 0 0 0 63.316824887286202 7.7582063064354543 0 7.7582063064354543 6.0268553846004238 0 0 0 0 33.182600546464528 53.287821947686325 0 53.287821947686325 -53.868404595542046 0 0 0 0 95.381581865143744 -8.538451034664682 0 -8.538451034664682 -27.371639945120023 0 0 0 0 95.617921960139938 -7.9819020696659209 0 -7.9819020696659209 -133.61154022573893 0 0 0 0 88.656931711702782 22.619173660793422 0 22.619173660793422 -27.266777149900008 0 0 0 0 99.910346971839317 57.147633179226887 0 57.147633179226887 -63.824471036083651 0 0 0 0 95.199339465310914 35.635444286455368 0 35.635444286455368 -19.208354341967606 0 0 0 0 137.09030822468048 18.441689471895415 0 18.441689471895415 -36.967092883343412 0 0 0 0 141.59452931994747 28.78945865649257 0 28.78945865649257 -28.896091034474921 0 0 0 0 141.46374204750464 30.693169517345837 0 30.693169517345837 -6.1132479775651518 0 0 0 0 147.64517912322481 56.157246180315269 0 56.157246180315269 32.552716974207215 0 0 0 0 135.36078241282303 34.454765318549335 0 34.454765318549335 27.424988949074759 0 0 0 0 89.527512367317286 33.907090659791436 0 33.907090659791436 24.143953058190164 0 0 0 0 124.49293105708784 56.226159643585561 0 56.226159643585561 32.702267191666692 0 0 0 0 201.99949427500542 42.119529927959775 0 42.119529927959775 -3.956525790464184 0 0 0 0 199.10652334750921 36.173680580014661 0 36.173680580014661 -0.46657853724548204 0 0 0 0 251.87325830516056 31.796395439816479 0 31.796395439816479 -0.10663184721306607 0 0 0 0 157.01724436131553 35.893295420200047 0 35.893295420200047 26.986642597705213 0 0 0 0 203.16338185452332 87.614446597655842 0 87.614446597655842 50.366372460208368 0 0 0 0 222.85515117559044 24.944447235307962 0 24.944447235307962 29.756866700765386 0 0 0 0 315.63579255880904 31.565751460734191 0 31.565751460734191 26.227365708778962 0 0 0 0 244.33239453172428 89.645946682927388 0 89.645946682927388 40.852321125843446 0 0 0 0 245.77583383726596 -6.1949153987980026 0 -6.1949153987980026 107.93587282718363 0 0 0 0 266.27848131443898 -20.577400490280525 0 -20.577400490280525 77.713607813677299 0 0 0 0 290.75031503132777 26.118540826326353 0 26.118540826326353 57.671388846479658 0 0 0 0 288.11236538234516 -31.811373997197734 0 -31.811373997197734 73.291028851859664 0 0 0 0 258.87025975258439 5.4613933138134598 0 5.4613933138134598 33.740487000058238 0 0 0 0 260.01487359594012 -16.22539392218485 0 -16.22539392218485 12.537313396182071 0 0 0 0 233.16063602056238 -0.66611379109508562 0 -0.66611379109508562 7.3351367186514835 0 0 0 0 270.61815576537629 -0.060781303324802138 0 -0.060781303324802138 -0.099145451982622035 0 0 0 0 232.08422529816744 14.86924191034359 0 14.86924191034359 -3.2761922329495974 0 0 0 0 230.68617432790052 8.4206457648274409 0 8.4206457648274409 -19.845321738810526 0 0 0 0 246.97342475296318 -2.0376995598021495 0 -2.0376995598021495 -20.619163614928766 0 0 0 0 220.27844786386413 -4.6950203448755019 0 -4.6950203448755019 -20.522225460117625 0 0 0 0 225.94430518282752 17.853343165443675 0 17.853343165443675 -27.220958176098065 0 0 0 0 193.9221989625803 20.651734913663859 0 20.651734913663859 -34.364324655985001 0 0 0 0 189.85328021745954 3.4529457584039847 0 3.4529457584039847 -31.951735504731914 0 0 0 0 141.46469678546418 24.957704469341024 0 24.957704469341024 -33.835482887858944 0 0 0 0 177.94829723908333 -9.4902682256661137 0 -9.4902682256661137 -51.730926166561858 0 0 0 0 212.3143930574588 -7.6295951611629675 0 -7.6295951611629675 -44.557340590765307 0 0 0 0 215.33739954466 7.3277184830021724 0 7.3277184830021724 -47.839651275926371 0 0 0 0 229.37322469378705 -8.2792451649934264 0 -8.2792451649934264 -61.939386020902816 0 0 0 0 225.81142424552672 -4.8595879581171175 0 -4.8595879581171175 -43.345011552261894 0 0 0 0 228.25575896837108 -15.450518588871091 0 -15.450518588871091 -37.539649219536841 0 0 0 0 234.58389238739619 0.20036891624204145 0 0.20036891624204145 -41.809226595310975 0 0 0 0 220.65549910915433 2.0900244178651519 0 2.0900244178651519 -21.062872083279672 0 0 0 0 232.78076734986632 -22.403247113250288 0 -22.403247113250288 4.2414216477645823 0 0 0 0 234.18551176977053 -8.6314966242625815 0 -8.6314966242625815 73.565027137543439 0 0 0 0 235.19360461244651 -4.2623103639861029 0 -4.2623103639861029 13.233303385820363 0 0 0 0 205.25903793341422 -9.9103906958885091 0 -9.9103906958885091 56.06987412028667 0 0 0 0 212.02170822860353 -8.1844899612888184 0 -8.1844899612888184 -4.9600529413764889 0 0 0 0 194.0833629404442 15.354526094598668 0 15.354526094598668 0.8832754246350305 0 0 0 0 165.38484286690073 -1.5345755702187489 0 -1.5345755702187489 17.456379511041519 0 0 0 0 140.22658014800254 16.912745550322825 0 16.912745550322825 7.9659002838111519 0 0 0 0 218.81822418085358 4.7849841111241176 0 4.7849841111241176 -52.91147372299838 0 0 0 0 233.90932644628629 8.2339296463103437 0 8.2339296463103437 -55.680758668353519 0 0 0 0 180.07083463158051 25.234947057207364 0 25.234947057207364 -39.865434470252694 0 0 0 0 224.01460460924864 51.804490454298559 0 51.804490454298559 -37.343977208074676 0 0 0 0 3.1845280480881115 -1.2896996372932144 0 -1.2896996372932144 0.24426805334395141 0 0 0 0 -191.79261303627572 -39.45387402915685 0 -39.45387402915685 18.956854659193226 0 0 0 0 275.54767545967843 11.370928837445433 0 11.370928837445433 -75.870863333300122 0 0 0 0 234.10854101748555 5.8199186662432112 0 5.8199186662432112 -65.332111718555325 0 0 0 0 227.9035277306466 -0.52635775714270494 0 -0.52635775714270494 -67.998628345522775 0 0 0 0 226.94619687953673 -2.3447887998199803 0 -2.3447887998199803 -60.727822999802243 0 0 0 0 32.247736590004934 -73.125235022051825 0 -73.125235022051825 -30.489483424645059 0 0 0 0 156.69518412172692 -46.3506297738694 0 -46.3506297738694 -53.603254897970146 0 0 0 0 84.740191919350764 -30.868511864351944 0 -30.868511864351944 -34.956075377730258 0 0 0 0 207.1874078460387 -20.212782779503868 0 -20.212782779503868 -71.480842835499971 0 0 0 0 190.07502311247663 -0.79777883703991392 0 -0.79777883703991392 -61.170605390690071 0 0 0 0 245.44848389353137 -10.902360201548618 0 -10.902360201548618 -77.976258572766028 0 0 0 0 233.41212007619833 -48.445329882854395 0 -48.445329882854395 -54.705861906903237 0 0 0 0 48.036495060616289 87.473077743127419 0 87.473077743127419 -46.835417486240971 0 0 0 0 28.965225723572075 33.638825592235889 0 33.638825592235889 -22.618083576394497 0 0 0 0 542.42084552411688 78.978851209347738 0 78.978851209347738 -196.68631661491787 0 0 0 0 70.797814535931138 0.80953377380950575 0 0.80953377380950575 -5.3748273158454909 0 0 0 0 137.15286091939925 -20.403728535922085 0 -20.403728535922085 -61.585898540305209 0 0 0 0 14.720979645810075 5.7532629139187108 0 5.7532629139187108 -43.118138348419251 0 0 0 0 46.172294745790126 -9.4164795590707246 0 -9.4164795590707246 -16.130671533892475 0 0 0 0 3.0100081888841279 5.2802456518607706 0 5.2802456518607706 -2.3249250686174676 0 0 0 0 74.800332993786469 38.272318671513062 0 38.272318671513062 -3.4438733950947267 0 0 0 0 96.889016450639247 -40.502182041550441 0 -40.502182041550441 -9.8265816616068378 0 0 0 0 19.8735839461051 -36.35180244758152 0 -36.35180244758152 12.434887979038479 0 0 0 0 65.07088424513131 -17.260308589761109 0 -17.260308589761109 -25.063542659446739 0 0 0 0 132.83079541539678 -5.0675423428922386 0 -5.0675423428922386 -22.895294443264675 0 0 0 0 91.297928650245012 -60.258387222282977 0 -60.258387222282977 -20.475648798164116 0 0 0 0 113.06262016897199 -15.385034738946672 0 -15.385034738946672 -13.477717188962743 0 0 0 0 -39.224179365146483 81.516403758522301 0 81.516403758522301 63.202218476999974 0 0 0 0 21.001563262406552 16.884090096660625 0 16.884090096660625 -4.4712459677150074 0 0 0 0 13.587943201803682 25.965192392043889 0 25.965192392043889 10.121985740943728 0 0 0 0 23.477011983135071 -25.077423633956755 0 -25.077423633956755 -6.4858659006383732 0 0 0 0 57.633474562611632 -4.688009396045528 0 -4.688009396045528 -3.2004110519287665 0 0 0 0 60.442134387936903 3.6438919035579858 0 3.6438919035579858 -17.881693922502677 0 0 0 0 51.373923760005709 -1.7100156095231682 0 -1.7100156095231682 -8.8903630407496621 0 0 0 0 53.471198255074341 18.871452246800345 0 18.871452246800345 -21.512624029645167 0 0 0 0 65.145035080461241 -1.1160714387124269 0 -1.1160714387124269 0.28655967025200807 0 0 0 0 64.194393025488353 -1.213307290972125 0 -1.213307290972125 -46.231662731122654 0 0 0 0 88.984474891917671 32.023480499119955 0 32.023480499119955 14.415477306088178 0 0 0 0 88.943359012285782 9.4711898494309281 0 9.4711898494309281 -21.52624977297171 0 0 0 0 50.396033363111201 8.357461767209486 0 8.357461767209486 0.032212814403749235 0 0 0 0 50.334694457051455 7.8265599545335931 0 7.8265599545335931 1.8976951098959489 0 0 0 0 41.12715007888437 -2.2318158860684321 0 -2.2318158860684321 -2.5305178615378736 0 0 0 0 65.372442143572698 -14.688166988629405 0 -14.688166988629405 1.5950140548499689 0 0 0 0 46.064653694836124 -30.041132295342891 0 -30.041132295342891 2.4892935823336302 0 0 0 0 110.00380287098733 -48.203156644036596 0 -48.203156644036596 7.6100251439211206 0 0 0 0 6.4196305170431032 -4.8769230576510374 0 -4.8769230576510374 -3.8393916467501179 0 0 0 0 41.617048453681491 -2.5765225232370312 0 -2.5765225232370312 7.4260484983724382 0 0 0 0 81.755305566939569 11.776916918093548 0 11.776916918093548 -4.1659851899416935 0 0 0 0 24.395142963584476 -45.943834533989502 0 -45.943834533989502 7.6335188893426675 0 0 0 0 18.501489138917364 -27.831073837003757 0 -27.831073837003757 -11.999071506620739 0 0 0 0 112.46416796861013 -12.864291976226824 0 -12.864291976226824 -44.992194395687278 0 0 0 0 112.14559430346708 -10.191610969037754 0 -10.191610969037754 -33.875636560207113 0 0 0 0 107.2722638606665 -44.04412894520685 0 -44.04412894520685 -7.2943717191974429 0 0 0 0 -0.45251392697664272 -6.0044411484152223 0 -6.0044411484152223 -0.25661820709141292 0 0 0 0 58.198759013679592 -81.637246004167309 0 -81.637246004167309 44.552024351236923 0 0 0 0 119.91673457116667 -47.950639163718279 0 -47.950639163718279 -25.261240034902585 0 0 0 0 43.811077387139449 -33.267790016325876 0 -33.267790016325876 51.10660576649218 0 0 0 0 102.05693712786751 8.0938050090238107 0 8.0938050090238107 -11.764840166472823 0 0 0 0 45.454686986779052 -20.225562012288719 0 -20.225562012288719 -24.777128452345096 0 0 0 0 92.041517945865053 -12.315675169001679 0 -12.315675169001679 -64.585450444570597 0 0 0 0 58.440574495445617 -25.742194731124073 0 -25.742194731124073 -30.018563187848713 0 0 0 0 53.924339008051902 16.206848784633166 0 16.206848784633166 19.061635405013249 0 0 0 0 59.112424737522815 2.5152574846624702 0 2.5152574846624702 -63.504377894439131 0 0 0 0 35.814243896775409 0.70039472803981084 0 0.70039472803981084 -3.3537981526565845 0 0 0 0 76.466510152804403 -7.908539930506322 0 -7.908539930506322 -86.136517885642206 0 0 0 0 36.568633526916528 7.273428072644947 0 7.273428072644947 -30.650061873195682 0 0 0 0 27.249260942454086 -13.983839934927747 0 -13.983839934927747 -11.468476431788378 0 0 0 0 22.71975601714837 -6.3987446461527924 0 -6.3987446461527924 -11.283244168646938 0 0 0 0 16.612885068358263 -6.1393325484363288 0 -6.1393325484363288 -6.8783111852456704 0 0 0 0 -5.3217053258558735 -25.808833551524003 0 -25.808833551524003 20.362046518155239 0 0 0 0 3.8362343155531562 -9.7374111977223947 0 -9.7374111977223947 -10.069297597739819 0 0 0 0 -217.07805025629932 439.34700282971176 0 439.34700282971176 679.89826207309738 0 0 0 0 -111.61353270873951 -227.6394602072703 0 -227.6394602072703 457.70660625040091 0 0 0 0 2.3534673738453051 -5.3143084451493809 0 -5.3143084451493809 -1.9429993011527611 0 0 0 0 155.63318485529453 -71.964827884075476 0 -71.964827884075476 -28.824618798746314 0 0 0 0 95.395586858867318 -85.586518000668548 0 -85.586518000668548 51.241258573160508 0 0 0 0 168.15131031344936 -72.588653104422633 0 -72.588653104422633 -33.631295812109556 0 0 0 0 166.50077719233286 -15.948646779463882 0 -15.948646779463882 -35.062480263937232 0 0 0 0 -8.2488194331864833 -3.989982449651535 0 -3.989982449651535 2.4656014708111336 0 0 0 0 131.71204478841173 -48.581261190283385 0 -48.581261190283385 6.7259025096745972 0 0 0 0 39.513517960066565 -27.3866100514756 0 -27.3866100514756 -41.05453554891028 0 0 0 0 61.002933215194389 -26.210198881757378 0 -26.210198881757378 -45.287103732896867 0 0 0 0 49.253389090183191 9.6839985310091379 0 9.6839985310091379 -140.44784634253301 0 0 0 0 25.767606880080493 4.0323200528333087 0 4.0323200528333087 0.69249511287664234 0 0 0 0 32.954349184734383 3.4069590693688951 0 3.4069590693688951 -34.323709391623652 0 0 0 0 -10.54676848409872 -0.0074304982590547297 0 -0.0074304982590547297 -55.498345687338315 0 0 0 0 58.755213758707214 -1.4351818789926938 0 -1.4351818789926938 -58.04042067638693 0 0 0 0 31.904848492687961 -39.972496372200567 0 -39.972496372200567 -23.707078658730552 0 0 0 0 44.758161239882611 -30.849791150438364 0 -30.849791150438364 -18.240491817928159 0 0 0 0 22.542124465899178 -36.606442239333319 0 -36.606442239333319 -91.949365409059283 0 0 0 0 36.595178919324098 -42.400280556927783 0 -42.400280556927783 -33.047055083322675 0 0 0 0 3.4486995439219754 -9.9338492459673944 0 -9.9338492459673944 -32.949255237306659 0 0 0 0 20.362506557912639 -56.245604560759446 0 -56.245604560759446 7.5822952789675924 0 0 0 0 14.339426446319521 -37.494490647836543 0 -37.494490647836543 39.703733922963465 0 0 0 0 17.877510474152587 -30.9705829644804 0 -30.9705829644804 14.215969154036657 0 0 0 0 29.623375489107275 -47.556927413791897 0 -47.556927413791897 15.694494466079878 0 0 0 0 45.56225764653027 -34.777313404756995 0 -34.777313404756995 23.799932695423877 0 0 0 0 26.518026152927632 -20.396417621719806 0 -20.396417621719806 18.817075671700678 0 0 0 0 25.254240120225404 -22.83871798236504 0 -22.83871798236504 53.336175242662193 0 0 0 0 27.114630641779513 -31.046613387623296 0 -31.046613387623296 36.098222089335849 0 0 0 0 29.438603433573007 -44.870404279235032 0 -44.870404279235032 80.362365455882184 0 0 0 0 83.773024054715279 -8.0817070715518113 0 -8.0817070715518113 63.156030505749754 0 0 0 0 94.474584685161972 -45.607102339406481 0 -45.607102339406481 174.45131276063259 0 0 0 0 220.27161434413938 -62.863389859516332 0 -62.863389859516332 61.179654990791391 0 0 0 0 96.713090248653316 -19.708609474192144 0 -19.708609474192144 -27.032371761258446 0 0 0 0 99.134758851943843 15.188751904187711 0 15.188751904187711 12.918531044697602 0 0 0 0 130.99498090366069 87.117062797409517 0 87.117062797409517 -50.347021038252478 0 0 0 0 31.444825911128646 -17.244605215460183 0 -17.244605215460183 -14.977208301281308 0 0 0 0 51.552440613379986 -56.789316111482698 0 -56.789316111482698 38.431407045285084 0 0 0 0 96.685980968159129 181.0427243539275 0 181.0427243539275 152.53452511337076 0 0 0 0 14.915146828661818 121.47437973311366 0 121.47437973311366 110.50054328744341 0 0 0 0 118.25332919131324 184.05965109837621 0 184.05965109837621 83.73681401317873 0 0 0 0 325.87297893248433 139.63539687669385 0 139.63539687669385 25.807094791124655 0 0 0 0 102.14331281828709 90.13405081932666 0 90.13405081932666 2.151689791033732 0 0 0 0 132.41568743459356 72.598719294836883 0 72.598719294836883 8.2309819352606155 0 0 0 0 105.80138736461231 61.579366144018195 0 61.579366144018195 -32.02922424436872 0 0 0 0 107.03567770797599 59.695305776291207 0 59.695305776291207 -51.587004696833901 0 0 0 0 33.354875025994261 114.32161364847389 0 114.32161364847389 55.784713509952553 0 0 0 0 -6.0191114093759097 166.32882077875388 0 166.32882077875388 78.183339849726508 0 0 0 0 -46.251537592574095 63.844283564482225 0 63.844283564482225 24.191918310319124 0 0 0 0 43.697253714341059 130.59979551665765 0 130.59979551665765 45.906571523108823 0 0 0 0 -648.47083488099452 -124.44906477219774 0 -124.44906477219774 93.959251748674433 0 0 0 0 -224.86150002136128 -40.326132368687468 0 -40.326132368687468 35.22187431401602 0 0 0 0 -82.960304066862591 22.653358117910557 0 22.653358117910557 37.33857753117627 0 0 0 0 -198.72250869327036 130.21380107627078 0 130.21380107627078 72.419811808596023 0 0 0 0 135.59678992730187 43.85796946454775 0 43.85796946454775 -48.759841883741615 0 0 0 0 -25.663028414426662 47.405502737965435 0 47.405502737965435 31.430338351823593 0 0 0 0 24.458574033658806 -48.393135215412713 0 -48.393135215412713 -116.0528316592081 0 0 0 0 282.37524871265487 -41.788760958983858 0 -41.788760958983858 -136.67191158923197 0 0 0 0 442.97302916513581 129.11474286080374 0 129.11474286080374 -175.03029901487571 0 0 0 0 -56.840001803924679 -292.28133617748881 0 -292.28133617748881 -285.3831367128987 0 0 0 0 665.15792959074315 -156.01075210937779 0 -156.01075210937779 -321.68187945394516 0 0 0 0 -14.188885944953654 -816.73416069781433 0 -816.73416069781433 -512.42941714696281 0 0 0 0 241.77309861345566 139.34953963978023 0 139.34953963978023 -110.5329248677283 0 0 0 0 185.10645223309984 55.963196218022858 0 55.963196218022858 -183.81285406860957 0 0 0 0 199.79742627207088 86.843073167635566 0 86.843073167635566 -119.20157844832738 0 0 0 0 110.78607364011987 88.641539569955967 0 88.641539569955967 -55.541711499878602 0 0 0 0 128.72999331632309 66.53779098123141 0 66.53779098123141 -113.51106726605121 0 0 0 0 59.060365366018232 63.619356616342657 0 63.619356616342657 -75.620451769555984 0 0 0 0 120.76923502195768 65.840747960861904 0 65.840747960861904 -76.802121781222922 0 0 0 0 115.53816220842054 133.550627924526 0 133.550627924526 -110.4262825118185 0 0 0 0 -97.46022798645572 93.819189548475151 0 93.819189548475151 -55.228218614813159 0 0 0 0 114.06906988944684 132.4361662636702 0 132.4361662636702 -99.269093644672012 0 0 0 0 5.0676782995763148 2.2851273778233541 0 2.2851273778233541 0.25737520134230341 0 0 0 0 18.692652675081675 6.146258747760875 0 6.146258747760875 1.6900561371824798 0 0 0 0 98.077157033396361 -116.7740101977729 0 -116.7740101977729 115.8825600061617 0 0 0 0 522.26551325450419 149.48863469894059 0 149.48863469894059 -179.07918592428541 0 0 0 0 133.33521787606151 -100.87068829072268 0 -100.87068829072268 104.35410890456592 0 0 0 0 106.95882934716064 -106.48970177766569 0 -106.48970177766569 103.15754831749746 0 0 0 0 155.49873422504606 -122.52220143451564 0 -122.52220143451564 23.731727005997527 0 0 0 0 177.66320829505275 -132.75772951561521 0 -132.75772951561521 79.69885021344453 0 0 0 0 130.40468108204732 -106.00868186700541 0 -106.00868186700541 79.133117497351122 0 0 0 0 177.85753549146466 -129.11050243660338 0 -129.11050243660338 -13.371920460358979 0 0 0 0 146.07727473591513 -111.82019310727264 0 -111.82019310727264 236.09072431427558 0 0 0 0 68.741417326702503 -95.601399140376088 0 -95.601399140376088 434.10878139362467 0 0 0 0 148.81827809174138 -48.389612264313655 0 -48.389612264313655 253.39423664595506 0 0 0 0 41.533156638211949 -53.923435131128826 0 -53.923435131128826 -52.352695085114192 0 0 0 0 -3.3925942790738191 14.100104391284276 0 14.100104391284276 -94.395558460886377 0 0 0 0 33.974725596399367 27.173675411240666 0 27.173675411240666 -59.243970865563824 0 0 0 0 -20.629182548796962 99.417355869510629 0 99.417355869510629 -61.164409453949702 0 0 0 0 -13.419515575478727 -43.044457407028858 0 -43.044457407028858 -106.54339543273636 0 0 0 0 72.259891694473481 -58.250231408929267 0 -58.250231408929267 -88.393714364165135 0 0 0 0 15.527067786202679 18.356409146546412 0 18.356409146546412 -30.977949720351262 0 0 0 0 15.407636308391375 -20.833109386975593 0 -20.833109386975593 1.3975709883088712 0 0 0 0 58.662914866812571 0.43992064976328038 0 0.43992064976328038 -213.39895383520798 0 0 0 0 15.842997703455296 2.6437326537976151 0 2.6437326537976151 0.13197659720208099 0 0 0 0 65.52687221081942 -22.974502555630352 0 -22.974502555630352 -0.48655098172093858 0 0 0 0 22.704324219868795 13.210822897314415 0 13.210822897314415 11.823127068648319 0 0 0 0 23.760559753864072 26.498098516760137 0 26.498098516760137 4.5971809900120206 0 0 0 0 76.02446869780033 -20.939110826855085 0 -20.939110826855085 -11.426081629429973 0 0 0 0 133.26075926711928 -18.300161102169113 0 -18.300161102169113 -13.621886864736098 0 0 0 0 22.776018767434493 7.5895253015757067 0 7.5895253015757067 2.0862928496462878 0 0 0 0 48.945978649648168 17.176280227816278 0 17.176280227816278 -91.306401022814214 0 0 0 0 69.778238233397133 -11.97916338594041 0 -11.97916338594041 -4.4859366507080267 0 0 0 0 49.985384036754112 -27.190142680445433 0 -27.190142680445433 25.269473311031106 0 0 0 0 75.0649673551452 -76.083673803655529 0 -76.083673803655529 113.31862192983738 0 0 0 0 114.47316885141845 -52.461823527704382 0 -52.461823527704382 -25.00627513556492 0 0 0 0 102.94696722178924 -82.668082145462904 0 -82.668082145462904 26.582305712243397 0 0 0 0 129.30936736899457 -92.509335963321064 0 -92.509335963321064 1.0266584818809861 0 0 0 0 114.21984695664287 -63.710497418762316 0 -63.710497418762316 -3.211781134268108 0 0 0 0 110.30147135903098 -48.647761815919694 0 -48.647761815919694 6.9570100841183375 0 0 0 0 154.45954689547943 -80.00135580698543 0 -80.00135580698543 -49.416157939894219 0 0 0 0 118.8934623118912 -70.922874279686766 0 -70.922874279686766 -16.866811424915795 0 0 0 0 115.06000428223342 -87.373161999315016 0 -87.373161999315016 22.33396504546306 0 0 0 0 126.69553053317941 -57.433102906157728 0 -57.433102906157728 -48.068156946545969 0 0 0 0 80.043429331672087 -36.403537053847685 0 -36.403537053847685 -42.869648691533257 0 0 0 0 88.936484824411309 -52.901600885350945 0 -52.901600885350945 7.8932230693908423 0 0 0 0 24.510736991927843 -0.33241266540426295 0 -0.33241266540426295 -33.187259147011332 0 0 0 0 110.20836458628037 -37.444942345780646 0 -37.444942345780646 -17.624705924559748 0 0 0 0 110.82756665789566 -41.196947647609932 0 -41.196947647609932 -11.503152409991344 0 0 0 0 128.90887853280037 -48.339345167540046 0 -48.339345167540046 -21.653797167022276 0 0 0 0 115.3732495630793 -69.129065564442953 0 -69.129065564442953 5.234255628239282 0 0 0 0 -28.597644195258908 49.738348767068828 0 49.738348767068828 -29.486194387597152 0 0 0 0 6.3539345033504731 4.1511987421781207 0 4.1511987421781207 2.649615234867631 0 0 0 0 -36.414082070605218 41.823914766361668 0 41.823914766361668 -29.404531982486542 0 0 0 0 -24.477937954819936 54.500489125611466 0 54.500489125611466 -21.619066388757346 0 0 0 0 -29.279072496858134 32.700982777332115 0 32.700982777332115 -17.741565090505901 0 0 0 0 216.13807893308694 -132.5711956522232 0 -132.5711956522232 -95.123489799015601 0 0 0 0 -29.746566153276945 34.324929418126885 0 34.324929418126885 17.726554547331034 0 0 0 0 1.8502256187555304 1.2700757059325731 0 1.2700757059325731 1.1954450354935044 0 0 0 0 158.62375310443531 -181.05694666715453 0 -181.05694666715453 146.91599139845243 0 0 0 0 99.730634019573699 56.891821072922085 0 56.891821072922085 69.395307950142069 0 0 0 0 78.198861685617885 20.752084790083245 0 20.752084790083245 10.524707861974775 0 0 0 0 72.183703586088086 9.8930442588879259 0 9.8930442588879259 5.9047995073196944 0 0 0 0 -0.59339083029880157 0.37453178014621358 0 0.37453178014621358 -0.29387224680818846 0 0 0 0 85.583559002945549 34.453324463474019 0 34.453324463474019 -61.222737414147701 0 0 0 0 84.250272222525382 40.510403434087493 0 40.510403434087493 -61.712516980924306 0 0 0 0 110.9159914512602 44.69630220783904 0 44.69630220783904 -63.028063087617738 0 0 0 0 110.16073128877906 37.091871346616699 0 37.091871346616699 -66.122150577631146 0 0 0 0 100.31778747441422 44.655644503018493 0 44.655644503018493 -68.253951310207412 0 0 0 0 109.90373591320531 41.342112005334911 0 41.342112005334911 -68.558485181388278 0 0 0 0 109.91236111749095 41.513974770684854 0 41.513974770684854 -68.04647662122261 0 0 0 0 76.08467504534201 46.733071014132292 0 46.733071014132292 -58.455568596813379 0 0 0 0 86.646832930182427 53.164649604920214 0 53.164649604920214 -65.348616265544479 0 0 0 0 65.614001715974155 50.964257169840039 0 50.964257169840039 -58.588232818662618 0 0 0 0 44.006748679026714 64.166542060609345 0 64.166542060609345 -53.285581635302151 0 0 0 0 34.331995894557622 52.166188489161414 0 52.166188489161414 -45.054805281642984 0 0 0 0 11.514807473824476 49.942888593386215 0 49.942888593386215 -42.304275079351555 0 0 0 0 15.581622559060634 64.018415330735934 0 64.018415330735934 -40.057358426720839 0 0 0 0 2.2123409226333024 64.857701759716292 0 64.857701759716292 -36.534397075561628 0 0 0 0 -16.255607428422081 47.284781159895829 0 47.284781159895829 -31.703819851425578 0 0 0 0 -29.27280324142771 38.442682993924137 0 38.442682993924137 -31.589803536976433 0 0 0 0 -5.3396239559660899 50.708242056819017 0 50.708242056819017 -31.704298292493323 0 0 0 0 5.1645355415530503 36.110098611762737 0 36.110098611762737 -41.817858993250411 0 0 0 0 5.6183978348708479 43.386303250106494 0 43.386303250106494 -41.02209265191027 0 0 0 0 40.863960758175381 34.80072072169628 0 34.80072072169628 -49.323473471125453 0 0 0 0 29.660646776777867 50.798566393294323 0 50.798566393294323 -45.224876145694452 0 0 0 0 51.484400715839001 39.36016574609539 0 39.36016574609539 -52.191448224238684 0 0 0 0 19.500406933104387 32.89299056683285 0 32.89299056683285 -42.106134072570057 0 0 0 0 20.14804628571892 35.847216417484844 0 35.847216417484844 -52.831319887399331 0 0 0 0 2.955146205533417 0.16511692008968737 0 0.16511692008968737 -1.1890082762551586 0 0 0 0 -28.77811922600813 60.464408307016811 0 60.464408307016811 -35.773258510413257 0 0 0 0 51.019817543427052 21.960826969926529 0 21.960826969926529 -49.751561336799568 0 0 0 0 19.732375171210151 36.71415597489613 0 36.71415597489613 -43.078433464339923 0 0 0 0 15.259036401461344 37.691489285933812 0 37.691489285933812 -44.590410524575077 0 0 0 0 9.4021858415121642 7.4636863635917798 0 7.4636863635917798 5.1149131505313523 0 0 0 0 39.710124566263403 72.672504767107966 0 72.672504767107966 -180.30967253232393 0 0 0 0 -0.41656198764394503 34.411512617356721 0 34.411512617356721 -45.164107049442464 0 0 0 0 10.660399803909513 77.946920632708554 0 77.946920632708554 -87.306596649718813 0 0 0 0 116.02688969506562 10.935345462768964 0 10.935345462768964 -131.5901528723316 0 0 0 0 100.95138644160761 -11.352650493903639 0 -11.352650493903639 -101.05902301446986 0 0 0 0 83.316931562869286 35.213736377476835 0 35.213736377476835 -173.70392924329281 0 0 0 0 22.19339541651425 -4.5023004613540252 0 -4.5023004613540252 -220.28258437619661 0 0 0 0 -82.831281125720125 -39.499881840249145 0 -39.499881840249145 -230.04420911443231 0 0 0 0 78.642964667262277 21.787212911269307 0 21.787212911269307 -210.68358402698868 0 0 0 0 -25.790095080024912 5.4631764249479602 0 5.4631764249479602 -165.65984080892667 0 0 0 0 -118.17156421791879 -27.4116839527087 0 -27.4116839527087 -126.48364213438254 0 0 0 0 -112.82907546055503 -80.017539242351631 0 -80.017539242351631 -214.56046062562746 0 0 0 0 36.495183218197781 -15.253660935830339 0 -15.253660935830339 -133.50868787707259 0 0 0 0 29.396810488062329 -24.683446885399462 0 -24.683446885399462 -59.348838724710731 0 0 0 0 34.198873753193766 -36.83660277697345 0 -36.83660277697345 -192.6523374788826 0 0 0 0 46.326584232912865 -6.035287368864374 0 -6.035287368864374 -117.85204053257257 0 0 0 0 121.11388186641852 -77.40060532379448 0 -77.40060532379448 -44.958680895017096 0 0 0 0 125.59960795546067 -39.312952307253909 0 -39.312952307253909 -140.71679707177236 0 0 0 0 148.81209278521419 -40.792956463055816 0 -40.792956463055816 -121.58381760751581 0 0 0 0 54.013561067415139 22.241387663461296 0 22.241387663461296 -31.829964800091147 0 0 0 0 46.481951534937252 12.454106043009915 0 12.454106043009915 -32.597860218484129 0 0 0 0 25.210586672736099 -4.8511965769041581 0 -4.8511965769041581 -13.088891266130304 0 0 0 0 44.656415031233337 1.3908474714025942 0 1.3908474714025942 -11.341126711451579 0 0 0 0 -22.138958081872261 5.9102511912726641 0 5.9102511912726641 -11.978532479963178 0 0 0 0 -343.89787984511349 -114.36394847888369 0 -114.36394847888369 -195.95685285888794 0 0 0 0 31.872949849486758 -14.858768883356333 0 -14.858768883356333 -17.022112916540209 0 0 0 0 33.362682610633783 -14.618172221529676 0 -14.618172221529676 -17.074261351988525 0 0 0 0 -525.88717966572585 32.113138704894027 0 32.113138704894027 -12.381254622356209 0 0 0 0 -176.19969082597527 -17.53694709402771 0 -17.53694709402771 -154.68870197763681 0 0 0 0 -253.577081313706 -88.835053087637789 0 -88.835053087637789 -190.9730378549757 0 0 0 0 -455.8091054779652 -92.862522175095364 0 -92.862522175095364 -117.87889615440508 0 0 0 0 -379.15123489013058 -10.715267517136454 0 -10.715267517136454 -77.96841552042315 0 0 0 0 -314.27764865694917 -22.42363343170291 0 -22.42363343170291 -80.914069449500857 0 0 0 0 -125.07787969632773 -44.265603528563588 0 -44.265603528563588 -154.47828631114817 0 0 0 0 -268.93099052058824 33.477078834952408 0 33.477078834952408 -67.211538766965532 0 0 0 0 -281.81732104643015 18.244854974356713 0 18.244854974356713 -59.691629564561481 0 0 0 0 -107.34185907593928 66.033993521105003 0 66.033993521105003 -55.787954280458507 0 0 0 0 -417.01300442516367 115.21790028093255 0 115.21790028093255 -17.839445097131829 0 0 0 0 -263.007880175026 151.58044655570382 0 151.58044655570382 -19.215434604924667 0 0 0 0 -216.34823524145759 142.30888866863825 0 142.30888866863825 -17.533706980868374 0 0 0 0 45.652644266956486 -8.0973459844772151 0 -8.0973459844772151 -13.825150867127377 0 0 0 0 53.320006478468713 4.0397259842075073 0 4.0397259842075073 -12.223454070553998 0 0 0 0 57.501196008073748 -1.5069318829944223 0 -1.5069318829944223 -6.3568832751980153 0 0 0 0 66.558305915645178 13.228953357102 0 13.228953357102 -14.425529156484117 0 0 0 0 82.643162219537771 23.933885580058814 0 23.933885580058814 -24.484579996282548 0 0 0 0 87.515271691183443 0.87831391573558903 0 0.87831391573558903 -7.4299155642793266 0 0 0 0 119.52531458405429 20.308188187793803 0 20.308188187793803 -24.155766022079774 0 0 0 0 125.0054742833745 27.874616010854197 0 27.874616010854197 -44.873996053941028 0 0 0 0 84.870585107790248 6.7138700217528822 0 6.7138700217528822 -25.614639226592317 0 0 0 0 86.484032718573872 25.345598186594316 0 25.345598186594316 -55.250802211217433 0 0 0 0 83.877008496008784 27.807774962584915 0 27.807774962584915 -43.139633002082974 0 0 0 0 66.762514025438577 23.576636298523681 0 23.576636298523681 -52.455096452359612 0 0 0 0 52.691068777012333 32.735343123283911 0 32.735343123283911 -49.115598153344763 0 0 0 0 118.82093024668575 39.351138386654384 0 39.351138386654384 -59.413931140474688 0 0 0 0 99.440206836647121 29.630539910550397 0 29.630539910550397 -59.67218135208941 0 0 0 0 116.32979499635985 37.053644643768166 0 37.053644643768166 -60.224042326728238 0 0 0 0 109.81831336777759 43.129364106414414 0 43.129364106414414 -43.928637569004422 0 0 0 0 136.61960368205837 49.129583826066664 0 49.129583826066664 -46.143286801983777 0 0 0 0 116.1019267464435 36.475528257702194 0 36.475528257702194 -30.765631770977507 0 0 0 0 162.37820723322511 48.726556667167415 0 48.726556667167415 -29.158040765613748 0 0 0 0 139.64258220864212 55.254030196363487 0 55.254030196363487 -8.7905197232992123 0 0 0 0 209.80457513930014 56.692161561260605 0 56.692161561260605 -8.9579280565863684 0 0 0 0 199.4580825647663 56.743687527263177 0 56.743687527263177 13.682035494298589 0 0 0 0 121.93102807630203 6.940027057612042 0 6.940027057612042 -7.3755695593631572 0 0 0 0 55.125544237547729 8.3930155899729471 0 8.3930155899729471 28.6378719492443 0 0 0 0 143.58823506464614 6.2856412126670875 0 6.2856412126670875 -20.369861669422789 0 0 0 0 89.652730535279261 13.616751952424465 0 13.616751952424465 -6.7143634882322658 0 0 0 0 124.44552545389161 -0.84147985564777628 0 -0.84147985564777628 -3.8537418603459628 0 0 0 0 75.898504299817432 -45.511913580657279 0 -45.511913580657279 66.351046527992366 0 0 0 0 56.662475639910554 -15.664320697650169 0 -15.664320697650169 47.201070214970741 0 0 0 0 173.18672793571022 -0.11293255604823571 0 -0.11293255604823571 -6.9221848064256051 0 0 0 0 135.38658394796948 -67.820937495667408 0 -67.820937495667408 66.347455206879658 0 0 0 0 242.91097230390005 -31.694699218536698 0 -31.694699218536698 -1.7802207020999958 0 0 0 0 -540.57925738062477 -156.00676953485004 0 -156.00676953485004 419.09946007117958 0 0 0 0 273.49054072630679 -111.86555355053679 0 -111.86555355053679 70.025869926473575 0 0 0 0 1.2779726665417286 2.9558130957596447 0 2.9558130957596447 6.3514327440292107 0 0 0 0 568.09481000085361 -75.157404519538659 0 -75.157404519538659 -19.321614300323375 0 0 0 0 268.38594995161839 78.943848134456516 0 78.943848134456516 33.68126519284499 0 0 0 0 252.77661789854847 172.57391643948625 0 172.57391643948625 71.371430509025572 0 0 0 0 375.58522817896119 64.291940343070735 0 64.291940343070735 0.96283185362699442 0 0 0 0 62.175612815888599 -248.01400271999591 0 -248.01400271999591 516.63587207478076 0 0 0 0 280.09330350348318 -306.61913776070924 0 -306.61913776070924 236.06529629965593 0 0 0 0 143.19703434403345 -171.4197110252012 0 -171.4197110252012 237.44414883781428 0 0 0 0 179.85681773744 -188.09494753062427 0 -188.09494753062427 182.66010149577778 0 0 0 0 150.88851552427514 -216.56341197820439 0 -216.56341197820439 311.25600342651705 0 0 0 0 179.49318251645309 -87.310667563940115 0 -87.310667563940115 108.68933263333292 0 0 0 0 168.49080879344547 -138.15801097512758 0 -138.15801097512758 50.674315561432195 0 0 0 0 160.74860000841545 -58.454518374233317 0 -58.454518374233317 -35.987670554266515 0 0 0 0 152.03722585962896 -49.710061095998299 0 -49.710061095998299 2.9816472487764258 0 0 0 0 110.98773846836411 -69.549936790471293 0 -69.549936790471293 72.121957451787239 0 0 0 0 116.76652537709742 -95.692631801891366 0 -95.692631801891366 10.195290248126184 0 0 0 0 156.15314900803787 -75.047032663987011 0 -75.047032663987011 -66.362784083778024 0 0 0 0 -115.85397648008075 46.804511742311661 0 46.804511742311661 -49.152941388456384 0 0 0 0 -48.99482174802688 7.8807500766615703 0 7.8807500766615703 -35.066034170058629 0 0 0 0 106.77593904763853 36.689110587793266 0 36.689110587793266 -60.217286156650516 0 0 0 0 152.30997252173984 -66.962545690333627 0 -66.962545690333627 72.21089904199107 0 0 0 0 268.83384684949124 -21.301791085383229 0 -21.301791085383229 -19.192569170641946 0 0 0 0 260.7631135583797 -172.01514741161827 0 -172.01514741161827 70.331474469873854 0 0 0 0 470.98464226545184 -208.90989957933289 0 -208.90989957933289 63.940521255408271 0 0 0 0 -373.40448551336885 407.01301949960805 0 407.01301949960805 -25.823505804184606 0 0 0 0 58.242301475409477 11.728791270459965 0 11.728791270459965 13.105926370127918 0 0 0 0 -198.44353689951822 506.16373073955037 0 506.16373073955037 -104.10520977171473 0 0 0 0 6.1812295308653447 8.1884773853394393 0 8.1884773853394393 9.1638832878229604 0 0 0 0 54.967036848982389 6.0597955126364695 0 6.0597955126364695 4.4461182839991125 0 0 0 0 272.4650601586618 24.46209519347758 0 24.46209519347758 10.82820250786699 0 0 0 0 366.77909730703686 172.44910929178241 0 172.44910929178241 -109.44656310692471 0 0 0 0 17.129816981003387 252.4228816899722 0 252.4228816899722 -64.328023453512287 0 0 0 0 202.7257323734666 243.62383295666541 0 243.62383295666541 -129.44097293721279 0 0 0 0 106.44941606606881 99.860299569318158 0 99.860299569318158 -14.71135695895191 0 0 0 0 9.9063694949581986 53.595911365726352 0 53.595911365726352 -10.227126230541444 0 0 0 0 109.36728292868065 126.09563280522525 0 126.09563280522525 -57.553140635296586 0 0 0 0 -158.53455915687664 137.31598966480487 0 137.31598966480487 -32.486726295413973 0 0 0 0 -59.662468649883522 108.04978179224781 0 108.04978179224781 -58.695619611222355 0 0 0 0 -225.53231900788523 104.44914381374679 0 104.44914381374679 -44.31040150939225 0 0 0 0 -338.25446158013074 216.14452664932287 0 216.14452664932287 7.4787983754995366 0 0 0 0 -83.380232236959273 269.89691225041861 0 269.89691225041861 -31.614913807166886 0 0 0 0 -163.89100339756988 274.55558675073189 0 274.55558675073189 -24.040518439894186 0 0 0 0 -36.902419680329331 286.6096947123774 0 286.6096947123774 -72.057067250607361 0 0 0 0 277.87904216442257 359.82718677573757 0 359.82718677573757 -538.41630606310537 0 0 0 0 -57.554486267472384 539.80860965145075 0 539.80860965145075 -200.42304087669254 0 0 0 0 63.214588935050415 533.55739177352189 0 533.55739177352189 -295.58649641416196 0 0 0 0 162.51806076132925 379.97121742248055 0 379.97121742248055 -105.48893747362854 0 0 0 0 289.86785976377723 23.203202671835243 0 23.203202671835243 -544.04627998293836 0 0 0 0 229.33684502308097 -12.270037597114197 0 -12.270037597114197 -82.913306517499223 0 0 0 0 0.68845518574380549 -203.28187586067429 0 -203.28187586067429 684.43908422496565 0 0 0 0 523.5185499790241 265.3563618959397 0 265.3563618959397 159.57803002970786 0 0 0 0 829.5245173324256 -183.05772863546031 0 -183.05772863546031 -8.9193169246191246 0 0 0 0 335.00053518200002 10.616890840799897 0 10.616890840799897 -42.713900393133372 0 0 0 0 -155.76763965085775 234.67633128090597 0 234.67633128090597 6.0373047074494934 0 0 0 0 262.52758216802613 -442.65357950518501 0 -442.65357950518501 461.05821697491501 0 0 0 0 56.910089411874651 260.77295159280675 0 260.77295159280675 8.6967982586754715 0 0 0 0 6.8886381851251315 3.4972358854645424 0 3.4972358854645424 2.2605073415569716 0 0 0 0 580.97140019003564 -426.97606290947988 0 -426.97606290947988 204.63223582324645 0 0 0 0 234.89029056538129 -258.41338327805261 0 -258.41338327805261 241.40218563373855 0 0 0 0 134.4960900252845 198.53504021970116 0 198.53504021970116 65.501737109262152 0 0 0 0 40.483126328866547 150.28417965896392 0 150.28417965896392 52.964581937284706 0 0 0 0 1.680111456396844 164.6699533874671 0 164.6699533874671 70.608340929275982 0 0 0 0 242.49462559213134 263.83608000019285 0 263.83608000019285 -0.065211114293447281 0 0 0 0 145.08984074591717 110.38740986254103 0 110.38740986254103 15.231877668929997 0 0 0 0 -86.937608849675598 10.775968681847871 0 10.775968681847871 336.31084142401374 0 0 0 0 387.14662931278508 -199.1156784082267 0 -199.1156784082267 257.42660636893652 0 0 0 0 502.06651369929386 129.08848013064016 0 129.08848013064016 -33.818900363256489 0 0 0 0 137.56551760404909 70.864142387727071 0 70.864142387727071 -34.037606203907842 0 0 0 0 162.30644865966769 -3.2991356840121853 0 -3.2991356840121853 -133.92924801226263 0 0 0 0 46.168831678020069 -61.982103607190254 0 -61.982103607190254 -82.638256929995862 0 0 0 0 96.27237053438148 -11.662639342569832 0 -11.662639342569832 -43.764210046196865 0 0 0 0 88.057750102334467 20.836605258421827 0 20.836605258421827 -33.505653332833845 0 0 0 0 197.72546559843431 118.74201351791983 0 118.74201351791983 -11.032224162764209 0 0 0 0 99.797184648152324 47.063456429966664 0 47.063456429966664 -59.081168225607371 0 0 0 0 4.1796835324521453 54.8183649241561 0 54.8183649241561 8.3156909314038785 0 0 0 0 99.868480450590141 126.62963601355955 0 126.62963601355955 61.968198232702434 0 0 0 0 -58.230549572836026 69.080970851376307 0 69.080970851376307 190.7899161372726 0 0 0 0 609.54562718866782 194.18277291808337 0 194.18277291808337 -22.087498274879522 0 0 0 0 1101.47017230856 -56.453100759926201 0 -56.453100759926201 39.969466045129252 0 0 0 0 178.43304606695892 443.02575619586298 0 443.02575619586298 330.45693658893731 0 0 0 0 -349.34153285765933 -105.3953594992513 0 -105.3953594992513 147.60154593610969 0 0 0 0 -1.6808914409725517 -1.6431264734916837 0 -1.6431264734916837 2.8331981468616712 0 0 0 0 -478.92208222301269 45.133778231855445 0 45.133778231855445 209.05683886819043 0 0 0 0 -345.15194953988248 -110.51758162820704 0 -110.51758162820704 61.711846047547169 0 0 0 0 -186.17601312407351 90.109976826063075 0 90.109976826063075 139.43270821222711 0 0 0 0 469.46328081344836 364.24052769815466 0 364.24052769815466 50.106108865154397 0 0 0 0 550.13251320865675 344.95076367946399 0 344.95076367946399 -402.90696796817406 0 0 0 0 -71.143097450796631 -55.589590759422435 0 -55.589590759422435 -256.75420368204618 0 0 0 0 -58.061621363340237 289.24755426030913 0 289.24755426030913 306.78269166689552 0 0 0 0 596.22102640695812 215.99927561257346 0 215.99927561257346 -42.727322126632885 0 0 0 0 -293.68969159759035 -80.204375186424272 0 -80.204375186424272 93.924433524736287 0 0 0 0 -243.12960481700429 -161.14654662314319 0 -161.14654662314319 4.2807943153256929 0 0 0 0 4.8991031398212783 -1.4558588257510081 0 -1.4558588257510081 -0.35998729277365804 0 0 0 0 2.1964235674657857 -1.7142310309667863 0 -1.7142310309667863 0.57254908798823223 0 0 0 0 395.87698287714011 -224.91761250115769 0 -224.91761250115769 -325.10299207914409 0 0 0 0 353.91953244556498 -61.933355513246852 0 -61.933355513246852 -134.84116375117992 0 0 0 0 62.950537449869444 60.804464333522446 0 60.804464333522446 5.3558092107477933 0 0 0 0 265.61999463500251 -68.832756056964627 0 -68.832756056964627 -0.14662720674095908 0 0 0 0 611.42220924891444 -91.161364339692341 0 -91.161364339692341 -309.43295987767806 0 0 0 0 21.243367542425403 -19.018272910643702 0 -19.018272910643702 13.233525139450705 0 0 0 0 141.20114170669694 -230.66546208929947 0 -230.66546208929947 -295.9700292341621 0 0 0 0 8.0287961782860577 -2.854833335998606 0 -2.854833335998606 -0.40656384232055265 0 0 0 0 -64.295399333408568 82.465145810515637 0 82.465145810515637 -42.673900066119643 0 0 0 0 -205.70098027630593 143.46121537315094 0 143.46121537315094 -30.3641652498317 0 0 0 0 114.64325536384422 59.572056858009091 0 59.572056858009091 -95.502341602037745 0 0 0 0 -35.817455685908499 74.509898970384484 0 74.509898970384484 -96.865441136740174 0 0 0 0 -10.326932412725 205.84181066308506 0 205.84181066308506 -143.31160779817765 0 0 0 0 50.577315110014752 108.24494657256173 0 108.24494657256173 -88.368853093669259 0 0 0 0 -16.552515349590067 104.70120244584919 0 104.70120244584919 -42.26752635753337 0 0 0 0 128.65120404567278 57.419724406210207 0 57.419724406210207 -77.349427105897576 0 0 0 0 139.81385643349495 76.595637199085786 0 76.595637199085786 -46.497125420226439 0 0 0 0 139.94295173800037 85.462055895278894 0 85.462055895278894 -40.458944557311952 0 0 0 0 139.3383686314919 42.127076757338273 0 42.127076757338273 -31.159216759077026 0 0 0 0 49.324043636894203 77.7166592679514 0 77.7166592679514 -35.817798045570271 0 0 0 0 63.503117394531728 108.77648811763584 0 108.77648811763584 -90.618325575751896 0 0 0 0 41.422307203523815 103.95309538968559 0 103.95309538968559 -46.865445571092096 0 0 0 0 28.851949331074138 116.29589177582716 0 116.29589177582716 -113.9675556124057 0 0 0 0 76.033935567960725 -56.249479288596717 0 -56.249479288596717 -380.52525410140538 0 0 0 0 1.256769512718634 2.6699549982318196 0 2.6699549982318196 -1.5705399489923209 0 0 0 0 23.548124337889021 66.806823913854487 0 66.806823913854487 274.09484559102032 0 0 0 0 42.612101658072788 93.988911363992656 0 93.988911363992656 -94.493587377643962 0 0 0 0 44.997583018375735 114.81885596088887 0 114.81885596088887 -208.61071663002622 0 0 0 0 309.8526810954354 105.38067044528214 0 105.38067044528214 44.17139466737126 0 0 0 0 420.50303023695596 128.586145594762 0 128.586145594762 -7.4997600341794168 0 0 0 0 36.062492004741216 131.89896040298754 0 131.89896040298754 -114.82233964091711 0 0 0 0 183.73747337516397 239.87971402999824 0 239.87971402999824 -57.373928019390405 0 0 0 0 -59.891616823910681 -1.3956754640934008 0 -1.3956754640934008 -161.35457787381119 0 0 0 0 19.243206126797304 -22.144210705271917 0 -22.144210705271917 -157.7100117087557 0 0 0 0 -54.993607964126568 -92.923507042509527 0 -92.923507042509527 -182.09185360136129 0 0 0 0 0.19217096035885817 0.31706220766946558 0 0.31706220766946558 -5.0761514257225802 0 0 0 0 -29.155397003712096 312.46290225627348 0 312.46290225627348 -165.30819284317386 0 0 0 0 77.88298478195793 121.28184439351639 0 121.28184439351639 -290.78226768047398 0 0 0 0 -124.96700305690501 -389.35542988072007 0 -389.35542988072007 -9.605628145461651 0 0 0 0 -147.35456353685004 302.2156443581539 0 302.2156443581539 -103.67642490744828 0 0 0 0 0.35341806534590248 -0.99767354894557059 0 -0.99767354894557059 -0.54846553947268895 0 0 0 0 550.78050823968806 43.31118925321573 0 43.31118925321573 -85.126032011795587 0 0 0 0 334.72925144522742 11.309358537251683 0 11.309358537251683 -9.1491049085745999 0 0 0 0 198.77641901565949 79.782181040682872 0 79.782181040682872 62.950602472097216 0 0 0 0 97.288883390261617 10.724482104372299 0 10.724482104372299 23.424973884988958 0 0 0 0 243.99078591896978 90.505221397575582 0 90.505221397575582 -15.394239302719924 0 0 0 0 -70.381773548433557 92.544160771676729 0 92.544160771676729 37.484595611389523 0 0 0 0 240.43191370238492 66.413567888394425 0 66.413567888394425 -120.68492969836305 0 0 0 0 344.23386835421479 -49.384235483007842 0 -49.384235483007842 33.038007841063973 0 0 0 0 235.97774182829016 50.890833217294443 0 50.890833217294443 -33.516469293886757 0 0 0 0 1.5495902224366631 -0.11976243457070268 0 -0.11976243457070268 -0.43995611462314965 0 0 0 0 307.19692119437241 127.24533853674961 0 127.24533853674961 -20.307510805094125 0 0 0 0 -41.521329010538466 113.72980254134222 0 113.72980254134222 117.85780210967664 0 0 0 0 -516.46988693297681 -5.0128276842419837 0 -5.0128276842419837 77.757947852413054 0 0 0 0 -29.311373917659239 -23.964988666334087 0 -23.964988666334087 -100.01142906268774 0 0 0 0 -171.04201673178977 6.9448642479156888 0 6.9448642479156888 110.72519391973469 0 0 0 0 103.60003700545167 121.64600741195048 0 121.64600741195048 -76.857559118574727 0 0 0 0 0.95894974488918727 0.26556924080635014 0 0.26556924080635014 -2.2052794269021749 0 0 0 0 2.8007673832454856 -0.01467086999147682 0 -0.01467086999147682 -0.93777268491591848 0 0 0 0 -2.2271113578644872 16.414376187504899 0 16.414376187504899 -32.475421313631387 0 0 0 0 33.789512811650638 232.60497541055315 0 232.60497541055315 97.034109761257241 0 0 0 0 66.270422019919351 41.714164036403872 0 41.714164036403872 17.990629131342757 0 0 0 0 81.323890659678 57.666508983520259 0 57.666508983520259 32.044586238824081 0 0 0 0 97.037389526507468 83.644400609178092 0 83.644400609178092 20.918916986284557 0 0 0 0 156.08434224041594 114.38820217958835 0 114.38820217958835 35.379535410654171 0 0 0 0 90.30838089851386 60.630289276475764 0 60.630289276475764 5.5680799816905164 0 0 0 0 157.72348606149171 75.089599455412781 0 75.089599455412781 -14.784686715357111 0 0 0 0 94.041193906414264 82.993796515757822 0 82.993796515757822 51.737641262026443 0 0 0 0 60.394239109911723 98.646946828499296 0 98.646946828499296 81.182617336951125 0 0 0 0 6.8791103267890037 -0.80578724496161414 0 -0.80578724496161414 -2.119987862064288 0 0 0 0 25.136940377764404 18.967506729718593 0 18.967506729718593 20.795432990182007 0 0 0 0 7.73364580739144 12.924774744413753 0 12.924774744413753 -68.894777493590283 0 0 0 0 497.03923592375213 47.134763049196216 0 47.134763049196216 -189.36048877229715 0 0 0 0 265.91776443501658 242.16814198110052 0 242.16814198110052 90.619828099951064 0 0 0 0 3.41912955058271 2.5330807007172389 0 2.5330807007172389 -1.8230981359784009 0 0 0 0 199.71466120859077 70.149853476287262 0 70.149853476287262 -99.953680222993626 0 0 0 0 112.0690218881864 -47.048432854857779 0 -47.048432854857779 -146.6989586656027 0 0 0 0 59.675634199316846 70.428171963991531 0 70.428171963991531 -50.46539871952848 0 0 0 0 5.5987085532752587 3.5031354930095304 0 3.5031354930095304 -2.6196605303317773 0 0 0 0 79.65736279860721 -1.7027243901577549 0 -1.7027243901577549 -308.59898464345554 0 0 0 0 2.267590942006791 15.823796145512375 0 15.823796145512375 -73.537571109800012 0 0 0 0 87.825209649290628 22.442817019146332 0 22.442817019146332 -148.46413391421629 0 0 0 0 36.650285971752965 -44.431379033651126 0 -44.431379033651126 -195.04848329894185 0 0 0 0 40.120002821829985 -14.9572816389541 0 -14.9572816389541 -258.63699766919353 0 0 0 0 -8.8672813077864703 4.5340265568884206 0 4.5340265568884206 -73.595477359764004 0 0 0 0 328.4396969704394 163.27728559003685 0 163.27728559003685 -124.08183643813118 0 0 0 0 5.8182199958937417 113.37832672002287 0 113.37832672002287 -31.409342960246022 0 0 0 0 3.6394000446749715 3.9986179777049244 0 3.9986179777049244 -2.6011069937599864 0 0 0 0 199.70678876308375 141.18622258928042 0 141.18622258928042 -88.201347062173227 0 0 0 0 217.19147197953134 5.0488134303799939 0 5.0488134303799939 2.3862603313828004 0 0 0 0 134.16643035691231 158.89245455226364 0 158.89245455226364 27.576285796818411 0 0 0 0 -1.2821800988477676 4.584070741313738 0 4.584070741313738 -13.315845809340139 0 0 0 0 223.99379627205781 148.51273970297007 0 148.51273970297007 -9.1707923759640835 0 0 0 0 155.7472024091403 59.642734156483129 0 59.642734156483129 22.656917693835567 0 0 0 0 34.360903174143459 74.83830659899013 0 74.83830659899013 72.195985757752169 0 0 0 0 32.421827581805701 114.88037524947504 0 114.88037524947504 59.200878866027779 0 0 0 0 -36.583058805757901 89.794054197167725 0 89.794054197167725 -39.821794216629769 0 0 0 0 62.146067778907309 117.12849718436155 0 117.12849718436155 -39.706881287589034 0 0 0 0 28.808082603514777 94.488145505273224 0 94.488145505273224 56.871136382984332 0 0 0 0 360.51530133352207 436.37426036486295 0 436.37426036486295 294.90735758729079 0 0 0 0 123.89966734421614 116.87434122682498 0 116.87434122682498 62.13917288913126 0 0 0 0 501.80466620469088 84.745630731260462 0 84.745630731260462 -275.66178973842216 0 0 0 0 133.74353588889062 -199.67091827587046 0 -199.67091827587046 -474.57345066611265 0 0 0 0 480.65374880655872 -184.30717395070451 0 -184.30717395070451 140.58723952413948 0 0 0 0 5.6977917831000582 4.5846144800527355 0 4.5846144800527355 4.9983823754161847 0 0 0 0 -59.982398295796884 172.28001106647071 0 172.28001106647071 327.98709218938984 0 0 0 0 4.7044494398360257 -34.156956148686163 0 -34.156956148686163 23.0366549762457 0 0 0 0 -4.2529922316462034 81.8291019574649 0 81.8291019574649 192.6506737604841 0 0 0 0 -7.3043237231404419 59.961218028574194 0 59.961218028574194 67.90423258806004 0 0 0 0 11.352726947297924 100.6195737730377 0 100.6195737730377 -81.386250959326389 0 0 0 0 16.724621038870737 13.705770797598014 0 13.705770797598014 12.310802183712134 0 0 0 0 19.945388454339991 17.928144303212321 0 17.928144303212321 -4.632273066669768 0 0 0 0 81.95983929947397 48.359713609879236 0 48.359713609879236 8.6698428556210274 0 0 0 0 92.913455621408502 68.280878382316587 0 68.280878382316587 27.235435769347532 0 0 0 0 -3.8634031298321645 7.8119108207112191 0 7.8119108207112191 -22.483007410779628 0 0 0 0 19.466214829815726 68.154182471399224 0 68.154182471399224 -40.854867122197902 0 0 0 0 18.417687983936048 46.14994351859923 0 46.14994351859923 -19.120756156467678 0 0 0 0 70.033237956256926 38.475168344774374 0 38.475168344774374 -30.243714669479232 0 0 0 0 56.843530504876981 22.387806995272172 0 22.387806995272172 -41.564798827860159 0 0 0 0 49.745283162643318 24.588946079797552 0 24.588946079797552 -22.534072204050062 0 0 0 0 46.342046862591573 23.332736772559542 0 23.332736772559542 -8.2151774911995634 0 0 0 0 75.519022324266189 32.290809677828634 0 32.290809677828634 56.564865216130784 0 0 0 0 504.86352426058147 -106.66475607385519 0 -106.66475607385519 41.997420584448832 0 0 0 0 12.28262541899052 2.2499585851100221 0 2.2499585851100221 3.0499139630360261 0 0 0 0 9.1610508453121895 13.983255789538376 0 13.983255789538376 -30.838362609691366 0 0 0 0 67.537281387849362 62.912779871095836 0 62.912779871095836 -43.012281307848752 0 0 0 0 25.413403802225787 24.058828501741779 0 24.058828501741779 15.105225572677558 0 0 0 0 329.13966754165904 -181.60667485146905 0 -181.60667485146905 96.458059433331073 0 0 0 0 314.21805999581557 -59.23624926824823 0 -59.23624926824823 33.640462724789359 0 0 0 0 405.23209460297949 -182.65917473147874 0 -182.65917473147874 73.746262341807778 0 0 0 0 419.45740387996557 -195.03180331786075 0 -195.03180331786075 83.385557030916516 0 0 0 0 435.14189328643624 -146.04261671424524 0 -146.04261671424524 30.833456693119842 0 0 0 0 507.73663167047198 -276.17788647240832 0 -276.17788647240832 144.23606141169876 0 0 0 0 182.61453467020328 36.25461873982772 0 36.25461873982772 -43.614781101738117 0 0 0 0 114.00433820042235 50.449173109235062 0 50.449173109235062 -35.524430879045468 0 0 0 0 123.22548712855496 57.954297742629819 0 57.954297742629819 -36.2557149387316 0 0 0 0 120.3478896946508 58.785345546156748 0 58.785345546156748 -20.014128668135754 0 0 0 0 107.34504521563849 36.605153218345265 0 36.605153218345265 8.7691492355352239 0 0 0 0 111.8323442038627 56.404819061872246 0 56.404819061872246 2.1427275967107562 0 0 0 0 8.1680672612492344 79.413436736949961 0 79.413436736949961 -19.689192801131867 0 0 0 0 9.8514801418568823 35.728063434452224 0 35.728063434452224 -13.072126406792904 0 0 0 0 1.1122005253819225 93.288754908984629 0 93.288754908984629 -79.454393517607969 0 0 0 0 -121.60220057533297 70.551348784334323 0 70.551348784334323 -16.125351725636392 0 0 0 0 -0.030025189002732766 -0.30381408171479052 0 -0.30381408171479052 -0.8558327371207497 0 0 0 0 -7.3560652115302219 48.163666996594884 0 48.163666996594884 -30.449736340008712 0 0 0 0 38.782415053603472 35.759693879878796 0 35.759693879878796 -69.401321484765901 0 0 0 0 25.97798195465657 33.550807275884608 0 33.550807275884608 -23.241696454698285 0 0 0 0 30.406381130917907 27.070161452733487 0 27.070161452733487 -8.6452616639803637 0 0 0 0 48.943095549562713 30.057856156377511 0 30.057856156377511 -25.58213225805514 0 0 0 0 38.431278156116605 46.439817126190519 0 46.439817126190519 -20.116392424480637 0 0 0 0 57.516509144879819 42.721049553919784 0 42.721049553919784 -30.595935188588555 0 0 0 0 82.56549910207832 36.036592811652554 0 36.036592811652554 -35.204348573733569 0 0 0 0 50.594099383255525 57.02327283301895 0 57.02327283301895 -46.906458761694012 0 0 0 0 97.227642054738681 95.887400763403321 0 95.887400763403321 -84.564404539455154 0 0 0 0 121.75326044692065 43.318053358129646 0 43.318053358129646 -61.980467237912308 0 0 0 0 116.55029272327738 41.706353586322621 0 41.706353586322621 -69.623398500009898 0 0 0 0 105.64627886782546 54.346466475331908 0 54.346466475331908 -68.40756103088097 0 0 0 0 111.00492124110315 40.733387156096796 0 40.733387156096796 -69.360562045112829 0 0 0 0 89.080093584372662 30.911720195867474 0 30.911720195867474 -46.103528535077203 0 0 0 0 95.844507898240408 17.966429578736097 0 17.966429578736097 -44.732753892763867 0 0 0 0 122.40857042989228 0.74414889932586448 0 0.74414889932586448 -42.99375958314522 0 0 0 0 124.30639076598163 -6.2716590564205035 0 -6.2716590564205035 -46.255509642403013 0 0 0 0 102.40794110153001 -43.483768612180484 0 -43.483768612180484 -10.990458224456233 0 0 0 0 45.883628423369373 -46.702497787954599 0 -46.702497787954599 6.5961481750655366 0 0 0 0 146.95638123013487 -20.746774525419369 0 -20.746774525419369 -55.380762301711002 0 0 0 0 -28.17365184983646 40.673985956123943 0 40.673985956123943 19.08035083890627 0 0 0 0 -13.208685053607041 -3.3697692183395702 0 -3.3697692183395702 27.440602813821897 0 0 0 0 7.7867414974025451 -3.7103281101053653 0 -3.7103281101053653 14.351837259388958 0 0 0 0 62.520011711651023 -3.4756668601435194 0 -3.4756668601435194 -14.561968987586624 0 0 0 0 33.067299464877578 -3.0278480085426054 0 -3.0278480085426054 13.343674557949726 0 0 0 0 15.157814914546179 27.580157785789879 0 27.580157785789879 16.252096370868458 0 0 0 0 39.687350540982152 33.848914871971829 0 33.848914871971829 6.1640024072248707 0 0 0 0 49.529050130484393 25.25447470806148 0 25.25447470806148 -5.4341493337087741 0 0 0 0 74.9937570283073 7.3912842540221391 0 7.3912842540221391 -14.265463548941767 0 0 0 0 52.239323450812662 27.466790706527263 0 27.466790706527263 -19.548379725276391 0 0 0 0 52.389358194966917 37.738520542991864 0 37.738520542991864 -24.439219417308777 0 0 0 0 48.933389680441906 35.796879019523658 0 35.796879019523658 -12.969103605368218 0 0 0 0 49.038394579540181 35.948090348656478 0 35.948090348656478 -14.629682092812345 0 0 0 0 48.039775780842319 41.332747264090585 0 41.332747264090585 -8.6212349394299963 0 0 0 0 39.471440944631468 39.070275449337714 0 39.070275449337714 -1.6898104309475457 0 0 0 0 46.975360864447794 26.751503030574668 0 26.751503030574668 -8.731849554632845 0 0 0 0 39.574558269494446 31.718903168552742 0 31.718903168552742 -0.88465653714683867 0 0 0 0 53.301684936283849 25.465402413729272 0 25.465402413729272 -1.0697299646154548 0 0 0 0 81.03894033945835 4.6299804278194188 0 4.6299804278194188 24.587823034013127 0 0 0 0 130.92792557393841 -71.363538377072473 0 -71.363538377072473 53.620810307040188 0 0 0 0 100.51854294178338 -59.938558439319081 0 -59.938558439319081 61.347565781888989 0 0 0 0 98.09029282857955 24.865730989825806 0 24.865730989825806 2.7824915072751537 0 0 0 0 64.675696925085504 53.035069017184469 0 53.035069017184469 5.9623399990359758 0 0 0 0 57.239235575274506 29.459804984982839 0 29.459804984982839 -0.60726644281044173 0 0 0 0 52.594337245653179 33.263253485750688 0 33.263253485750688 0.71841103563583886 0 0 0 0 63.072681836798438 43.426620663229187 0 43.426620663229187 15.11958190934638 0 0 0 0 17.036927618222837 5.881802741564286 0 5.881802741564286 -3.653649617143401 0 0 0 0 13.307430521745118 27.749866393854973 0 27.749866393854973 17.610782349961482 0 0 0 0 13.100869451358449 47.318072809391197 0 47.318072809391197 -18.225544701612307 0 0 0 0 18.835933840004145 61.735299876843783 0 61.735299876843783 33.514719084974786 0 0 0 0 14.581395636196248 30.938249593726141 0 30.938249593726141 21.025069854113099 0 0 0 0 23.643401110492285 25.783886245655268 0 25.783886245655268 -13.413500120892524 0 0 0 0 126.06799367475469 -4.1256304143412308 0 -4.1256304143412308 21.854446202787585 0 0 0 0 133.37213944361429 -2.970669739450841 0 -2.970669739450841 0.475402089859017 0 0 0 0 112.02856044715736 -27.287969135537423 0 -27.287969135537423 47.970103508187094 0 0 0 0 165.71858674778196 -34.61707268952523 0 -34.61707268952523 22.563809461184064 0 0 0 0 160.83678994568618 -46.365664870050637 0 -46.365664870050637 23.432676441493641 0 0 0 0 222.47227145536453 -64.214155458557798 0 -64.214155458557798 11.175644403943693 0 0 0 0 144.8640713069326 -23.966594993653416 0 -23.966594993653416 21.330899531545583 0 0 0 0 189.63147991534788 -37.599528634021908 0 -37.599528634021908 0.17056324526151911 0 0 0 0 189.70592678715184 -36.973579810125557 0 -36.973579810125557 2.9737999225512795 0 0 0 0 175.94327474970487 -12.588875541121979 0 -12.588875541121979 -15.685335279818219 0 0 0 0 146.41876311032684 2.1974728594627777 0 2.1974728594627777 1.8519789540614511 0 0 0 0 -24.711812397326867 29.548165848565006 0 29.548165848565006 39.608298860568866 0 0 0 0 -134.06847581392503 372.94561617949148 0 372.94561617949148 -40.97048404581426 0 0 0 0 -349.75652991791139 144.88715799793772 0 144.88715799793772 438.55716708682667 0 0 0 0 -8.6401310232613469 103.16197684984388 0 103.16197684984388 -59.039405710761201 0 0 0 0 23.743550303001214 20.59289595404713 0 20.59289595404713 17.456777724541237 0 0 0 0 162.70962125143706 271.02850823242261 0 271.02850823242261 254.25162164558242 0 0 0 0 63.542326397109719 -31.264377629260707 0 -31.264377629260707 38.182316237040141 0 0 0 0 15.948346085060621 -120.50456546765781 0 -120.50456546765781 -57.1194975320347 0 0 0 0 297.6561378975166 -261.06000009589206 0 -261.06000009589206 235.0336954806462 0 0 0 0 272.57035394813647 -19.574519995327137 0 -19.574519995327137 -58.78631610732009 0 0 0 0 123.62902772853704 -132.61079473410973 0 -132.61079473410973 27.399733788693993 0 0 0 0 51.03760219708056 -44.755706779997126 0 -44.755706779997126 4.7219673100216824 0 0 0 0 16.015963007467889 22.122779613149497 0 22.122779613149497 17.42314754767861 0 0 0 0 -8.740310811685049 -72.230149590931433 0 -72.230149590931433 42.449787866840779 0 0 0 0 -84.019051407565712 82.688500370824841 0 82.688500370824841 -3.3531922758102155 0 0 0 0 41.704325628850711 52.214134541440387 0 52.214134541440387 -49.839821950280339 0 0 0 0 -147.06321065505188 21.428170853700621 0 21.428170853700621 51.525940033840016 0 0 0 0 -72.160562950535677 19.285966512702998 0 19.285966512702998 19.189991441005986 0 0 0 0 -148.30552068059478 -48.816787583295081 0 -48.816787583295081 48.019778021232923 0 0 0 0 327.78054157104634 -83.35406829218482 0 -83.35406829218482 -6.9115530219728498 0 0 0 0 338.58801250312536 -45.782306667583043 0 -45.782306667583043 46.995585404447183 0 0 0 0 366.16342971126141 -107.22610610393008 0 -107.22610610393008 25.377356213999519 0 0 0 0 324.01281256884249 -71.894057827584902 0 -71.894057827584902 53.845814053712274 0 0 0 0 353.53079126413286 -95.081367843457201 0 -95.081367843457201 196.29097456570798 0 0 0 0 364.43992271281604 -85.248255295459785 0 -85.248255295459785 8.8102854998032853 0 0 0 0 356.87683535693213 -177.12990314755427 0 -177.12990314755427 73.948182841242669 0 0 0 0 439.21181669465295 -49.669286341970746 0 -49.669286341970746 23.145306247195776 0 0 0 0 62.881196141432156 32.17211324679829 0 32.17211324679829 37.84547371599183 0 0 0 0 90.852789620090334 -112.00349461283986 0 -112.00349461283986 165.35519611649761 0 0 0 0 169.53602577054698 -105.88490601266676 0 -105.88490601266676 56.71917720289639 0 0 0 0 173.29862166027306 -59.398294994215121 0 -59.398294994215121 35.955395895002766 0 0 0 0 132.79991182795493 -41.166562396790596 0 -41.166562396790596 39.473776674598412 0 0 0 0 206.95142139354721 -72.263049548946128 0 -72.263049548946128 25.297545662791094 0 0 0 0 202.73077371489853 -83.31704883639884 0 -83.31704883639884 24.891012652764402 0 0 0 0 219.89332782570273 -68.924297847842354 0 -68.924297847842354 14.0378634590395 0 0 0 0 276.81728065688367 -94.30119784562612 0 -94.30119784562612 10.999561444513802 0 0 0 0 296.7214169903491 -66.976878450361539 0 -66.976878450361539 7.7099476863609198 0 0 0 0 293.53094707756827 -91.918616352966865 0 -91.918616352966865 9.0013693447932894 0 0 0 0 330.91072597404127 -83.101018980901017 0 -83.101018980901017 -2.1755181041088463 0 0 0 0 309.51566746139724 -122.74628069760229 0 -122.74628069760229 27.027256000707212 0 0 0 0 331.71630738707972 -67.88520315501853 0 -67.88520315501853 4.0671783736652287 0 0 0 0 350.67055512426305 -41.306849703222952 0 -41.306849703222952 -12.519219129326302 0 0 0 0 387.60522929146464 -47.688925481084993 0 -47.688925481084993 -12.91273322307552 0 0 0 0 340.9412349800441 -50.192905210230379 0 -50.192905210230379 20.675474541980293 0 0 0 0 340.88025979603117 -64.320637285305111 0 -64.320637285305111 5.8820502747737464 0 0 0 0 342.65520072910294 -28.849094444852199 0 -28.849094444852199 37.148344834835598 0 0 0 0 583.52751537717995 -32.090198218982778 0 -32.090198218982778 -13.882509600754474 0 0 0 0 396.33277471633482 -115.23534973553114 0 -115.23534973553114 -22.845410728371462 0 0 0 0 345.45659431687091 -82.262639918790455 0 -82.262639918790455 70.466916246542269 0 0 0 0 332.78554658996291 -47.582579941704864 0 -47.582579941704864 -15.494893614653392 0 0 0 0 328.07109552666225 -32.298684353410579 0 -32.298684353410579 -3.7156614790951608 0 0 0 0 330.53300796141775 -55.213333994200013 0 -55.213333994200013 -25.058000644818094 0 0 0 0 311.14103571149462 -23.221595407204632 0 -23.221595407204632 -9.9817359056046371 0 0 0 0 182.29951958596939 -63.433797884171895 0 -63.433797884171895 -8.8627739874345934 0 0 0 0 337.91432764922502 5.2148385652512843 0 5.2148385652512843 -13.240463534795936 0 0 0 0 195.29695850694952 -20.523437766252755 0 -20.523437766252755 -4.8022230166752706 0 0 0 0 323.97802546368621 -89.600178013880623 0 -89.600178013880623 29.414833021181948 0 0 0 0 385.99784042890678 -81.761223122909655 0 -81.761223122909655 -29.555629463996183 0 0 0 0 324.46858490307204 -73.513927012154682 0 -73.513927012154682 -7.0393138212880331 0 0 0 0 321.56794605497271 -64.498232371980635 0 -64.498232371980635 -27.488414792918618 0 0 0 0 307.39259891051915 -87.788824187157843 0 -87.788824187157843 -12.548569908058994 0 0 0 0 305.75208277437559 -91.641193247920455 0 -91.641193247920455 -15.949832680953477 0 0 0 0 316.91162601154792 -92.59016411742499 0 -92.59016411742499 -13.471084189457997 0 0 0 0 322.99451105425942 -83.069067459327954 0 -83.069067459327954 -13.048454656772719 0 0 0 0 304.25269199642935 -85.327455076552042 0 -85.327455076552042 -4.1288592531293489 0 0 0 0 274.79838285269943 -71.050028358526333 0 -71.050028358526333 -4.3721478340280555 0 0 0 0 301.67117860525468 -78.476277288725441 0 -78.476277288725441 -18.884835199514782 0 0 0 0 284.81095529619779 -84.10487193340532 0 -84.10487193340532 -5.7710861725811071 0 0 0 0 276.29878292098874 -65.801754442211859 0 -65.801754442211859 -22.722773702860195 0 0 0 0 271.70437434108317 -76.630966323919097 0 -76.630966323919097 -6.642965962632843 0 0 0 0 253.49312116041256 -74.323954367973101 0 -74.323954367973101 -2.3598854326858145 0 0 0 0 292.79146049950214 -80.067204257075559 0 -80.067204257075559 -18.778338860036683 0 0 0 0 294.66581268334994 -79.534172060706396 0 -79.534172060706396 -28.998730074573132 0 0 0 0 275.2944471109513 -58.763870720888121 0 -58.763870720888121 -33.314599650721448 0 0 0 0 302.02911628299626 -69.58164238734264 0 -69.58164238734264 -39.955058688162808 0 0 0 0 305.35625990636618 -72.689517927879365 0 -72.689517927879365 -37.158720097315609 0 0 0 0 309.12946002367244 -91.27824290065621 0 -91.27824290065621 -26.193723186793875 0 0 0 0 334.92221395568413 -103.89446582217681 0 -103.89446582217681 -35.031794916374565 0 0 0 0 331.54355645853502 -79.473346576202744 0 -79.473346576202744 -51.933858120145487 0 0 0 0 355.19227291284187 -87.328404751017601 0 -87.328404751017601 -50.091512932323099 0 0 0 0 385.92774089822342 -67.256635912784375 0 -67.256635912784375 -62.328904827570568 0 0 0 0 420.82326509236009 -117.8381486976224 0 -117.8381486976224 -51.08267380937221 0 0 0 0 349.08681257406715 -95.242628204872062 0 -95.242628204872062 -58.193288374763029 0 0 0 0 367.44254005565017 -125.79878759198434 0 -125.79878759198434 -35.812051369748076 0 0 0 0 325.05066529652686 -134.57172170771889 0 -134.57172170771889 -21.39718031283104 0 0 0 0 325.44184551951912 -136.79926242993346 0 -136.79926242993346 -15.965139123626841 0 0 0 0 289.28032554370293 -132.43610445318103 0 -132.43610445318103 -16.061117082636969 0 0 0 0 321.61455881079019 -116.24574129070562 0 -116.24574129070562 -20.753444232741913 0 0 0 0 320.95637217658805 -112.7076714759836 0 -112.7076714759836 -39.10279985591481 0 0 0 0 315.31827032603906 -96.204162239458242 0 -96.204162239458242 -36.517321504344864 0 0 0 0 302.92013311370101 -101.24713358955125 0 -101.24713358955125 -17.770433603230742 0 0 0 0 311.4250500862363 -103.74133315401595 0 -103.74133315401595 -20.985137152166999 0 0 0 0 275.91756494074161 -96.16707363397876 0 -96.16707363397876 2.6340028570518825 0 0 0 0 302.09990398163791 -87.152422560910395 0 -87.152422560910395 -5.4359641904596714 0 0 0 0 284.85593018987856 -112.42310442263468 0 -112.42310442263468 15.603200642720751 0 0 0 0 226.71954154752166 -102.95656111624716 0 -102.95656111624716 -3.909944278272647 0 0 0 0 239.53732963287621 -128.65784315293632 0 -128.65784315293632 14.925827921070315 0 0 0 0 223.80505906832786 -62.511040177585841 0 -62.511040177585841 -10.725761339743229 0 0 0 0 92.629995601353585 -49.681559797520094 0 -49.681559797520094 15.216786118320073 0 0 0 0 268.73820208408688 -52.469769579655321 0 -52.469769579655321 65.20133387480837 0 0 0 0 250.98565090965712 -95.810971560783173 0 -95.810971560783173 15.20384779988899 0 0 0 0 17.386715936634573 19.729597975898386 0 19.729597975898386 27.330238970797268 0 0 0 0 32.31049066894775 25.956612063894028 0 25.956612063894028 -61.241968712491428 0 0 0 0 14.172629421838792 30.870428240226786 0 30.870428240226786 -50.086108340028687 0 0 0 0 -63.239594924467383 81.242694120661383 0 81.242694120661383 -23.971283714911195 0 0 0 0 11.498718335296836 27.160689893443376 0 27.160689893443376 -7.4623159440136426 0 0 0 0 65.313716674972966 73.744204780410527 0 73.744204780410527 -37.312461704622777 0 0 0 0 114.67090192324031 8.05737074552653 0 8.05737074552653 -55.134436001835013 0 0 0 0 162.60082673822762 -5.7865858368942895 0 -5.7865858368942895 -3.8243385878558911 0 0 0 0 186.90619143216463 -31.290606661233255 0 -31.290606661233255 -3.7446465182107431 0 0 0 0 226.29061262516188 -55.43194192001306 0 -55.43194192001306 0.099374644593240191 0 0 0 0 196.08033018818969 -22.557492492205483 0 -22.557492492205483 -12.103816149801787 0 0 0 0 240.08013181817296 -46.498436905814799 0 -46.498436905814799 -18.087175671300884 0 0 0 0 269.14339238181128 -62.329823312070744 0 -62.329823312070744 -16.852208497415148 0 0 0 0 237.18908986919996 -38.28934152896403 0 -38.28934152896403 -13.017752413670678 0 0 0 0 249.50191775204439 -39.072472072552841 0 -39.072472072552841 -27.848758735945523 0 0 0 0 243.81609242126433 -33.170148472053029 0 -33.170148472053029 -30.277325001247618 0 0 0 0 203.69161339946004 -16.958800760553231 0 -16.958800760553231 -19.509367416363489 0 0 0 0 205.36816541697772 -11.052085434393462 0 -11.052085434393462 -17.585758144020133 0 0 0 0 153.86757133968786 -1.6864674051421673 0 -1.6864674051421673 -5.1965260195411531 0 0 0 0 210.56871699885232 37.240346411592867 0 37.240346411592867 -28.304049593111898 0 0 0 0 226.72284029104048 -11.902240308718135 0 -11.902240308718135 -30.747142004100851 0 0 0 0 296.17248287805978 -38.710215387795024 0 -38.710215387795024 -47.914966013059711 0 0 0 0 256.91803441870434 -13.604268979189897 0 -13.604268979189897 -33.276486619323009 0 0 0 0 275.98155733836757 3.4194074278458686 0 3.4194074278458686 -54.829370742735989 0 0 0 0 303.61043645843165 -41.505222029551334 0 -41.505222029551334 -46.868290060389569 0 0 0 0 333.88340964623785 -45.719800226240338 0 -45.719800226240338 -65.918279612691322 0 0 0 0 373.98995267473219 -66.846786373829445 0 -66.846786373829445 -55.253957255367666 0 0 0 0 297.71276464530092 -6.2169236674021562 0 -6.2169236674021562 -51.514454799199555 0 0 0 0 357.63846097768692 -30.353035805480744 0 -30.353035805480744 -65.069829927123791 0 0 0 0 339.21557300726272 -3.2564536838523637 0 -3.2564536838523637 -84.074977877992751 0 0 0 0 177.72889159985061 87.842533013220532 0 87.842533013220532 -61.819140555172538 0 0 0 0 241.31243054462539 39.444358553372915 0 39.444358553372915 -30.077993541905926 0 0 0 0 259.72073366413679 45.111681407873391 0 45.111681407873391 -71.664735798424545 0 0 0 0 264.35654620066452 33.361623614314198 0 33.361623614314198 -64.871454477045972 0 0 0 0 340.57139755712706 32.283364249639391 0 32.283364249639391 -110.55993852402493 0 0 0 0 270.48650101599014 55.752661304669338 0 55.752661304669338 -131.89299945019286 0 0 0 0 10.756794144287916 0.97774745537648755 0 0.97774745537648755 -2.7456748433325728 0 0 0 0 -87.29204328211199 127.04296342608448 0 127.04296342608448 -68.22908606333354 0 0 0 0 150.00097040334367 15.063050431824038 0 15.063050431824038 -79.165057152468023 0 0 0 0 -2.6017606717951764 9.0616854624632754 0 9.0616854624632754 2.8729980981050494 0 0 0 0 105.33679077732813 -8.810745272036943 0 -8.810745272036943 -15.757996331180209 0 0 0 0 18.674787252666889 27.790925361619628 0 27.790925361619628 -1.2938303998399046 0 0 0 0 138.14494305057451 54.761248820326259 0 54.761248820326259 13.06718103717418 0 0 0 0 29.155459562432952 34.75202820590556 0 34.75202820590556 13.474809293438057 0 0 0 0 30.139876094350257 33.737317868742352 0 33.737317868742352 -13.625406370582823 0 0 0 0 59.424142517838646 10.557864136353695 0 10.557864136353695 -0.53578720100443833 0 0 0 0 51.272912246946362 0.12350560410993694 0 0.12350560410993694 -21.718549979547333 0 0 0 0 72.341312698936235 -14.821692428865958 0 -14.821692428865958 -59.954438848964173 0 0 0 0 19.443660362652736 19.000362667611284 0 19.000362667611284 27.095804427851363 0 0 0 0 69.419259148540732 30.542753414917115 0 30.542753414917115 -62.158430646012903 0 0 0 0 202.67162370022561 21.261506571949894 0 21.261506571949894 -39.978660068783597 0 0 0 0 62.382181367364183 7.6784884258375019 0 7.6784884258375019 -0.53467707347805693 0 0 0 0 54.509037293610163 22.798161929100672 0 22.798161929100672 -22.575169855608124 0 0 0 0 32.471018668526085 -13.082642413837902 0 -13.082642413837902 42.160261536580094 0 0 0 0 75.970671021903399 18.228036382899518 0 18.228036382899518 -39.889414308734217 0 0 0 0 22.188351803775589 3.2061077293802356 0 3.2061077293802356 -2.2955427147684357 0 0 0 0 10.462977254559519 22.986799392821695 0 22.986799392821695 -36.962490529464731 0 0 0 0 6.4676610800904086 11.148625251936735 0 11.148625251936735 6.6668204181215316 0 0 0 0 23.835236029736279 -15.985774190108756 0 -15.985774190108756 -12.877038567406233 0 0 0 0 3.9943043470841815 -3.0367875959388755 0 -3.0367875959388755 0.19983601274838514 0 0 0 0 -43.028777305604308 145.94705286428621 0 145.94705286428621 -171.32086545825655 0 0 0 0 24.615962267591385 9.4917996871145078 0 9.4917996871145078 -54.518102735527691 0 0 0 0 4.6927800584526267 170.54923592350087 0 170.54923592350087 13.613649828974872 0 0 0 0 -37.220971158443717 106.02956236594594 0 106.02956236594594 -74.596910966807854 0 0 0 0 4.7041549186753286 -1.3793168081572489 0 -1.3793168081572489 -1.3420173946919016 0 0 0 0 -31.220620977503131 116.04593950043682 0 116.04593950043682 -179.31175472013229 0 0 0 0 -43.247782398568233 111.40270835157139 0 111.40270835157139 -168.48717216812918 0 0 0 0 -40.720066274108831 179.07239768380595 0 179.07239768380595 -56.682225391633814 0 0 0 0 -45.404077890139888 154.93757145133563 0 154.93757145133563 -60.082241941471295 0 0 0 0 -53.166727053643626 174.19568213680049 0 174.19568213680049 -88.42357235921304 0 0 0 0 13.665103187770001 208.97220109473994 0 208.97220109473994 -28.424482343354299 0 0 0 0 -77.858552973324549 118.0606494854853 0 118.0606494854853 -35.513905925534878 0 0 0 0 -10.495163851417601 7.9073156261895861 0 7.9073156261895861 -30.039528843958657 0 0 0 0 21.74749545675877 10.502994000943573 0 10.502994000943573 1.0105541557950346 0 0 0 0 244.69589026046015 82.139686050086198 0 82.139686050086198 -56.089313091484769 0 0 0 0 37.743755946291458 87.321356132951877 0 87.321356132951877 -27.3682514752918 0 0 0 0 0.5527763353784394 72.41000626896394 0 72.41000626896394 -99.508632926422933 0 0 0 0 13.552082289415296 10.124223585593676 0 10.124223585593676 6.8853705243914698 0 0 0 0 276.99272825049411 -144.96648226295861 0 -144.96648226295861 28.753322302370634 0 0 0 0 13.680432702155287 1.6338986765719277 0 1.6338986765719277 -3.3734756975489297 0 0 0 0 144.87253005397429 -126.58236846307248 0 -126.58236846307248 16.896140402564015 0 0 0 0 81.433037126211275 -76.817078334701364 0 -76.817078334701364 33.131246226534358 0 0 0 0 171.99111844858635 -262.3491014803717 0 -262.3491014803717 378.42353216439187 0 0 0 0 -47.295711541109995 124.32971012615329 0 124.32971012615329 -82.523299059615766 0 0 0 0 179.48144215443608 170.74422979238989 0 170.74422979238989 -157.56511301771388 0 0 0 0 803.30791182539542 -37.895933327338753 0 -37.895933327338753 -348.46321447656192 0 0 0 0 20.976463296292337 17.520888155720478 0 17.520888155720478 13.261840325976236 0 0 0 0 25.067685453745071 -1.8865545649214255 0 -1.8865545649214255 -12.303457149590258 0 0 0 0 25.005951940118393 1.0467976518657451 0 1.0467976518657451 -8.1175785140021617 0 0 0 0 16.469897745354643 0.43641279671542499 0 0.43641279671542499 -3.9445188383602598 0 0 0 0 10.187293461582158 5.3023478073737351 0 5.3023478073737351 -16.809242131517749 0 0 0 0 21.400702657690999 -1.7630878949607904 0 -1.7630878949607904 5.3908967834868236 0 0 0 0 25.66935687767706 -1.0576123815163996 0 -1.0576123815163996 -10.260122031946384 0 0 0 0 4.1889475948773907 8.167316854338651 0 8.167316854338651 5.7998285588091676 0 0 0 0 11.926872242402169 13.252121450877894 0 13.252121450877894 -12.269877275183717 0 0 0 0 123.27532069206063 -153.78495778905835 0 -153.78495778905835 34.485773634143698 0 0 0 0 13.935281631677796 2.6452767723938102 0 2.6452767723938102 -2.7705625679453725 0 0 0 0 58.502849051400972 118.06473258162103 0 118.06473258162103 -70.979373132250657 0 0 0 0 19.479073463473469 10.373339705834269 0 10.373339705834269 -13.810592758953618 0 0 0 0 11.026801223037182 2.2466735875486847 0 2.2466735875486847 -2.2657065222833808 0 0 0 0 -77.224286842429137 10.666593134893219 0 10.666593134893219 69.132714804205307 0 0 0 0 255.24112891633558 -48.381941527782146 0 -48.381941527782146 -64.700441718994625 0 0 0 0 448.59923240672651 -317.98856662240576 0 -317.98856662240576 152.47796116855361 0 0 0 0 68.806004339970968 -63.271579951038802 0 -63.271579951038802 161.08716726333387 0 0 0 0 4.9304759551616115 2.9566074888873644 0 2.9566074888873644 1.7147708308152345 0 0 0 0 -270.30105775842094 -85.216836094641906 0 -85.216836094641906 -56.739233703197897 0 0 0 0 -35.606481795271975 102.0019364952143 0 102.0019364952143 -224.25930816914411 0 0 0 0 -50.624224273387881 167.31881918232051 0 167.31881918232051 -165.32066472176825 0 0 0 0 -883.43425430342177 -122.18480724597782 0 -122.18480724597782 -10.066732283244164 0 0 0 0 34.08146002789892 2.6796489455840913 0 2.6796489455840913 -3.2915299982551454 0 0 0 0 8.1341779195608979 2.8924741544210519 0 2.8924741544210519 -6.2825440151354996 0 0 0 0 17.231358687818982 0.65188300413129241 0 0.65188300413129241 -1.5136599840677722 0 0 0 0 -273.7507925125974 329.50750120872578 0 329.50750120872578 -384.53790526195939 0 0 0 0 21.750099935575719 3.5637917343395262 0 3.5637917343395262 0.62122338678782485 0 0 0 0 -111.30496276975964 213.4865942340486 0 213.4865942340486 108.36027437078292 0 0 0 0 13.533464611391537 4.1123985911906971 0 4.1123985911906971 -1.8624349870263117 0 0 0 0 1053.3112562935567 -7.3075183133050814 0 -7.3075183133050814 -279.16703550389519 0 0 0 0 435.03211637669301 49.684524056069904 0 49.684524056069904 -6.7818267634542053 0 0 0 0 23.111852693603623 4.3637029606127804 0 4.3637029606127804 0.048933332725174278 0 0 0 0 -157.01757873427323 -89.146870455817336 0 -89.146870455817336 23.946770007776649 0 0 0 0 -17.288012229735614 -49.99235771833105 0 -49.99235771833105 -64.764636604417831 0 0 0 0 -80.781653081110562 -2.4173049192215785 0 -2.4173049192215785 108.85776296048334 0 0 0 0 -65.053854673438764 -1.3735143691841358 0 -1.3735143691841358 1.4141131240912728 0 0 0 0 53.220706734704436 6.4524089638974829 0 6.4524089638974829 -23.806051603757851 0 0 0 0 18.897863543631217 0.35573024402107478 0 0.35573024402107478 1.0897928321868151 0 0 0 0 30.390228214440867 11.009908362797887 0 11.009908362797887 -1.1345488952083542 0 0 0 0 6.1536177870296171 0.87990964223061496 0 0.87990964223061496 0.51584607273580918 0 0 0 0 33.658391591030522 27.181043792056016 0 27.181043792056016 73.709854340484526 0 0 0 0 12.100402058738723 5.6575073947852346 0 5.6575073947852346 -1.3801543348750727 0 0 0 0 -6.4725437582019367 -44.878793148887098 0 -44.878793148887098 -11.042063281235642 0 0 0 0 85.350570649337897 -54.043314141353562 0 -54.043314141353562 -46.294891412852849 0 0 0 0 4.1558992577500078 1.4930055019798658 0 1.4930055019798658 -1.8868233630918496 0 0 0 0 -2.276102763900397 1.3118332982953689 0 1.3118332982953689 1.0653838728454854 0 0 0 0 13.424665772981825 -85.301547122693592 0 -85.301547122693592 139.52049368088774 0 0 0 0 -13.482426415866939 -34.048015058836086 0 -34.048015058836086 141.23658738352333 0 0 0 0 -63.39476059381559 -121.30816056048343 0 -121.30816056048343 68.229960134564408 0 0 0 0 65.333058090276609 -73.77459399579061 0 -73.77459399579061 -137.6804420742501 0 0 0 0 71.205249277452822 -14.649922395140038 0 -14.649922395140038 36.475087472762425 0 0 0 0 14.591968421773345 -0.13645937580599821 0 -0.13645937580599821 -4.0367984199338025 0 0 0 0 11.405409766046617 3.0016913090934096 0 3.0016913090934096 -2.6644764010460311 0 0 0 0 -62.750104189661215 94.030645034939653 0 94.030645034939653 -6.8980445790437841 0 0 0 0 -85.704844898704323 91.214079623783391 0 91.214079623783391 55.079028537217937 0 0 0 0 -12.406720161234261 112.43558876000952 0 112.43558876000952 -101.40104298246067 0 0 0 0 -7.313521495580062 -51.451035938927191 0 -51.451035938927191 -95.590383509328603 0 0 0 0 155.8981001823413 72.534888013165414 0 72.534888013165414 -1.5012164475888312 0 0 0 0 63.677374520688318 -47.045967935004114 0 -47.045967935004114 89.725227319005057 0 0 0 0 72.812015006813454 36.588229319440188 0 36.588229319440188 -48.730134773736609 0 0 0 0 13.801783135961159 18.003172844053438 0 18.003172844053438 90.387680346154184 0 0 0 0 57.548701607891417 -12.498824964361063 0 -12.498824964361063 -31.500143680720839 0 0 0 0 25.812458382305934 9.898118683182247 0 9.898118683182247 0.59191524098085013 0 0 0 0 105.80352201630012 -90.613224050884014 0 -90.613224050884014 -74.267426769974691 0 0 0 0 54.993045336093928 125.84767109807126 0 125.84767109807126 -21.663731301072289 0 0 0 0 -0.042868360291741681 0.23904179205521814 0 0.23904179205521814 -1.3211741308819596 0 0 0 0 -73.095754036781727 63.400567323621544 0 63.400567323621544 170.2266934882482 0 0 0 0 118.6473072718145 -56.210085778547636 0 -56.210085778547636 -50.528429626042453 0 0 0 0 39.995797382274759 -40.840506473052073 0 -40.840506473052073 22.355144441057433 0 0 0 0 23.927625861048 33.700470951795978 0 33.700470951795978 28.558652031838022 0 0 0 0 41.40450099381269 34.791880771823799 0 34.791880771823799 -51.639639045041861 0 0 0 0 51.250907869089133 -33.806003565857111 0 -33.806003565857111 -61.80716178419425 0 0 0 0 -21.759582612394297 -19.626660118309132 0 -19.626660118309132 -15.758697981027581 0 0 0 0 50.029120417619197 -34.468003377871668 0 -34.468003377871668 2.6780460590871371 0 0 0 0 2.3838430890518509 2.6608727488906183 0 2.6608727488906183 1.8049265100008727 0 0 0 0 6.2518114334525308 -8.0376340465481917 0 -8.0376340465481917 21.621403899699544 0 0 0 0 39.821548638275999 -4.8013613755127835 0 -4.8013613755127835 -23.057467054524523 0 0 0 0 7.4313127170753432 7.9608251867175568 0 7.9608251867175568 -5.5874979411842105 0 0 0 0 18.416705387626337 6.1588292575176098 0 6.1588292575176098 2.387271701856478 0 0 0 0 14.282430767038022 58.874966808275985 0 58.874966808275985 -8.7598547946145118 0 0 0 0 69.015974403362634 12.137036402465355 0 12.137036402465355 -16.242572445926271 0 0 0 0 7.7967667488639165 2.5560055882611579 0 2.5560055882611579 0.70266171075119299 0 0 0 0 16.912624123858791 -17.444001122263213 0 -17.444001122263213 -14.750191414097571 0 0 0 0 -67.919007265154505 111.89612553341294 0 111.89612553341294 -91.075353770334914 0 0 0 0 20.032588641097007 7.7499126338611521 0 7.7499126338611521 2.2847648359026573 0 0 0 0 43.029604600960738 47.450534599660386 0 47.450534599660386 9.3944882852683804 0 0 0 0 20.165462467761245 14.045455868270437 0 14.045455868270437 -9.887853303607244 0 0 0 0 21.297251598092231 7.8173739768972279 0 7.8173739768972279 1.5046224392455647 0 0 0 0 7.1396914930505631 -0.18230474941996277 0 -0.18230474941996277 -2.6102981134629939 0 0 0 0 -0.17503663320898966 4.2066515205469601 0 4.2066515205469601 0.91383739474240722 0 0 0 0 -76.018304853347217 103.76283526872385 0 103.76283526872385 -99.169406230107597 0 0 0 0 -42.692000205308432 85.444283091227589 0 85.444283091227589 -212.46761820612312 0 0 0 0 12.907343436359952 -5.8185731221710739 0 -5.8185731221710739 1.3100246243789115 0 0 0 0 49.035243329155492 -41.81018986198842 0 -41.81018986198842 -2.5159808575290299 0 0 0 0 5.0630683211920697 -0.041189353109629678 0 -0.041189353109629678 -4.9514814307540185 0 0 0 0 -14.761782379537181 38.683775043881269 0 38.683775043881269 -28.594945220567752 0 0 0 0 47.706165009294637 13.728551082029753 0 13.728551082029753 -117.8799523226561 0 0 0 0 -4.465706100956595 1.2167319339519054 0 1.2167319339519054 19.051979381190677 0 0 0 0 18.321804614906796 5.9551782458833031 0 5.9551782458833031 -9.960999820456891 0 0 0 0 69.375813711099909 -10.634431388168196 0 -10.634431388168196 -35.960245717924863 0 0 0 0 -23.251548596457724 -60.933592583721747 0 -60.933592583721747 -56.059504874276172 0 0 0 0 -17.161355195104989 31.821374021733391 0 31.821374021733391 58.602080207807376 0 0 0 0 11.20444250481161 6.3685134606937552 0 6.3685134606937552 -0.0084993954090379076 0 0 0 0 15.736250166453253 2.4070484267572922 0 2.4070484267572922 -4.0344297153030304 0 0 0 0 18.142114503427209 3.9618291468180171 0 3.9618291468180171 -2.0525746047516447 0 0 0 0 5.892317376037596 0.072934300432287102 0 0.072934300432287102 -4.4924655588254545 0 0 0 0 16.003232051785915 2.9804287858563789 0 2.9804287858563789 -1.4378833727626859 0 0 0 0 14.467624581986456 5.357560201364322 0 5.357560201364322 -9.5644149386234858 0 0 0 0 40.084323323368153 4.9010290271157828 0 4.9010290271157828 -12.703884649432439 0 0 0 0 23.962225266732275 -7.1129791950697836 0 -7.1129791950697836 -4.9196171646208313 0 0 0 0 12.39570604081382 5.152941895494223 0 5.152941895494223 16.183807059886931 0 0 0 0 5.7738464462454431 12.406585522017849 0 12.406585522017849 11.488690735392083 0 0 0 0 45.429728021961637 -31.70069497672057 0 -31.70069497672057 -30.981759954644986 0 0 0 0 11.6662070453458 -0.27480946215655422 0 -0.27480946215655422 -9.8558336065233902 0 0 0 0 8.7634512223739875 -4.6025023735483046 0 -4.6025023735483046 -9.724497207073 0 0 0 0 16.574171468229906 1.2818283260385215 0 1.2818283260385215 -17.622828182124067 0 0 0 0 26.948521686645108 -15.587017125115381 0 -15.587017125115381 -6.1596550749727612 0 0 0 0 29.327165801485535 5.4724163366263383 0 5.4724163366263383 14.6003271394693 0 0 0 0 11.456090695413877 -0.24137122657521104 0 -0.24137122657521104 17.838619310423383 0 0 0 0 4.8703077103127725 6.3761873556704813 0 6.3761873556704813 -8.711268725540009 0 0 0 0 42.012518189265393 28.181445729493134 0 28.181445729493134 43.360325253146584 0 0 0 0 12.807346594969339 -3.822360544691513 0 -3.822360544691513 -8.6413919234760499 0 0 0 0 -145.39467717013031 79.521795142885821 0 79.521795142885821 -51.863445579265317 0 0 0 0 25.722743989830633 -16.039724052112888 0 -16.039724052112888 23.485508661236963 0 0 0 0 8.5622649674699005 2.4519068478884307 0 2.4519068478884307 -2.8703800075291372 0 0 0 0 -34.533755076627131 -6.8494694174887627 0 -6.8494694174887627 4.3600474576833221 0 0 0 0 -16.639552101711161 82.088946513521137 0 82.088946513521137 -114.47616868865043 0 0 0 0 -36.443217992717109 90.139300576439382 0 90.139300576439382 -109.73155652197784 0 0 0 0 -99.513623744103825 123.6425229094225 0 123.6425229094225 -126.2659476829831 0 0 0 0 -55.471544176973111 111.21650573583975 0 111.21650573583975 -107.90984699257206 0 0 0 0 -165.91908183466876 99.455703933161203 0 99.455703933161203 -57.053775096139361 0 0 0 0 -53.223756912018871 51.922158795212908 0 51.922158795212908 -137.29077024354274 0 0 0 0 -164.17998024300755 149.87135324199545 0 149.87135324199545 -115.70921509023356 0 0 0 0 -69.637637533116504 101.08981811431113 0 101.08981811431113 -128.93795173097612 0 0 0 0 -110.97651979986767 163.36429658257998 0 163.36429658257998 -206.44924166637793 0 0 0 0 46.45832234615591 -30.463087754499156 0 -30.463087754499156 -64.779064689423194 0 0 0 0 1.6547860418769176 -1.1735963101030791 0 -1.1735963101030791 -2.0119273886803448 0 0 0 0 52.366463808655681 20.977019257074971 0 20.977019257074971 -191.37652485277704 0 0 0 0 46.52384980997158 -17.766105140113268 0 -17.766105140113268 -139.94164441411885 0 0 0 0 -45.02240782512672 83.153018336842251 0 83.153018336842251 -97.98855835663403 0 0 0 0 -55.300038797793604 86.50166561450942 0 86.50166561450942 -82.997811226158774 0 0 0 0 -67.998444939752517 112.81884462206926 0 112.81884462206926 -109.86311194356131 0 0 0 0 -39.155446251650574 110.8285397475538 0 110.8285397475538 -150.1107060377588 0 0 0 0 -58.699116671676165 107.4835398587129 0 107.4835398587129 -107.1168354404308 0 0 0 0 -47.340059560068767 109.72269571356969 0 109.72269571356969 -148.54827291934089 0 0 0 0 -20.286828986565524 84.247626864073027 0 84.247626864073027 -124.8949386328286 0 0 0 0 -38.762415354267432 53.241553638751611 0 53.241553638751611 -68.279665287223452 0 0 0 0 0.63412667607107664 1.0103527098673215 0 1.0103527098673215 0.56007097327654876 0 0 0 0 68.95489861072565 6.7568515407833729 0 6.7568515407833729 -108.1256695098964 0 0 0 0 -33.923395237485238 40.542757734294582 0 40.542757734294582 -10.309254675081775 0 0 0 0 183.35576593009409 36.701423353696555 0 36.701423353696555 -39.604182616868457 0 0 0 0 58.794259689042519 -131.53115617432263 0 -131.53115617432263 142.6585222384474 0 0 0 0 -62.21518882849341 61.68654959127889 0 61.68654959127889 -48.794065939455891 0 0 0 0 -99.578744974129222 99.105117748785688 0 99.105117748785688 -43.176178552559577 0 0 0 0 -67.411099122204178 152.81988630769456 0 152.81988630769456 -172.5869841361955 0 0 0 0 -170.18707501859899 83.197624017268026 0 83.197624017268026 -45.67637172916875 0 0 0 0 -0.84669708739238558 56.0299130363328 0 56.0299130363328 -296.80370329205698 0 0 0 0 -77.056264521801495 60.98760518271547 0 60.98760518271547 -9.1458708885566011 0 0 0 0 -0.039169306338095566 0.75286541983770228 0 0.75286541983770228 0.41208918908155567 0 0 0 0 11.259520888281259 63.061056928709149 0 63.061056928709149 -92.824050980858374 0 0 0 0 -56.546153798648447 34.848092008759068 0 34.848092008759068 -3.0962472253204396 0 0 0 0 -63.541299302670268 69.781487101964558 0 69.781487101964558 -25.801954172415208 0 0 0 0 -35.963017997441057 56.448746489661062 0 56.448746489661062 -21.185030810598505 0 0 0 0 -29.944104451300518 72.095550577319045 0 72.095550577319045 -33.682004301939742 0 0 0 0 2.6248227061369107 64.325420350609193 0 64.325420350609193 -39.367326768867315 0 0 0 0 -11.567008812937274 76.710653869923135 0 76.710653869923135 -43.541428807297052 0 0 0 0 -36.667441750396392 83.620480494232652 0 83.620480494232652 -45.443513110843924 0 0 0 0 17.766230844798883 75.55163790544259 0 75.55163790544259 -57.15918340344615 0 0 0 0 16.583284140237083 69.941910826853018 0 69.941910826853018 -75.404693314522774 0 0 0 0 22.611203159853176 64.711986273548973 0 64.711986273548973 -92.908937935955692 0 0 0 0 5.8061951423806022 64.961203451643087 0 64.961203451643087 -64.421142932429575 0 0 0 0 0.53565961588174105 85.209762559823048 0 85.209762559823048 -109.81727962117657 0 0 0 0 41.932854158978444 59.343557625549693 0 59.343557625549693 -53.624389002748103 0 0 0 0 56.646811481943587 50.037354291819611 0 50.037354291819611 -50.360146086444729 0 0 0 0 39.877809027064359 56.02119419815881 0 56.02119419815881 -41.949771879491891 0 0 0 0 33.908539223884873 45.289963897660527 0 45.289963897660527 -59.522157444613242 0 0 0 0 65.547731509555888 74.212574429724555 0 74.212574429724555 -48.700792557850946 0 0 0 0 35.116964408487547 76.01143320443316 0 76.01143320443316 -54.841769786713428 0 0 0 0 70.833895608579041 59.052528104857174 0 59.052528104857174 -56.240137153258729 0 0 0 0 74.008199987129046 63.526141707305214 0 63.526141707305214 -55.893477784102288 0 0 0 0 107.9787226039698 50.706083074367598 0 50.706083074367598 -65.599899632343181 0 0 0 0 102.57413507984893 61.361011681167838 0 61.361011681167838 -58.449552284945639 0 0 0 0 122.76894123571401 33.746785740586347 0 33.746785740586347 -64.67247429209192 0 0 0 0 109.38147389400547 50.932227188726756 0 50.932227188726756 -67.908105136407357 0 0 0 0 144.01648915719852 46.936283334035579 0 46.936283334035579 -67.603183396153838 0 0 0 0 125.06501028923003 34.227941843482171 0 34.227941843482171 -64.947864883057264 0 0 0 0 128.8226694177938 31.632010135404471 0 31.632010135404471 -63.157190962363529 0 0 0 0 203.29240012825903 35.002888494810577 0 35.002888494810577 -65.419140475132281 0 0 0 0 143.67791963400668 56.151087858644587 0 56.151087858644587 -49.018772323627672 0 0 0 0 68.954880596718795 61.45550646888978 0 61.45550646888978 -47.389675104332127 0 0 0 0 105.64048177529185 72.222342360319089 0 72.222342360319089 -46.528758766571627 0 0 0 0 110.9927706996823 70.960253234060019 0 70.960253234060019 -51.99613188366493 0 0 0 0 104.51253082611947 61.19002751469543 0 61.19002751469543 -46.991994707491813 0 0 0 0 154.45360799200716 78.867194109463526 0 78.867194109463526 -43.013722526499805 0 0 0 0 64.86299359790064 66.167813615107661 0 66.167813615107661 -21.806126938361558 0 0 0 0 70.018181361883762 50.876093717171898 0 50.876093717171898 -33.631863890317618 0 0 0 0 80.018828981803381 74.003238406537548 0 74.003238406537548 6.9640629346013156 0 0 0 0 78.970551517879358 59.796909690668144 0 59.796909690668144 -4.1293154407485417 0 0 0 0 47.443484427480143 52.913423538201641 0 52.913423538201641 41.164688199100055 0 0 0 0 285.33613592063193 178.82067703972643 0 178.82067703972643 44.591652028642784 0 0 0 0 224.27715699883993 20.933122111607645 0 20.933122111607645 -62.060071371959566 0 0 0 0 279.15423740404367 83.703195841448178 0 83.703195841448178 -45.25848041244717 0 0 0 0 100.45199386765307 111.33417448865521 0 111.33417448865521 35.125641119404463 0 0 0 0 537.07355122493755 25.239100342159873 0 25.239100342159873 -62.126633431619666 0 0 0 0 4.6054094941286365 1.8012432226319106 0 1.8012432226319106 0.5871035333077117 0 0 0 0 671.46124586784208 -235.71513174951156 0 -235.71513174951156 86.6556603928002 0 0 0 0 28.972286819735018 98.191343344577945 0 98.191343344577945 89.40427916784347 0 0 0 0 2.6367199973284983 0.82563275482176479 0 0.82563275482176479 0.058857168429875401 0 0 0 0 -77.74038318208477 -400.35985681605166 0 -400.35985681605166 233.79772831902119 0 0 0 0 649.17881667052279 -262.02450932798865 0 -262.02450932798865 109.50454195595012 0 0 0 0 7.9498646866786657 -27.833332794843159 0 -27.833332794843159 -21.815237714252362 0 0 0 0 29.221992021193728 -20.363218007478736 0 -20.363218007478736 -32.215814943036094 0 0 0 0 8.1269928608671762 -2.7414516137432656 0 -2.7414516137432656 25.828507891007575 0 0 0 0 51.74958864452492 7.8125345537391695 0 7.8125345537391695 -112.09711512566537 0 0 0 0 7.685301709674178 4.0122367002772119 0 4.0122367002772119 0.57264691294400594 0 0 0 0 4.5293778410477898 -64.718057251956793 0 -64.718057251956793 -16.84498076433556 0 0 0 0 1.9159884568196901 -1.9014027220793057 0 -1.9014027220793057 -1.3582586466095723 0 0 0 0 22.447589238654473 -4.0150328669187729 0 -4.0150328669187729 -37.181606307912261 0 0 0 0 31.739076957237558 59.725756871846897 0 59.725756871846897 7.1732412974233739 0 0 0 0 34.0139703556124 -12.391242576217337 0 -12.391242576217337 -20.873997116266764 0 0 0 0 20.767776036918804 -8.6001834455100834 0 -8.6001834455100834 -36.196616727260334 0 0 0 0 31.181827448504919 -4.6207263709702602 0 -4.6207263709702602 -37.819183332881948 0 0 0 0 17.009504592366469 2.9292287954686902 0 2.9292287954686902 0.10882358466596981 0 0 0 0 3.1322104449458976 -0.72691560510160969 0 -0.72691560510160969 -0.20987654904538289 0 0 0 0 20.389328068256873 -4.0234486161723453 0 -4.0234486161723453 -49.80595601875757 0 0 0 0 14.410352295939447 10.15070299995773 0 10.15070299995773 -27.723918521623091 0 0 0 0 17.795186089468189 -14.16859354559665 0 -14.16859354559665 -7.9609354224015618 0 0 0 0 17.11700132142505 -7.1672777830895029 0 -7.1672777830895029 -34.183268309290725 0 0 0 0 10.95109461668072 3.2912935837816022 0 3.2912935837816022 0.078771015409862144 0 0 0 0 10.852648027557734 -17.512556827352455 0 -17.512556827352455 -53.445533963461457 0 0 0 0 18.649606152677734 21.535955613534497 0 21.535955613534497 -97.338253800057828 0 0 0 0 25.721671972816694 9.7097724202908466 0 9.7097724202908466 -78.747224827626269 0 0 0 0 36.25392654096504 23.475267941520542 0 23.475267941520542 -52.429084070707404 0 0 0 0 45.683535265670798 45.244858766897778 0 45.244858766897778 -4.1651633302772098 0 0 0 0 28.705654826295358 16.725620567615351 0 16.725620567615351 -19.935727609490641 0 0 0 0 31.708631366273039 12.999473814458725 0 12.999473814458725 -15.648812162460672 0 0 0 0 27.467862582561793 21.028708531765915 0 21.028708531765915 -37.281958124478479 0 0 0 0 29.774018182011787 5.2640971466198607 0 5.2640971466198607 -46.456384282618274 0 0 0 0 
</DataArray>
<DataArray type="Float64" Name="cross_section_updated" format="ascii">
1 1 1 1 1 1 1 1 1 1 1 1 1 0.010810224686564208 1 1 1 1 1 1 1 1 1 0.010062817856659882 0.0098904685900415498 1 1 1 1 1 1 1 1 1 1 1 0.011482526882216505 1 0.010343402579870233 1 0.0099953788773932597 1 1 1 1 1 1 1 1 1 1 1 1 1 1 1 0.0099580941335075789 1 1 1 0.0097610885922227754 1 1 1 1 1 1 0.010006670608968206 1 1 1 1 0.01057680749030741 1 1 1 1 1 1 1 1 1 1 0.0113473430214586 1 1 0.01023581896973602 1 0.011929904157767133 1 1 0.011324117822883855 1 0.0092640824004445975 1 1 1 1 1 1 1 0.010327261842122916 1 1 0.010428118751617966 1 1 1 1 0.011461979170805568 0.010005975142370721 1 0.010344050572934764 1 1 1 1 1 1 1 1 1 1 0.0099170798049150848 1 1 0.009836621416526645 1 1 1 0.0098100102016531326 1 1 1 1 1 1 1 1 1 1 1 1 0.0099661890589177356 1 1 1 1 1 1 1 1 1 1 1 1 1 1 1 1 1 1 1 0.010141366434300161 1 1 1 1 1 1 1 1 1 1 1 1 1 1 1 1 1 1 1 1 1 1 1 1 1 0.010280263336323658 1 1 1 1 0.010702000841033862 1 0.0098845438996805254 1 1 1 1 1 1 1 1 1 1 1 0.010574656031245439 1 1 1 1 1 1 1 1 1 1 1 1 1 1 1 1 1 1 0.01028677049376368 0.010265966119867473 1 1 1 1 1 1 0.011370739172245519 1 1 1 0.011214057254439105 1 1 1 1 1 0.01052441278687353 1 1 1 1 1 1 0.0099918544089100444 1 1 1 1 0.010859396407790043 1 1 1 1 0.011500138031159087 0.0097797514647504861 1 1 1 1 1 1 1 1 1 1 1 1 1 1 1 1 0.010417974113439019 1 0.011172548926238235 1 1 1 1 1 1 1 0.010475115629666227 1 0.0092353062713334683 1 1 1 0.0088381956284814787 1 1 1 1 1 1 1 1 1 0.014730587139815975 1 1 1 1 1 1 1 0.0097487371093186552 1 1 1 1 1 1 1 1 1 1 1 1 1 1 1 1 1 1 1 0.010384812999853157 1 1 1 1 1 1 1 1 1 1 0.015777329773100243 1 0.011287726545109452 1 1 1 0.012669026379453115 1 1 1 1 1 1 1 1 1 1 1 1 0.0098678515625602974 1 1 0.013564340339514945 1 0.01082495964854163 1 1 1 0.017501869380359532 1 1 1 1 1 1 1 1 1 0.013382613578259785 1 1 1 0.010674036484963782 1 1 1 1 1 1 0.010007490187467211 1 1 1 1 1 1 1 1 1 1 1 1 0.018071158445877762 1 1 1 1 1 0.018231510227128114 1 0.012738181496114427 1 1 1 0.015370035477269645 1 1 1 1 1 1 1 1 1 1 1 1 1 1 1 0.012500745025496349 1 0.013071410614017474 1 1 1 1 0.011491536203530295 1 1 1 1 1 1 1 1 0.010757979486979806 1 1 0.01064164704746387 1 0.012518999462127586 1 0.010414901803985958 1 1 1 0.016960067078676838 0.010324543861320538 1 1 1 1 1 1 1 0.010934870632613971 0.01030214612872961 1 0.010986702788362078 1 0.0083982816075318205 1 0.010134010021618354 1 1 1 0.009748384105288433 1 0.012234243089463054 1 0.011616009285689533 1 1 0.011604042088552705 1 1 1 0.0087715500666923404 1 1 1 1 0.01452033717420659 1 0.011120317873788543 1 1 1 1 0.009462993847287814 1 1 1 1 1 0.010917514388636796 1 1 1 1 1 0.016397922002197453 1 1 1 0.018462290206304254 1 0.010597610605697735 1 1 1 0.010659767974593396 1 1 1 1 1 1 1 0.010246291582257445 1 1 1 1 1 0.011779549775104989 1 1 1 1 1 0.012895380936173505 1 0.0094133593084565221 1 1 1 1 1 1 1 1 0.014104357699651193 1 1 1 1 1 1 0.011543907765003941 1 1 1 1 1 1 0.010994334144994442 1 1 1 1 0.0097406070161808953 1 1 1 0.012385714490148893 1 1 1 1 1 1 1 1 1 0.010061004263836514 1 1 1 1 1 1 1 1 1 1 1 1 0.0098438872435720765 1 1 1 1 1 0.0116116407710826 1 1 0.01389295029988215 1 1 1 1 1 1 1 0.013112013034170068 1 1 1 1 1 1 1 0.0093984220286172683 1 0.014323614586841595 1 1 1 0.0089986806742883788 1 1 1 1 1 1 1 1 0.011009808675301946 1 1 1 1 0.010263376413135555 1 1 0.010369201833877899 1 1 1 1 1 1 1 1 1 1 1 1 1 1 1 1 1 1 0.010624871981461587 1 1 1 1 1 1 1 1 1 1 0.014439975315689659 1 1 1 0.012869193476539389 1 1 1 1 0.01106757671447688 1 1 1 1 0.011150775557586673 1 1 1 0.010302447282393254 1 1 1 1 1 1 1 0.010245165984033622 1 1 0.011102699381750755 1 1 0.010767350957844099 1 1 1 1 1 1 1 0.010078658248966015 1 1 1 1 1 1 1 1 1 1 1 0.010985767539292906 1 1 1 1 1 1 1 1 1 1 1 1 0.010219103975144916 1 1 1 1 1 1 1 1 1 1 1 1 1 0.01106347506587277 1 1 0.0098765775057507166 1 0.011024066362989367 0.011110295627791122 1 0.010520422041528735 1 1 1 1 0.010572791878850902 1 0.012743441744391123 1 1 0.010699201219630184 0.010769533867401763 1 1 0.011248919761739843 1 1 1 0.011534716486255625 0.010138226375068789 1 1 1 1 1 1 1 1 1 1 1 1 1 1 1 1 1 1 1 1 1 1 1 1 1 1 0.011214551443495539 1 1 1 1 0.015685182818254238 1 0.010017775698351144 1 1 1 1 1 1 0.0097221707699743816 1 1 1 1 0.012017195398967775 1 0.0091295679824797069 1 0.01123685517918354 0.010614804589046279 0.011646924033137367 0.010892540679887094 1 0.010347117617967302 1 1 1 1 1 1 1 1 1 1 1 1 1 0.011336820352485484 1 1 1 0.011027952664514892 0.010000353014901549 1 1 1 0.010684430728673323 1 0.010890791069077413 1 0.011994679769571595 1 1 0.01080261385510735 0.010872909674676396 0.010371726758848201 1 0.010183813236791083 1 1 1 1 1 1 1 1 0.010060415335287256 1 1 1 1 1 0.011105888272420794 0.010868379911756737 0.010003465717034287 1 1 1 0.010079141123067759 0.01238376236904574 0.011299315021732119 0.01123586312131063 1 1 1 1 1 1 1 1 1 1 1 1 1 1 0.0096957628785191777 1 1 1 1 1 1 1 1 1 1 1 1 0.011145637906054395 1 1 1 1 0.010036196408005411 1 1 1 1 0.013228367059987549 1 1 1 1 1 0.010059734133514043 1 1 1 1 1 1 1 1 0.012895006742088296 1 1 1 1 0.010500464295284269 0.011316407700866088 1 1 0.015211556915554481 0.009312481730280802 1 1 1 1 0.011854808710858467 1 0.0121693470520847 1 1 1 1 1 1 0.010020932599415677 1 1 1 0.013420170593104545 1 1 1 0.014097003575600776 0.0096633169345416159 1 0.010202779135497508 1 1 1 1 0.013524553593172305 1 1 1 1 1 0.012903970235538839 1 0.01132361567152141 0.011619593099432553 1 1 1 1 1 1 1 1 0.012452904583351443 1 1 1 1 1 0.014609323520495304 0.013393963124732448 0.011681431223145858 1 1 1 1 1 1 0.010137082386721794 1 1 1 0.011450949724185994 1 1 1 1 0.011534828678507355 0.010044451560902713 0.011504964811887985 1 1 1 0.010416647137018824 1 1 1 1 1 1 1 1 0.010263334815792412 1 1 0.010781451503521292 1 1 1 1 1 1 1 1 1 1 1 1 1 1 1 1 1 1 1 1 1 1 1 1 1 1 1 1 1 1 1 1 1 1 1 1 1 1 1 1 1 0.010884637785341308 1 1 1 1 1 1 1 1 1 1 1 1 1 1 1 1 1 1 1 1 1 1 1 1 1 0.011666089288862602 1 1 1 0.0099804680525354423 1 1 1 1 1 0.013019795387967976 1 1 1 1 0.012284336837781143 1 1 0.012173658330492311 1 1 1 1 0.011157491322098059 1 1 0.012934180807978923 1 1 1 0.016720308801612967 1 1 0.016874939015037029 1 1 1 1 0.012863727928698904 1 1 1 1 1 1 0.010213373897490146 1 1 1 0.013586709308616723 1 1 1 1 1 1 1 0.01023463565774679 1 1 1 1 1 1 1 1 1 1 1 1 1 1 0.013926475384744667 1 1 1 1 1 0.010688559057266093 1 1 1 1 1 1 1 1 1 1 1 1 1 1 1 1 1 1 1 1 1 1 1 1 1 1 1 1 0.010232666261608658 1 1 1 1 1 1 0.0099741945374482166 0.014930734445617844 0.013721731158849637 0.010789412858285703 1 1 1 1 1 1 1 1 1 1 1 1 1 1 1 1 1 1 1 0.010495434489865816 1 1 1 1 1 1 1 1 1 0.017784545841581196 1 1 0.01793907921761774 1 1 1 1 1 1 1 1 1 1 1 1 1 1 1 1 1 0.012191459007147938 1 1 1 1 0.013074198035315777 1 1 0.014454461072528624 1 1 0.015752001638476031 1 1 1 1 1 1 1 1 1 1 1 1 0.010736303911398454 1 1 1 1 1 1 1 1 1 1 1 0.010572420461738728 1 1 1 0.010360673663210659 1 0.011469473945577641 0.0099190301328747101 1 1 1 1 1 1 1 1 1 1 1 1 1 0.01250746950358613 1 1 0.010705375348416389 0.011703846357617943 1 1 1 0.010044223396915446 1 1 0.013225688359088505 1 1 1 1 0.011683307441668284 0.014469593344870559 1 0.010216204287851371 1 1 1 0.010075035281703169 1 1 1 1 1 0.0096374017055148135 1 1 0.011428903286770551 0.0092886936899738044 1 1 0.010005994522849828 1 1 1 1 1 1 1 1 1 0.010195232727847722 0.0099581119130128064 1 1 1 1 1 1 1 0.010349070456404624 1 1 1 0.0099557339417705726 1 1 1 0.010693320385941977 1 1 1 0.0094537930380143315 1 1 1 1 1 1 1 1 1 1 1 0.010347688032599958 1 1 1 0.01744155402408714 1 0.014838105252076702 1 1 1 1 1 0.01806814506372393 1 0.0096415905113443126 1 1 0.0081669625824320712 1 1 0.010056172124056892 0.014175079792401166 1 1 1 0.013434407784205425 1 1 1 0.010827877043894475 1 1 1 0.013994813061313567 1 1 1 1 0.015020780271042524 0.010104873375313758 0.0099273971675788476 1 1 1 1 1 1 1 0.015173802805444928 1 1 1 1 0.018137203785052139 0.0098906402335767595 1 1 1 1 1 1 1 0.014507774015807618 1 0.011997124838897553 1 1 1 0.010638909256603293 1 0.012492046590355197 1 1 1 1 1 1 1 1 1 0.014039010744975544 1 1 1 1 1 1 1 1 1 1 1 1 1 1 1 1 1 1 1 1 1 1 1 1 0.012922778044889196 1 1 1 0.010034803531106381 1 1 0.015097656337271446 1 1 1 1 1 1 0.010124100461557956 1 0.013336636938459368 1 1 1 0.014393346028876375 1 0.01000304108671065 1 1 1 0.017425557815013162 1 1 1 1 1 1 1 1 1 1 1 1 1 1 1 1 0.0099868037953543525 1 1 1 1 1 0.013764750064457635 1 1 1 1 1 1 1 1 1 1 1 0.01392955371381387 1 1 1 1 1 0.012666318113215922 1 1 1 1 1 1 1 1 1 1 1 1 1 1 0.010298260213912534 1 1 1 0.013989773944803927 1 1 1 1 1 1 1 1 1 1 1 1 1 1 1 0.011009458683848014 1 1 1 1 1 1 0.010587509254535497 1 0.010080723709043841 1 1 1 1 1 1 1 1 0.010969793175527433 1 0.010798369125473134 1 1 1 1 1 1 0.01268808014633945 1 1 1 1 1 1 1 0.0099112715132294322 1 0.011986946992895459 0.011529917495783498 1 1 0.011806668950707189 1 1 1 1 0.011397214758758729 1 0.011169837789005408 1 0.010016315031164978 1 1 1 1 1 1 1 1 1 1 1 1 1 1 1 1 1 1 0.010106618657970528 1 0.012437040024621223 1 1 1 1 1 1 1 1 1 1 1 1 1 1 0.01009404310423373 1 0.0099889788341728653 1 1 1 0.012118852135963074 0.012352029347883719 1 0.0099853996945725686 1 1 1 1 0.010005264163101655 1 1 1 1 0.01034196310320608 0.010946155048773588 1 1 0.010797533030346126 0.012219585610605736 1 1 0.010864063077980296 0.012185322905215925 1 1 1 1 0.0097441310215034341 1 1 0.012816090030854328 1 1 1 0.0085721473903348343 1 0.012325717695121936 1 0.011614226339107709 1 1 1 0.010044652090731247 1 1 1 0.0091618212303306995 0.012199895261270912 0.012647833939320013 0.014360925347560378 1 1 1 1 0.01268836709160121 1 1 0.01321357407847798 1 0.012970795805482953 1 0.011638104204158785 1 1 1 1 1 1 1 0.014211218697187026 0.012071059162042614 1 1 1 1 0.011451610483689948 0.014279905526616354 1 1 0.013161869490050042 1 1 0.012980861874671901 1 1 1 1 1 1 1 1 1 1 0.010147568562326268 1 1 1 1 1 1 0.011850127308213223 1 1 1 0.012532492854952226 1 1 1 0.017843616823803612 1 1 1 1 1 1 0.010720000761240876 1 0.011256084107736493 1 0.0094674249009028162 1 1 1 0.013698918326840861 1 1 0.010461851698221801 1 1 0.015409377808680258 1 0.010647205150686316 1 1 0.013622888226295825 1 1 1 1 0.016182220514234805 1 1 1 0.010490746306478425 1 1 1 1 1 1 1 1 1 1 1 1 1 1 1 1 1 1 1 1 1 1 1 1 1 1 1 1 1 0.010995798361761981 0.012898248289607421 1 1 0.011057611538723764 1 1 1 1 1 1 1 1 1 0.011005103315432167 1 1 1 1 1 1 1 0.010091257595296069 0.012145542080553266 1 1 0.0082498934559501694 1 1 1 1 1 1 1 1 1 1 1 1 1 1 1 1 1 1 0.01123710600802658 1 1 1 1 1 1 1 1 1 1 1 1 1 1 1 1 1 1 1 1 1 1 1 1 1 1 1 1 1 1 1 1 1 1 1 1 1 1 1 1 1 1 1 1 1 1 1 1 1 1 1 1 1 1 1 1 1 1 1 1 1 1 1 1 1 1 1 1 1 1 1 1 0.013363586416375894 1 1 1 1 1 1 1 0.010000469165776541 1 1 1 0.010228388485455264 1 0.01227213508437988 1 1 1 1 1 1 1 1 1 1 1 0.0097833428479012496 1 1 1 1 1 1 1 1 1 1 1 1 1 0.011481215953809193 1 1 1 0.010052936051938657 1 1 0.0091418931986379931 1 1 1 1 1 0.010467232289968147 1 0.010079170537233425 1 1 1 1 1 1 1 1 1 0.015344312315950549 1 1 1 1 1 1 1 0.011642383697614035 1 1 0.01096344511940156 1 1 0.013884568289631321 1 1 1 1 1 1 1 1 1 1 1 1 1 1 1 0.010613364325910852 1 1 1 1 1 1 1 1 1 1 1 1 1 1 1 1 1 1 1 1 1 1 1 1 1 1 1 1 1 1 1 1 0.0099969614935105696 1 1 1 1 1 1 1 1 1 1 1 1 1 1 1 1 1 1 1 1 1 1 1 1 1 1 1 1 1 1 1 1 1 0.013610716442402204 1 1 1 1 1 1 1 1 1 1 1 1 1 1 1 1 1 1 1 1 1 1 1 1 1 1 1 1 1 1 1 1 1 1 1 1 1 1 1 1 1 1 1 1 1 1 1 1 1 1 1 1 1 1 1 1 1 1 1 1 1 1 1 1 1 1 1 1 1 1 1 1 1 1 1 1 1 1 1 1 1 1 1 1 1 1 0.011495769685962699 1 1 1 0.0099978209415365008 1 1 1 1 1 1 1 1 1 0.012527086903605157 1 1 1 0.009432493546262976 1 1 1 1 1 0.011388225541615907 1 0.010119002264792416 1 1 0.013714193968137167 1 1 0.010308832460186273 1 1 1 1 1 1 1 1 0.011527973438730313 1 1 1 0.0098753152641045377 1 1 1 1 1 1 1 0.012092325626683996 0.011265039926414949 1 1 0.010032561019980981 1 1 0.012917376442500916 0.010129188020461363 1 1 1 1 1 1 1 1 1 0.01001361695354327 1 1 1 0.0098392658354993674 1 1 1 0.0097597132397185763 1 1 0.010407495257797413 1 1 0.0097648802103941622 1 0.0098328085068497915 0.010128672789293462 1 0.011767245510733193 1 1 1 1 1 1 0.010986694969739884 0.01400443387231292 1 1 1 1 1 1 1 1 1 1 1 1 1 1 1 1 0.015554281989113629 1 1 0.0099817756556310061 1 1 1 0.014618405413864355 1 1 1 1 1 1 1 1 1 1 0.010014488243189911 1 1 1 0.0099977903338123435 1 1 1 0.0099876281426541213 1 1 1 1 0.010000156520019851 0.0099955015505130106 1 0.009997449745752722 1 1 0.0098484118755808089 1 0.010448409513786835 0.011130229690211477 1 1 1 0.010326288002681939 1 1 1 0.010656398050238994 0.01023875135836674 1 1 1 1 1 0.010597732607394677 1 1 0.0098627534502361454 1 1 1 0.010763058516421464 1 1 1 1 1 1 1 1 1 1 1 1 0.010010387462303753 1 1 1 1 1 1 1 1 1 0.010003149335705811 1 1 1 1 1 1 1 1 1 1 1 1 1 1 1 1 1 1 1 1 1 0.010419659188762346 1 1 0.011256667815696899 1 1 1 1 1 1 1 1 1 1 1 1 1 1 1 1 1 1 1 1 1 1 1 1 1 1 1 1 1 1 1 0.010035662484179236 1 1 1 1 1 1 1 0.010021224442297662 1 1 1 1 1 1 1 1 1 1 1 1 1 1 1 1 1 1 1 1 1 0.0099922718279830403 1 1 1 1 1 1 1 1 0.010038534870550463 1 1 1 1 1 0.010043534818301173 1 1 1 0.0099922585030549106 1 1 1 1 1 1 1 1 1 1 1 1 1 0.009987915433054273 0.010021842414356656 1 1 1 1 0.010004999947750705 1 1 1 1 1 1 0.010436111787144327 1 0.0099517120585113951 1 1 1 1 0.010015301933081271 1 1 1 1 0.010205244860930052 0.010455779835366028 1 1 1 0.010350092188175189 1 1 1 1 1 1 1 1 1 0.010306616932683317 1 1 1 1 0.010164398427462194 1 1 1 1 1 1 1 1 1 1 1 1 1 1 1 1 0.010272453514683182 1 1 1 1 1 1 1 1 1 0.010021238843950783 1 1 1 1 1 1 1 1 1 1 1 1 1 1 1 1 1 1 1 1 1 1 1 1 1 1 1 0.010222554135531348 1 1 0.010151208269150036 1 1 1 1 1 1 1 0.010050096472651844 1 1 1 1 1 1 1 1 1 1 1 1 1 1 1 1 0.0099790791885186331 1 1 1 1 1 1 1 1 1 1 1 1 1 1 1 1 1 1 1 1 1 1 1 1 1 0.0099375471106822148 1 1 1 1 1 1 1 0.0098953740952168242 1 1 1 1 1 1 1 0.0099984067975836238 0.0098541149996114741 0.010001844438002552 1 1 1 1 0.011356898156047511 1 1 0.010096877182208792 1 1 0.010990151272349237 0.010028439277175465 1 1 1 0.010000332559516096 0.010131844246192538 1 1 1 1 1 1 1 1 1 1 1 1 1 0.011437411085325075 1 1 1 0.011414125913779452 1 1 1 1 0.010029710652924176 1 1 1 1 1 1 1 1 1 1 1 1 1 1 1 1 1 1 1 1 1 1 1 1 1 1 1 1 1 1 1 1 1 1 1 1 1 1 1 1 1 1 1 1 0.0099392776292147478 1 1 1 1 1 1 1 0.011437561204150789 1 1 1 0.010012638746204432 1 0.011473214556099797 0.0098119580273563125 1 1 0.0097148819724193602 1 0.011449979215003315 0.011093920184322099 1 1 0.010068224354719848 1 1 1 0.010007039271772418 1 1 1 1 1 1 1 0.012567341341300737 1 1 0.012847375210836443 1 1 1 1 1 1 1 1 1 1 0.011857160114585532 1 1 1 1 1 1 1 1 1 0.011610326407984893 1 1 1 1 0.011863878154934332 0.012344471111797244 1 1 1 1 1 1 1 0.010054921092899068 1 1 1 1 1 1 1 0.012243449918509376 0.01146503176130414 0.010055021166102655 1 0.011415217870238772 0.0109403923715882 1 1 1 1 1 1 0.010002413469900589 1 1 1 1 1 1 1 1 1 1 1 1 1 1 1 1 1 1 1 1 1 1 1 1 1 1 1 1 1 1 1 1 1 1 1 1 1 1 1 1 1 1 1 1 1 1 1 1 1 1 1 1 1 1 1 1 1 1 1 1 1 1 1 1 1 0.010002952144853685 1 1 1 1 1 1 1 1 0.010492106678406402 1 0.01012322308576887 1 1 1 1 0.011335424363372967 1 0.010644799293456108 1 1 1 0.01202943667317405 1 1 1 0.01060199528448285 1 1 1 1 1 1 1 1 1 1 1 1 0.010019845888430523 1 1 1 1 1 1 1 1 1 0.010010639819863398 0.012016795878376944 1 1 0.012817351263714544 1 1 1 0.011901365284654226 0.011905625754951309 1 1 0.013030997952338462 1 1 0.01301816148414176 1 1 0.0093415779881576341 1 0.01259043244036261 1 1 1 0.0095052071733531078 1 1 0.012232543707695959 1 1 1 1 1 1 1 1 0.012285555044712959 1 1 1 0.011954007255125926 0.013004548082184049 1 1 1 1 1 1 1 1 1 1 1 1 0.0096710238671076903 1 1 1 1 1 1 1 1 1 1 1 1 1 1 1 1 1 1 0.010702968641950255 1 1 1 1 1 1 1 0.010383023758194292 1 1 1 0.010578647736268277 1 1 1 1 1 1 1 1 1 1 1 1 1 1 1 1 1 1 1 1 1 1 1 1 1 1 1 1 1 0.010186433052621667 0.010124013084595776 1 1 1 1 1 0.0099256588007216213 1 1 1 1 0.0098167805178556982 1 1 1 1 1 0.010526232077165366 1 1 1 1 1 1 1 0.010425623967568872 1 1 1 1 1 1 1 0.0103504937745821 1 1 1 1 1 1 1 1 1 1 1 1 1 1 1 1 1 1 1 0.011582762905261971 1 1 1 1 1 1 1 0.010033930968750101 1 1 1 1 1 1 1 1 1 0.0099520575009607089 1 1 0.010088952301974005 1 1 1 1 1 0.012245539455411162 0.01178766306942669 1 1 1 0.011906765934054651 1 0.010732929030256959 1 0.012311331540143045 1 1 1 0.010522570681261634 1 1 1 1 1 1 1 0.01084354415269761 1 1 1 0.010837062154415765 1 1 1 0.010119793929167386 1 1 1 1 1 0.010376239012168312 1 1 1 0.012777187405609529 0.0099852962578922139 1 0.0099989856040625259 1 1 0.010635095268255722 1 1 1 1 0.01056718819516653 1 1 0.011108475271413159 0.011100322455286957 1 1 1 0.010471131779019359 0.011244830614387302 1 0.010542647554940207 1 1 1 1 1 1 1 0.010104985581393005 1 1 0.0096399849173286426 1 1 1 0.011225380251701193 1 0.010432984782367465 1 0.011302223924632817 1 1 1 1 1 1 1 1 1 0.01011420831925771 1 1 0.01030722476983597 1 1 1 1 1 1 1 1 1 1 1 0.0099952116799993003 1 1 0.010001617221233421 1 1 1 1 1 1 1 0.010000113149532343 1 1 1 1 1 1 1 1 1 0.0090716725899693228 1 0.011264824852131219 1 0.01002387434067196 1 1 1 1 0.011413758076929355 1 1 1 0.011994432310067854 0.0095917291153260267 1 1 1 0.010135137689310653 1 1 1 1 1 1 1 0.0099717665085036593 1 1 0.0087397905593634521 1 1 0.01267671380696724 1 1 1 1 1 1 1 1 0.01257051347232248 1 1 1 1 1 1 0.0099625624697631376 1 1 1 1 1 1 1 1 1 1 0.010439455320210058 1 1 1 1 1 1 1 1 1 1 1 1 1 1 1 1 1 1 1 1 1 1 1 1 1 1 1 1 1 1 1 1 1 1 1 0.010154616166620981 1 1 1 1 1 1 1 1 1 1 1 1 1 0.010351200530903116 1 1 1 1 0.010386039256899437 0.010954915532926704 0.010353501931673064 1 1 1 1 1 1 1 1 1 1 1 1 1 1 1 0.010627419226508936 1 1 1 1 1 0.010850732498125055 1 0.011766891753172712 1 1 1 1 1 1 0.011285654396283186 1 1 1 1 1 0.010306786685871545 1 1 1 1 1 0.010646874705451498 1 1 1 1 1 1 0.010866907809258586 1 1 0.010166976831132586 1 1 1 1 0.0098211038072959049 1 1 1 1 1 1 1 1 1 1 1 1 1 1 1 1 0.011702540896202204 1 1 1 1 1 1 1 1 0.010788832429864616 1 1 1 1 1 1 1 1 1 0.01470989194609316 1 1 1 1 1 1 1 1 1 1 1 1 0.010597116240866651 1 1 1 1 0.011398541361391484 1 1 1 1 1 1 0.010215740615985063 0.011823324894666387 0.010036740364631098 1 1 1 1 1 0.013852517141961469 0.0098103057416068801 0.0085776435416215768 1 1 1 1 1 1 1 0.0095264525212031929 0.011868329042280945 1 1 1 1 1 1 0.013790919534981948 1 1 1 0.0084940498518765936 1 1 1 1 1 1 1 1 1 1 1 1 0.0088881723051476985 1 1 1 1 1 0.0095811433837972304 1 1 1 1 0.010686910845911845 1 1 1 1 0.0084213100539682166 1 1 1 1 1 1 0.016835631696263169 0.01552130013547216 0.0099993090166088424 1 1 1 1 1 1 1 1 1 1 1 0.010451385131681951 1 1 1 1 1 1 1 1 1 1 1 1 1 1 1 1 1 1 1 1 1 1 1 1 1 1 1 1 1 1 1 1 1 1 1 1 1 1 1 1 1 1 1 1 1 1 0.0095692532732484636 1 0.012470490935758131 1 1 1 1 1 1 1 1 0.0098554813992020752 1 0.014862424930260864 1 1 1 1 1 1 0.0096800765374901454 1 1 0.011897572308158839 1 1 1 1 1 1 1 0.010614241282767337 1 0.011364830468266626 1 0.0099476380189079186 1 1 1 1 0.0092458606800223352 1 0.011816919607655086 1 1 0.010735099763197881 1 1 1 1 1 1 1 1 1 1 0.0066203291720405852 1 1 1 0.008338172310294819 1 1 1 1 1 1 1 0.0095644895511468285 1 1 1 1 1 1 1 1 1 1 1 1 1 1 1 1 1 1 1 1 1 1 1 1 1 1 0.011177810848831892 1 1 1 0.012127906693420364 1 1 0.010952555046229804 1 1 1 1 1 1 1 1 1 0.010268543481951029 1 1 1 1 1 1 1 1 1 1 0.011498765881823579 1 1 0.01360579321761052 1 1 1 1 1 1 1 1 1 1 1 1 1 1 1 1 1 1 1 1 1 1 1 1 1 1 1 0.010253397807346128 1 1 0.010271802864820058 1 1 1 0.015817765514686683 1 0.016296010881546929 1 1 1 1 1 1 1 1 0.010797197109977475 1 1 1 0.01009699142997098 1 1 1 1 1 1 1 0.012247970546852385 1 1 1 1 0.013564708035324469 1 1 0.016230523171482342 1 1 0.016188189322231736 1 1 1 0.01006699057602924 1 1 1 0.0099636711729397011 1 1 0.010813819608234982 0.011873587316555507 1 1 0.0088418287888296643 0.0099973776054296439 1 1 1 1 1 1 1 1 1 1 0.010717960487273089 1 1 1 1 0.011907966810243814 1 1 1 1 1 1 1 1 1 1 1 1 0.012492220858725454 1 0.015011083806757874 1 1 1 1 1 1 0.013295647657118655 1 1 0.009981364452897476 1 1 1 1 1 1 1 1 1 1 1 1 0.010201166053301659 1 1 1 1 0.010315365642595874 1 1 1 0.010303822484724411 0.020428975590897874 1 1 1 1 1 1 1 0.010337447298182666 1 1 1 1 1 1 1 1 1 1 0.022197012386239643 1 1 1 1 1 1 1 1 1 1 1 1 1 0.019393960342610796 0.011125599724640212 1 1 0.023609406453281891 1 1 1 1 1 1 0.010064955902699397 1 0.011191755417222862 1 1 1 1 0.010579822526779881 1 0.022328231805096414 1 1 0.0076581150711179692 0.009986561577457656 1 1 1 1 1 1 1 1 1 1 1 1 1 1 1 1 1 1 1 1 1 1 1 1 1 1 1 1 1 1 1 1 1 1 1 1 1 1 1 1 1 1 1 1 1 1 1 1 1 1 1 1 1 1 1 1 1 1 1 0.014706235896581342 1 1 1 1 1 1 1 1 0.015273974823403022 1 1 0.015657819021104878 1 1 1 1 1 1 1 1 1 1 1 1 1 1 1 1 1 1 1 1 1 1 1 1 1 1 1 1 0.012733528383111139 1 1 1 1 1 1 1 1 0.010328514349531982 1 0.010714787908383955 1 1 0.010071314139015772 1 0.012758400321733778 1 1 1 0.012387317441054972 1 1 1 0.0099849013232585996 1 0.011775166349158334 1 1 1 1 1 1 1 1 1 1 1 1 1 1 1 0.010169205323519578 1 1 0.010541570558060912 1 1 1 1 1 1 0.013941740025838673 1 1 0.0099573610584849856 1 1 0.013880266275887971 1 1 1 1 1 0.010372532922455269 1 1 0.01013619239655918 1 1 1 0.013961551142338805 1 1 1 1 1 1 0.010924251013545688 0.013210248844128743 1 1 1 0.010922265519125092 0.011935542566332214 0.012171561035863509 0.010000824105231532 1 1 1 0.014697089876758355 1 0.010171783559996216 1 1 1 1 1 0.012227491833619044 1 1 1 1 1 1 0.012020294863552513 1 1 1 1 1 1 1 1 1 1 1 1 1 1 0.012152251173552987 1 1 1 1 0.010389325534260196 0.011278309971178749 1 1 1 1 1 1 1 1 1 1 1 1 1 0.010059797508099853 1 1 0.013555256715330401 0.01044342490766568 1 1 0.010684447476454218 1 1 1 1 1 1 1 1 1 1 0.010397616780057073 1 1 1 1 1 1 1 0.011444386956385871 1 1 1 1 1 1 1 1 1 1 0.0098896822427075454 1 1 1 1 1 1 1 1 0.010353562166199006 1 1 1 1 1 1 1 1 1 1 1 1 1 1 1 1 1 0.011913591068068344 1 1 1 1 0.011242589265004103 1 0.010442392999781988 1 1 1 1 1 1 1 1 1 1 1 1 0.017877226448963415 1 0.017538595153392057 1 0.010316260407080471 1 1 1 1 1 0.0097496414683243705 1 0.015136989464463898 1 0.0074408369971538536 1 1 1 0.00923619152625396 0.013297462691301564 0.01339077180030283 1 1 1 1 0.010918348743780056 1 1 1 0.014387182112414477 1 0.0090576579578653654 1 1 1 1 1 1 1 0.013676566697651025 1 0.014364873209470023 1 1 1 1 1 1 1 0.014040816053871533 1 0.010004727487142278 1 1 1 1 1 0.014009976056179456 1 1 1 0.013775433537556888 0.014644758507312998 1 0.016058752904175796 1 1 1 1 1 1 1 1 0.01693384678573252 1 1 1 1 0.010002775606488367 1 1 1 1 1 1 1 0.012937254178791267 1 1 1 1 1 1 1 1 1 1 1 1 1 1 1 1 1 1 1 1 1 1 1 1 0.012665728107039089 0.014283009717888699 1 1 1 1 1 0.011524254066143767 0.012469474538184328 0.010006668422421729 1 1 0.014758002291187195 1 1 1 1 1 1 0.013827715171758371 1 1 0.013965017683204519 0.014098531477633909 1 1 1 1 1 1 1 1 1 1 1 1 0.011718238584634106 1 1 1 1 1 1 1 1 1 1 1 1 1 1 1 1 1 1 1 1 1 1 1 1 0.01660811805816121 0.012845450785319134 1 0.01966488204605215 1 1 1 1 1 1 1 1 1 1 1 1 1 0.010527658946345365 1 1 1 1 1 1 1 0.011493262016770298 0.010003164017206519 1 1 1 1 1 1 1 1 0.010655594619994645 1 0.011211457613045851 1 1 1 0.010034961653802854 0.011863207394001391 0.01343901557335297 1 0.0099986936177149811 1 1 0.0077077616376208368 1 1 0.0084447538684120482 1 1 1 1 1 1 1 1 1 1 1 1 1 1 1 1 1 1 0.012454771267790621 1 1 1 1 1 1 1 1 1 1 1 0.013124418019938128 1 1 1 1 1 1 1 1 0.012853798112181406 1 1 1 1 1 1 1 1 1 1 1 1 1 1 1 1 1 1 1 1 0.010392841582432005 1 1 1 1 1 1 0.0092320790449252274 0.0099570445219722761 1 1 1 1 1 1 0.010458926202755191 1 1 1 1 0.010114294726883773 1 1 1 1 1 1 1 1 1 1 1 1 1 1 1 0.009956825680545036 1 1 1 0.0098395945789792206 1 1 1 1 1 1 1 1 1 1 1 1 1 1 1 0.010421049269737491 1 1 1 1 1 1 0.011178648940797844 0.011819838848919767 0.010036046577878798 1 1 1 1 1 1 0.015406586472222983 1 1 0.015672820179983553 1 1 1 1 1 1 0.01000812800532651 1 0.010360420181591379 1 1 1 1 1 1 1 1 0.010098246627869626 0.011275011884476346 0.012413371946631589 1 1 1 1 1 1 1 1 1 1 0.012387183552855769 1 1 0.012103927909739593 1 1 0.010034628593927765 0.012217131070257216 1 1 1 1 1 1 1 1 1 0.010642035842445673 1 1 1 1 0.01700447948756275 0.013462450351952603 1 0.011872584498934 1 1 1 1 1 1 1 1 1 0.013603033151783043 0.010005924525048393 1 0.01039207307185851 1 1 1 0.010547996343057071 1 0.011138257554534259 1 1 1 1 1 1 1 1 1 1 1 1 1 1 0.011069306272209709 1 1 0.011591062860403147 1 1 1 0.0098415515031491287 1 1 1 1 0.0099808122767648215 1 1 1 1 1 1 1 1 1 1 1 1 1 0.011159437180308145 1 1 1 1 1 1 0.010483602038419155 1 1 1 1 1 1 1 0.013863790316467207 1 0.012608258888720674 1 1 1 0.014418193263902878 1 1 1 0.0099323488196143873 1 1 1 1 1 1 0.0097086622014330246 1 0.014963157359124284 1 1 1 1 1 1 1 0.012695141534457575 0.010317308226850574 1 1 0.011656810423866921 1 1 1 0.01262719707659565 1 1 0.013015249137278275 1 1 1 0.016909866291087067 1 1 1 1 1 1 0.012522045703612001 0.0091690812575262216 1 1 1 0.015729667640666863 0.014359544503415169 1 0.0084758906009597176 0.01792896096118669 1 1 1 0.0097862514524698213 0.010093041156880367 1 1 1 1 1 0.0094559323242040475 1 1 1 1 1 1 1 1 1 1 1 1 1 1 1 1 1 1 1 1 1 1 1 1 1 1 1 0.0098209551537086492 1 1 1 1 1 1 1 1 1 1 1 1 1 0.016138127430456596 0.016007139547517021 1 0.0099373502895503361 0.011365167526244108 1 1 0.010273399057642262 0.011136036749904698 0.0097781614619061596 1 1 0.010235196763673812 1 0.010075245584254298 1 1 1 1 0.0094952701511593803 1 1 1 0.012621019683566553 1 0.011185294622472048 1 1 0.0092018922391898135 1 1 1 1 0.014290290588855399 0.010553735236320076 1 1 1 1 0.010545245595073537 1 1 0.010691268397560613 1 1 1 1 1 1 1 1 1 0.011040039375626509 1 1 1 0.011166006955424978 1 1 0.011602004630463165 0.0099978072036582977 1 1 1 1 1 1 0.013440400058248128 1 1 1 1 1 1 0.010978779659261487 1 1 1 1 1 1 1 1 1 0.0099947665134056049 0.0099637137780536067 1 0.01304203564130586 1 1 1 1 1 1 1 1 1 1 1 1 1 1 1 1 1 1 1 1 1 1 1 1 1 1 1 1 1 1 1 1 1 1 0.0099944900604728073 1 1 1 1 1 1 1 1 1 1 1 1 1 0.0099980845348686814 1 1 0.018628166449883535 0.011623318637211645 1 1 1 1 1 1 0.018085632228371045 1 1 0.01094498410397114 1 1 1 0.012173771566502518 0.013235246032713765 1 1 1 1 1 1 1 1 0.014339172156556002 1 1 0.010005648943438014 1 1 1 1 1 1 1 1 1 1 1 1 0.011873941360701573 0.01838740885958124 1 0.0097598539139294675 1 1 0.010238285302998765 1 1 0.019822619418374147 1 1 1 1 0.010238781039502343 1 1 0.010544201904221735 1 1 0.010004010918109251 1 1 0.015790567080995674 1 1 0.015210643959946389 0.0097283378521396367 1 0.019181480803459605 1 1 1 0.012746036512799501 1 1 1 1 1 1 1 1 1 0.010203166640499485 1 1 1 1 1 0.015125975604735277 1 1 0.010997433645183272 1 1 1 1 1 1 0.018486980013937636 1 1 1 0.017626525388206138 0.012869326744498776 1 1 1 1 1 0.017165242623053668 1 0.012761085323090915 1 1 1 0.010599760412588149 1 1 1 1 1 1 1 1 1 1 1 1 1 1 1 0.010606205467677989 1 1 1 1 1 1 1 1 1 1 1 1 1 1 1 0.010198318247465872 1 1 1 1 1 1 1 1 0.010336635916842127 1 1 1 1 1 1 1 1 1 1 1 1 1 1 1 1 1 1 1 1 1 1 1 1 1 1 1 1 1 1 1 1 1 1 1 1 1 1 1 1 0.010411040368130049 1 0.011042311944660438 1 1 1 1 1 1 1 1 1 1 1 1 1 1 1 1 1 1 1 1 1 1 1 1 1 1 1 1 1 1 1 1 0.010963687709233413 1 1 1 1 1 1 0.012438787508582488 1 1 1 1 1 1 1 1 1 1 1 1 1 0.010510617996988264 0.010001113166239459 1 1 0.010065583855422054 1 1 1 1 1 1 1 1 0.010392898886040385 1 1 1 1 1 1 1 1 1 1 1 1 1 1 1 1 1 1 1 1 1 1 1 1 1 0.011491284017846826 0.0099988959022353878 1 1 0.011832539165597018 1 0.010568084487733737 1 1 1 1 1 1 1 1 1 1 1 1 1 1 1 1 1 1 0.012030067060860445 1 0.0099479380455518521 1 0.0099979253532540904 1 1 1 1 1 1 1 1 0.009985471406246671 1 1 1 1 1 1 1 1 0.010015974353073291 1 1 1 1 1 1 1 1 1 1 1 1 1 1 1 1 1 1 1 1 1 1 0.010099440670266514 1 1 1 0.010004360685026635 0.0099461166735889013 1 1 1 1 1 1 1 1 1 1 1 1 1 1 1 0.0098597022464588738 1 1 1 1 1 1 1 1 0.010668432652587533 1 1 1 1 1 1 1 1 1 1 1 1 1 1 1 1 1 1 1 1 0.010091867771349976 1 1 1 1 1 1 1 1 1 1 1 0.010514309835010213 1 1 0.010068588034791517 1 1 1 1 1 1 1 0.009737534496526104 1 1 0.012250337922306677 1 1 1 1 0.010787514321379397 1 1 0.009628227389495642 0.009564753304642586 1 1 1 0.010608582704288081 1 1 1 1 1 1 0.010299335420649517 1 1 1 1 1 1 1 1 0.011951607510561945 1 1 1 1 1 0.011610767834877106 1 1 1 1 1 1 0.011283399224311748 1 1 0.01074831746453909 1 1 1 1 1 1 1 1 1 1 0.010240990191239771 0.010497627825026109 1 1 0.010303106837715148 0.010203672069151081 1 1 1 1 1 0.010128945712901837 1 1 0.0099684551554543969 1 0.0102232590861488 1 1 0.010268912764003114 1 0.010232576711633155 1 0.0099314179251060505 1 0.0099248741587823434 1 0.010215581891845396 1 0.010302684472348327 1 1 1 1 1 0.010035930085549621 1 1 1 1 0.01066719051560798 1 0.010091759815124881 1 1 1 0.010374815085170845 0.010029754667872207 1 1 1 1 1 1 1 1 1 1 1 0.010115826384600783 1 1 1 1 1 1 1 1 1 1 1 1 1 1 1 1 1 1 1 1 1 1 1 0.010269333439569603 1 1 1 1 1 1 1 1 1 1 1 0.0098008867732466316 1 1 0.0098946608347732952 0.010196014654082588 0.010006831927086924 1 1 1 1 1 1 1 1 1 1 0.009572179629250565 0.0099051733291820078 1 1 1 1 0.0094525569488561612 1 1 1 1 1 1 0.010296380735691103 1 1 1 1 1 1 1 1 1 0.010385808468694819 1 0.0099630603340072239 1 1 1 1 1 1 0.010614729133872534 1 1 1 1 1 1 1 1 1 1 1 1 1 1 1 1 1 1 1 1 1 1 1 1 1 1 1 1 1 0.010743325323040464 1 1 0.0099832860258328073 1 1 1 1 1 1 1 0.010925192813441204 1 1 1 1 1 1 0.011510785788602967 1 1 1 1 0.013135282089473437 1 0.010950484575408641 1 1 0.010148008990903627 1 1 1 1 1 1 1 0.010018021055679277 1 1 1 1 0.012855568142243047 1 1 1 1 1 0.01127281095936869 1 1 1 1 1 0.010486260863530489 1 1 0.012399682240729747 1 1 1 1 1 1 1 1 1 0.010232918229098087 1 1 1 1 1 1 1 1 0.010110428829229526 1 0.010252267059791081 1 0.010254061309492831 1 1 1 1 1 1 1 1 1 1 1 1 1 1 0.0098807564828599145 1 1 1 1 0.0094189834200677988 1 0.012045514427499243 1 0.010295945145929448 1 1 1 0.010122783113585795 1 1 1 0.01015510259420848 1 0.012840954969040249 1 1 1 1 1 1 1 1 0.010728671183150146 1 1 1 1 1 1 1 1 0.012674333446027777 1 1 1 1 1 1 1 1 1 1 1 1 1 1 1 1 1 1 1 1 1 1 0.010093891768677128 0.011978303252804981 1 1 1 0.010005028905482209 1 0.01135674252899984 1 0.020535344245764506 1 1 0.011778646029445337 1 1 0.0096097284344343302 1 1 1 0.01582707090474178 1 1 1 1 1 1 1 1 0.014700868308634889 1 1 0.012032243802478634 1 1 1 1 1 1 1 1 1 0.010060431485591602 0.013783630642406673 1 1 1 1 0.012854294339891 1 1 1 1 1 1 1 1 1 1 1 1 1 0.011974192678404863 1 1 1 0.010066050353081779 1 0.011178288501431748 1 0.010236190133121425 1 1 1 0.0098894579422350755 1 1 1 1 1 1 1 1 1 1 1 1 1 1 1 1 1 1 1 1 1 1 0.00896668896981739 1 1 1 1 1 0.010186633386572998 1 0.009092432428153871 1 1 1 0.010147869755846407 1 1 1 1 1 1 1 1 1 1 1 1 1 1 1 1 1 1 1 1 1 1 1 1 1 1 1 1 1 1 1 1 1 1 1 1 1 1 1 1 1 0.010374061847249028 1 1 1 1 1 1 1 1 1 1 1 1 1 1 1 0.010430321086306659 1 1 1 1 1 1 1 1 1 1 1 1 1 1 0.010493830947902703 1 1 0.010201847870674755 1 1 1 1 1 1 1 1 1 1 1 0.0099807980132083328 1 1 1 1 0.011803430244626508 0.012086883929706756 1 0.011844755557189127 0.011903624256733634 0.01241799835861997 1 1 1 1 1 0.0099247939582451511 1 1 0.01139923003455676 0.011005975863919737 1 1 1 1 1 1 1 1 1 0.00962524689818583 1 1 1 1 0.0095110763754992778 0.011144436394947015 0.011688515937486569 1 1 0.010840733145304489 1 1 0.011658630832618231 1 0.011949959747257589 0.011133779442871012 1 1 1 1 1 1 1 1 1 1 1 1 1 1 0.01194686374881905 1 1 1 1 0.012075217170394439 1 1 0.010061047944039569 1 0.011572787307437911 0.0098145200246869367 1 0.010894419994294843 0.01024685923383368 1 1 1 0.010170090117513552 1 1 1 0.01174621362313924 1 1 1 1 1 1 1 1 0.010023377993781427 1 1 0.010787550262973958 0.0099988849682648602 0.012219479104645277 1 1 1 1 0.010112521808671508 1 1 1 1 0.010929446701127157 1 1 1 1 1 1 1 1 1 0.010291983077227946 1 1 1 1 1 0.011335447371738836 0.010722275254325037 1 1 1 1 1 1 1 1 1 1 1 1 1 1 1 1 1 1 1 1 1 1 1 0.011692219492514651 1 0.010311930943886405 1 1 0.01031036569723544 1 1 1 1 1 1 1 1 1 1 0.015242597830071961 1 0.014159846224089719 1 1 1 1 0.015561036633024061 1 1 1 1 1 1 1 1 1 1 1 1 0.012828190673048707 1 1 0.0118498148636408 1 0.011622819440402473 1 0.010064865600652242 0.015261821840240294 1 1 1 1 0.011452621198270872 1 0.01119305567254242 1 0.012628687019658059 0.0095858994439482464 1 1 0.010219872187200735 1 1 1 1 0.010909200529897056 1 0.0097811312549729509 1 1 1 1 0.010344235089984003 1 1 1 1 1 1 1 1 1 1 1 1 1 1 1 0.010489488326312907 0.010209638233577366 1 1 1 0.0093603915543554288 1 0.014239995855629231 1 1 0.012098844279643447 1 0.0096780139635898269 0.0098544373220586304 1 1 1 1 1 1 0.0098277432151074283 1 1 1 0.016459717054246488 1 1 1 0.0098383959431846291 1 1 1 1 1 1 1 1 1 1 1 1 1 1 0.010424887298675824 1 1 1 0.010062258504678153 1 1 0.0098595647383742466 1 1 0.0093808222935058416 1 1 1 1 1 1 1 1 0.0098024409279576143 0.0092801960616070121 1 0.010899023394814977 1 0.010393620764112432 1 0.0095426370285750552 0.012192520233740347 0.012721788756927045 0.01178016609200877 0.011585094815355579 1 1 1 1 1 0.010245897326018898 1 1 1 1 0.01000311617227957 0.012644994037922411 1 1 0.012876564638433079 1 0.011399255829390852 1 1 0.011968585631652533 0.0090126368042683872 1 0.011138943005763291 1 1 1 1 1 1 0.012897382241206908 0.010264332132503561 1 1 1 1 1 1 0.0098648365306092008 1 1 1 1 0.010008077489449062 1 0.010714230241043777 1 1 1 1 1 1 1 1 1 1 1 1 0.015357224994275366 1 0.011325445627849654 1 0.0084213843411042946 1 0.0099389501165399689 1 1 0.012277403800357153 1 0.0086091520594995911 1 1 1 1 1 1 1 1 1 1 0.0088225529508220435 1 1 1 1 1 1 1 1 0.0108997970779958 1 1 1 1 1 0.012000456436707435 1 1 1 1 1 0.010217850880498676 0.011838917716683158 1 1 1 1 0.010584848047027981 0.010307592290978891 1 1 1 1 1 1 1 1 1 1 1 1 0.01012847121315656 1 1 0.01145960734673278 1 1 1 1 0.0096858923145622111 0.011977344918043253 0.016492657135913691 1 1 1 0.0088784461520805252 0.0094630935645291601 1 1 0.0098384810893495933 1 1 1 1 1 1 0.011362881782301323 1 0.012901555090844442 0.0099880392258075226 1 1 1 1 0.015857623834378221 0.0094572026207625295 0.014297282271415296 1 1 0.010287869517350348 1 1 1 0.010003486965220656 1 1 0.0099996771351263669 1 1 1 1 1 0.01250087059542274 0.010856956166984297 1 1 0.010003483727419164 1 1 1 0.0095919496298265128 1 1 1 1 1 1 1 1 1 1 1 1 1 1 0.0094576572836094549 0.010026878521493742 1 1 0.012270989006949685 1 0.0098575255661326813 1 1 1 1 0.010302704490057501 1 1 1 1 1 1 0.010029120165008445 1 0.010071841423092524 1 1 1 1 0.010867653919169688 0.012037211251385601 1 0.010445419569833962 1 1 1 0.011254028262219992 0.011434904118012396 1 1 0.010015869347562248 1 1 1 1 1 1 1 0.010005741093231251 1 1 1 0.010036272519233254 1 1 0.010032298245817983 1 1 0.010946238465376609 1 1 1 0.011234948287575455 0.011499250268384957 1 1 0.010353215799549039 1 1 1 1 1 1 1 1 1 1 0.010398111642438009 1 1 1 1 1 1 1 1 1 1 1 1 1 1 0.010052670654064087 1 1 1 1 1 1 1 1 1 1 1 1 1 1 1 1 1 1 1 1 1 0.011497124185608647 1 1 1 1 1 0.0097457432755221462 1 1 1 1 1 1 1 1 1 1 1 1 1 1 1 1 1 1 1 1 1 1 1 1 1 1 0.011473832829531088 1 1 1 1 1 1 1 0.0099519105264908383 1 0.01051706772248256 1 1 1 1 1 1 0.010042989745445109 1 1 0.0092401576079194289 1 1 1 1 1 1 1 1 1 1 1 1 1 1 1 1 1 1 1 1 1 1 1 1 1 1 1 1 0.014382104261579759 1 1 0.013584155373265367 1 1 1 1 1 1 1 1 1 1 1 1 1 0.010176571565598183 1 1 1 1 0.0100514722345548 1 1 1 1 0.0099552029361961135 1 1 1 1 1 0.010012478197204841 1 1 1 1 0.010116626177967426 1 1 0.010449714786842342 1 1 1 0.010210961192468814 1 1 1 1 0.0099876844699934176 1 1 1 1 0.0097309433449143824 1 1 1 0.010218287431250347 0.010626077438535463 0.010373300825349312 1 1 0.010491018334072786 1 1 1 1 0.010881797486745125 0.010154222024686046 1 0.010501000107353258 1 1 0.0096804300024817859 1 1 1 0.011238064941502137 1 1 0.0090902642378717646 1 1 0.00973234875188278 0.014241426099345452 1 1 0.014491690516327125 1 1 1 1 1 1 1 1 1 1 1 1 1 1 1 0.010141782017248418 1 1 1 1 1 1 1 1 1 1 1 1 1 1 1 1 1 1 1 0.01008853459615359 1 1 1 0.010256475678458899 1 0.010175144748864216 1 0.010096349298973925 1 1 1 1 0.010839179525111084 1 1 1 1 1 1 1 1 1 1 1 1 0.011386452282035751 1 1 1 1 1 1 1 1 0.0098840446008316429 1 1 1 1 1 1 1 1 1 1 1 1 1 1 1 1 1 1 1 1 0.010002702857364827 1 1 1 1 1 1 1 1 0.0094081040278258983 1 1 1 1 1 1 1 1 1 1 1 1 1 0.011186337360653626 1 0.01024510055755784 1 0.010742578604250326 1 1 1 1 1 1 1 1 1 1 0.010069805103753967 1 0.011283287264304038 1 1 1 1 1 1 1 1 1 0.010026071021446082 1 0.010063463054048276 1 1 0.010181043557569727 1 1 1 1 1 1 0.009908870819228012 1 1 1 0.0096738433278250931 0.011043860053842921 1 1 1 1 1 1 1 1 1 1 1 1 0.010827832988496697 1 0.010351151455938474 1 1 1 1 1 1 1 1 1 1 1 1 1 1 0.011104506551549662 1 1 1 1 1 0.010567092135689177 1 1 1 1 1 1 1 1 1 1 1 1 1 1 1 1 1 1 1 1 1 1 1 1 1 1 1 1 1 1 1 1 1 1 1 0.010475224364339199 1 1 0.010944137792768815 1 1 0.011038132445603579 1 1 1 1 1 1 1 1 1 1 1 1 1 1 1 1 1 1 1 1 1 1 1 1 1 1 1 1 1 1 1 1 0.010447935729064132 1 1 1 1 1 1 1 1 1 1 1 1 1 1 0.010196187195183287 1 1 0.01094659924103605 1 1 0.011228610500554417 1 1 1 1 1 1 0.010310840065224709 0.011009228949648391 1 1 1 1 1 1 1 1 1 1 1 1 1 1 1 1 1 1 1 1 1 1 1 1 1 1 1 1 1 1 1 1 1 1 1 1 1 1 1 1 1 1 1 1 0.010285806247110927 1 1 1 1 1 0.009627449559634238 0.010567421534373013 1 1 1 1 1 1 1 1 1 1 1 1 1 1 1 1 1 1 1 1 1 1 1 1 0.0097139242099822873 1 1 1 1 1 0.0098864719456978074 1 1 1 1 1 1 1 0.010071046540854342 1 1 1 1 1 1 1 0.012633152235157276 1 1 1 1 1 1 1 1 1 0.010379240040510497 1 1 1 1 1 1 1 0.011112133714638976 1 1 0.011126139633284193 1 1 1 1 1 1 1 1 1 1 1 1 1 1 1 1 0.012352556241590004 1 1 0.012824111105630292 1 1 1 1 1 1 1 1 1 1 1 1 1 1 1 1 1 1 1 1 1 0.010269520843040466 1 1 1 1 1 1 1 0.010707299044896937 1 1 1 1 0.012020655180489405 1 1 1 1 1 1 1 1 1 0.011485378591935373 1 1 1 1 1 0.011826949778836974 1 1 1 0.012108590583107075 1 1 1 0.00999901058751268 1 1 0.010457993566158558 0.011255855620116686 1 1 1 0.012122189527289025 1 0.010048856436666215 1 1 1 1 1 0.010143067192525428 1 1 1 1 1 1 1 1 1 1 1 1 0.01178809787270513 1 0.011541487437220345 1 1 1 1 1 1 0.0099985485727803886 1 1 1 1 1 0.010263978193248462 1 1 1 0.010261894815516509 1 1 1 1 1 1 1 1 0.01009574133780383 1 1 1 1 1 1 0.0099354871284014178 1 1 1 1 1 0.012128999082025861 1 1 0.011265644470777915 1 0.010217373308265875 1 1 1 1 1 1 0.01002396650342567 1 1 1 1 0.010024013800075995 1 1 1 1 1 0.0099891696648274336 1 1 1 1 1 1 1 1 1 1 1 1 1 1 1 0.011834520819229491 1 1 1 1 0.011999637342953407 0.0099434437241971915 1 1 1 1 1 1 1 1 0.010086558356239039 1 1 1 1 1 1 1 1 1 1 1 1 0.010107591118583744 1 1 0.010271855039121305 1 1 0.010005824637005205 1 1 1 1 1 1 1 0.0099896651397575649 1 0.011177057688677033 0.010433601554303526 1 1 0.0099778719874388192 1 1 1 1 1 1 0.0097610054363942381 1 1 0.011080194658229292 1 0.01045920050606897 1 1 1 1 1 1 1 1 1 1 1 1 1 0.010742727553771581 1 1 1 1 1 1 0.011575391661663074 1 1 1 1 1 1 1 1 1 1 1 0.010263510268829591 1 1 0.010160126379484959 1 1 1 0.0098560512836552011 1 1 1 1 1 1 1 1 1 0.010286917907635931 1 1 1 1 1 1 1 0.010939757591734812 1 1 1 1 1 1 1 0.011485503791990375 1 1 1 0.00951209119775916 1 1 1 1 0.010367192349979903 1 1 1 1 1 1 0.010475649160257497 1 1 1 1 1 1 1 1 1 1 1 1 1 1 1 0.010876149619663685 1 0.0095859944448550526 1 1 0.011090882243332592 1 1 1 1 1 1 1 0.009956075599455886 1 1 1 1 1 1 1 1 1 1 1 1 1 1 1 1 1 1 1 1 1 1 1 1 1 1 1 1 1 1 1 1 1 0.010164293551634736 1 1 1 1 1 1 1 1 1 1 1 1 0.010400206709737804 1 1 0.010000283754954695 1 1 1 0.010509912054444402 1 1 1 1 0.010432847531622014 1 1 1 1 1 0.01018968814510517 1 1 1 1 1 1 1 1 1 1 1 1 1 1 1 1 1 1 1 1 0.010331587698909938 0.009955529450825255 1 1 1 0.0099074770632691933 1 1 1 1 0.010119775257807852 1 1 1 0.010345941584723288 1 1 0.010811807068600972 1 1 1 1 1 1 1 0.010860455920736442 1 1 1 1 1 1 1 1 1 1 0.010046836405783965 1 1 1 1 1 1 1 1 1 1 1 1 1 1 1 1 1 1 1 1 1 1 1 1 1 1 1 1 1 1 1 1 0.010430963189981948 1 1 0.010906612350239448 1 1 1 1 1 1 0.011619604627419514 1 1 0.01134220130595699 1 1 1 1 1 1 1 1 1 1 1 1 0.01070966552724548 1 0.01156915134313358 1 1 1 1 1 1 1 1 0.011542446148007987 1 1 1 0.010682960332119906 1 1 1 1 1 1 0.010348899289509035 1 1 1 1 1 1 1 1 1 1 1 1 1 1 1 0.010117633664479124 1 1 1 1 1 1 1 1 1 1 1 1 1 1 1 1 1 1 1 1 1 1 1 1 1 1 1 1 1 1 1 1 1 1 1 1 1 0.011115149936065539 1 1 1 0.010801905932611156 1 1 1 1 1 1 0.010533379704291725 1 1 1 0.01029900424704166 1 1 1 0.010395234732709938 1 0.0099157313182114751 0.010650348291018611 1 1 1 1 1 1 1 1 1 1 1 1 1 0.010258331446848816 1 1 1 1 0.010055928392260723 1 1 1 1 0.015424343567636395 0.010045031032275303 1 0.013076002832046343 1 0.010461522935521078 1 1 1 1 1 1 0.010018358463222646 1 1 1 0.012461858858690257 1 1 0.011612867182330009 1 1 0.011740561933380243 1 1 0.01204301447846744 1 1 0.010119636670271525 1 1 0.0099750164566175265 1 1 0.0098232207063709484 1 1 0.01016225289969111 1 1 0.010018545637208991 0.010884562389512218 1 1 1 1 1 1 1 1 1 1 1 1 1 1 1 1 1 1 1 1 1 1 1 1 1 0.0098564152007390264 1 1 1 1 1 1 0.011100657887869752 1 1 1 1 0.0093935425202382357 1 1 0.0096071045492161257 1 0.009922356548026031 1 1 0.0099446916106885885 1 1 1 0.0097187534434060412 1 1 1 1 1 1 1 1 1 1 1 0.0099501060268600144 1 1 1 1 1 1 1 0.010786618224637888 1 1 1 1 1 1 0.011258163753619611 1 1 1 1 1 1 1 1 0.010012524407963371 1 1 1 0.010009772091943859 1 1 1 1 1 1 1 1 1 1 1 1 1 1 1 0.0099797030990686555 0.0098947789922846207 1 1 1 1 1 1 1 1 1 1 1 1 1 1 1 1 1 1 1 1 1 1 1 1 1 1 1 1 1 1 0.010223772118721755 1 1 1 1 1 1 1 1 0.010057544121402051 1 1 1 1 1 1 0.011428989204537315 1 1 1 1 1 0.010215069155396468 1 0.011358906955378599 1 1 1 1 1 0.011191019742095147 1 1 1 1 1 1 1 1 1 1 0.010394590436858761 1 1 1 1 1 1 1 1 1 0.010545849877250442 1 1 1 1 1 1 1 1 1 1 1 0.010613826820255173 1 1 1 1 1 1 1 1 1 1 1 1 1 0.010426991556220044 1 1 1 0.010974555124664279 1 1 1 0.010631411309986955 1 1 1 0.010293100708100503 1 1 0.010774418268657316 1 1 1 1 1 1 1 1 1 1 1 1 1 1 1 1 1 1 1 1 1 0.011223094591210726 1 1 1 1 1 0.01001942195563924 1 1 1 1 1 0.0098763652953273336 1 1 1 1 1 1 1 1 1 1 1 1 1 1 1 1 1 0.010706462067793519 1 1 1 1 1 1 1 1 1 1 1 1 1 1 1 1 1 1 1 1 1 1 0.010203774073900405 1 1 1 1 1 1 1 1 1 1 1 1 1 1 1 1 1 1 1 1 1 1 1 1 1 1 1 1 1 1 1 1 0.010174624767363244 1 1 1 1 1 0.01000717981751406 0.010074342464910698 1 1 0.010055305036874568 1 1 1 1 1 1 1 1 1 1 1 1 1 1 1 1 1 1 1 1 1 1 1 1 1 1 1 1 1 1 0.010574505198663481 1 1 1 0.010001825057638839 0.010884680390234071 1 0.010000278005139475 1 1 0.010304177329018878 1 1 0.010079405127646752 1 1 0.010757553743231211 1 1 1 0.01000251738804458 1 0.01089152750141309 0.010897754375916929 1 0.0099502101875151884 1 0.010797782362396417 1 1 1 1 0.0098539139923724487 1 1 1 1 1 0.0099533111570461255 1 1 1 1 1 1 1 0.0099974019223722406 1 1 1 0.010023874107109702 1 1 1 1 1 0.013126675168718016 1 0.010565653358165056 1 1 1 1 1 1 1 0.01080355503581279 0.010992099504220471 1 1 1 1 1 1 0.011396736693939011 1 1 1 1 1 0.0099999154978569031 1 1 0.010275859810472361 1 1 0.010654771796297945 1 1 1 1 1 1 1 1 1 1 1 1 0.010012611090841124 1 1 1 1 1 1 1 1 1 1 1 1 0.010646266575456602 1 1 0.010790839984770486 1 1 1 0.011353401181433284 1 1 1 1 1 1 1 1 1 1 1 1 1 0.010964722207723378 1 0.011359406530311549 1 1 1 1 1 0.012129572305126509 1 1 1 1 1 1 1 1 1 1 1 1 1 1 1 1 1 1 0.010723094092170078 1 0.012578581414920725 1 1 0.011237637130556307 0.012489197293311567 1 1 1 1 1 1 1 0.0099870537528181178 1 1 1 1 1 0.01000338243111089 1 0.0096874784506032763 1 1 1 0.010653720771561428 1 0.010433083281899624 1 1 1 1 1 0.010024040648318869 1 1 1 1 1 1 1 1 1 1 1 1 1 1 1 0.010003235737638855 1 1 1 1 1 1 1 1 1 1 1 1 0.01146299424229635 1 1 1 1 1 1 1 1 0.01075562380151562 1 1 1 1 1 0.011102885751313074 0.011215004222781559 1 1 0.01225422916160868 1 0.0099911197717612883 1 0.01000806739528318 1 1 1 1 1 1 1 1 1 1 1 1 1 1 1 1 1 1 1 1 0.010229053557438219 1 0.012857660022958493 1 1 1 1 0.011303029895673753 1 1 1 1 1 1 1 1 1 0.010112387588099844 1 1 0.010108184579650535 1 0.0099071216543356322 1 1 1 0.012983284698559012 0.01049945409094852 1 0.010052733156295386 1 1 1 1 1 1 1 1 0.0099501543931937424 0.0098116402987454276 0.010219681847895453 1 1 1 1 1 1 0.010114549223403803 1 1 1 1 1 1 1 1 1 1 0.010267608273372086 1 1 1 0.010057909086272 1 1 1 1 1 1 1 1 1 1 0.011605566303489509 1 1 1 0.0099999059188541004 0.01059049726795926 1 1 1 0.011236492849509953 1 0.010022360415413475 0.0089563839632470013 1 1 0.011543688331887741 1 1 1 0.0099902519206389699 1 0.0099949944465562313 1 1 1 1 1 1 1 1 1 0.010963085714917328 0.0099997156189213354 1 1 1 0.010071228445972006 1 1 1 1 1 1 1 0.010577556731921922 1 1 1 1 1 1 1 0.010192679084859583 1 1 1 1 1 1 1 1 0.010896190573261874 1 1 1 1 1 1 1 1 0.01028603831350206 1 1 1 0.010821059438686326 1 1 1 1 1 0.010458749052756969 1 1 1 1 1 1 1 1 1 1 1 0.010095871576899226 1 1 0.010546012000945456 1 1 1 0.010748022978856176 1 1 1 1 1 1 1 1 1 0.011005753682493086 1 1 1 1 0.010471657848791827 1 1 1 1 1 1 1 1 0.012459858857990651 1 1 1 1 1 1 1 1 1 1 0.010991072914132375 1 1 1 1 1 1 1 0.010535321268709734 1 1 1 1 1 0.010365227338494739 1 1 1 1 1 0.0095367040735315142 1 1 1 1 1 1 1 1 1 1 1 1 1 1 0.010092781390836001 1 1 1 1 1 1 1 1 1 1 1 0.010066080131163786 1 0.010113267928816927 1 1 1 1 1 1 1 1 1 1 1 1 1 1 0.010979565551022774 0.016598063603740686 1 1 0.015651737944957514 1 1 1 0.011731590361613961 1 1 1 1 1 0.016032439246445391 0.010003269307682708 1 1 0.010031429877894914 1 1 1 1 1 1 0.012799982531660113 1 0.01305230411039872 1 1 1 1 1 1 1 1 1 1 1 1 1 0.009966948115858125 1 1 1 0.012648665020931329 0.012620375345221429 1 1 1 1 1 1 1 1 1 1 0.010120605141279358 1 0.012796145214838069 1 1 1 1 1 0.011154891248174991 1 1 0.010340746478346791 1 1 1 1 0.011488619119813095 1 1 0.010669506919269153 1 0.010166827683783691 1 0.0098904857204842791 1 1 0.011931571334302745 1 0.008002598181979478 0.012607336894574828 1 0.01037912473829402 1 1 1 0.010375320162039859 0.01020449586844104 1 1 0.0099564685960771317 1 1 1 0.011129970830178647 0.012215258739596465 0.0096765083555617575 1 1 1 1 1 1 0.011400317700021293 1 1 1 0.0099628009169064596 0.010480374060291791 1 1 1 0.010481450479366255 1 1 0.011286263696430796 1 1 1 1 0.012101163109058826 1 0.01133043341002651 1 1 1 1 1 0.010128518926536779 1 1 1 1 1 1 1 1 1 1 1 1 1 1 1 1 1 1 1 1 1 1 0.010460443844292459 1 1 1 1 1 0.011282137575070692 0.010889179750318953 1 0.010863984231369856 1 1 1 1 1 0.01031349100941514 1 1 1 1 1 0.011051331565743651 1 1 1 0.010621150583976531 1 0.01028903148385722 1 1 1 1 1 0.016387028289938141 1 0.010088510106192125 1 1 1 1 1 1 1 1 1 0.0095538902686195352 1 1 1 0.012580427218167937 1 1 1 0.0098314686209378319 1 1 1 1 1 1 0.010316322069594368 1 1 0.0095943908797816429 1 1 1 1 1 1 1 0.0098908201529156695 1 1 1 1 1 1 1 1 1 1 1 1 1 1 1 1 1 0.010398336050912787 1 1 1 1 1 1 0.012876767968737487 1 1 1 0.012993264086583516 0.010192062085855763 1 1 1 1 1 1 1 1 1 1 1 1 0.012595707473107006 0.012522952442566357 1 1 1 1 0.012505374637777279 1 0.012366726730263948 1 1 1 1 1 1 1 1 1 1 1 1 1 1 1 1 1 1 1 1 1 1 1 1 1 1 1 1 1 1 1 1 1 1 1 1 1 1 1 1 1 1 1 1 0.015263766491069804 1 1 1 1 1 0.015245457184249311 1 1 1 1 1 1 1 0.0095892559272732387 1 0.01717342810697688 1 1 1 1 1 1 1 0.0092881421267749682 1 1 1 1 1 1 0.016809140319166416 1 1 1 1 1 1 1 1 1 1 1 1 1 1 0.0097541227803551126 1 1 1 1 1 1 1 1 1 1 0.010149227293164925 1 1 1 1 1 1 1 1 1 1 1 1 1 1 1 1 1 1 1 1 1 1 1 1 1 1 1 1 1 1 1 1 0.010298298162778632 1 1 0.0099923724957371226 1 0.010149070869613707 1 1 0.010064821875711484 1 1 0.012183735684960447 1 1 0.0092467193382929965 1 1 1 1 1 1 1 0.010920362735888509 0.010641308733677647 1 1 1 0.01083090751654836 1 1 1 1 1 1 1 1 1 1 1 1 1 1 1 1 1 1 1 1 1 1 1 1 1 1 1 1 1 0.010077774194037395 1 1 1 1 1 1 1 1 1 1 1 1 1 1 1 1 1 0.010423831762039235 1 1 1 1 1 1 0.010876753574954405 1 1 1 1 1 1 0.010424276964849422 1 1 1 1 1 1 1 1 1 0.010756003077561378 0.010676826783735525 1 1 1 1 1 1 1 1 1 0.010443925227255017 1 1 1 1 1 1 1 1 1 1 1 1 1 1 0.010058795209165139 1 1 1 1 1 1 1 1 0.010397742867020211 1 1 1 1 1 0.009760392449561393 1 1 1 0.011312336782621458 1 1 1 1 0.0099383990685303555 0.010059220569381577 1 1 1 1 1 1 1 0.010079442971011583 1 1 1 1 0.011029049878860667 1 0.0097815677139974563 1 1 1 0.01232279230913132 1 1 0.0096092047516851929 1 1 1 1 1 1 1 1 1 1 1 1 1 1 0.010023795419795464 1 0.010559056670564622 1 1 0.0093874866709613061 1 1 1 0.010605157930572299 1 1 1 1 1 1 1 1 1 1 1 1 1 1 1 1 1 1 1 1 1 1 1 1 1 1 1 1 1 1 0.010453273782470407 1 1 1 1 1 1 1 1 1 1 1 1 1 1 1 1 0.013582187745497243 1 1 1 1 1 0.011560444284536443 1 1 1 1 1 1 0.0092462078564034145 1 1 1 1 1 1 1 0.011007572436028425 1 0.0096279778574086695 0.011720103994359823 1 1 1 1 0.014343753877565379 1 0.0092743991951480514 1 0.0079130299175370813 0.012149660846095596 1 0.011286706757876425 1 0.0091622444884521502 0.011354751404455422 1 0.010022766950762098 0.010562959101173785 0.011004601269121339 1 1 1 1 0.010019409513676452 1 0.011149270913379942 0.0097060282771090529 1 1 0.010195259942217798 1 1 1 0.01068891046559445 1 1 0.010566758194342904 1 1 0.010369473619002798 1 1 0.011336839353593808 1 0.010020492207534379 1 1 0.011183068458344998 1 1 1 1 1 1 1 1 1 1 0.010925068232634016 1 0.014658050221428614 0.011419991333205783 1 1 1 1 0.0097735069864055713 0.014640178338213572 1 1 1 1 0.010471728456662804 1 1 0.009455292945704066 0.014198232841010572 1 1 1 1 1 1 1 1 1 1 1 1 1 0.01056239489481748 1 1 1 1 1 1 0.011312736950316909 0.012659687977512542 0.011358516570357335 0.0098452720867093155 1 1 1 1 1 1 1 1 1 0.01071298112903581 1 1 1 1 1 1 1 1 1 1 1 1 1 1 1 1 1 1 1 1 0.010471598673614239 1 1 1 0.01083532257999315 1 1 1 1 1 0.011311016027441903 1 0.012790867327268543 1 1 1 1 0.0097316219751955764 0.010003397164798982 1 1 1 1 1 1 1 1 1 1 1 1 1 1 1 1 1 0.010055683706522923 1 1 1 1 1 1 1 1 1 1 1 1 1 0.010213590493566687 1 1 0.010171231850236918 0.0099526815033657377 1 1 1 1 1 0.010334376542699083 1 1 1 1 1 1 1 1 0.010149945705751133 1 1 0.010047835014241474 1 1 1 1 1 1 1 1 1 1 1 1 1 1 1 1 1 1 1 1 1 1 1 1 1 1 0.010166544875928813 1 1 1 1 1 1 0.010297437716743272 1 1 1 1 1 1 1 1 1 1 1 1 1 1 1 1 1 1 1 1 1 1 1 0.010817571784556911 1 1 1 1 1 1 1 1 1 1 1 1 1 1 1 1 1 1 1 1 1 1 1 1 1 1 1 1 1 1 1 1 1 1 1 1 1 1 1 1 1 1 1 1 1 1 1 1 1 1 1 1 1 1 1 1 1 1 1 1 1 1 1 1 1 0.010345973110942673 1 1 1 1 1 1 1 1 1 1 1 1 1 1 1 0.017011044979777682 1 1 0.0086074906136483255 0.010039124013768691 1 1 1 1 1 1 1 1 0.011083744104277008 1 1 0.015798803481576564 1 1 1 0.016486554189371925 1 1 1 1 1 1 1 1 1 0.0097315438709225863 1 1 1 0.0094270253159897104 1 1 1 0.010056587606093296 1 1 1 1 1 1 1 1 1 0.013555741155737315 1 1 0.012504659420298121 0.012109281736309086 0.0094696485934808606 1 1 1 1 0.010124505239633392 1 1 1 1 0.010009916320645563 1 1 1 1 0.012632131043369903 1 1 1 1 1 1 1 1 1 1 1 1 1 1 1 1 1 1 1 1 1 1 1 1 1 1 1 1 1 1 1 1 1 1 1 1 1 1 1 1 1 1 1 1 1 1 1 1 1 1 1 1 1 1 1 1 1 1 1 0.010547678020595797 0.012030003231291006 1 1 1 1 1 1 1 1 1 1 1 1 1 1 1 1 1 1 1 1 0.011621341887424565 1 1 1 1 1 0.012481822007167681 1 1 1 1 1 1 1 1 1 1 1 1 1 1 1 1 1 1 1 1 1 0.010891767489157827 1 1 1 1 1 0.010283101945413455 1 1 1 1 0.0099161406679290614 1 1 1 1 1 1 1 1 1 1 1 1 1 1 1 1 1 1 1 1 1 1 1 1 1 0.009993917989545454 1 1 1 1 0.011498555194735515 1 1 1 1 1 1 1 1 1 1 1 1 1 1 1 1 1 1 1 1 1 1 1 1 1 1 1 1 1 1 1 1 1 1 1 1 1 1 1 1 1 1 1 1 1 1 1 1 1 1 1 1 1 1 1 1 1 1 1 1 1 1 1 1 1 1 1 1 1 1 1 1 1 1 1 0.010766105662872345 1 1 1 1 1 1 1 1 1 1 1 1 1 1 1 1 1 1 1 1 1 1 1 1 1 1 0.011543031874408145 1 1 1 1 1 1 1 1 1 1 1 1 1 1 1 1 1 1 1 1 1 1 1 1 1 1 1 1 0.010875123704930819 1 1 1 1 1 1 1 1 1 1 1 1 1 1 1 1 1 1 1 1 1 1 1 1 0.010193571283071303 1 1 1 1 1 1 1 1 1 1 0.010450472417345938 0.010314380808998349 1 1 1 1 1 1 1 0.01078873988915412 1 1 1 1 1 1 1 1 1 1 1 1 1 1 1 1 0.0099772179872805161 1 1 1 1 1 1 1 1 1 1 0.0095170705834340084 1 1 1 1 0.0099543643216080339 1 1 1 1 1 1 1 1 1 0.009957495817713987 1 1 1 1 1 1 0.0097777182489254006 0.010155615959187108 1 1 1 1 1 1 1 1 1 1 0.01046113758003369 1 1 1 1 0.010184750326643613 1 1 1 0.010336349010834181 1 1 1 1 1 1 1 1 0.010128816671471074 1 1 1 0.0085160911958579132 1 1 1 1 1 1 1 1 1 1 1 1 0.010993233080411457 1 1 1 1 1 0.012822115109504506 1 1 1 0.0074771306453704847 1 1 1 1 1 0.014236743611447162 1 1 0.010256638213364368 0.0064776510888136483 1 0.01443127029688553 1 1 1 1 1 1 1 1 1 1 1 1 1 1 1 1 0.0099173346566071088 1 1 1 1 1 1 1 1 1 1 1 1 1 1 1 1 1 1 1 1 1 1 1 1 1 1 1 1 1 1 1 1 1 1 1 1 1 1 0.015155274119555227 1 1 1 1 1 1 0.015989229838455046 1 0.010008089108988833 1 1 1 1 0.010011134074703594 1 1 1 1 1 1 1 1 1 1 1 1 1 1 1 0.014118973879369836 1 1 1 1 1 1 1 0.013884306345931047 1 1 1 1 1 1 1 1 1 1 1 1 1 1 1 1 1 1 1 1 1 1 1 1 1 1 1 1 1 1 1 1 1 1 1 1 1 1 1 1 1 1 1 1 1 1 1 1 1 1 1 1 1 1 1 1 1 1 1 1 1 1 1 1 1 1 1 1 1 1 1 1 1 1 1 1 1 1 1 1 1 1 1 1 1 1 1 1 1 1 1 1 0.010571963098224189 1 1 1 1 1 1 1 1 1 1 1 1 1 1 1 1 1 1 1 1 1 1 1 1 1 1 1 1 1 1 1 0.0098409037152975155 1 1 0.010013921973879611 1 0.011222410542561709 1 1 1 0.016119690316276442 1 1 1 1 1 0.016325791659315365 1 1 1 0.011973497938872112 1 0.010969990719359744 0.0086974053667577648 0.010075506898241795 1 1 1 1 0.0099873298174810721 1 1 1 1 1 1 1 1 1 1 1 1 0.012033943459719145 1 0.010991579514759708 1 1 1 1 1 1 0.013463596878393312 1 1 0.01145842127722882 1 1 0.0097089648794626837 1 1 1 0.011121324775056689 1 1 1 1 1 1 1 0.010627753629024281 1 1 1 1 0.0098271408677241615 1 0.011389448733188069 1 0.012232944240020896 1 1 1 1 0.012388138032931284 1 1 1 1 1 0.010290918483020408 1 0.010060244452413976 1 0.010646777953628514 1 1 0.010075411941804415 0.009997016315442973 1 1 1 1 1 1 0.010982819868699964 1 1 1 1 1 1 1 1 1 0.0114697357915922 1 1 0.0098959449657255345 1 1 1 1 1 1 1 1 0.010450278390714095 1 1 1 0.012050954190849714 1 1 0.010546344592383138 1 1 0.0122596929565424 1 1 0.01240120719836965 0.010045298297282543 0.0099902137685925225 1 1 1 1 0.0096073974436453394 1 1 1 1 1 1 1 0.011132019816346272 0.0099515124087941123 0.011821301593371629 0.0097950190352831205 0.011599430233177478 1 1 1 1 1 1 1 1 1 1 1 1 1 1 0.0091266252476208971 1 1 0.010813320884294923 1 1 1 1 1 1 1 1 1 1 1 0.0097653484611623341 1 1 1 1 1 1 1 1 1 1 0.01013726908515988 1 1 1 1 1 1 1 1 1 1 0.01005949489112249 1 1 1 1 1 1 1 1 1 1 1 1 1 1 1 1 1 1 1 1 1 1 1 1 1 1 1 1 1 1 1 1 1 1 1 1 1 1 1 1 1 1 1 1 1 0.010502759360188907 1 1 0.010265163252524464 1 1 1 1 1 1 0.010775822504462983 1 0.010040230713629722 1 1 1 1 1 0.011706176112962522 0.0099945322698525643 1 1 1 1 0.011101049172786558 1 1 1 1 1 1 1 1 1 
</DataArray>
</CellData>
</Piece>
</UnstructuredGrid>
</VTKFile>
