<?xml version="1.0"?>
<VTKFile type="UnstructuredGrid" version="0.1" byte_order="LittleEndian">
<UnstructuredGrid>
<Piece NumberOfPoints="31361" NumberOfCells="11023">
<Points>
<DataArray type="Float64" NumberOfComponents="3" format="ascii">
-0.5 -0.5 0 -0.47521452460427849 -0.48515781892810922 0 -0.43912941635954139 -0.5 0 -0.5 -0.5 0 -0.50000000000000089 -0.47389045292974269 0 -0.47521452460427849 -0.48515781892810922 0 -0.50000000000000089 -0.47389045292974269 0 -0.48157779780473042 -0.47383940176747169 0 -0.48113186975170552 -0.46243621618703579 0 -0.50000000000000089 -0.47389045292974269 0 -0.48157779780473042 -0.47383940176747169 0 -0.47521452460427849 -0.48515781892810922 0 -0.48157779780473042 -0.47383940176747169 0 -0.46996479686293652 -0.47387311902499951 0 -0.48113186975170552 -0.46243621618703579 0 -0.48157779780473042 -0.47383940176747169 0 -0.46996479686293652 -0.47387311902499951 0 -0.47521452460427849 -0.48515781892810922 0 -0.47521452460427849 -0.48515781892810922 0 -0.43912941635954139 -0.5 0 -0.4495003445636675 -0.48407740969294832 0 -0.46996479686293652 -0.47387311902499951 0 -0.47521452460427849 -0.48515781892810922 0 -0.45936480761025311 -0.47610621924459279 0 -0.47521452460427849 -0.48515781892810922 0 -0.45936480761025311 -0.47610621924459279 0 -0.4495003445636675 -0.48407740969294832 0 -0.46996479686293652 -0.47387311902499951 0 -0.45936480761025311 -0.47610621924459279 0 -0.45594212854773958 -0.46620037266205561 0 -0.45936480761025311 -0.47610621924459279 0 -0.44825892125798278 -0.46511576677685429 0 -0.45594212854773958 -0.46620037266205561 0 -0.45936480761025311 -0.47610621924459279 0 -0.4495003445636675 -0.48407740969294832 0 -0.44825892125798278 -0.46511576677685429 0 -0.4495003445636675 -0.48407740969294832 0 -0.44825892125798278 -0.46511576677685429 0 -0.42322840437491832 -0.4680726840383056 0 -0.45859007097605298 -0.44875181310177958 0 -0.43604827220040038 -0.43506741001652371 0 -0.44291965954134288 -0.44946692152953072 0 -0.45092619634596981 -0.45608459976135712 0 -0.45859007097605298 -0.44875181310177958 0 -0.44291965954134288 -0.44946692152953072 0 -0.45859007097605298 -0.44875181310177958 0 -0.43604827220040038 -0.43506741001652371 0 -0.45859007097605298 -0.44875181310177958 0 -0.44939339550943158 -0.43290908517399318 0 -0.43604827220040038 -0.43506741001652371 0 -0.44291965954134288 -0.44946692152953072 0 -0.43981356015856349 -0.45872663026195409 0 -0.45092619634596981 -0.45608459976135712 0 -0.44291965954134288 -0.44946692152953072 0 -0.43981356015856349 -0.45872663026195409 0 -0.43324852315443491 -0.45438293807959429 0 -0.44825892125798278 -0.46511576677685429 0 -0.45092619634596981 -0.45608459976135712 0 -0.45776615668026321 -0.45802775728884848 0 -0.43981356015856349 -0.45872663026195409 0 -0.44825892125798278 -0.46511576677685429 0 -0.45092619634596981 -0.45608459976135712 0 -0.45092619634596981 -0.45608459976135712 0 -0.45776615668026321 -0.45802775728884848 0 -0.45859007097605298 -0.44875181310177958 0 -0.44825892125798278 -0.46511576677685429 0 -0.45776615668026321 -0.45802775728884848 0 -0.47328943814104729 -0.46215884951540309 0 -0.45594212854773958 -0.46620037266205561 0 -0.48113186975170552 -0.46243621618703579 0 -0.44825892125798278 -0.46511576677685429 0 -0.47328943814104729 -0.46215884951540309 0 -0.44825892125798278 -0.46511576677685429 0 -0.45594212854773958 -0.46620037266205561 0 -0.47328943814104729 -0.46215884951540309 0 -0.45776615668026321 -0.45802775728884848 0 -0.45859007097605298 -0.44875181310177958 0 -0.47328943814104729 -0.46215884951540309 0 -0.45859007097605298 -0.44875181310177958 0 -0.46828194543481633 -0.43212401577094911 0 -0.44939339550943158 -0.43290908517399318 0 -0.45859007097605298 -0.44875181310177958 0 -0.47630662923339617 -0.44614377159533181 0 -0.46828194543481633 -0.43212401577094911 0 -0.47630662923339617 -0.44614377159533181 0 -0.48332779502205409 -0.43603858399470302 0 -0.46828194543481633 -0.43212401577094911 0 -0.47630662923339617 -0.44614377159533181 0 -0.48113186975170552 -0.46243621618703579 0 -0.48856301174181488 -0.4482502984959742 0 -0.45859007097605298 -0.44875181310177958 0 -0.47630662923339617 -0.44614377159533181 0 -0.48113186975170552 -0.46243621618703579 0 -0.47630662923339617 -0.44614377159533181 0 -0.48856301174181488 -0.4482502984959742 0 -0.48332779502205409 -0.43603858399470302 0 -0.45859007097605298 -0.44875181310177958 0 -0.47328943814104729 -0.46215884951540309 0 -0.48113186975170552 -0.46243621618703579 0 -0.46996479686293652 -0.47387311902499951 0 -0.45594212854773958 -0.46620037266205561 0 -0.48113186975170552 -0.46243621618703579 0 -0.45594212854773958 -0.46620037266205561 0 -0.47328943814104729 -0.46215884951540309 0 -0.48113186975170552 -0.46243621618703579 0 -0.45859007097605298 -0.44875181310177958 0 -0.48113186975170552 -0.46243621618703579 0 -0.48113186975170552 -0.46243621618703579 0 -0.50000000000000133 -0.45961671145014499 0 -0.48856301174181488 -0.4482502984959742 0 -0.50000000000000089 -0.47389045292974269 0 -0.48113186975170552 -0.46243621618703579 0 -0.50000000000000089 -0.47389045292974269 0 -0.48113186975170552 -0.46243621618703579 0 -0.50000000000000133 -0.45961671145014499 0 -0.48113186975170552 -0.46243621618703579 0 -0.50000000000000133 -0.45961671145014499 0 -0.48856301174181488 -0.4482502984959742 0 -0.5 -0.43177987338679019 0 -0.48332779502205409 -0.43603858399470302 0 -0.50000000000000133 -0.45961671145014499 0 -0.48856301174181488 -0.4482502984959742 0 -0.5 -0.43177987338679019 0 -0.5 -0.43177987338679019 0 -0.48332779502205409 -0.43603858399470302 0 -0.48348738870024333 -0.42189496072446941 0 -0.48348738870024333 -0.42189496072446941 0 -0.5 -0.40394303532343562 0 -0.4772095537368517 -0.40540681951553897 0 -0.5 -0.43177987338679019 0 -0.48348738870024333 -0.42189496072446941 0 -0.5 -0.40394303532343562 0 -0.48348738870024333 -0.42189496072446941 0 -0.4772095537368517 -0.40540681951553897 0 -0.46864673260664008 -0.41644210554817929 0 -0.48348738870024333 -0.42189496072446941 0 -0.46828194543481633 -0.43212401577094911 0 -0.46864673260664008 -0.41644210554817929 0 -0.48332779502205409 -0.43603858399470302 0 -0.48348738870024333 -0.42189496072446941 0 -0.46828194543481633 -0.43212401577094911 0 -0.5 -0.37610619726008082 0 -0.48539745866165152 -0.38995309238822567 0 -0.48249782853879469 -0.37031042665884711 0 -0.5 -0.37610619726008082 0 -0.48539745866165152 -0.38995309238822567 0 -0.5 -0.40394303532343562 0 -0.48539745866165152 -0.38995309238822567 0 -0.5 -0.40394303532343562 0 -0.4772095537368517 -0.40540681951553897 0 -0.48539745866165152 -0.38995309238822567 0 -0.4772095537368517 -0.40540681951553897 0 -0.46753341795117631 -0.38509595464214252 0 -0.48539745866165152 -0.38995309238822567 0 -0.46753341795117631 -0.38509595464214252 0 -0.48249782853879469 -0.37031042665884711 0 -0.46753341795117631 -0.38509595464214252 0 -0.45093868521821628 -0.39222125200518532 0 -0.45237398123561301 -0.37353220191343328 0 -0.46753341795117631 -0.38509595464214252 0 -0.46660492403224851 -0.36914438154824403 0 -0.45237398123561301 -0.37353220191343328 0 -0.46753341795117631 -0.38509595464214252 0 -0.45093868521821628 -0.39222125200518532 0 -0.4772095537368517 -0.40540681951553897 0 -0.46753341795117631 -0.38509595464214252 0 -0.46016088467119898 -0.40413024041890411 0 -0.46753341795117631 -0.38509595464214252 0 -0.46016088467119898 -0.40413024041890411 0 -0.45093868521821628 -0.39222125200518532 0 -0.46016088467119898 -0.40413024041890411 0 -0.45093868521821628 -0.39222125200518532 0 -0.43434395248525531 -0.39934654936822539 0 -0.45093868521821628 -0.39222125200518532 0 -0.43434395248525531 -0.39934654936822539 0 -0.45093868521821628 -0.39222125200518532 0 -0.43656920102039848 -0.37914598798575172 0 -0.45237398123561301 -0.37353220191343328 0 -0.45093868521821628 -0.39222125200518532 0 -0.43656920102039848 -0.37914598798575172 0 -0.43434395248525531 -0.39934654936822539 0 -0.46828194543481633 -0.43212401577094911 0 -0.46864673260664008 -0.41644210554817929 0 -0.45409389049009019 -0.41865449131103449 0 -0.46828194543481633 -0.43212401577094911 0 -0.45409389049009019 -0.41865449131103449 0 -0.44939339550943158 -0.43290908517399318 0 -0.4772095537368517 -0.40540681951553897 0 -0.46016088467119898 -0.40413024041890411 0 -0.46864673260664008 -0.41644210554817929 0 -0.46016088467119898 -0.40413024041890411 0 -0.46864673260664008 -0.41644210554817929 0 -0.45409389049009019 -0.41865449131103449 0 -0.45409389049009019 -0.41865449131103449 0 -0.43434395248525531 -0.39934654936822539 0 -0.45409389049009019 -0.41865449131103449 0 -0.438074710361404 -0.4204484695153512 0 -0.43434395248525531 -0.39934654936822539 0 -0.46016088467119898 -0.40413024041890411 0 -0.45409389049009019 -0.41865449131103449 0 -0.43434395248525531 -0.39934654936822539 0 -0.45409389049009019 -0.41865449131103449 0 -0.438074710361404 -0.4204484695153512 0 -0.44939339550943158 -0.43290908517399318 0 -0.43604827220040038 -0.43506741001652371 0 -0.42502195058459152 -0.4300320338877438 0 -0.41933381965428562 -0.44012814716793469 0 -0.44939339550943158 -0.43290908517399318 0 -0.42502195058459152 -0.4300320338877438 0 -0.438074710361404 -0.4204484695153512 0 -0.44939339550943158 -0.43290908517399318 0 -0.42502195058459152 -0.4300320338877438 0 -0.44939339550943158 -0.43290908517399318 0 -0.43604827220040038 -0.43506741001652371 0 -0.42502195058459152 -0.4300320338877438 0 -0.438074710361404 -0.4204484695153512 0 -0.42502195058459152 -0.4300320338877438 0 -0.42546065058922722 -0.41609799623502147 0 -0.42546065058922722 -0.41609799623502147 0 -0.41498898856847483 -0.40765701001723398 0 -0.43434395248525531 -0.39934654936822539 0 -0.438074710361404 -0.4204484695153512 0 -0.42546065058922722 -0.41609799623502147 0 -0.43434395248525531 -0.39934654936822539 0 -0.41498898856847483 -0.40765701001723398 0 -0.41245212108817397 -0.41952685946974699 0 -0.39563402465169317 -0.41596747066624001 0 -0.42546065058922722 -0.41609799623502147 0 -0.41498898856847483 -0.40765701001723398 0 -0.41245212108817397 -0.41952685946974699 0 -0.42502195058459152 -0.4300320338877438 0 -0.40065050565975141 -0.42715498260149432 0 -0.41933381965428562 -0.44012814716793469 0 -0.40065050565975141 -0.42715498260149432 0 -0.40202603123697311 -0.44171499384130652 0 -0.41933381965428562 -0.44012814716793469 0 -0.42502195058459152 -0.4300320338877438 0 -0.41245212108817397 -0.41952685946974699 0 -0.40065050565975141 -0.42715498260149432 0 -0.42502195058459152 -0.4300320338877438 0 -0.40065050565975141 -0.42715498260149432 0 -0.42502195058459152 -0.4300320338877438 0 -0.42546065058922722 -0.41609799623502147 0 -0.41245212108817397 -0.41952685946974699 0 -0.43656920102039848 -0.37914598798575172 0 -0.43434395248525531 -0.39934654936822539 0 -0.41973536003007028 -0.38506489162723062 0 -0.41498898856847483 -0.40765701001723398 0 -0.43434395248525531 -0.39934654936822539 0 -0.41498898856847483 -0.40765701001723398 0 -0.43434395248525531 -0.39934654936822539 0 -0.41973536003007028 -0.38506489162723062 0 -0.43434395248525531 -0.39934654936822539 0 -0.41973536003007028 -0.38506489162723062 0 -0.41498898856847483 -0.40765701001723398 0 -0.41973536003007028 -0.38506489162723062 0 -0.39974232982377378 -0.39884169390661461 0 -0.41973536003007028 -0.38506489162723062 0 -0.39974232982377378 -0.39884169390661461 0 -0.40512676757488442 -0.37078323388623668 0 -0.41973536003007028 -0.38506489162723062 0 -0.40512676757488442 -0.37078323388623668 0 -0.39974232982377378 -0.39884169390661461 0 -0.38324901345491352 -0.38271664601739308 0 -0.40512676757488442 -0.37078323388623668 0 -0.38324901345491352 -0.38271664601739308 0 -0.40512676757488442 -0.37078323388623668 0 -0.39974232982377378 -0.39884169390661461 0 -0.38592514321210158 -0.39647691971899202 0 -0.38652602217137749 -0.41048212401227208 0 -0.38592514321210158 -0.39647691971899202 0 -0.38324901345491352 -0.38271664601739308 0 -0.36136622123227291 -0.39464082169796583 0 -0.39974232982377378 -0.39884169390661461 0 -0.38592514321210158 -0.39647691971899202 0 -0.38324901345491352 -0.38271664601739308 0 -0.38592514321210158 -0.39647691971899202 0 -0.38652602217137749 -0.41048212401227208 0 -0.36136622123227291 -0.39464082169796583 0 -0.40065050565975141 -0.42715498260149432 0 -0.39563402465169317 -0.41596747066624001 0 -0.37627906073491119 -0.42427793131524533 0 -0.40065050565975141 -0.42715498260149432 0 -0.38864623045242941 -0.43392034347175451 0 -0.40202603123697311 -0.44171499384130652 0 -0.41498898856847483 -0.40765701001723398 0 -0.39974232982377378 -0.39884169390661461 0 -0.39563402465169317 -0.41596747066624001 0 -0.41498898856847483 -0.40765701001723398 0 -0.39563402465169317 -0.41596747066624001 0 -0.41245212108817397 -0.41952685946974699 0 -0.40065050565975141 -0.42715498260149432 0 -0.39563402465169317 -0.41596747066624001 0 -0.39974232982377378 -0.39884169390661461 0 -0.39563402465169317 -0.41596747066624001 0 -0.38652602217137749 -0.41048212401227208 0 -0.39563402465169317 -0.41596747066624001 0 -0.37627906073491119 -0.42427793131524533 0 -0.39563402465169317 -0.41596747066624001 0 -0.38652602217137749 -0.41048212401227208 0 -0.37627906073491119 -0.42427793131524533 0 -0.38652602217137749 -0.41048212401227208 0 -0.37627906073491119 -0.42427793131524533 0 -0.37144691229837229 -0.41298912878136718 0 -0.40065050565975141 -0.42715498260149432 0 -0.37627906073491119 -0.42427793131524533 0 -0.38864623045242941 -0.43392034347175451 0 -0.37627906073491119 -0.42427793131524533 0 -0.37571984476653952 -0.43520038182404869 0 -0.37376847139124569 -0.42535590562902159 0 -0.40065050565975141 -0.42715498260149432 0 -0.37627906073491119 -0.42427793131524533 0 -0.37627906073491119 -0.42427793131524533 0 -0.37376847139124569 -0.42535590562902159 0 -0.37627906073491119 -0.42427793131524533 0 -0.38864623045242941 -0.43392034347175451 0 -0.37571984476653952 -0.43520038182404869 0 -0.37571984476653952 -0.43520038182404869 0 -0.38979171480535169 -0.44384515973514788 0 -0.37571984476653952 -0.43520038182404869 0 -0.3767963593357716 -0.45178105362933019 0 -0.38979171480535169 -0.44384515973514788 0 -0.3767963593357716 -0.45178105362933019 0 -0.38979171480535169 -0.44384515973514788 0 -0.38601119419733237 -0.46158671769342718 0 -0.38864623045242941 -0.43392034347175451 0 -0.37571984476653952 -0.43520038182404869 0 -0.38979171480535169 -0.44384515973514788 0 -0.38864623045242941 -0.43392034347175451 0 -0.38979171480535169 -0.44384515973514788 0 -0.40202603123697311 -0.44171499384130652 0 -0.38979171480535169 -0.44384515973514788 0 -0.40202603123697311 -0.44171499384130652 0 -0.40036009579568282 -0.45592764575964512 0 -0.40202603123697311 -0.44171499384130652 0 -0.40036009579568282 -0.45592764575964512 0 -0.41394874188224418 -0.45008038028038577 0 -0.38979171480535169 -0.44384515973514788 0 -0.40036009579568282 -0.45592764575964512 0 -0.38601119419733237 -0.46158671769342718 0 -0.40036009579568282 -0.45592764575964512 0 -0.38601119419733237 -0.46158671769342718 0 -0.3981978874918537 -0.47102960129975691 0 -0.3767963593357716 -0.45178105362933019 0 -0.38601119419733237 -0.46158671769342718 0 -0.37316737060878918 -0.47398651856120799 0 -0.39262896797371383 -0.5 0 -0.3981978874918537 -0.47102960129975691 0 -0.37316737060878918 -0.47398651856120799 0 -0.3981978874918537 -0.47102960129975691 0 -0.37316737060878918 -0.47398651856120799 0 -0.38601119419733237 -0.46158671769342718 0 -0.3981978874918537 -0.47102960129975691 0 -0.37316737060878918 -0.47398651856120799 0 -0.39262896797371383 -0.5 0 -0.3981978874918537 -0.47102960129975691 0 -0.42322840437491832 -0.4680726840383056 0 -0.3981978874918537 -0.47102960129975691 0 -0.42322840437491832 -0.4680726840383056 0 -0.43912941635954139 -0.5 0 -0.4495003445636675 -0.48407740969294832 0 -0.42322840437491832 -0.4680726840383056 0 -0.43912941635954139 -0.5 0 -0.39262896797371383 -0.5 0 -0.42322840437491832 -0.4680726840383056 0 -0.43981356015856349 -0.45872663026195409 0 -0.42322840437491832 -0.4680726840383056 0 -0.43324852315443491 -0.45438293807959429 0 -0.44825892125798278 -0.46511576677685429 0 -0.42322840437491832 -0.4680726840383056 0 -0.42322840437491832 -0.4680726840383056 0 -0.43324852315443491 -0.45438293807959429 0 -0.42515858092070957 -0.45136759384710112 0 -0.43981356015856349 -0.45872663026195409 0 -0.44825892125798278 -0.46511576677685429 0 -0.42322840437491832 -0.4680726840383056 0 -0.43604827220040038 -0.43506741001652371 0 -0.43248265509532979 -0.44547963570098881 0 -0.41933381965428562 -0.44012814716793469 0 -0.44291965954134288 -0.44946692152953072 0 -0.43324852315443491 -0.45438293807959429 0 -0.43248265509532979 -0.44547963570098881 0 -0.43324852315443491 -0.45438293807959429 0 -0.43248265509532979 -0.44547963570098881 0 -0.42515858092070957 -0.45136759384710112 0 -0.44291965954134288 -0.44946692152953072 0 -0.43604827220040038 -0.43506741001652371 0 -0.43248265509532979 -0.44547963570098881 0 -0.43248265509532979 -0.44547963570098881 0 -0.42515858092070957 -0.45136759384710112 0 -0.41933381965428562 -0.44012814716793469 0 -0.42515858092070957 -0.45136759384710112 0 -0.41933381965428562 -0.44012814716793469 0 -0.41394874188224418 -0.45008038028038577 0 -0.40202603123697311 -0.44171499384130652 0 -0.41933381965428562 -0.44012814716793469 0 -0.41394874188224418 -0.45008038028038577 0 -0.42322840437491832 -0.4680726840383056 0 -0.42515858092070957 -0.45136759384710112 0 -0.41394874188224418 -0.45008038028038577 0 -0.40036009579568282 -0.45592764575964512 0 -0.3981978874918537 -0.47102960129975691 0 -0.42322840437491832 -0.4680726840383056 0 -0.40036009579568282 -0.45592764575964512 0 -0.42322840437491832 -0.4680726840383056 0 -0.41394874188224418 -0.45008038028038577 0 -0.43864729857200108 -0.26304110196591568 0 -0.45801144875205019 -0.25334539799888911 0 -0.43864729857200108 -0.26304110196591568 0 -0.45801144875205019 -0.25334539799888911 0 -0.44834333113090741 -0.24016017746343199 0 -0.43864729857200108 -0.26304110196591568 0 -0.45422554906558688 -0.27265696016408492 0 -0.45801144875205019 -0.25334539799888911 0 -0.43864729857200108 -0.26304110196591568 0 -0.45422554906558688 -0.27265696016408492 0 -0.43485130373746728 -0.27797278217749732 0 -0.45422554906558688 -0.27265696016408492 0 -0.44555472883588237 -0.29106514519610432 0 -0.43485130373746728 -0.27797278217749732 0 -0.45422554906558688 -0.27265696016408492 0 -0.47627799275171478 -0.27313704048338311 0 -0.46268500197250689 -0.2868820269751855 0 -0.45422554906558688 -0.27265696016408492 0 -0.45801144875205019 -0.25334539799888911 0 -0.47627799275171478 -0.27313704048338311 0 -0.45801144875205019 -0.25334539799888911 0 -0.47627799275171478 -0.27313704048338311 0 -0.47737559893209919 -0.2436496940318624 0 -0.5 -0.26475884500666191 0 -0.47627799275171478 -0.27313704048338311 0 -0.47737559893209919 -0.2436496940318624 0 -0.5 -0.26475884500666191 0 -0.47627799275171478 -0.27313704048338311 0 -0.5 -0.2925956830700166 0 -0.47627799275171478 -0.27313704048338311 0 -0.48075715025574822 -0.29897871644780472 0 -0.46268500197250689 -0.2868820269751855 0 -0.47627799275171478 -0.27313704048338311 0 -0.5 -0.2925956830700166 0 -0.48075715025574822 -0.29897871644780472 0 -0.5 -0.2925956830700166 0 -0.48075715025574822 -0.29897871644780472 0 -0.5 -0.3204325211333714 0 -0.48075715025574822 -0.29897871644780472 0 -0.47094779294450162 -0.31672151471983923 0 -0.5 -0.3204325211333714 0 -0.48075715025574822 -0.29897871644780472 0 -0.45511150018809232 -0.30576293245406372 0 -0.47094779294450162 -0.31672151471983923 0 -0.48075715025574822 -0.29897871644780472 0 -0.45511150018809232 -0.30576293245406372 0 -0.46268500197250689 -0.2868820269751855 0 -0.45422554906558688 -0.27265696016408492 0 -0.46268500197250689 -0.2868820269751855 0 -0.44555472883588237 -0.29106514519610432 0 -0.45511150018809232 -0.30576293245406372 0 -0.46268500197250689 -0.2868820269751855 0 -0.44555472883588237 -0.29106514519610432 0 -0.45511150018809232 -0.30576293245406372 0 -0.44555472883588237 -0.29106514519610432 0 -0.43685160839385367 -0.31188298516667601 0 -0.45511150018809232 -0.30576293245406372 0 -0.44563583839480447 -0.33145607478354278 0 -0.43685160839385367 -0.31188298516667601 0 -0.44563583839480447 -0.33145607478354278 0 -0.43685160839385367 -0.31188298516667601 0 -0.44563583839480447 -0.33145607478354278 0 -0.44271440568990922 -0.35028072827238182 0 -0.43100411173962527 -0.33966602215898628 0 -0.44563583839480447 -0.33145607478354278 0 -0.4625610724096636 -0.33966035403055722 0 -0.44271440568990922 -0.35028072827238182 0 -0.44563583839480447 -0.33145607478354278 0 -0.4625610724096636 -0.33966035403055722 0 -0.47094779294450162 -0.31672151471983923 0 -0.45511150018809232 -0.30576293245406372 0 -0.44563583839480447 -0.33145607478354278 0 -0.47094779294450162 -0.31672151471983923 0 -0.47094779294450162 -0.31672151471983923 0 -0.5 -0.3204325211333714 0 -0.48241857536448057 -0.33418519635411492 0 -0.5 -0.3204325211333714 0 -0.48241857536448057 -0.33418519635411492 0 -0.5 -0.34826935919672608 0 -0.4625610724096636 -0.33966035403055722 0 -0.48241857536448057 -0.33418519635411492 0 -0.47562927389527809 -0.35235208545786539 0 -0.4625610724096636 -0.33966035403055722 0 -0.47094779294450162 -0.31672151471983923 0 -0.48241857536448057 -0.33418519635411492 0 -0.47562927389527809 -0.35235208545786539 0 -0.5 -0.34826935919672608 0 -0.48249782853879469 -0.37031042665884711 0 -0.48241857536448057 -0.33418519635411492 0 -0.47562927389527809 -0.35235208545786539 0 -0.5 -0.34826935919672608 0 -0.5 -0.37610619726008082 0 -0.5 -0.34826935919672608 0 -0.48249782853879469 -0.37031042665884711 0 -0.47562927389527809 -0.35235208545786539 0 -0.48249782853879469 -0.37031042665884711 0 -0.46660492403224851 -0.36914438154824403 0 -0.46753341795117631 -0.38509595464214252 0 -0.48249782853879469 -0.37031042665884711 0 -0.46660492403224851 -0.36914438154824403 0 -0.47562927389527809 -0.35235208545786539 0 -0.46660492403224851 -0.36914438154824403 0 -0.45633104963059168 -0.35819146719060141 0 -0.46660492403224851 -0.36914438154824403 0 -0.45633104963059168 -0.35819146719060141 0 -0.45237398123561301 -0.37353220191343328 0 -0.4625610724096636 -0.33966035403055722 0 -0.45633104963059168 -0.35819146719060141 0 -0.44271440568990922 -0.35028072827238182 0 -0.4625610724096636 -0.33966035403055722 0 -0.47562927389527809 -0.35235208545786539 0 -0.45633104963059168 -0.35819146719060141 0 -0.45633104963059168 -0.35819146719060141 0 -0.44271440568990922 -0.35028072827238182 0 -0.43921655251608621 -0.36422002999462971 0 -0.43656920102039848 -0.37914598798575172 0 -0.43921655251608621 -0.36422002999462971 0 -0.45237398123561301 -0.37353220191343328 0 -0.45633104963059168 -0.35819146719060141 0 -0.43921655251608621 -0.36422002999462971 0 -0.45237398123561301 -0.37353220191343328 0 -0.43656920102039848 -0.37914598798575172 0 -0.41973536003007028 -0.38506489162723062 0 -0.42392058663239712 -0.36053198107930989 0 -0.43656920102039848 -0.37914598798575172 0 -0.43921655251608621 -0.36422002999462971 0 -0.42392058663239712 -0.36053198107930989 0 -0.44271440568990922 -0.35028072827238182 0 -0.42392058663239712 -0.36053198107930989 0 -0.43100411173962527 -0.33966602215898628 0 -0.44271440568990922 -0.35028072827238182 0 -0.43921655251608621 -0.36422002999462971 0 -0.42392058663239712 -0.36053198107930989 0 -0.42392058663239712 -0.36053198107930989 0 -0.41765646129750272 -0.34639300176274262 0 -0.43100411173962527 -0.33966602215898628 0 -0.44271440568990922 -0.35028072827238182 0 -0.42392058663239712 -0.36053198107930989 0 -0.42392058663239712 -0.36053198107930989 0 -0.41765646129750272 -0.34639300176274262 0 -0.40486513261840662 -0.35203203754053197 0 -0.41765646129750272 -0.34639300176274262 0 -0.40486513261840662 -0.35203203754053197 0 -0.40410843976154931 -0.33977284382099732 0 -0.41973536003007028 -0.38506489162723062 0 -0.42392058663239712 -0.36053198107930989 0 -0.40512676757488442 -0.37078323388623668 0 -0.42392058663239712 -0.36053198107930989 0 -0.40512676757488442 -0.37078323388623668 0 -0.40486513261840662 -0.35203203754053197 0 -0.42392058663239712 -0.36053198107930989 0 -0.40512676757488442 -0.37078323388623668 0 -0.40512676757488442 -0.37078323388623668 0 -0.38289933449622882 -0.36706162463226039 0 -0.38678924953539678 -0.35285610248992538 0 -0.40512676757488442 -0.37078323388623668 0 -0.38678924953539678 -0.35285610248992538 0 -0.38324901345491352 -0.38271664601739308 0 -0.38289933449622882 -0.36706162463226039 0 -0.36111079901020948 -0.3678215772434793 0 -0.38324901345491352 -0.38271664601739308 0 -0.40512676757488442 -0.37078323388623668 0 -0.38289933449622882 -0.36706162463226039 0 -0.38258931505135391 -0.34526803736454609 0 -0.37618106421035569 -0.3541622556315619 0 -0.38678924953539678 -0.35285610248992538 0 -0.38258931505135391 -0.34526803736454609 0 -0.37618106421035569 -0.3541622556315619 0 -0.37453493921678999 -0.3435311040469905 0 -0.38289933449622882 -0.36706162463226039 0 -0.37618106421035569 -0.3541622556315619 0 -0.38678924953539678 -0.35285610248992538 0 -0.38258931505135391 -0.34526803736454609 0 -0.38678924953539678 -0.35285610248992538 0 -0.39106946697883782 -0.34126737328628232 0 -0.38678924953539678 -0.35285610248992538 0 -0.40486513261840662 -0.35203203754053197 0 -0.39106946697883782 -0.34126737328628232 0 -0.40512676757488442 -0.37078323388623668 0 -0.38678924953539678 -0.35285610248992538 0 -0.40486513261840662 -0.35203203754053197 0 -0.40486513261840662 -0.35203203754053197 0 -0.40410843976154931 -0.33977284382099732 0 -0.39106946697883782 -0.34126737328628232 0 -0.39106946697883782 -0.34126737328628232 0 -0.38589693083430932 -0.31845031892117398 0 -0.40178088589109168 -0.32604828532778718 0 -0.40410843976154931 -0.33977284382099732 0 -0.39106946697883782 -0.34126737328628232 0 -0.40178088589109168 -0.32604828532778718 0 -0.39106946697883782 -0.34126737328628232 0 -0.38589693083430932 -0.31845031892117398 0 -0.38258931505135391 -0.34526803736454609 0 -0.39106946697883782 -0.34126737328628232 0 -0.37886020790562053 -0.33511782632073911 0 -0.39106946697883782 -0.34126737328628232 0 -0.37886020790562053 -0.33511782632073911 0 -0.38589693083430932 -0.31845031892117398 0 -0.38258931505135391 -0.34526803736454609 0 -0.37886020790562053 -0.33511782632073911 0 -0.37453493921678999 -0.3435311040469905 0 -0.37886020790562053 -0.33511782632073911 0 -0.38589693083430932 -0.31845031892117398 0 -0.36910675235549628 -0.32548515458290977 0 -0.38589693083430932 -0.31845031892117398 0 -0.3717456676952649 -0.30976169983815638 0 -0.36910675235549628 -0.32548515458290977 0 -0.38589693083430932 -0.31845031892117398 0 -0.40178088589109168 -0.32604828532778718 0 -0.401849027095671 -0.30398298194835333 0 -0.40178088589109168 -0.32604828532778718 0 -0.41699837733991429 -0.3316122400712278 0 -0.41854036520011217 -0.31111123938641999 0 -0.40178088589109168 -0.32604828532778718 0 -0.41854036520011217 -0.31111123938641999 0 -0.401849027095671 -0.30398298194835333 0 -0.41699837733991429 -0.3316122400712278 0 -0.42983371812616628 -0.32498836379829538 0 -0.41854036520011217 -0.31111123938641999 0 -0.40410843976154931 -0.33977284382099732 0 -0.40178088589109168 -0.32604828532778718 0 -0.41699837733991429 -0.3316122400712278 0 -0.41765646129750272 -0.34639300176274262 0 -0.40410843976154931 -0.33977284382099732 0 -0.41699837733991429 -0.3316122400712278 0 -0.44563583839480447 -0.33145607478354278 0 -0.43100411173962527 -0.33966602215898628 0 -0.42983371812616628 -0.32498836379829538 0 -0.41699837733991429 -0.3316122400712278 0 -0.43100411173962527 -0.33966602215898628 0 -0.42983371812616628 -0.32498836379829538 0 -0.41765646129750272 -0.34639300176274262 0 -0.41699837733991429 -0.3316122400712278 0 -0.43100411173962527 -0.33966602215898628 0 -0.42983371812616628 -0.32498836379829538 0 -0.43685160839385367 -0.31188298516667601 0 -0.41854036520011217 -0.31111123938641999 0 -0.44563583839480447 -0.33145607478354278 0 -0.42983371812616628 -0.32498836379829538 0 -0.43685160839385367 -0.31188298516667601 0 -0.44555472883588237 -0.29106514519610432 0 -0.43685160839385367 -0.31188298516667601 0 -0.42806737839290299 -0.29230989554980918 0 -0.43685160839385367 -0.31188298516667601 0 -0.42806737839290299 -0.29230989554980918 0 -0.41854036520011217 -0.31111123938641999 0 -0.43685160839385367 -0.31188298516667601 0 -0.42806737839290299 -0.29230989554980918 0 -0.42806737839290299 -0.29230989554980918 0 -0.41928314839195208 -0.27273680593294242 0 -0.44555472883588237 -0.29106514519610432 0 -0.42806737839290299 -0.29230989554980918 0 -0.43485130373746728 -0.27797278217749732 0 -0.41387377758200877 -0.29234344877943003 0 -0.40162896882940557 -0.2815763210796251 0 -0.41928314839195208 -0.27273680593294242 0 -0.42806737839290299 -0.29230989554980918 0 -0.41387377758200877 -0.29234344877943003 0 -0.41928314839195208 -0.27273680593294242 0 -0.41387377758200877 -0.29234344877943003 0 -0.41854036520011217 -0.31111123938641999 0 -0.401849027095671 -0.30398298194835333 0 -0.42806737839290299 -0.29230989554980918 0 -0.41387377758200877 -0.29234344877943003 0 -0.41854036520011217 -0.31111123938641999 0 -0.38589693083430932 -0.31845031892117398 0 -0.401849027095671 -0.30398298194835333 0 -0.39081482214320512 -0.29801174454630519 0 -0.38589693083430932 -0.31845031892117398 0 -0.3807243946897807 -0.29563326455606559 0 -0.38589693083430932 -0.31845031892117398 0 -0.3807243946897807 -0.29563326455606559 0 -0.3717456676952649 -0.30976169983815638 0 -0.38589693083430932 -0.31845031892117398 0 -0.39081482214320512 -0.29801174454630519 0 -0.3807243946897807 -0.29563326455606559 0 -0.3807243946897807 -0.29563326455606559 0 -0.38397478926685907 -0.29041583622630779 0 -0.37555185854525208 -0.27281621019095731 0 -0.3807243946897807 -0.29563326455606559 0 -0.37555185854525208 -0.27281621019095731 0 -0.39081482214320512 -0.29801174454630519 0 -0.3807243946897807 -0.29563326455606559 0 -0.38397478926685907 -0.29041583622630779 0 -0.39081482214320512 -0.29801174454630519 0 -0.38397478926685907 -0.29041583622630779 0 -0.40162896882940557 -0.2815763210796251 0 -0.41387377758200877 -0.29234344877943003 0 -0.401849027095671 -0.30398298194835333 0 -0.40162896882940557 -0.2815763210796251 0 -0.401849027095671 -0.30398298194835333 0 -0.39081482214320512 -0.29801174454630519 0 -0.40162896882940557 -0.2815763210796251 0 -0.38397478926685907 -0.29041583622630779 0 -0.40162896882940557 -0.2815763210796251 0 -0.38851226273015987 -0.2774289055133482 0 -0.38397478926685907 -0.29041583622630779 0 -0.40162896882940557 -0.2815763210796251 0 -0.40162896882940557 -0.2815763210796251 0 -0.3993479864411178 -0.26764883226494568 0 -0.40780446164203138 -0.27322820558701438 0 -0.40162896882940557 -0.2815763210796251 0 -0.3993479864411178 -0.26764883226494568 0 -0.38851226273015987 -0.2774289055133482 0 -0.3993479864411178 -0.26764883226494568 0 -0.38851226273015987 -0.2774289055133482 0 -0.38213681964367452 -0.25932860156274218 0 -0.37555185854525208 -0.27281621019095731 0 -0.38851226273015987 -0.2774289055133482 0 -0.38213681964367452 -0.25932860156274218 0 -0.38397478926685907 -0.29041583622630779 0 -0.37555185854525208 -0.27281621019095731 0 -0.38851226273015987 -0.2774289055133482 0 -0.37555185854525208 -0.27281621019095731 0 -0.38213681964367452 -0.25932860156274218 0 -0.37037932240072358 -0.24999915582584881 0 -0.39578149186241629 -0.25307558475333419 0 -0.41408065587910442 -0.27020081987373618 0 -0.3993479864411178 -0.26764883226494568 0 -0.38213681964367452 -0.25932860156274218 0 -0.39578149186241629 -0.25307558475333419 0 -0.3993479864411178 -0.26764883226494568 0 -0.39578149186241629 -0.25307558475333419 0 -0.41408065587910442 -0.27020081987373618 0 -0.39578149186241629 -0.25307558475333419 0 -0.4093805058146377 -0.2506716607137715 0 -0.41408065587910442 -0.27020081987373618 0 -0.4093805058146377 -0.2506716607137715 0 -0.41928314839195208 -0.27273680593294242 0 -0.41408065587910442 -0.27020081987373618 0 -0.4093805058146377 -0.2506716607137715 0 -0.41928314839195208 -0.27273680593294242 0 -0.4093805058146377 -0.2506716607137715 0 -0.41928314839195208 -0.27273680593294242 0 -0.42375174642720059 -0.25747665660699209 0 -0.3993479864411178 -0.26764883226494568 0 -0.40780446164203138 -0.27322820558701438 0 -0.41408065587910442 -0.27020081987373618 0 -0.40780446164203138 -0.27322820558701438 0 -0.41928314839195208 -0.27273680593294242 0 -0.41408065587910442 -0.27020081987373618 0 -0.40162896882940557 -0.2815763210796251 0 -0.40780446164203138 -0.27322820558701438 0 -0.41928314839195208 -0.27273680593294242 0 -0.40162896882940557 -0.2815763210796251 0 -0.41928314839195208 -0.27273680593294242 0 -0.43864729857200108 -0.26304110196591568 0 -0.41928314839195208 -0.27273680593294242 0 -0.42806737839290299 -0.29230989554980918 0 -0.41928314839195208 -0.27273680593294242 0 -0.43485130373746728 -0.27797278217749732 0 -0.43864729857200108 -0.26304110196591568 0 -0.41928314839195208 -0.27273680593294242 0 -0.43485130373746728 -0.27797278217749732 0 -0.43864729857200108 -0.26304110196591568 0 -0.41928314839195208 -0.27273680593294242 0 -0.42375174642720059 -0.25747665660699209 0 -0.43864729857200108 -0.26304110196591568 0 -0.42375174642720059 -0.25747665660699209 0 -0.43023046646914581 -0.23985392379185319 0 -0.32281716316625958 -0.25524718493382248 0 -0.30774128731216333 -0.26659399705402798 0 -0.3080344920095332 -0.2394981872891698 0 -0.32281716316625958 -0.25524718493382248 0 -0.31968795241876508 -0.27293506951701829 0 -0.30774128731216333 -0.26659399705402798 0 -0.32281716316625958 -0.25524718493382248 0 -0.31968795241876508 -0.27293506951701829 0 -0.33291297385563862 -0.27138029458191387 0 -0.31968795241876508 -0.27293506951701829 0 -0.31647526405534437 -0.28336087700302459 0 -0.30758205481970841 -0.27760343961479889 0 -0.31968795241876508 -0.27293506951701829 0 -0.33027340933504828 -0.28512882554879049 0 -0.31647526405534437 -0.28336087700302459 0 -0.31968795241876508 -0.27293506951701829 0 -0.33291297385563862 -0.27138029458191387 0 -0.33027340933504828 -0.28512882554879049 0 -0.33291297385563862 -0.27138029458191387 0 -0.3420568595076029 -0.25747954770235609 0 -0.34972948485051708 -0.28611084520758201 0 -0.33291297385563862 -0.27138029458191387 0 -0.34972948485051708 -0.28611084520758201 0 -0.33027340933504828 -0.28512882554879049 0 -0.32281716316625958 -0.25524718493382248 0 -0.33291297385563862 -0.27138029458191387 0 -0.3420568595076029 -0.25747954770235609 0 -0.3420568595076029 -0.25747954770235609 0 -0.35907509136517218 -0.26455660431748251 0 -0.3555286812485845 -0.2501349896800531 0 -0.37555185854525208 -0.27281621019095731 0 -0.35907509136517218 -0.26455660431748251 0 -0.37037932240072358 -0.24999915582584881 0 -0.35907509136517218 -0.26455660431748251 0 -0.3555286812485845 -0.2501349896800531 0 -0.37037932240072358 -0.24999915582584881 0 -0.37555185854525208 -0.27281621019095731 0 -0.37037932240072358 -0.24999915582584881 0 -0.37555185854525208 -0.27281621019095731 0 -0.35907509136517218 -0.26455660431748251 0 -0.34972948485051708 -0.28611084520758201 0 -0.3420568595076029 -0.25747954770235609 0 -0.34972948485051708 -0.28611084520758201 0 -0.3420568595076029 -0.25747954770235609 0 -0.35907509136517218 -0.26455660431748251 0 -0.34972948485051708 -0.28611084520758201 0 -0.3807243946897807 -0.29563326455606559 0 -0.37555185854525208 -0.27281621019095731 0 -0.36551545216317172 -0.29544925014296469 0 -0.37555185854525208 -0.27281621019095731 0 -0.34972948485051708 -0.28611084520758201 0 -0.36551545216317172 -0.29544925014296469 0 -0.36551545216317172 -0.29544925014296469 0 -0.3717456676952649 -0.30976169983815638 0 -0.35740211019343138 -0.31474214271280793 0 -0.3807243946897807 -0.29563326455606559 0 -0.36551545216317172 -0.29544925014296469 0 -0.3717456676952649 -0.30976169983815638 0 -0.34972948485051708 -0.28611084520758201 0 -0.33702349927436381 -0.300582628930744 0 -0.35740211019343138 -0.31474214271280793 0 -0.33702349927436381 -0.300582628930744 0 -0.33889402101412891 -0.31958942347707031 0 -0.35740211019343138 -0.31474214271280793 0 -0.34972948485051708 -0.28611084520758201 0 -0.35740211019343138 -0.31474214271280793 0 -0.34972948485051708 -0.28611084520758201 0 -0.36551545216317172 -0.29544925014296469 0 -0.35740211019343138 -0.31474214271280793 0 -0.32235158767073602 -0.30435531609299749 0 -0.33889402101412891 -0.31958942347707031 0 -0.33702349927436381 -0.300582628930744 0 -0.32235158767073602 -0.30435531609299749 0 -0.33889402101412891 -0.31958942347707031 0 -0.34972948485051708 -0.28611084520758201 0 -0.33702349927436381 -0.300582628930744 0 -0.33027340933504828 -0.28512882554879049 0 -0.33702349927436381 -0.300582628930744 0 -0.33027340933504828 -0.28512882554879049 0 -0.32366327233116993 -0.29239023152730409 0 -0.32235158767073602 -0.30435531609299749 0 -0.3058091543273419 -0.28912120870892599 0 -0.32235158767073602 -0.30435531609299749 0 -0.3058091543273419 -0.28912120870892599 0 -0.31219260132035681 -0.28852351006096411 0 -0.32366327233116993 -0.29239023152730409 0 -0.32235158767073602 -0.30435531609299749 0 -0.31219260132035681 -0.28852351006096411 0 -0.33027340933504828 -0.28512882554879049 0 -0.32366327233116993 -0.29239023152730409 0 -0.31647526405534437 -0.28336087700302459 0 -0.32366327233116993 -0.29239023152730409 0 -0.31647526405534437 -0.28336087700302459 0 -0.31219260132035681 -0.28852351006096411 0 -0.31647526405534437 -0.28336087700302459 0 -0.31040079335434712 -0.284172900928088 0 -0.31219260132035681 -0.28852351006096411 0 -0.32235158767073602 -0.30435531609299749 0 -0.3123814033924841 -0.31676281428449399 0 -0.3058091543273419 -0.28912120870892599 0 -0.33702349927436381 -0.300582628930744 0 -0.32366327233116993 -0.29239023152730409 0 -0.32235158767073602 -0.30435531609299749 0 -0.32660753827541078 -0.32664663666428062 0 -0.32505863758818998 -0.31683854762971059 0 -0.3123814033924841 -0.31676281428449399 0 -0.32235158767073602 -0.30435531609299749 0 -0.32505863758818998 -0.31683854762971059 0 -0.3123814033924841 -0.31676281428449399 0 -0.31895365245762769 -0.34440441986006187 0 -0.3123814033924841 -0.31676281428449399 0 -0.32660753827541078 -0.32664663666428062 0 -0.3386465269912452 -0.33645678637882548 0 -0.31895365245762769 -0.34440441986006187 0 -0.32660753827541078 -0.32664663666428062 0 -0.31895365245762769 -0.34440441986006187 0 -0.3123814033924841 -0.31676281428449399 0 -0.32235158767073602 -0.30435531609299749 0 -0.32505863758818998 -0.31683854762971059 0 -0.33889402101412891 -0.31958942347707031 0 -0.32660753827541078 -0.32664663666428062 0 -0.3386465269912452 -0.33645678637882548 0 -0.33889402101412891 -0.31958942347707031 0 -0.32660753827541078 -0.32664663666428062 0 -0.32505863758818998 -0.31683854762971059 0 -0.33889402101412891 -0.31958942347707031 0 -0.33889402101412891 -0.31958942347707031 0 -0.35805106257132768 -0.3249425627201511 0 -0.3554364543575218 -0.33482353086114308 0 -0.33889402101412891 -0.31958942347707031 0 -0.35805106257132768 -0.3249425627201511 0 -0.35740211019343138 -0.31474214271280793 0 -0.33889402101412891 -0.31958942347707031 0 -0.3554364543575218 -0.33482353086114308 0 -0.3717456676952649 -0.30976169983815638 0 -0.35740211019343138 -0.31474214271280793 0 -0.36910675235549628 -0.32548515458290977 0 -0.35805106257132768 -0.3249425627201511 0 -0.36910675235549628 -0.32548515458290977 0 -0.36245507287105078 -0.33261646138580092 0 -0.35805106257132768 -0.3249425627201511 0 -0.35740211019343138 -0.31474214271280793 0 -0.36910675235549628 -0.32548515458290977 0 -0.37886020790562053 -0.33511782632073911 0 -0.37453493921678999 -0.3435311040469905 0 -0.36881558311990098 -0.3368288186710256 0 -0.37453493921678999 -0.3435311040469905 0 -0.36881558311990098 -0.3368288186710256 0 -0.36830157950165271 -0.34866919913736649 0 -0.37886020790562053 -0.33511782632073911 0 -0.36910675235549628 -0.32548515458290977 0 -0.36881558311990098 -0.3368288186710256 0 -0.36910675235549628 -0.32548515458290977 0 -0.36881558311990098 -0.3368288186710256 0 -0.36245507287105078 -0.33261646138580092 0 -0.36881558311990098 -0.3368288186710256 0 -0.36245507287105078 -0.33261646138580092 0 -0.36086551195100719 -0.34100224009377522 0 -0.36881558311990098 -0.3368288186710256 0 -0.36086551195100719 -0.34100224009377522 0 -0.36830157950165271 -0.34866919913736649 0 -0.36245507287105078 -0.33261646138580092 0 -0.36086551195100719 -0.34100224009377522 0 -0.3554364543575218 -0.33482353086114308 0 -0.3386465269912452 -0.33645678637882548 0 -0.3554364543575218 -0.33482353086114308 0 -0.34949647440178838 -0.34514336779208449 0 -0.3386465269912452 -0.33645678637882548 0 -0.33889402101412891 -0.31958942347707031 0 -0.3554364543575218 -0.33482353086114308 0 -0.36086551195100719 -0.34100224009377522 0 -0.3554364543575218 -0.33482353086114308 0 -0.34949647440178838 -0.34514336779208449 0 -0.35805106257132768 -0.3249425627201511 0 -0.36245507287105078 -0.33261646138580092 0 -0.3554364543575218 -0.33482353086114308 0 -0.36086551195100719 -0.34100224009377522 0 -0.35100744150185498 -0.35593242527038371 0 -0.36111079901020948 -0.3678215772434793 0 -0.34949647440178838 -0.34514336779208449 0 -0.35100744150185498 -0.35593242527038371 0 -0.33766818805156468 -0.35408704283487669 0 -0.36086551195100719 -0.34100224009377522 0 -0.34949647440178838 -0.34514336779208449 0 -0.35100744150185498 -0.35593242527038371 0 -0.37618106421035569 -0.3541622556315619 0 -0.36830157950165271 -0.34866919913736649 0 -0.36111079901020948 -0.3678215772434793 0 -0.36086551195100719 -0.34100224009377522 0 -0.36830157950165271 -0.34866919913736649 0 -0.36111079901020948 -0.3678215772434793 0 -0.36086551195100719 -0.34100224009377522 0 -0.36111079901020948 -0.3678215772434793 0 -0.37618106421035569 -0.3541622556315619 0 -0.37453493921678999 -0.3435311040469905 0 -0.36830157950165271 -0.34866919913736649 0 -0.38289933449622882 -0.36706162463226039 0 -0.37618106421035569 -0.3541622556315619 0 -0.36111079901020948 -0.3678215772434793 0 -0.36111079901020948 -0.3678215772434793 0 -0.34226012756088647 -0.36771534065861738 0 -0.34344873514941099 -0.38333918014944329 0 -0.35100744150185498 -0.35593242527038371 0 -0.36111079901020948 -0.3678215772434793 0 -0.34226012756088647 -0.36771534065861738 0 -0.34226012756088647 -0.36771534065861738 0 -0.32552590152277389 -0.37204602543562909 0 -0.34344873514941099 -0.38333918014944329 0 -0.34226012756088647 -0.36771534065861738 0 -0.33766818805156468 -0.35408704283487669 0 -0.32552590152277389 -0.37204602543562909 0 -0.3386465269912452 -0.33645678637882548 0 -0.33766818805156468 -0.35408704283487669 0 -0.31895365245762769 -0.34440441986006187 0 -0.3386465269912452 -0.33645678637882548 0 -0.34949647440178838 -0.34514336779208449 0 -0.33766818805156468 -0.35408704283487669 0 -0.35100744150185498 -0.35593242527038371 0 -0.34226012756088647 -0.36771534065861738 0 -0.33766818805156468 -0.35408704283487669 0 -0.31895365245762769 -0.34440441986006187 0 -0.32552590152277389 -0.37204602543562909 0 -0.30669035659900667 -0.36017777249223731 0 -0.31895365245762769 -0.34440441986006187 0 -0.32552590152277389 -0.37204602543562909 0 -0.33766818805156468 -0.35408704283487669 0 -0.31895365245762769 -0.34440441986006187 0 -0.32552590152277389 -0.37204602543562909 0 -0.32552590152277389 -0.37204602543562909 0 -0.30669035659900667 -0.36017777249223731 0 -0.32552590152277389 -0.37204602543562909 0 -0.30669035659900667 -0.36017777249223731 0 -0.31611433047672788 -0.37717608648822698 0 -0.30669035659900667 -0.36017777249223731 0 -0.30194155417777629 -0.37392205155428759 0 -0.28789978781715181 -0.36446866299910202 0 -0.30669035659900667 -0.36017777249223731 0 -0.30194155417777629 -0.37392205155428759 0 -0.31611433047672788 -0.37717608648822698 0 -0.30669035659900667 -0.36017777249223731 0 -0.28785481167523741 -0.34830951954884848 0 -0.30669035659900667 -0.36017777249223731 0 -0.28785481167523741 -0.34830951954884848 0 -0.30283829802434048 -0.3421284155290179 0 -0.31895365245762769 -0.34440441986006187 0 -0.30669035659900667 -0.36017777249223731 0 -0.30283829802434048 -0.3421284155290179 0 -0.28785481167523741 -0.34830951954884848 0 -0.28789978781715181 -0.36446866299910202 0 -0.27186963496444488 -0.35219739827565549 0 -0.30669035659900667 -0.36017777249223731 0 -0.28785481167523741 -0.34830951954884848 0 -0.28789978781715181 -0.36446866299910202 0 -0.30194155417777629 -0.37392205155428759 0 -0.28789978781715181 -0.36446866299910202 0 -0.29042609866698199 -0.38280183847461108 0 -0.28789978781715181 -0.36446866299910202 0 -0.26861627081946332 -0.36940339764897229 0 -0.29042609866698199 -0.38280183847461108 0 -0.28789978781715181 -0.36446866299910202 0 -0.26861627081946332 -0.36940339764897229 0 -0.27186963496444488 -0.35219739827565549 0 -0.26861627081946332 -0.36940339764897229 0 -0.25484622695810349 -0.36383199102327768 0 -0.27186963496444488 -0.35219739827565549 0 -0.26861627081946332 -0.36940339764897229 0 -0.25484622695810349 -0.36383199102327768 0 -0.25928065482974011 -0.38004136036377573 0 -0.25484622695810349 -0.36383199102327768 0 -0.25928065482974011 -0.38004136036377573 0 -0.2454823888708253 -0.37909176805193517 0 -0.2553864931377417 -0.34889888660174267 0 -0.27186963496444488 -0.35219739827565549 0 -0.26901926675146981 -0.33644126660545731 0 -0.25484622695810349 -0.36383199102327768 0 -0.2553864931377417 -0.34889888660174267 0 -0.27186963496444488 -0.35219739827565549 0 -0.27186963496444488 -0.35219739827565549 0 -0.26901926675146981 -0.33644126660545731 0 -0.28785481167523741 -0.34830951954884848 0 -0.27186963496444488 -0.35219739827565549 0 -0.26901926675146981 -0.33644126660545731 0 -0.26901926675146981 -0.33644126660545731 0 -0.27842008128780649 -0.32016473260112399 0 -0.2926900145040906 -0.32816667175282582 0 -0.28785481167523741 -0.34830951954884848 0 -0.26901926675146981 -0.33644126660545731 0 -0.2553864931377417 -0.34889888660174267 0 -0.26901926675146981 -0.33644126660545731 0 -0.24679438050505931 -0.33865435206494832 0 -0.26901926675146981 -0.33644126660545731 0 -0.24773623205215151 -0.32303085346176258 0 -0.26901926675146981 -0.33644126660545731 0 -0.24679438050505931 -0.33865435206494832 0 -0.24773623205215151 -0.32303085346176258 0 -0.26901926675146981 -0.33644126660545731 0 -0.2644578470673965 -0.3112268648947214 0 -0.24773623205215151 -0.32303085346176258 0 -0.26901926675146981 -0.33644126660545731 0 -0.27842008128780649 -0.32016473260112399 0 -0.2644578470673965 -0.3112268648947214 0 -0.26901926675146981 -0.33644126660545731 0 -0.2644578470673965 -0.3112268648947214 0 -0.27842008128780649 -0.32016473260112399 0 -0.2926900145040906 -0.32816667175282582 0 -0.2891485516583498 -0.30768467591411269 0 -0.2926900145040906 -0.32816667175282582 0 -0.30106918175311032 -0.31144522295846983 0 -0.2891485516583498 -0.30768467591411269 0 -0.28785481167523741 -0.34830951954884848 0 -0.2926900145040906 -0.32816667175282582 0 -0.30283829802434048 -0.3421284155290179 0 -0.28785481167523741 -0.34830951954884848 0 -0.26901926675146981 -0.33644126660545731 0 -0.2926900145040906 -0.32816667175282582 0 -0.2926900145040906 -0.32816667175282582 0 -0.30283829802434048 -0.3421284155290179 0 -0.30558651002633058 -0.3285815088769739 0 -0.31895365245762769 -0.34440441986006187 0 -0.30558651002633058 -0.3285815088769739 0 -0.3123814033924841 -0.31676281428449399 0 -0.31895365245762769 -0.34440441986006187 0 -0.30283829802434048 -0.3421284155290179 0 -0.30558651002633058 -0.3285815088769739 0 -0.30558651002633058 -0.3285815088769739 0 -0.3123814033924841 -0.31676281428449399 0 -0.30106918175311032 -0.31144522295846983 0 -0.2926900145040906 -0.32816667175282582 0 -0.30558651002633058 -0.3285815088769739 0 -0.30106918175311032 -0.31144522295846983 0 -0.3123814033924841 -0.31676281428449399 0 -0.3058091543273419 -0.28912120870892599 0 -0.3123814033924841 -0.31676281428449399 0 -0.30219959978373079 -0.30115392816655479 0 -0.3058091543273419 -0.28912120870892599 0 -0.30219959978373079 -0.30115392816655479 0 -0.30106918175311032 -0.31144522295846983 0 -0.29556312415859659 -0.29899943435493531 0 -0.3123814033924841 -0.31676281428449399 0 -0.30219959978373079 -0.30115392816655479 0 -0.30106918175311032 -0.31144522295846983 0 -0.3058091543273419 -0.28912120870892599 0 -0.28943479674954442 -0.27404188413150249 0 -0.3058091543273419 -0.28912120870892599 0 -0.3053532532219787 -0.28720377703356448 0 -0.28943479674954442 -0.27404188413150249 0 -0.3058091543273419 -0.28912120870892599 0 -0.29617513528712119 -0.28944096052594898 0 -0.28943479674954442 -0.27404188413150249 0 -0.31040079335434712 -0.284172900928088 0 -0.3053532532219787 -0.28720377703356448 0 -0.30758205481970841 -0.27760343961479889 0 -0.31647526405534437 -0.28336087700302459 0 -0.31040079335434712 -0.284172900928088 0 -0.30758205481970841 -0.27760343961479889 0 -0.31040079335434712 -0.284172900928088 0 -0.31219260132035681 -0.28852351006096411 0 -0.3053532532219787 -0.28720377703356448 0 -0.3058091543273419 -0.28912120870892599 0 -0.31219260132035681 -0.28852351006096411 0 -0.3053532532219787 -0.28720377703356448 0 -0.3058091543273419 -0.28912120870892599 0 -0.3053532532219787 -0.28720377703356448 0 -0.30219959978373079 -0.30115392816655479 0 -0.3058091543273419 -0.28912120870892599 0 -0.29617513528712119 -0.28944096052594898 0 -0.30219959978373079 -0.30115392816655479 0 -0.29617513528712119 -0.28944096052594898 0 -0.29556312415859659 -0.29899943435493531 0 -0.29617513528712119 -0.28944096052594898 0 -0.28745838253310591 -0.29049622118526119 0 -0.28943479674954442 -0.27404188413150249 0 -0.29617513528712119 -0.28944096052594898 0 -0.28745838253310591 -0.29049622118526119 0 -0.29556312415859659 -0.29899943435493531 0 -0.28745838253310591 -0.29049622118526119 0 -0.2891485516583498 -0.30768467591411269 0 -0.27506367380648061 -0.29776146597599579 0 -0.28745838253310591 -0.29049622118526119 0 -0.29556312415859659 -0.29899943435493531 0 -0.2891485516583498 -0.30768467591411269 0 -0.30106918175311032 -0.31144522295846983 0 -0.29556312415859659 -0.29899943435493531 0 -0.2891485516583498 -0.30768467591411269 0 -0.27506367380648061 -0.29776146597599579 0 -0.2644578470673965 -0.3112268648947214 0 -0.25989642738331908 -0.28601246318398621 0 -0.27842008128780649 -0.32016473260112399 0 -0.27506367380648061 -0.29776146597599579 0 -0.2644578470673965 -0.3112268648947214 0 -0.27842008128780649 -0.32016473260112399 0 -0.2891485516583498 -0.30768467591411269 0 -0.27506367380648061 -0.29776146597599579 0 -0.2644578470673965 -0.3112268648947214 0 -0.25989642738331908 -0.28601246318398621 0 -0.24657676615906499 -0.29636819494863198 0 -0.2644578470673965 -0.3112268648947214 0 -0.24773623205215151 -0.32303085346176258 0 -0.24657676615906499 -0.29636819494863198 0 -0.2644578470673965 -0.3112268648947214 0 -0.25989642738331908 -0.28601246318398621 0 -0.25989642738331908 -0.28601246318398621 0 -0.2455812677149937 -0.27901044640179051 0 -0.24657676615906499 -0.29636819494863198 0 -0.28745838253310591 -0.29049622118526119 0 -0.27506367380648061 -0.29776146597599579 0 -0.27294535499841399 -0.27382016391610542 0 -0.27506367380648061 -0.29776146597599579 0 -0.25989642738331908 -0.28601246318398621 0 -0.27294535499841399 -0.27382016391610542 0 -0.25989642738331908 -0.28601246318398621 0 -0.27294535499841399 -0.27382016391610542 0 -0.25533500769922501 -0.26079806147325402 0 -0.25989642738331908 -0.28601246318398621 0 -0.25533500769922501 -0.26079806147325402 0 -0.2455812677149937 -0.27901044640179051 0 -0.25989642738331908 -0.28601246318398621 0 -0.25533500769922501 -0.26079806147325402 0 -0.25533500769922501 -0.26079806147325402 0 -0.27347376693297959 -0.25205870770091199 0 -0.26038277371618063 -0.2477199445964943 0 -0.25533500769922501 -0.26079806147325402 0 -0.25217385243102691 -0.24332397570100661 0 -0.25533500769922501 -0.26079806147325402 0 -0.25217385243102691 -0.24332397570100661 0 -0.26038277371618063 -0.2477199445964943 0 -0.25533500769922501 -0.26079806147325402 0 -0.27347376693297959 -0.25205870770091199 0 -0.28168474985437852 -0.25014812438121031 0 -0.27294535499841399 -0.27382016391610542 0 -0.25533500769922501 -0.26079806147325402 0 -0.28168474985437852 -0.25014812438121031 0 -0.25533500769922501 -0.26079806147325402 0 -0.28168474985437852 -0.25014812438121031 0 -0.29475034209373052 -0.25911400252729272 0 -0.28168474985437852 -0.25014812438121031 0 -0.28943479674954442 -0.27404188413150249 0 -0.28745838253310591 -0.29049622118526119 0 -0.27294535499841399 -0.27382016391610542 0 -0.28943479674954442 -0.27404188413150249 0 -0.27294535499841399 -0.27382016391610542 0 -0.28168474985437852 -0.25014812438121031 0 -0.28943479674954442 -0.27404188413150249 0 -0.3053532532219787 -0.28720377703356448 0 -0.28943479674954442 -0.27404188413150249 0 -0.30758205481970841 -0.27760343961479889 0 -0.29475034209373052 -0.25911400252729272 0 -0.28943479674954442 -0.27404188413150249 0 -0.30774128731216333 -0.26659399705402798 0 -0.28943479674954442 -0.27404188413150249 0 -0.30758205481970841 -0.27760343961479889 0 -0.30774128731216333 -0.26659399705402798 0 -0.31968795241876508 -0.27293506951701829 0 -0.30758205481970841 -0.27760343961479889 0 -0.30774128731216333 -0.26659399705402798 0 -0.29475034209373052 -0.25911400252729272 0 -0.30774128731216333 -0.26659399705402798 0 -0.3080344920095332 -0.2394981872891698 0 -0.39262896797371383 -0.5 0 -0.32996919821949727 -0.500000000000003 0 -0.37316737060878918 -0.47398651856120799 0 -0.34058957200865753 -0.45543385085020638 0 -0.32377239314134493 -0.45141895556109951 0 -0.32687079568042088 -0.47570947778055128 0 -0.34058957200865753 -0.45543385085020638 0 -0.32687079568042088 -0.47570947778055128 0 -0.34662456052760132 -0.47173753532305618 0 -0.34058957200865753 -0.45543385085020638 0 -0.32377239314134493 -0.45141895556109951 0 -0.33386893043444149 -0.4344635271999181 0 -0.34058957200865753 -0.45543385085020638 0 -0.34682506027071103 -0.44062156430868887 0 -0.33386893043444149 -0.4344635271999181 0 -0.32377239314134493 -0.45141895556109951 0 -0.33386893043444149 -0.4344635271999181 0 -0.32067399060226892 -0.42712843334164757 0 -0.32377239314134493 -0.45141895556109951 0 -0.31413243383823891 -0.44030571941188201 0 -0.30165526083216609 -0.44810013965012718 0 -0.32377239314134493 -0.45141895556109951 0 -0.32067399060226892 -0.42712843334164757 0 -0.32377239314134493 -0.45141895556109951 0 -0.31413243383823891 -0.44030571941188201 0 -0.32067399060226892 -0.42712843334164757 0 -0.32377239314134493 -0.45141895556109951 0 -0.32687079568042088 -0.47570947778055128 0 -0.32377239314134493 -0.45141895556109951 0 -0.32687079568042088 -0.47570947778055128 0 -0.31065948331508042 -0.46345002999867368 0 -0.32687079568042088 -0.47570947778055128 0 -0.31065948331508042 -0.46345002999867368 0 -0.31111493494490827 -0.48351231245007692 0 -0.32996919821949727 -0.500000000000003 0 -0.3105218966846669 -0.5 0 -0.31111493494490827 -0.48351231245007692 0 -0.32687079568042088 -0.47570947778055128 0 -0.32996919821949727 -0.500000000000003 0 -0.31111493494490827 -0.48351231245007692 0 -0.32687079568042088 -0.47570947778055128 0 -0.32996919821949727 -0.500000000000003 0 -0.32687079568042088 -0.47570947778055128 0 -0.32996919821949727 -0.500000000000003 0 -0.34662456052760132 -0.47173753532305618 0 -0.32996919821949727 -0.500000000000003 0 -0.34662456052760132 -0.47173753532305618 0 -0.37316737060878918 -0.47398651856120799 0 -0.34662456052760132 -0.47173753532305618 0 -0.37316737060878918 -0.47398651856120799 0 -0.36188514639862868 -0.45248761608201049 0 -0.3767963593357716 -0.45178105362933019 0 -0.37316737060878918 -0.47398651856120799 0 -0.36188514639862868 -0.45248761608201049 0 -0.34058957200865753 -0.45543385085020638 0 -0.34662456052760132 -0.47173753532305618 0 -0.36188514639862868 -0.45248761608201049 0 -0.34682506027071103 -0.44062156430868887 0 -0.36188514639862868 -0.45248761608201049 0 -0.35373240082966773 -0.43415260240892928 0 -0.34058957200865753 -0.45543385085020638 0 -0.34682506027071103 -0.44062156430868887 0 -0.36188514639862868 -0.45248761608201049 0 -0.36188514639862868 -0.45248761608201049 0 -0.36164797472772831 -0.42655560391294811 0 -0.35373240082966773 -0.43415260240892928 0 -0.36188514639862868 -0.45248761608201049 0 -0.36164797472772831 -0.42655560391294811 0 -0.37571984476653952 -0.43520038182404869 0 -0.36188514639862868 -0.45248761608201049 0 -0.36164797472772831 -0.42655560391294811 0 -0.37571984476653952 -0.43520038182404869 0 -0.3767963593357716 -0.45178105362933019 0 -0.36188514639862868 -0.45248761608201049 0 -0.37571984476653952 -0.43520038182404869 0 -0.36164797472772831 -0.42655560391294811 0 -0.3616113069522584 -0.42254640164940399 0 -0.36164797472772831 -0.42655560391294811 0 -0.37376847139124569 -0.42535590562902159 0 -0.3616113069522584 -0.42254640164940399 0 -0.36164797472772831 -0.42655560391294811 0 -0.37627906073491119 -0.42427793131524533 0 -0.3616113069522584 -0.42254640164940399 0 -0.37376847139124569 -0.42535590562902159 0 -0.37627906073491119 -0.42427793131524533 0 -0.3616113069522584 -0.42254640164940399 0 -0.37571984476653952 -0.43520038182404869 0 -0.36164797472772831 -0.42655560391294811 0 -0.37376847139124569 -0.42535590562902159 0 -0.3616113069522584 -0.42254640164940399 0 -0.37144691229837229 -0.41298912878136718 0 -0.36136622123227291 -0.39464082169796583 0 -0.37627906073491119 -0.42427793131524533 0 -0.3616113069522584 -0.42254640164940399 0 -0.37144691229837229 -0.41298912878136718 0 -0.3616113069522584 -0.42254640164940399 0 -0.36136622123227291 -0.39464082169796583 0 -0.35357819370315913 -0.42159809190095859 0 -0.3361649447297268 -0.41954245627856179 0 -0.3616113069522584 -0.42254640164940399 0 -0.35388861144201778 -0.40863227136364871 0 -0.36136622123227291 -0.39464082169796583 0 -0.3616113069522584 -0.42254640164940399 0 -0.35357819370315913 -0.42159809190095859 0 -0.35388861144201778 -0.40863227136364871 0 -0.35357819370315913 -0.42159809190095859 0 -0.35388861144201778 -0.40863227136364871 0 -0.33931287935660842 -0.40668199423227852 0 -0.35357819370315913 -0.42159809190095859 0 -0.34472562904811238 -0.42950013584003938 0 -0.35373240082966773 -0.43415260240892928 0 -0.35357819370315913 -0.42159809190095859 0 -0.34472562904811238 -0.42950013584003938 0 -0.3361649447297268 -0.41954245627856179 0 -0.34682506027071103 -0.44062156430868887 0 -0.34472562904811238 -0.42950013584003938 0 -0.35373240082966773 -0.43415260240892928 0 -0.3616113069522584 -0.42254640164940399 0 -0.36164797472772831 -0.42655560391294811 0 -0.35357819370315913 -0.42159809190095859 0 -0.3616113069522584 -0.42254640164940399 0 -0.35357819370315913 -0.42159809190095859 0 -0.36164797472772831 -0.42655560391294811 0 -0.35357819370315913 -0.42159809190095859 0 -0.36164797472772831 -0.42655560391294811 0 -0.35357819370315913 -0.42159809190095859 0 -0.35373240082966773 -0.43415260240892928 0 -0.36111079901020948 -0.3678215772434793 0 -0.36136622123227291 -0.39464082169796583 0 -0.38324901345491352 -0.38271664601739308 0 -0.36111079901020948 -0.3678215772434793 0 -0.36136622123227291 -0.39464082169796583 0 -0.38324901345491352 -0.38271664601739308 0 -0.36136622123227291 -0.39464082169796583 0 -0.38652602217137749 -0.41048212401227208 0 -0.37144691229837229 -0.41298912878136718 0 -0.36136622123227291 -0.39464082169796583 0 -0.38652602217137749 -0.41048212401227208 0 -0.36136622123227291 -0.39464082169796583 0 -0.35388861144201778 -0.40863227136364871 0 -0.36136622123227291 -0.39464082169796583 0 -0.33931287935660842 -0.40668199423227852 0 -0.36136622123227291 -0.39464082169796583 0 -0.34344873514941099 -0.38333918014944329 0 -0.34217223305231809 -0.39499219621133203 0 -0.36136622123227291 -0.39464082169796583 0 -0.34217223305231809 -0.39499219621133203 0 -0.33931287935660842 -0.40668199423227852 0 -0.36136622123227291 -0.39464082169796583 0 -0.33931287935660842 -0.40668199423227852 0 -0.36111079901020948 -0.3678215772434793 0 -0.36136622123227291 -0.39464082169796583 0 -0.34344873514941099 -0.38333918014944329 0 -0.36136622123227291 -0.39464082169796583 0 -0.34344873514941099 -0.38333918014944329 0 -0.32552590152277389 -0.37204602543562909 0 -0.34344873514941099 -0.38333918014944329 0 -0.32953477132016978 -0.38890655470728891 0 -0.32552590152277389 -0.37204602543562909 0 -0.34344873514941099 -0.38333918014944329 0 -0.34344873514941099 -0.38333918014944329 0 -0.32953477132016978 -0.38890655470728891 0 -0.34217223305231809 -0.39499219621133203 0 -0.32953477132016978 -0.38890655470728891 0 -0.33614088121166608 -0.39908695728246191 0 -0.33354364111756812 -0.40576708397894817 0 -0.32953477132016978 -0.38890655470728891 0 -0.33354364111756812 -0.40576708397894817 0 -0.32953477132016978 -0.38890655470728891 0 -0.34217223305231809 -0.39499219621133203 0 -0.33614088121166608 -0.39908695728246191 0 -0.34217223305231809 -0.39499219621133203 0 -0.33614088121166608 -0.39908695728246191 0 -0.33931287935660842 -0.40668199423227852 0 -0.33614088121166608 -0.39908695728246191 0 -0.33354364111756812 -0.40576708397894817 0 -0.33931287935660842 -0.40668199423227852 0 -0.33290706010883009 -0.40889918560060412 0 -0.31223592651449772 -0.39620027930025509 0 -0.31757558806319292 -0.40283791112219558 0 -0.33290706010883009 -0.40889918560060412 0 -0.31223592651449772 -0.39620027930025509 0 -0.32953477132016978 -0.38890655470728891 0 -0.33354364111756812 -0.40576708397894817 0 -0.31223592651449772 -0.39620027930025509 0 -0.33354364111756812 -0.40576708397894817 0 -0.33290706010883009 -0.40889918560060412 0 -0.31223592651449772 -0.39620027930025509 0 -0.32552590152277389 -0.37204602543562909 0 -0.32953477132016978 -0.38890655470728891 0 -0.31611433047672788 -0.37717608648822698 0 -0.32552590152277389 -0.37204602543562909 0 -0.32953477132016978 -0.38890655470728891 0 -0.32953477132016978 -0.38890655470728891 0 -0.31611433047672788 -0.37717608648822698 0 -0.31223592651449772 -0.39620027930025509 0 -0.31611433047672788 -0.37717608648822698 0 -0.31223592651449772 -0.39620027930025509 0 -0.33386893043444149 -0.4344635271999181 0 -0.3361649447297268 -0.41954245627856179 0 -0.32067399060226892 -0.42712843334164757 0 -0.34682506027071103 -0.44062156430868887 0 -0.34472562904811238 -0.42950013584003938 0 -0.33386893043444149 -0.4344635271999181 0 -0.34472562904811238 -0.42950013584003938 0 -0.33386893043444149 -0.4344635271999181 0 -0.3361649447297268 -0.41954245627856179 0 -0.35357819370315913 -0.42159809190095859 0 -0.3361649447297268 -0.41954245627856179 0 -0.33290706010883009 -0.40889918560060412 0 -0.35357819370315913 -0.42159809190095859 0 -0.33290706010883009 -0.40889918560060412 0 -0.35357819370315913 -0.42159809190095859 0 -0.33931287935660842 -0.40668199423227852 0 -0.33290706010883009 -0.40889918560060412 0 -0.33354364111756812 -0.40576708397894817 0 -0.33931287935660842 -0.40668199423227852 0 -0.33290706010883009 -0.40889918560060412 0 -0.3361649447297268 -0.41954245627856179 0 -0.33290706010883009 -0.40889918560060412 0 -0.3268303958760046 -0.41460199658575231 0 -0.31757558806319292 -0.40283791112219558 0 -0.3268303958760046 -0.41460199658575231 0 -0.32067399060226892 -0.42712843334164757 0 -0.3361649447297268 -0.41954245627856179 0 -0.3268303958760046 -0.41460199658575231 0 -0.32067399060226892 -0.42712843334164757 0 -0.31757558806319292 -0.40283791112219558 0 -0.32067399060226892 -0.42712843334164757 0 -0.31757558806319292 -0.40283791112219558 0 -0.32067399060226892 -0.42712843334164757 0 -0.30694559367333102 -0.422150209475191 0 -0.31757558806319292 -0.40283791112219558 0 -0.33290706010883009 -0.40889918560060412 0 -0.3268303958760046 -0.41460199658575231 0 -0.31413243383823891 -0.44030571941188201 0 -0.32067399060226892 -0.42712843334164757 0 -0.30694559367333102 -0.422150209475191 0 -0.31413243383823891 -0.44030571941188201 0 -0.30694559367333102 -0.422150209475191 0 -0.30165526083216609 -0.44810013965012718 0 -0.30694559367333102 -0.422150209475191 0 -0.29456408497342113 -0.43215226568668252 0 -0.30165526083216609 -0.44810013965012718 0 -0.30694559367333102 -0.422150209475191 0 -0.30165526083216609 -0.44810013965012718 0 -0.30694559367333102 -0.422150209475191 0 -0.29602889332566201 -0.40937589874214658 0 -0.31223592651449772 -0.39620027930025509 0 -0.31757558806319292 -0.40283791112219558 0 -0.30694559367333102 -0.422150209475191 0 -0.31223592651449772 -0.39620027930025509 0 -0.30694559367333102 -0.422150209475191 0 -0.29602889332566201 -0.40937589874214658 0 -0.29456408497342113 -0.43215226568668252 0 -0.30694559367333102 -0.422150209475191 0 -0.31223592651449772 -0.39620027930025509 0 -0.29602889332566201 -0.40937589874214658 0 -0.28133940190808809 -0.42535109200739779 0 -0.27581780772960812 -0.4063835444263002 0 -0.29602889332566201 -0.40937589874214658 0 -0.28133940190808809 -0.42535109200739779 0 -0.29456408497342113 -0.43215226568668252 0 -0.28133940190808809 -0.42535109200739779 0 -0.28314652653910782 -0.45028635804266448 0 -0.29602889332566201 -0.40937589874214658 0 -0.29456408497342113 -0.43215226568668252 0 -0.28133940190808809 -0.42535109200739779 0 -0.30194155417777629 -0.37392205155428759 0 -0.31611433047672788 -0.37717608648822698 0 -0.31223592651449772 -0.39620027930025509 0 -0.31223592651449772 -0.39620027930025509 0 -0.29042609866698199 -0.38280183847461108 0 -0.30194155417777629 -0.37392205155428759 0 -0.31223592651449772 -0.39620027930025509 0 -0.29042609866698199 -0.38280183847461108 0 -0.29602889332566201 -0.40937589874214658 0 -0.31223592651449772 -0.39620027930025509 0 -0.28796109575077089 -0.39719922054064638 0 -0.29602889332566201 -0.40937589874214658 0 -0.28796109575077089 -0.39719922054064638 0 -0.27581780772960812 -0.4063835444263002 0 -0.31223592651449772 -0.39620027930025509 0 -0.28796109575077089 -0.39719922054064638 0 -0.29042609866698199 -0.38280183847461108 0 -0.28796109575077089 -0.39719922054064638 0 -0.29042609866698199 -0.38280183847461108 0 -0.27150476335109669 -0.38864718175083213 0 -0.26861627081946332 -0.36940339764897229 0 -0.29042609866698199 -0.38280183847461108 0 -0.27150476335109669 -0.38864718175083213 0 -0.26861627081946332 -0.36940339764897229 0 -0.27150476335109669 -0.38864718175083213 0 -0.25928065482974011 -0.38004136036377573 0 -0.26861627081946332 -0.36940339764897229 0 -0.29042609866698199 -0.38280183847461108 0 -0.28796109575077089 -0.39719922054064638 0 -0.27150476335109669 -0.38864718175083213 0 -0.27581780772960812 -0.4063835444263002 0 -0.27150476335109669 -0.38864718175083213 0 -0.25595362414921119 -0.39923246334386131 0 -0.27581780772960812 -0.4063835444263002 0 -0.27150476335109669 -0.38864718175083213 0 -0.25595362414921119 -0.39923246334386131 0 -0.25928065482974011 -0.38004136036377573 0 -0.25595362414921119 -0.39923246334386131 0 -0.25928065482974011 -0.38004136036377573 0 -0.2454823888708253 -0.37909176805193517 0 -0.28133940190808809 -0.42535109200739779 0 -0.26113998907290981 -0.42178989237586639 0 -0.26664991049051417 -0.44132628527264889 0 -0.28133940190808809 -0.42535109200739779 0 -0.26664991049051417 -0.44132628527264889 0 -0.28133940190808809 -0.42535109200739779 0 -0.27581780772960812 -0.4063835444263002 0 -0.26113998907290981 -0.42178989237586639 0 -0.25595362414921119 -0.39923246334386131 0 -0.26113998907290981 -0.42178989237586639 0 -0.23751553825458149 -0.41808959206439827 0 -0.25595362414921119 -0.39923246334386131 0 -0.27581780772960812 -0.4063835444263002 0 -0.26113998907290981 -0.42178989237586639 0 -0.26113998907290981 -0.42178989237586639 0 -0.26664991049051417 -0.44132628527264889 0 -0.24998188965477949 -0.43628624260027887 0 -0.25196041907293909 -0.45730147853789899 0 -0.26882743934626219 -0.45557172092804687 0 -0.26664991049051417 -0.44132628527264889 0 -0.25196041907293909 -0.45730147853789899 0 -0.26664991049051417 -0.44132628527264889 0 -0.25196041907293909 -0.45730147853789899 0 -0.26664991049051417 -0.44132628527264889 0 -0.24998188965477949 -0.43628624260027887 0 -0.25196041907293909 -0.45730147853789899 0 -0.27355290128248783 -0.47337276185897509 0 -0.25196041907293909 -0.45730147853789899 0 -0.27355290128248783 -0.47337276185897509 0 -0.25644967940051838 -0.47405052853383101 0 -0.25196041907293909 -0.45730147853789899 0 -0.26882743934626219 -0.45557172092804687 0 -0.27355290128248783 -0.47337276185897509 0 -0.26882743934626219 -0.45557172092804687 0 -0.28314652653910782 -0.45028635804266448 0 -0.27355290128248783 -0.47337276185897509 0 -0.28133940190808809 -0.42535109200739779 0 -0.26664991049051417 -0.44132628527264889 0 -0.28314652653910782 -0.45028635804266448 0 -0.26882743934626219 -0.45557172092804687 0 -0.26664991049051417 -0.44132628527264889 0 -0.28314652653910782 -0.45028635804266448 0 -0.29456408497342113 -0.43215226568668252 0 -0.28314652653910782 -0.45028635804266448 0 -0.30165526083216609 -0.44810013965012718 0 -0.28314652653910782 -0.45028635804266448 0 -0.29636492799100128 -0.47405006982506348 0 -0.27355290128248783 -0.47337276185897509 0 -0.28314652653910782 -0.45028635804266448 0 -0.30165526083216609 -0.44810013965012718 0 -0.29636492799100128 -0.47405006982506348 0 -0.30165526083216609 -0.44810013965012718 0 -0.29636492799100128 -0.47405006982506348 0 -0.32377239314134493 -0.45141895556109951 0 -0.31065948331508042 -0.46345002999867368 0 -0.30165526083216609 -0.44810013965012718 0 -0.31065948331508042 -0.46345002999867368 0 -0.30165526083216609 -0.44810013965012718 0 -0.29636492799100128 -0.47405006982506348 0 -0.3105218966846669 -0.5 0 -0.31111493494490827 -0.48351231245007692 0 -0.29107459514983658 -0.49999999999999978 0 -0.31111493494490827 -0.48351231245007692 0 -0.29636492799100128 -0.47405006982506348 0 -0.29107459514983658 -0.49999999999999978 0 -0.31065948331508042 -0.46345002999867368 0 -0.31111493494490827 -0.48351231245007692 0 -0.29636492799100128 -0.47405006982506348 0 -0.29636492799100128 -0.47405006982506348 0 -0.29107459514983658 -0.49999999999999978 0 -0.27355290128248783 -0.47337276185897509 0 -0.29636492799100128 -0.47405006982506348 0 -0.29107459514983658 -0.49999999999999978 0 -0.29107459514983658 -0.49999999999999978 0 -0.27355290128248783 -0.47337276185897509 0 -0.26264604395385999 -0.5 0 -0.27355290128248783 -0.47337276185897509 0 -0.25644967940051838 -0.47405052853383101 0 -0.26264604395385999 -0.5 0 -0.25644967940051838 -0.47405052853383101 0 -0.26264604395385999 -0.5 0 -0.2449425132167001 -0.48472672347822432 0 -0.2449425132167001 -0.48472672347822432 0 -0.22989375539866691 -0.48129953312637108 0 -0.23421749275788331 -0.5 0 -0.26264604395385999 -0.5 0 -0.2449425132167001 -0.48472672347822432 0 -0.23421749275788331 -0.5 0 -0.25644967940051838 -0.47405052853383101 0 -0.2449425132167001 -0.48472672347822432 0 -0.24092708723580361 -0.46930050583213562 0 -0.24092708723580361 -0.46930050583213562 0 -0.22989375539866691 -0.48129953312637108 0 -0.2449425132167001 -0.48472672347822432 0 -0.24092708723580361 -0.46930050583213562 0 -0.22989375539866691 -0.48129953312637108 0 -0.24092708723580361 -0.46930050583213562 0 -0.22989375539866691 -0.48129953312637108 0 -0.22315808615992211 -0.46403376628593052 0 -0.22989375539866691 -0.48129953312637108 0 -0.22315808615992211 -0.46403376628593052 0 -0.2122245864637084 -0.47536125973174298 0 -0.22989375539866691 -0.48129953312637108 0 -0.23421749275788331 -0.5 0 -0.20578894156190669 -0.5 0 -0.25196041907293909 -0.45730147853789899 0 -0.23264359138295271 -0.44292396475058199 0 -0.25196041907293909 -0.45730147853789899 0 -0.23264359138295271 -0.44292396475058199 0 -0.24998188965477949 -0.43628624260027887 0 -0.25196041907293909 -0.45730147853789899 0 -0.23655317655992941 -0.457898871547193 0 -0.23264359138295271 -0.44292396475058199 0 -0.25196041907293909 -0.45730147853789899 0 -0.25644967940051838 -0.47405052853383101 0 -0.24092708723580361 -0.46930050583213562 0 -0.25196041907293909 -0.45730147853789899 0 -0.24092708723580361 -0.46930050583213562 0 -0.25196041907293909 -0.45730147853789899 0 -0.24092708723580361 -0.46930050583213562 0 -0.23655317655992941 -0.457898871547193 0 -0.23655317655992941 -0.457898871547193 0 -0.22315808615992211 -0.46403376628593052 0 -0.23264359138295271 -0.44292396475058199 0 -0.22315808615992211 -0.46403376628593052 0 -0.23264359138295271 -0.44292396475058199 0 -0.20723074551764381 -0.45455770356204273 0 -0.24092708723580361 -0.46930050583213562 0 -0.23655317655992941 -0.457898871547193 0 -0.22315808615992211 -0.46403376628593052 0 -0.23264359138295271 -0.44292396475058199 0 -0.20723074551764381 -0.45455770356204273 0 -0.2133267636929661 -0.4285464509632651 0 -0.20723074551764381 -0.45455770356204273 0 -0.19588565821301801 -0.43181408559185591 0 -0.2133267636929661 -0.4285464509632651 0 -0.22315808615992211 -0.46403376628593052 0 -0.20723074551764381 -0.45455770356204273 0 -0.2122245864637084 -0.47536125973174298 0 -0.20723074551764381 -0.45455770356204273 0 -0.1878426087761785 -0.44763113184535053 0 -0.1854564530676277 -0.46374789029431401 0 -0.20723074551764381 -0.45455770356204273 0 -0.19505140368040241 -0.47691529568437069 0 -0.1854564530676277 -0.46374789029431401 0 -0.20723074551764381 -0.45455770356204273 0 -0.1878426087761785 -0.44763113184535053 0 -0.20723074551764381 -0.45455770356204273 0 -0.1878426087761785 -0.44763113184535053 0 -0.19588565821301801 -0.43181408559185591 0 -0.22989375539866691 -0.48129953312637108 0 -0.20578894156190669 -0.5 0 -0.2122245864637084 -0.47536125973174298 0 -0.20578894156190669 -0.5 0 -0.2122245864637084 -0.47536125973174298 0 -0.19505140368040241 -0.47691529568437069 0 -0.20723074551764381 -0.45455770356204273 0 -0.2122245864637084 -0.47536125973174298 0 -0.19505140368040241 -0.47691529568437069 0 -0.20578894156190669 -0.5 0 -0.19505140368040241 -0.47691529568437069 0 -0.17736039036593021 -0.5 0 -0.17736039036593021 -0.5 0 -0.1598456608548294 -0.48625367410470982 0 -0.1704964727325613 -0.47184761967093541 0 -0.17736039036593021 -0.5 0 -0.1598456608548294 -0.48625367410470982 0 -0.14893183916995351 -0.5 0 -0.1598456608548294 -0.48625367410470982 0 -0.1704964727325613 -0.47184761967093541 0 -0.14299079983292429 -0.47752360372703062 0 -0.19505140368040241 -0.47691529568437069 0 -0.17736039036593021 -0.5 0 -0.1704964727325613 -0.47184761967093541 0 -0.19505140368040241 -0.47691529568437069 0 -0.1704964727325613 -0.47184761967093541 0 -0.1854564530676277 -0.46374789029431401 0 -0.1878426087761785 -0.44763113184535053 0 -0.1854564530676277 -0.46374789029431401 0 -0.1631135825648615 -0.45590288555944908 0 -0.1704964727325613 -0.47184761967093541 0 -0.1854564530676277 -0.46374789029431401 0 -0.1631135825648615 -0.45590288555944908 0 -0.1878426087761785 -0.44763113184535053 0 -0.16845447203471309 -0.44070456012865827 0 -0.1878426087761785 -0.44763113184535053 0 -0.16845447203471309 -0.44070456012865827 0 -0.1631135825648615 -0.45590288555944908 0 -0.1878426087761785 -0.44763113184535053 0 -0.16845447203471309 -0.44070456012865827 0 -0.19588565821301801 -0.43181408559185591 0 -0.16845447203471309 -0.44070456012865827 0 -0.1631135825648615 -0.45590288555944908 0 -0.14906633529324759 -0.43377798841196658 0 -0.1704964727325613 -0.47184761967093541 0 -0.1631135825648615 -0.45590288555944908 0 -0.14299079983292429 -0.47752360372703062 0 -0.1631135825648615 -0.45590288555944908 0 -0.14602856756308591 -0.45565079606949871 0 -0.14299079983292429 -0.47752360372703062 0 -0.14602856756308591 -0.45565079606949871 0 -0.14299079983292429 -0.47752360372703062 0 -0.1631135825648615 -0.45590288555944908 0 -0.14602856756308591 -0.45565079606949871 0 -0.14906633529324759 -0.43377798841196658 0 -0.14602856756308591 -0.45565079606949871 0 -0.1312064970229409 -0.44244490655103669 0 -0.14906633529324759 -0.43377798841196658 0 -0.14602856756308591 -0.45565079606949871 0 -0.14906633529324759 -0.43377798841196658 0 -0.14602856756308591 -0.45565079606949871 0 -0.1312064970229409 -0.44244490655103669 0 -0.1201536232768925 -0.46295462635476942 0 -0.14602856756308591 -0.45565079606949871 0 -0.14299079983292429 -0.47752360372703062 0 -0.1201536232768925 -0.46295462635476942 0 -0.1267921368491573 -0.48314498010293672 0 -0.14299079983292429 -0.47752360372703062 0 -0.1201536232768925 -0.46295462635476942 0 -0.1267921368491573 -0.48314498010293672 0 -0.14893183916995351 -0.5 0 -0.1205032879739769 -0.5 0 -0.1267921368491573 -0.48314498010293672 0 -0.14893183916995351 -0.5 0 -0.14299079983292429 -0.47752360372703062 0 -0.1598456608548294 -0.48625367410470982 0 -0.14893183916995351 -0.5 0 -0.14299079983292429 -0.47752360372703062 0 -0.15591442000642311 -0.38446979467925863 0 -0.13487115793912099 -0.40423317639942541 0 -0.15249037764983531 -0.40912389154561257 0 -0.15591442000642311 -0.38446979467925863 0 -0.15249037764983531 -0.40912389154561257 0 -0.15591442000642311 -0.38446979467925863 0 -0.13858748212914249 -0.37966399945509088 0 -0.13487115793912099 -0.40423317639942541 0 -0.15591442000642311 -0.38446979467925863 0 -0.13858748212914249 -0.37966399945509088 0 -0.14109409366258319 -0.36210913378975113 0 -0.13858748212914249 -0.37966399945509088 0 -0.12556807921864879 -0.38849123483631842 0 -0.1188146674808004 -0.36725312872772381 0 -0.12556807921864879 -0.38849123483631842 0 -0.13487115793912099 -0.40423317639942541 0 -0.1168934569830135 -0.40477599869467451 0 -0.13858748212914249 -0.37966399945509088 0 -0.12556807921864879 -0.38849123483631842 0 -0.13487115793912099 -0.40423317639942541 0 -0.13487115793912099 -0.40423317639942541 0 -0.14906633529324759 -0.43377798841196658 0 -0.12288138973471591 -0.42442320070196671 0 -0.1312064970229409 -0.44244490655103669 0 -0.14906633529324759 -0.43377798841196658 0 -0.12288138973471591 -0.42442320070196671 0 -0.14906633529324759 -0.43377798841196658 0 -0.12288138973471591 -0.42442320070196671 0 -0.13487115793912099 -0.40423317639942541 0 -0.14906633529324759 -0.43377798841196658 0 -0.15249037764983531 -0.40912389154561257 0 -0.14906633529324759 -0.43377798841196658 0 -0.15249037764983531 -0.40912389154561257 0 -0.14906633529324759 -0.43377798841196658 0 -0.15249037764983531 -0.40912389154561257 0 -0.17363753628250961 -0.42012260878708169 0 -0.15249037764983531 -0.40912389154561257 0 -0.17363753628250961 -0.42012260878708169 0 -0.17493410001234411 -0.39944512428373791 0 -0.16845447203471309 -0.44070456012865827 0 -0.14906633529324759 -0.43377798841196658 0 -0.17363753628250961 -0.42012260878708169 0 -0.16845447203471309 -0.44070456012865827 0 -0.14906633529324759 -0.43377798841196658 0 -0.16845447203471309 -0.44070456012865827 0 -0.17363753628250961 -0.42012260878708169 0 -0.19588565821301801 -0.43181408559185591 0 -0.17363753628250961 -0.42012260878708169 0 -0.17493410001234411 -0.39944512428373791 0 -0.19400993600297961 -0.4141689371759481 0 -0.15591442000642311 -0.38446979467925863 0 -0.15249037764983531 -0.40912389154561257 0 -0.17493410001234411 -0.39944512428373791 0 -0.15591442000642311 -0.38446979467925863 0 -0.17493410001234411 -0.39944512428373791 0 -0.1784172695229739 -0.3751873823337224 0 -0.17493410001234411 -0.39944512428373791 0 -0.1784172695229739 -0.3751873823337224 0 -0.19675538450294869 -0.39478585750946121 0 -0.1784172695229739 -0.3751873823337224 0 -0.19675538450294869 -0.39478585750946121 0 -0.20860367324763429 -0.3780090183686724 0 -0.17493410001234411 -0.39944512428373791 0 -0.19675538450294869 -0.39478585750946121 0 -0.19400993600297961 -0.4141689371759481 0 -0.19675538450294869 -0.39478585750946121 0 -0.2117038590184333 -0.41098163749375177 0 -0.22259666068860001 -0.39764676874648303 0 -0.20860367324763429 -0.3780090183686724 0 -0.22259666068860001 -0.39764676874648303 0 -0.19675538450294869 -0.39478585750946121 0 -0.20860367324763429 -0.3780090183686724 0 -0.22259666068860001 -0.39764676874648303 0 -0.19588565821301801 -0.43181408559185591 0 -0.19400993600297961 -0.4141689371759481 0 -0.2133267636929661 -0.4285464509632651 0 -0.17363753628250961 -0.42012260878708169 0 -0.19588565821301801 -0.43181408559185591 0 -0.19400993600297961 -0.4141689371759481 0 -0.19675538450294869 -0.39478585750946121 0 -0.19400993600297961 -0.4141689371759481 0 -0.2117038590184333 -0.41098163749375177 0 -0.19400993600297961 -0.4141689371759481 0 -0.2133267636929661 -0.4285464509632651 0 -0.19400993600297961 -0.4141689371759481 0 -0.2117038590184333 -0.41098163749375177 0 -0.2133267636929661 -0.4285464509632651 0 -0.23264359138295271 -0.44292396475058199 0 -0.2133267636929661 -0.4285464509632651 0 -0.23751553825458149 -0.41808959206439827 0 -0.23264359138295271 -0.44292396475058199 0 -0.2133267636929661 -0.4285464509632651 0 -0.2117038590184333 -0.41098163749375177 0 -0.2133267636929661 -0.4285464509632651 0 -0.23751553825458149 -0.41808959206439827 0 -0.2117038590184333 -0.41098163749375177 0 -0.23751553825458149 -0.41808959206439827 0 -0.22259666068860001 -0.39764676874648303 0 -0.23264359138295271 -0.44292396475058199 0 -0.23751553825458149 -0.41808959206439827 0 -0.24998188965477949 -0.43628624260027887 0 -0.26113998907290981 -0.42178989237586639 0 -0.23751553825458149 -0.41808959206439827 0 -0.24998188965477949 -0.43628624260027887 0 -0.20860367324763429 -0.3780090183686724 0 -0.22259666068860001 -0.39764676874648303 0 -0.2281118318391806 -0.37489177057206668 0 -0.22259666068860001 -0.39764676874648303 0 -0.23928712332081301 -0.39506768010468341 0 -0.2281118318391806 -0.37489177057206668 0 -0.23751553825458149 -0.41808959206439827 0 -0.22259666068860001 -0.39764676874648303 0 -0.23928712332081301 -0.39506768010468341 0 -0.25595362414921119 -0.39923246334386131 0 -0.23928712332081301 -0.39506768010468341 0 -0.2454823888708253 -0.37909176805193517 0 -0.25595362414921119 -0.39923246334386131 0 -0.23751553825458149 -0.41808959206439827 0 -0.23928712332081301 -0.39506768010468341 0 -0.23928712332081301 -0.39506768010468341 0 -0.2454823888708253 -0.37909176805193517 0 -0.2281118318391806 -0.37489177057206668 0 -0.2454823888708253 -0.37909176805193517 0 -0.2281118318391806 -0.37489177057206668 0 -0.23885470575911161 -0.35501125442708548 0 -0.25484622695810349 -0.36383199102327768 0 -0.2454823888708253 -0.37909176805193517 0 -0.23885470575911161 -0.35501125442708548 0 -0.2281118318391806 -0.37489177057206668 0 -0.23885470575911161 -0.35501125442708548 0 -0.21510446032512159 -0.35306593455222068 0 -0.23885470575911161 -0.35501125442708548 0 -0.22827353167773651 -0.3327860327689986 0 -0.21510446032512159 -0.35306593455222068 0 -0.25484622695810349 -0.36383199102327768 0 -0.2553864931377417 -0.34889888660174267 0 -0.23885470575911161 -0.35501125442708548 0 -0.2553864931377417 -0.34889888660174267 0 -0.23885470575911161 -0.35501125442708548 0 -0.24679438050505931 -0.33865435206494832 0 -0.24679438050505931 -0.33865435206494832 0 -0.24773623205215151 -0.32303085346176258 0 -0.22827353167773651 -0.3327860327689986 0 -0.23885470575911161 -0.35501125442708548 0 -0.24679438050505931 -0.33865435206494832 0 -0.22827353167773651 -0.3327860327689986 0 -0.24773623205215151 -0.32303085346176258 0 -0.2264531973528349 -0.30962044031806552 0 -0.24773623205215151 -0.32303085346176258 0 -0.22827353167773651 -0.3327860327689986 0 -0.2264531973528349 -0.30962044031806552 0 -0.22827353167773651 -0.3327860327689986 0 -0.21366112645807059 -0.31748217219014352 0 -0.2264531973528349 -0.30962044031806552 0 -0.22827353167773651 -0.3327860327689986 0 -0.20909417618512471 -0.33251306078651222 0 -0.21510446032512159 -0.35306593455222068 0 -0.20909417618512471 -0.33251306078651222 0 -0.19876606332284691 -0.34285522388554412 0 -0.21510446032512159 -0.35306593455222068 0 -0.22827353167773651 -0.3327860327689986 0 -0.20909417618512471 -0.33251306078651222 0 -0.21366112645807059 -0.31748217219014352 0 -0.20909417618512471 -0.33251306078651222 0 -0.21366112645807059 -0.31748217219014352 0 -0.19931456442113901 -0.31628129990277237 0 -0.19931456442113901 -0.31628129990277237 0 -0.19387432338437771 -0.32981605852285062 0 -0.18308307645498351 -0.31802746849409469 0 -0.20909417618512471 -0.33251306078651222 0 -0.19931456442113901 -0.31628129990277237 0 -0.19387432338437771 -0.32981605852285062 0 -0.19876606332284691 -0.34285522388554412 0 -0.19387432338437771 -0.32981605852285062 0 -0.18061769836570271 -0.33873351761305132 0 -0.20909417618512471 -0.33251306078651222 0 -0.19876606332284691 -0.34285522388554412 0 -0.19387432338437771 -0.32981605852285062 0 -0.19461068580666849 -0.35837126799086177 0 -0.18061769836570271 -0.33873351761305132 0 -0.19876606332284691 -0.34285522388554412 0 -0.19461068580666849 -0.35837126799086177 0 -0.18061769836570271 -0.33873351761305132 0 -0.19876606332284691 -0.34285522388554412 0 -0.19461068580666849 -0.35837126799086177 0 -0.21510446032512159 -0.35306593455222068 0 -0.1784172695229739 -0.3751873823337224 0 -0.20860367324763429 -0.3780090183686724 0 -0.19461068580666849 -0.35837126799086177 0 -0.20860367324763429 -0.3780090183686724 0 -0.19461068580666849 -0.35837126799086177 0 -0.20860367324763429 -0.3780090183686724 0 -0.19461068580666849 -0.35837126799086177 0 -0.21510446032512159 -0.35306593455222068 0 -0.20860367324763429 -0.3780090183686724 0 -0.2281118318391806 -0.37489177057206668 0 -0.21510446032512159 -0.35306593455222068 0 -0.22116070127396589 -0.26164340906538019 0 -0.23907402377079429 -0.25352901113119691 0 -0.23411187434914149 -0.26937594560370881 0 -0.22116070127396589 -0.26164340906538019 0 -0.23907402377079429 -0.25352901113119691 0 -0.22930264905426681 -0.24807207366278219 0 -0.25533500769922501 -0.26079806147325402 0 -0.23411187434914149 -0.26937594560370881 0 -0.25533500769922501 -0.26079806147325402 0 -0.23907402377079429 -0.25352901113119691 0 -0.25217385243102691 -0.24332397570100661 0 -0.25533500769922501 -0.26079806147325402 0 -0.23907402377079429 -0.25352901113119691 0 -0.23411187434914149 -0.26937594560370881 0 -0.25533500769922501 -0.26079806147325402 0 -0.2455812677149937 -0.27901044640179051 0 -0.23411187434914149 -0.26937594560370881 0 -0.2455812677149937 -0.27901044640179051 0 -0.23411187434914149 -0.26937594560370881 0 -0.2319862629842192 -0.28249756679937438 0 -0.23411187434914149 -0.26937594560370881 0 -0.21288874099905941 -0.27795382973416682 0 -0.22116070127396589 -0.26164340906538019 0 -0.23411187434914149 -0.26937594560370881 0 -0.21288874099905941 -0.27795382973416682 0 -0.23411187434914149 -0.26937594560370881 0 -0.2319862629842192 -0.28249756679937438 0 -0.21288874099905941 -0.27795382973416682 0 -0.21912118690402119 -0.2914499544066278 0 -0.2319862629842192 -0.28249756679937438 0 -0.24657676615906499 -0.29636819494863198 0 -0.21912118690402119 -0.2914499544066278 0 -0.24657676615906499 -0.29636819494863198 0 -0.21912118690402119 -0.2914499544066278 0 -0.2319862629842192 -0.28249756679937438 0 -0.21288874099905941 -0.27795382973416682 0 -0.2455812677149937 -0.27901044640179051 0 -0.2319862629842192 -0.28249756679937438 0 -0.24657676615906499 -0.29636819494863198 0 -0.24773623205215151 -0.32303085346176258 0 -0.24657676615906499 -0.29636819494863198 0 -0.2264531973528349 -0.30962044031806552 0 -0.21912118690402119 -0.2914499544066278 0 -0.24657676615906499 -0.29636819494863198 0 -0.2264531973528349 -0.30962044031806552 0 -0.21366112645807059 -0.31748217219014352 0 -0.19931456442113901 -0.31628129990277237 0 -0.20517016265351831 -0.29621002717436851 0 -0.21366112645807059 -0.31748217219014352 0 -0.2264531973528349 -0.30962044031806552 0 -0.20517016265351831 -0.29621002717436851 0 -0.21912118690402119 -0.2914499544066278 0 -0.2264531973528349 -0.30962044031806552 0 -0.20517016265351831 -0.29621002717436851 0 -0.2264531973528349 -0.30962044031806552 0 -0.20517016265351831 -0.29621002717436851 0 -0.19931456442113901 -0.31628129990277237 0 -0.18771991409094599 -0.30314226032845187 0 -0.18308307645498351 -0.31802746849409469 0 -0.19931456442113901 -0.31628129990277237 0 -0.18771991409094599 -0.30314226032845187 0 -0.20517016265351831 -0.29621002717436851 0 -0.19166560764897711 -0.28653171386462423 0 -0.21288874099905941 -0.27795382973416682 0 -0.18771991409094599 -0.30314226032845187 0 -0.19166560764897711 -0.28653171386462423 0 -0.20517016265351831 -0.29621002717436851 0 -0.19166560764897711 -0.28653171386462423 0 -0.19360577092267209 -0.276766275036265 0 -0.179072468078742 -0.28427584852628429 0 -0.21912118690402119 -0.2914499544066278 0 -0.19166560764897711 -0.28653171386462423 0 -0.21912118690402119 -0.2914499544066278 0 -0.19166560764897711 -0.28653171386462423 0 -0.21288874099905941 -0.27795382973416682 0 -0.21912118690402119 -0.2914499544066278 0 -0.19166560764897711 -0.28653171386462423 0 -0.20517016265351831 -0.29621002717436851 0 -0.22116070127396589 -0.26164340906538019 0 -0.21288874099905941 -0.27795382973416682 0 -0.20813907376660279 -0.26925670154624692 0 -0.21288874099905941 -0.27795382973416682 0 -0.20813907376660279 -0.26925670154624692 0 -0.19360577092267209 -0.276766275036265 0 -0.19166560764897711 -0.28653171386462423 0 -0.21288874099905941 -0.27795382973416682 0 -0.19360577092267209 -0.276766275036265 0 -0.19360577092267209 -0.276766275036265 0 -0.1886624879535547 -0.26615957780216998 0 -0.1980508005778559 -0.26710642769771792 0 -0.19360577092267209 -0.276766275036265 0 -0.1886624879535547 -0.26615957780216998 0 -0.18289603588232689 -0.27363257617501352 0 -0.20813907376660279 -0.26925670154624692 0 -0.19360577092267209 -0.276766275036265 0 -0.20813907376660279 -0.26925670154624692 0 -0.19360577092267209 -0.276766275036265 0 -0.1980508005778559 -0.26710642769771792 0 -0.1980508005778559 -0.26710642769771792 0 -0.1945874570183698 -0.26000172834144691 0 -0.204816844582595 -0.25918229574460461 0 -0.1886624879535547 -0.26615957780216998 0 -0.1945874570183698 -0.26000172834144691 0 -0.18464901292521291 -0.25666926474868951 0 -0.1886624879535547 -0.26615957780216998 0 -0.1980508005778559 -0.26710642769771792 0 -0.1945874570183698 -0.26000172834144691 0 -0.1945874570183698 -0.26000172834144691 0 -0.18464901292521291 -0.25666926474868951 0 -0.19488141057802469 -0.24805167948801479 0 -0.1945874570183698 -0.26000172834144691 0 -0.204816844582595 -0.25918229574460461 0 -0.19488141057802469 -0.24805167948801479 0 -0.204816844582595 -0.25918229574460461 0 -0.20964649182153711 -0.24952010593262849 0 -0.19488141057802469 -0.24805167948801479 0 -0.22116070127396589 -0.26164340906538019 0 -0.204816844582595 -0.25918229574460461 0 -0.20964649182153711 -0.24952010593262849 0 -0.22116070127396589 -0.26164340906538019 0 -0.20964649182153711 -0.24952010593262849 0 -0.22012117889351029 -0.2400435588235918 0 -0.22116070127396589 -0.26164340906538019 0 -0.20813907376660279 -0.26925670154624692 0 -0.204816844582595 -0.25918229574460461 0 -0.20813907376660279 -0.26925670154624692 0 -0.1980508005778559 -0.26710642769771792 0 -0.204816844582595 -0.25918229574460461 0 -0.15591577968968659 -0.26925488355999339 0 -0.1577074823109649 -0.24321700958376799 0 -0.16542516462752349 -0.25635557756913258 0 -0.15591577968968659 -0.26925488355999339 0 -0.1577074823109649 -0.24321700958376799 0 -0.16542516462752349 -0.25635557756913258 0 -0.16864101730650571 -0.26593251103410959 0 -0.15591577968968659 -0.26925488355999339 0 -0.16542516462752349 -0.25635557756913258 0 -0.17483252001653871 -0.2578874856230759 0 -0.16864101730650571 -0.26593251103410959 0 -0.16542516462752349 -0.25635557756913258 0 -0.17483252001653871 -0.2578874856230759 0 -0.17659671807339011 -0.24537187428510521 0 -0.18464901292521291 -0.25666926474868951 0 -0.17659671807339011 -0.24537187428510521 0 -0.19488141057802469 -0.24805167948801479 0 -0.18464901292521291 -0.25666926474868951 0 -0.17483252001653871 -0.2578874856230759 0 -0.17659671807339011 -0.24537187428510521 0 -0.1886624879535547 -0.26615957780216998 0 -0.18464901292521291 -0.25666926474868951 0 -0.17885068715006139 -0.2651082004783426 0 -0.18464901292521291 -0.25666926474868951 0 -0.17483252001653871 -0.2578874856230759 0 -0.17885068715006139 -0.2651082004783426 0 -0.17483252001653871 -0.2578874856230759 0 -0.17885068715006139 -0.2651082004783426 0 -0.16864101730650571 -0.26593251103410959 0 -0.17885068715006139 -0.2651082004783426 0 -0.17334369549168099 -0.27352933034694582 0 -0.16864101730650571 -0.26593251103410959 0 -0.17885068715006139 -0.2651082004783426 0 -0.18289603588232689 -0.27363257617501352 0 -0.17334369549168099 -0.27352933034694582 0 -0.1886624879535547 -0.26615957780216998 0 -0.17885068715006139 -0.2651082004783426 0 -0.18289603588232689 -0.27363257617501352 0 -0.19360577092267209 -0.276766275036265 0 -0.179072468078742 -0.28427584852628429 0 -0.19360577092267209 -0.276766275036265 0 -0.18289603588232689 -0.27363257617501352 0 -0.179072468078742 -0.28427584852628429 0 -0.18289603588232689 -0.27363257617501352 0 -0.17334369549168099 -0.27352933034694582 0 -0.179072468078742 -0.28427584852628429 0 -0.17334369549168099 -0.27352933034694582 0 -0.17001398906515641 -0.28265316272098318 0 -0.179072468078742 -0.28427584852628429 0 -0.17334369549168099 -0.27352933034694582 0 -0.1639954601022047 -0.27602454615318639 0 -0.17001398906515641 -0.28265316272098318 0 -0.1639954601022047 -0.27602454615318639 0 -0.1620315774452781 -0.2844194281800409 0 -0.17001398906515641 -0.28265316272098318 0 -0.17334369549168099 -0.27352933034694582 0 -0.16864101730650571 -0.26593251103410959 0 -0.1639954601022047 -0.27602454615318639 0 -0.16864101730650571 -0.26593251103410959 0 -0.1639954601022047 -0.27602454615318639 0 -0.15591577968968659 -0.26925488355999339 0 -0.1639954601022047 -0.27602454615318639 0 -0.1538120392357237 -0.28137300884153921 0 -0.15591577968968659 -0.26925488355999339 0 -0.1639954601022047 -0.27602454615318639 0 -0.1620315774452781 -0.2844194281800409 0 -0.1538120392357237 -0.28137300884153921 0 -0.16545632694300191 -0.29131151093608382 0 -0.1729370867355226 -0.29410133516796788 0 -0.15420856582206749 -0.30167095647130993 0 -0.1620315774452781 -0.2844194281800409 0 -0.15689521971306489 -0.29124507296051222 0 -0.1538120392357237 -0.28137300884153921 0 -0.1620315774452781 -0.2844194281800409 0 -0.15689521971306489 -0.29124507296051222 0 -0.16545632694300191 -0.29131151093608382 0 -0.15689521971306489 -0.29124507296051222 0 -0.16545632694300191 -0.29131151093608382 0 -0.1518401858072643 -0.29834717334588812 0 -0.16545632694300191 -0.29131151093608382 0 -0.1518401858072643 -0.29834717334588812 0 -0.1620315774452781 -0.2844194281800409 0 -0.16545632694300191 -0.29131151093608382 0 -0.17001398906515641 -0.28265316272098318 0 -0.16545632694300191 -0.29131151093608382 0 -0.17001398906515641 -0.28265316272098318 0 -0.179072468078742 -0.28427584852628429 0 -0.17001398906515641 -0.28265316272098318 0 -0.179072468078742 -0.28427584852628429 0 -0.19166560764897711 -0.28653171386462423 0 -0.179072468078742 -0.28427584852628429 0 -0.1729370867355226 -0.29410133516796788 0 -0.19166560764897711 -0.28653171386462423 0 -0.1729370867355226 -0.29410133516796788 0 -0.16545632694300191 -0.29131151093608382 0 -0.179072468078742 -0.28427584852628429 0 -0.18771991409094599 -0.30314226032845187 0 -0.19166560764897711 -0.28653171386462423 0 -0.1729370867355226 -0.29410133516796788 0 -0.19166560764897711 -0.28653171386462423 0 -0.179072468078742 -0.28427584852628429 0 -0.16545632694300191 -0.29131151093608382 0 -0.179072468078742 -0.28427584852628429 0 -0.1729370867355226 -0.29410133516796788 0 -0.18771991409094599 -0.30314226032845187 0 -0.1729370867355226 -0.29410133516796788 0 -0.1729146708056514 -0.30720755753941309 0 -0.18771991409094599 -0.30314226032845187 0 -0.1729146708056514 -0.30720755753941309 0 -0.18308307645498351 -0.31802746849409469 0 -0.1729146708056514 -0.30720755753941309 0 -0.15420856582206749 -0.30167095647130993 0 -0.16662471092473721 -0.31909576723524069 0 -0.1729370867355226 -0.29410133516796788 0 -0.15420856582206749 -0.30167095647130993 0 -0.1729370867355226 -0.29410133516796788 0 -0.1729146708056514 -0.30720755753941309 0 -0.15420856582206749 -0.30167095647130993 0 -0.15420856582206749 -0.30167095647130993 0 -0.16662471092473721 -0.31909576723524069 0 -0.16545632694300191 -0.29131151093608382 0 -0.15420856582206749 -0.30167095647130993 0 -0.1518401858072643 -0.29834717334588812 0 -0.1518401858072643 -0.29834717334588812 0 -0.13292808823488961 -0.30811933512461231 0 -0.14460134497621371 -0.29612042321232301 0 -0.15420856582206749 -0.30167095647130993 0 -0.13421562954652971 -0.30975162429590952 0 -0.1518401858072643 -0.29834717334588812 0 -0.13292808823488961 -0.30811933512461231 0 -0.15420856582206749 -0.30167095647130993 0 -0.13421562954652971 -0.30975162429590952 0 -0.14280577153537569 -0.32064183466935481 0 -0.15420856582206749 -0.30167095647130993 0 -0.1518401858072643 -0.29834717334588812 0 -0.13421562954652971 -0.30975162429590952 0 -0.15420856582206749 -0.30167095647130993 0 -0.1518401858072643 -0.29834717334588812 0 -0.13292808823488961 -0.30811933512461231 0 -0.13258957237245009 -0.28963875778779702 0 -0.14460134497621371 -0.29612042321232301 0 -0.1518401858072643 -0.29834717334588812 0 -0.13292808823488961 -0.30811933512461231 0 -0.13421562954652971 -0.30975162429590952 0 -0.13292808823488961 -0.30811933512461231 0 -0.13421562954652971 -0.30975162429590952 0 -0.11784571222364761 -0.31591262287735439 0 -0.13292808823488961 -0.30811933512461231 0 -0.13421562954652971 -0.30975162429590952 0 -0.13292808823488961 -0.30811933512461231 0 -0.11784571222364761 -0.31591262287735439 0 -0.13292808823488961 -0.30811933512461231 0 -0.13258957237245009 -0.28963875778779702 0 -0.1142907471291915 -0.28449172038829912 0 -0.13258957237245009 -0.28963875778779702 0 -0.14225251115054591 -0.28912004777749561 0 -0.14460134497621371 -0.29612042321232301 0 -0.13258957237245009 -0.28963875778779702 0 -0.1366045181383076 -0.28097453228033831 0 -0.12535691762986459 -0.2777997028043519 0 -0.13258957237245009 -0.28963875778779702 0 -0.14225251115054591 -0.28912004777749561 0 -0.1366045181383076 -0.28097453228033831 0 -0.14504847044771621 -0.2813564437741744 0 -0.14225251115054591 -0.28912004777749561 0 -0.14920203790046371 -0.28945287008857379 0 -0.14504847044771621 -0.2813564437741744 0 -0.14225251115054591 -0.28912004777749561 0 -0.1366045181383076 -0.28097453228033831 0 -0.14225251115054591 -0.28912004777749561 0 -0.14460134497621371 -0.29612042321232301 0 -0.14920203790046371 -0.28945287008857379 0 -0.1518401858072643 -0.29834717334588812 0 -0.14460134497621371 -0.29612042321232301 0 -0.14920203790046371 -0.28945287008857379 0 -0.15689521971306489 -0.29124507296051222 0 -0.1518401858072643 -0.29834717334588812 0 -0.14920203790046371 -0.28945287008857379 0 -0.15689521971306489 -0.29124507296051222 0 -0.14920203790046371 -0.28945287008857379 0 -0.1538120392357237 -0.28137300884153921 0 -0.14504847044771621 -0.2813564437741744 0 -0.14920203790046371 -0.28945287008857379 0 -0.1538120392357237 -0.28137300884153921 0 -0.1538120392357237 -0.28137300884153921 0 -0.15591577968968659 -0.26925488355999339 0 -0.14493267498435031 -0.27308583061685388 0 -0.14493267498435031 -0.27308583061685388 0 -0.13397848070720761 -0.26785305533595982 0 -0.1442367616874598 -0.25770305990911868 0 -0.15591577968968659 -0.26925488355999339 0 -0.14493267498435031 -0.27308583061685388 0 -0.1442367616874598 -0.25770305990911868 0 -0.14504847044771621 -0.2813564437741744 0 -0.14493267498435031 -0.27308583061685388 0 -0.1366045181383076 -0.28097453228033831 0 -0.14504847044771621 -0.2813564437741744 0 -0.1538120392357237 -0.28137300884153921 0 -0.14493267498435031 -0.27308583061685388 0 -0.14493267498435031 -0.27308583061685388 0 -0.1366045181383076 -0.28097453228033831 0 -0.13397848070720761 -0.26785305533595982 0 -0.1366045181383076 -0.28097453228033831 0 -0.12535691762986459 -0.2777997028043519 0 -0.13397848070720761 -0.26785305533595982 0 -0.12535691762986459 -0.2777997028043519 0 -0.13397848070720761 -0.26785305533595982 0 -0.1219527798711658 -0.26621415792232728 0 -0.13397848070720761 -0.26785305533595982 0 -0.1298643864382503 -0.25385480936049493 0 -0.1442367616874598 -0.25770305990911868 0 -0.1298643864382503 -0.25385480936049493 0 -0.1442367616874598 -0.25770305990911868 0 -0.14236717382110289 -0.24205843142330161 0 -0.13397848070720761 -0.26785305533595982 0 -0.1298643864382503 -0.25385480936049493 0 -0.1219527798711658 -0.26621415792232728 0 -0.15591577968968659 -0.26925488355999339 0 -0.1442367616874598 -0.25770305990911868 0 -0.1577074823109649 -0.24321700958376799 0 -0.16369928187148339 -0.34712972314610019 0 -0.15933846236301091 -0.35981569781290468 0 -0.1758807261899189 -0.35840961561000317 0 -0.16369928187148339 -0.34712972314610019 0 -0.15933846236301091 -0.35981569781290468 0 -0.1487217886475016 -0.34907369718236603 0 -0.15591442000642311 -0.38446979467925863 0 -0.1784172695229739 -0.3751873823337224 0 -0.15933846236301091 -0.35981569781290468 0 -0.15591442000642311 -0.38446979467925863 0 -0.15933846236301091 -0.35981569781290468 0 -0.1784172695229739 -0.3751873823337224 0 -0.15933846236301091 -0.35981569781290468 0 -0.1758807261899189 -0.35840961561000317 0 -0.1784172695229739 -0.3751873823337224 0 -0.19461068580666849 -0.35837126799086177 0 -0.1758807261899189 -0.35840961561000317 0 -0.19461068580666849 -0.35837126799086177 0 -0.1758807261899189 -0.35840961561000317 0 -0.18061769836570271 -0.33873351761305132 0 -0.16369928187148339 -0.34712972314610019 0 -0.1758807261899189 -0.35840961561000317 0 -0.18061769836570271 -0.33873351761305132 0 -0.18061769836570271 -0.33873351761305132 0 -0.16662471092473721 -0.31909576723524069 0 -0.19387432338437771 -0.32981605852285062 0 -0.18061769836570271 -0.33873351761305132 0 -0.18308307645498351 -0.31802746849409469 0 -0.18308307645498351 -0.31802746849409469 0 -0.16662471092473721 -0.31909576723524069 0 -0.18061769836570271 -0.33873351761305132 0 -0.18308307645498351 -0.31802746849409469 0 -0.16662471092473721 -0.31909576723524069 0 -0.1729146708056514 -0.30720755753941309 0 -0.18308307645498351 -0.31802746849409469 0 -0.16662471092473721 -0.31909576723524069 0 -0.18061769836570271 -0.33873351761305132 0 -0.16662471092473721 -0.31909576723524069 0 -0.16604855446633821 -0.33471119672553001 0 -0.16369928187148339 -0.34712972314610019 0 -0.18061769836570271 -0.33873351761305132 0 -0.16604855446633821 -0.33471119672553001 0 -0.16662471092473721 -0.31909576723524069 0 -0.16604855446633821 -0.33471119672553001 0 -0.1532525267034297 -0.33388577890772742 0 -0.16369928187148339 -0.34712972314610019 0 -0.16604855446633821 -0.33471119672553001 0 -0.1532525267034297 -0.33388577890772742 0 -0.16369928187148339 -0.34712972314610019 0 -0.1532525267034297 -0.33388577890772742 0 -0.1532525267034297 -0.33388577890772742 0 -0.14280577153537569 -0.32064183466935481 0 -0.1310170194898379 -0.34208513047541472 0 -0.16369928187148339 -0.34712972314610019 0 -0.1532525267034297 -0.33388577890772742 0 -0.1487217886475016 -0.34907369718236603 0 -0.1532525267034297 -0.33388577890772742 0 -0.1310170194898379 -0.34208513047541472 0 -0.1487217886475016 -0.34907369718236603 0 -0.16662471092473721 -0.31909576723524069 0 -0.1532525267034297 -0.33388577890772742 0 -0.14280577153537569 -0.32064183466935481 0 -0.16662471092473721 -0.31909576723524069 0 -0.14280577153537569 -0.32064183466935481 0 -0.15420856582206749 -0.30167095647130993 0 -0.16662471092473721 -0.31909576723524069 0 -0.14280577153537569 -0.32064183466935481 0 -0.1532525267034297 -0.33388577890772742 0 -0.14280577153537569 -0.32064183466935481 0 -0.13421562954652971 -0.30975162429590952 0 -0.14280577153537569 -0.32064183466935481 0 -0.1209399453170928 -0.3220611271610781 0 -0.14280577153537569 -0.32064183466935481 0 -0.1209399453170928 -0.3220611271610781 0 -0.13421562954652971 -0.30975162429590952 0 -0.11784571222364761 -0.31591262287735439 0 -0.13421562954652971 -0.30975162429590952 0 -0.14280577153537569 -0.32064183466935481 0 -0.1310170194898379 -0.34208513047541472 0 -0.1209399453170928 -0.3220611271610781 0 -0.14280577153537569 -0.32064183466935481 0 -0.1310170194898379 -0.34208513047541472 0 -0.1209399453170928 -0.3220611271610781 0 -0.1310170194898379 -0.34208513047541472 0 -0.14109409366258319 -0.36210913378975113 0 -0.1310170194898379 -0.34208513047541472 0 -0.1487217886475016 -0.34907369718236603 0 -0.14109409366258319 -0.36210913378975113 0 -0.1310170194898379 -0.34208513047541472 0 -0.14109409366258319 -0.36210913378975113 0 -0.1188146674808004 -0.36725312872772381 0 -0.15933846236301091 -0.35981569781290468 0 -0.1487217886475016 -0.34907369718236603 0 -0.14109409366258319 -0.36210913378975113 0 -0.15591442000642311 -0.38446979467925863 0 -0.15933846236301091 -0.35981569781290468 0 -0.14109409366258319 -0.36210913378975113 0 -0.13858748212914249 -0.37966399945509088 0 -0.14109409366258319 -0.36210913378975113 0 -0.1188146674808004 -0.36725312872772381 0 -0.1188146674808004 -0.36725312872772381 0 -0.099948652785021949 -0.37173661250824058 0 -0.098580366776199052 -0.35837054934997631 0 -0.099948652785021949 -0.37173661250824058 0 -0.098580366776199052 -0.35837054934997631 0 -0.085209311930335069 -0.36325183225734181 0 -0.1188146674808004 -0.36725312872772381 0 -0.098580366776199052 -0.35837054934997631 0 -0.1075265504116656 -0.34726187419532639 0 -0.094457699453262767 -0.34405710550726332 0 -0.098580366776199052 -0.35837054934997631 0 -0.1075265504116656 -0.34726187419532639 0 -0.1310170194898379 -0.34208513047541472 0 -0.1188146674808004 -0.36725312872772381 0 -0.1075265504116656 -0.34726187419532639 0 -0.1310170194898379 -0.34208513047541472 0 -0.1075265504116656 -0.34726187419532639 0 -0.11291644432606129 -0.33339254332440738 0 -0.1310170194898379 -0.34208513047541472 0 -0.11291644432606129 -0.33339254332440738 0 -0.1209399453170928 -0.3220611271610781 0 -0.13421562954652971 -0.30975162429590952 0 -0.11784571222364761 -0.31591262287735439 0 -0.1209399453170928 -0.3220611271610781 0 -0.1209399453170928 -0.3220611271610781 0 -0.10379244005534199 -0.32317415738581451 0 -0.11291644432606129 -0.33339254332440738 0 -0.1209399453170928 -0.3220611271610781 0 -0.10379244005534199 -0.32317415738581451 0 -0.1209399453170928 -0.3220611271610781 0 -0.1110900881399564 -0.32065284377098108 0 -0.10379244005534199 -0.32317415738581451 0 -0.11784571222364761 -0.31591262287735439 0 -0.1209399453170928 -0.3220611271610781 0 -0.11379971416064991 -0.31800325018491399 0 -0.11784571222364761 -0.31591262287735439 0 -0.1209399453170928 -0.3220611271610781 0 -0.1110900881399564 -0.32065284377098108 0 -0.1090886863320958 -0.32043750825219242 0 -0.11784571222364761 -0.31591262287735439 0 -0.11379971416064991 -0.31800325018491399 0 -0.10725663384570901 -0.31008547541885589 0 -0.1209399453170928 -0.3220611271610781 0 -0.1110900881399564 -0.32065284377098108 0 -0.11379971416064991 -0.31800325018491399 0 -0.11379971416064991 -0.31800325018491399 0 -0.1090886863320958 -0.32043750825219242 0 -0.10725663384570901 -0.31008547541885589 0 -0.11784571222364761 -0.31591262287735439 0 -0.11379971416064991 -0.31800325018491399 0 -0.1110900881399564 -0.32065284377098108 0 -0.11379971416064991 -0.31800325018491399 0 -0.1090886863320958 -0.32043750825219242 0 -0.11379971416064991 -0.31800325018491399 0 -0.1090886863320958 -0.32043750825219242 0 -0.1090886863320958 -0.32043750825219242 0 -0.1004729133978203 -0.32338962508477309 0 -0.084327026091876006 -0.31777334309906241 0 -0.1090886863320958 -0.32043750825219242 0 -0.084327026091876006 -0.31777334309906241 0 -0.1090886863320958 -0.32043750825219242 0 -0.084327026091876006 -0.31777334309906241 0 -0.10725663384570901 -0.31008547541885589 0 -0.10379244005534199 -0.32317415738581451 0 -0.1090886863320958 -0.32043750825219242 0 -0.1004729133978203 -0.32338962508477309 0 -0.1090886863320958 -0.32043750825219242 0 -0.1004729133978203 -0.32338962508477309 0 -0.10379244005534199 -0.32317415738581451 0 -0.1004729133978203 -0.32338962508477309 0 -0.10379244005534199 -0.32317415738581451 0 -0.1090886863320958 -0.32043750825219242 0 -0.1110900881399564 -0.32065284377098108 0 -0.10379244005534199 -0.32317415738581451 0 -0.1090886863320958 -0.32043750825219242 0 -0.10379244005534199 -0.32317415738581451 0 -0.088566520150402034 -0.33104161640095769 0 -0.10379244005534199 -0.32317415738581451 0 -0.1004729133978203 -0.32338962508477309 0 -0.088566520150402034 -0.33104161640095769 0 -0.1075265504116656 -0.34726187419532639 0 -0.11291644432606129 -0.33339254332440738 0 -0.1011764182147719 -0.33497525685472368 0 -0.11291644432606129 -0.33339254332440738 0 -0.10379244005534199 -0.32317415738581451 0 -0.1011764182147719 -0.33497525685472368 0 -0.10379244005534199 -0.32317415738581451 0 -0.1011764182147719 -0.33497525685472368 0 -0.088566520150402034 -0.33104161640095769 0 -0.094457699453262767 -0.34405710550726332 0 -0.1075265504116656 -0.34726187419532639 0 -0.1011764182147719 -0.33497525685472368 0 -0.094457699453262767 -0.34405710550726332 0 -0.1011764182147719 -0.33497525685472368 0 -0.088566520150402034 -0.33104161640095769 0 -0.094457699453262767 -0.34405710550726332 0 -0.088566520150402034 -0.33104161640095769 0 -0.083840496551839672 -0.34223507322661773 0 -0.1004729133978203 -0.32338962508477309 0 -0.088566520150402034 -0.33104161640095769 0 -0.077115634890609852 -0.332830079768479 0 -0.088566520150402034 -0.33104161640095769 0 -0.073340600245461643 -0.33890907541610032 0 -0.088566520150402034 -0.33104161640095769 0 -0.073340600245461643 -0.33890907541610032 0 -0.077115634890609852 -0.332830079768479 0 -0.088566520150402034 -0.33104161640095769 0 -0.083840496551839672 -0.34223507322661773 0 -0.073340600245461643 -0.33890907541610032 0 -0.1004729133978203 -0.32338962508477309 0 -0.084327026091876006 -0.31777334309906241 0 -0.080589677371995766 -0.32208705465005988 0 -0.1004729133978203 -0.32338962508477309 0 -0.080589677371995766 -0.32208705465005988 0 -0.07681683550149529 -0.32492512131558898 0 -0.1004729133978203 -0.32338962508477309 0 -0.07681683550149529 -0.32492512131558898 0 -0.077115634890609852 -0.332830079768479 0 -0.1004729133978203 -0.32338962508477309 0 -0.077115634890609852 -0.332830079768479 0 -0.1004729133978203 -0.32338962508477309 0 -0.07681683550149529 -0.32492512131558898 0 -0.080589677371995766 -0.32208705465005988 0 -0.07681683550149529 -0.32492512131558898 0 -0.07681683550149529 -0.32492512131558898 0 -0.05485003603542217 -0.32635096789637308 0 -0.060601328465961113 -0.31522063959552349 0 -0.084327026091876006 -0.31777334309906241 0 -0.080589677371995766 -0.32208705465005988 0 -0.060601328465961113 -0.31522063959552349 0 -0.080589677371995766 -0.32208705465005988 0 -0.07681683550149529 -0.32492512131558898 0 -0.060601328465961113 -0.31522063959552349 0 -0.07681683550149529 -0.32492512131558898 0 -0.05485003603542217 -0.32635096789637308 0 -0.084327026091876006 -0.31777334309906241 0 -0.060601328465961113 -0.31522063959552349 0 -0.077115634890609852 -0.332830079768479 0 -0.053758356383399347 -0.34227053445218492 0 -0.07681683550149529 -0.32492512131558898 0 -0.053758356383399347 -0.34227053445218492 0 -0.073340600245461643 -0.33890907541610032 0 -0.077115634890609852 -0.332830079768479 0 -0.053758356383399347 -0.34227053445218492 0 -0.07681683550149529 -0.32492512131558898 0 -0.077115634890609852 -0.332830079768479 0 -0.053758356383399347 -0.34227053445218492 0 -0.073340600245461643 -0.33890907541610032 0 -0.064791725340389572 -0.35098034394771882 0 -0.053758356383399347 -0.34227053445218492 0 -0.083840496551839672 -0.34223507322661773 0 -0.073340600245461643 -0.33890907541610032 0 -0.076621551420905737 -0.35109905674055131 0 -0.073340600245461643 -0.33890907541610032 0 -0.064791725340389572 -0.35098034394771882 0 -0.076621551420905737 -0.35109905674055131 0 -0.064791725340389572 -0.35098034394771882 0 -0.076621551420905737 -0.35109905674055131 0 -0.067888138964050285 -0.36406054247855352 0 -0.067888138964050285 -0.36406054247855352 0 -0.085209311930335069 -0.36325183225734181 0 -0.081161317021135077 -0.38378596945075177 0 -0.076621551420905737 -0.35109905674055131 0 -0.067888138964050285 -0.36406054247855352 0 -0.085209311930335069 -0.36325183225734181 0 -0.099948652785021949 -0.37173661250824058 0 -0.085209311930335069 -0.36325183225734181 0 -0.081161317021135077 -0.38378596945075177 0 -0.098580366776199052 -0.35837054934997631 0 -0.085209311930335069 -0.36325183225734181 0 -0.087055844614698355 -0.35045826301597799 0 -0.094457699453262767 -0.34405710550726332 0 -0.083840496551839672 -0.34223507322661773 0 -0.087055844614698355 -0.35045826301597799 0 -0.094457699453262767 -0.34405710550726332 0 -0.098580366776199052 -0.35837054934997631 0 -0.087055844614698355 -0.35045826301597799 0 -0.083840496551839672 -0.34223507322661773 0 -0.076621551420905737 -0.35109905674055131 0 -0.087055844614698355 -0.35045826301597799 0 -0.076621551420905737 -0.35109905674055131 0 -0.085209311930335069 -0.36325183225734181 0 -0.087055844614698355 -0.35045826301597799 0 -0.1051668604971054 -0.25908334977756231 0 -0.085006490694977677 -0.25639204894748607 0 -0.1051668604971054 -0.25908334977756231 0 -0.085006490694977677 -0.25639204894748607 0 -0.1005841607031852 -0.23817822102090749 0 -0.095653406023495161 -0.26086410565198459 0 -0.1051668604971054 -0.25908334977756231 0 -0.085006490694977677 -0.25639204894748607 0 -0.095653406023495161 -0.26086410565198459 0 -0.1051668604971054 -0.25908334977756231 0 -0.11155811883593959 -0.26462019652490698 0 -0.1051668604971054 -0.25908334977756231 0 -0.1168717794164203 -0.25765883523437438 0 -0.116061991631914 -0.24504142951452931 0 -0.1298643864382503 -0.25385480936049493 0 -0.1168717794164203 -0.25765883523437438 0 -0.116061991631914 -0.24504142951452931 0 -0.1298643864382503 -0.25385480936049493 0 -0.1168717794164203 -0.25765883523437438 0 -0.1219527798711658 -0.26621415792232728 0 -0.1168717794164203 -0.25765883523437438 0 -0.11155811883593959 -0.26462019652490698 0 -0.1219527798711658 -0.26621415792232728 0 -0.1051668604971054 -0.25908334977756231 0 -0.1168717794164203 -0.25765883523437438 0 -0.11155811883593959 -0.26462019652490698 0 -0.11155811883593959 -0.26462019652490698 0 -0.1138383499410084 -0.27272372300215209 0 -0.1219527798711658 -0.26621415792232728 0 -0.12535691762986459 -0.2777997028043519 0 -0.1138383499410084 -0.27272372300215209 0 -0.1219527798711658 -0.26621415792232728 0 -0.12535691762986459 -0.2777997028043519 0 -0.1138383499410084 -0.27272372300215209 0 -0.1142907471291915 -0.28449172038829912 0 -0.099511672424075048 -0.2764070031329191 0 -0.10199633433074939 -0.28441856120656939 0 -0.086106202212864219 -0.27585362528482332 0 -0.095653406023495161 -0.26086410565198459 0 -0.1142907471291915 -0.28449172038829912 0 -0.095653406023495161 -0.26086410565198459 0 -0.099511672424075048 -0.2764070031329191 0 -0.1142907471291915 -0.28449172038829912 0 -0.095653406023495161 -0.26086410565198459 0 -0.1138383499410084 -0.27272372300215209 0 -0.1142907471291915 -0.28449172038829912 0 -0.095653406023495161 -0.26086410565198459 0 -0.11155811883593959 -0.26462019652490698 0 -0.1138383499410084 -0.27272372300215209 0 -0.095653406023495161 -0.26086410565198459 0 -0.099511672424075048 -0.2764070031329191 0 -0.086106202212864219 -0.27585362528482332 0 -0.10199633433074939 -0.28441856120656939 0 -0.10992102327719749 -0.30016559204196253 0 -0.10199633433074939 -0.28441856120656939 0 -0.10992102327719749 -0.30016559204196253 0 -0.098141386255256924 -0.30155163467772211 0 -0.10199633433074939 -0.28441856120656939 0 -0.1142907471291915 -0.28449172038829912 0 -0.10992102327719749 -0.30016559204196253 0 -0.10199633433074939 -0.28441856120656939 0 -0.098141386255256924 -0.30155163467772211 0 -0.087205913730752746 -0.29531520162216041 0 -0.099511672424075048 -0.2764070031329191 0 -0.10199633433074939 -0.28441856120656939 0 -0.1142907471291915 -0.28449172038829912 0 -0.13292808823488961 -0.30811933512461231 0 -0.1142907471291915 -0.28449172038829912 0 -0.1142907471291915 -0.28449172038829912 0 -0.10992102327719749 -0.30016559204196253 0 -0.1187463927162315 -0.30217231760805702 0 -0.13258957237245009 -0.28963875778779702 0 -0.12535691762986459 -0.2777997028043519 0 -0.1142907471291915 -0.28449172038829912 0 -0.13292808823488961 -0.30811933512461231 0 -0.1142907471291915 -0.28449172038829912 0 -0.1187463927162315 -0.30217231760805702 0 -0.11784571222364761 -0.31591262287735439 0 -0.10992102327719749 -0.30016559204196253 0 -0.10725663384570901 -0.31008547541885589 0 -0.11784571222364761 -0.31591262287735439 0 -0.10992102327719749 -0.30016559204196253 0 -0.1187463927162315 -0.30217231760805702 0 -0.11784571222364761 -0.31591262287735439 0 -0.10992102327719749 -0.30016559204196253 0 -0.13292808823488961 -0.30811933512461231 0 -0.11784571222364761 -0.31591262287735439 0 -0.1187463927162315 -0.30217231760805702 0 -0.084327026091876006 -0.31777334309906241 0 -0.10725663384570901 -0.31008547541885589 0 -0.098141386255256924 -0.30155163467772211 0 -0.10992102327719749 -0.30016559204196253 0 -0.10725663384570901 -0.31008547541885589 0 -0.098141386255256924 -0.30155163467772211 0 -0.084327026091876006 -0.31777334309906241 0 -0.098141386255256924 -0.30155163467772211 0 -0.087205913730752746 -0.29531520162216041 0 -0.084327026091876006 -0.31777334309906241 0 -0.073249976464848141 -0.30366343895909842 0 -0.087205913730752746 -0.29531520162216041 0 -0.084327026091876006 -0.31777334309906241 0 -0.073249976464848141 -0.30366343895909842 0 -0.060601328465961113 -0.31522063959552349 0 -0.073249976464848141 -0.30366343895909842 0 -0.060096926951340182 -0.30043833070188491 0 -0.060601328465961113 -0.31522063959552349 0 -0.073249976464848141 -0.30366343895909842 0 -0.07096805112016695 -0.28924908797309418 0 -0.060096926951340182 -0.30043833070188491 0 -0.070232867733732718 -0.27366576358687428 0 -0.05545924477248499 -0.2909394782262601 0 -0.07096805112016695 -0.28924908797309418 0 -0.070232867733732718 -0.27366576358687428 0 -0.05545924477248499 -0.2909394782262601 0 -0.073249976464848141 -0.30366343895909842 0 -0.07096805112016695 -0.28924908797309418 0 -0.087205913730752746 -0.29531520162216041 0 -0.10199633433074939 -0.28441856120656939 0 -0.087205913730752746 -0.29531520162216041 0 -0.086106202212864219 -0.27585362528482332 0 -0.07096805112016695 -0.28924908797309418 0 -0.087205913730752746 -0.29531520162216041 0 -0.086106202212864219 -0.27585362528482332 0 -0.087205913730752746 -0.29531520162216041 0 -0.086106202212864219 -0.27585362528482332 0 -0.086106202212864219 -0.27585362528482332 0 -0.085006490694977677 -0.25639204894748607 0 -0.086106202212864219 -0.27585362528482332 0 -0.070232867733732718 -0.27366576358687428 0 -0.085006490694977677 -0.25639204894748607 0 -0.07096805112016695 -0.28924908797309418 0 -0.086106202212864219 -0.27585362528482332 0 -0.070232867733732718 -0.27366576358687428 0 -0.070232867733732718 -0.27366576358687428 0 -0.085006490694977677 -0.25639204894748607 0 -0.085006490694977677 -0.25639204894748607 0 -0.05892050568749304 -0.249911469569086 0 -0.070232867733732718 -0.27366576358687428 0 -0.085006490694977677 -0.25639204894748607 0 -0.05892050568749304 -0.249911469569086 0 -0.095653406023495161 -0.26086410565198459 0 -0.086106202212864219 -0.27585362528482332 0 -0.085006490694977677 -0.25639204894748607 0 -0.044184229474387882 -0.26784610898566569 0 -0.05892050568749304 -0.249911469569086 0 -0.032909214176296157 -0.24475273974506859 0 -0.044184229474387882 -0.26784610898566569 0 -0.026687509297684299 -0.2663063955052386 0 -0.032909214176296157 -0.24475273974506859 0 -0.044184229474387882 -0.26784610898566569 0 -0.032909214176296157 -0.24475273974506859 0 -0.070232867733732718 -0.27366576358687428 0 -0.044184229474387882 -0.26784610898566569 0 -0.05892050568749304 -0.249911469569086 0 -0.044184229474387882 -0.26784610898566569 0 -0.05545924477248499 -0.2909394782262601 0 -0.070232867733732718 -0.27366576358687428 0 -0.044184229474387882 -0.26784610898566569 0 -0.05545924477248499 -0.2909394782262601 0 -0.044184229474387882 -0.26784610898566569 0 -0.037264132817611872 -0.28203963717320357 0 -0.05545924477248499 -0.2909394782262601 0 -0.044184229474387882 -0.26784610898566569 0 -0.037264132817611872 -0.28203963717320357 0 -0.026687509297684299 -0.2663063955052386 0 -0.037264132817611872 -0.28203963717320357 0 -0.035009319193041587 -0.29635079536205938 0 -0.05545924477248499 -0.2909394782262601 0 -0.037264132817611872 -0.28203963717320357 0 -0.035009319193041587 -0.29635079536205938 0 -0.024980361350458821 -0.28875540778679282 0 -0.07096805112016695 -0.28924908797309418 0 -0.05545924477248499 -0.2909394782262601 0 -0.060096926951340182 -0.30043833070188491 0 -0.05545924477248499 -0.2909394782262601 0 -0.060096926951340182 -0.30043833070188491 0 -0.05545924477248499 -0.2909394782262601 0 -0.060096926951340182 -0.30043833070188491 0 -0.036875630840046088 -0.31266793609198501 0 -0.060096926951340182 -0.30043833070188491 0 -0.060601328465961113 -0.31522063959552349 0 -0.036875630840046088 -0.31266793609198501 0 -0.035009319193041587 -0.29635079536205938 0 -0.023273213403233409 -0.31120442006834698 0 -0.036875630840046088 -0.31266793609198501 0 -0.05545924477248499 -0.2909394782262601 0 -0.036875630840046088 -0.31266793609198501 0 -0.035009319193041587 -0.29635079536205938 0 -0.05545924477248499 -0.2909394782262601 0 -0.036875630840046088 -0.31266793609198501 0 -0.035009319193041587 -0.29635079536205938 0 -0.023273213403233409 -0.31120442006834698 0 -0.024980361350458821 -0.28875540778679282 0 -0.023273213403233409 -0.31120442006834698 0 -0.0085119016488805193 -0.29377413922613499 0 -0.024980361350458821 -0.28875540778679282 0 -0.023273213403233409 -0.31120442006834698 0 -0.024980361350458821 -0.28875540778679282 0 -0.023273213403233409 -0.31120442006834698 0 -0.036875630840046088 -0.31266793609198501 0 -0.023273213403233409 -0.31120442006834698 0 -0.0085119016488805193 -0.29377413922613499 0 0.0040743483248141601 -0.30826203170374838 0 -0.023273213403233409 -0.31120442006834698 0 0.0040743483248141601 -0.30826203170374838 0 -0.0085119016488805193 -0.29377413922613499 0 -0.024980361350458821 -0.28875540778679282 0 -0.0068501675742808736 -0.27356972209169111 0 -0.0085119016488805193 -0.29377413922613499 0 -0.0068501675742808736 -0.27356972209169111 0 0.0084698857587562834 -0.28707911448009588 0 -0.037264132817611872 -0.28203963717320357 0 -0.024980361350458821 -0.28875540778679282 0 -0.026687509297684299 -0.2663063955052386 0 -0.024980361350458821 -0.28875540778679282 0 -0.026687509297684299 -0.2663063955052386 0 -0.0068501675742808736 -0.27356972209169111 0 -0.024980361350458821 -0.28875540778679282 0 -0.026687509297684299 -0.2663063955052386 0 -0.0068501675742808736 -0.27356972209169111 0 -0.012355192092672371 -0.2544562184924033 0 0.0019676702201415958 -0.25752768517786101 0 -0.012355192092672371 -0.2544562184924033 0 -0.001425766107822968 -0.2385087359652546 0 0.0019676702201415958 -0.25752768517786101 0 -0.026687509297684299 -0.2663063955052386 0 -0.0068501675742808736 -0.27356972209169111 0 -0.012355192092672371 -0.2544562184924033 0 -0.026687509297684299 -0.2663063955052386 0 -0.028394657244909801 -0.24385738322368439 0 -0.032909214176296157 -0.24475273974506859 0 -0.026687509297684299 -0.2663063955052386 0 -0.012355192092672371 -0.2544562184924033 0 -0.028394657244909801 -0.24385738322368439 0 -0.026687509297684299 -0.2663063955052386 0 -0.028394657244909801 -0.24385738322368439 0 -0.036813758847377143 -0.34911913648957782 0 -0.036338050016985098 -0.35537471228386192 0 -0.053758356383399347 -0.34227053445218492 0 -0.036813758847377143 -0.34911913648957782 0 -0.053758356383399347 -0.34227053445218492 0 -0.036338050016985098 -0.35537471228386192 0 -0.053758356383399347 -0.34227053445218492 0 -0.036338050016985098 -0.35537471228386192 0 -0.038011333006478992 -0.3693672940245763 0 -0.051215713161934552 -0.36016375715592241 0 -0.038011333006478992 -0.3693672940245763 0 -0.051215713161934552 -0.36016375715592241 0 -0.051713096776128328 -0.37948743843322491 0 -0.067888138964050285 -0.36406054247855352 0 -0.051215713161934552 -0.36016375715592241 0 -0.051713096776128328 -0.37948743843322491 0 -0.064791725340389572 -0.35098034394771882 0 -0.051215713161934552 -0.36016375715592241 0 -0.053758356383399347 -0.34227053445218492 0 -0.064791725340389572 -0.35098034394771882 0 -0.067888138964050285 -0.36406054247855352 0 -0.051215713161934552 -0.36016375715592241 0 -0.036338050016985098 -0.35537471228386192 0 -0.051215713161934552 -0.36016375715592241 0 -0.053758356383399347 -0.34227053445218492 0 -0.07681683550149529 -0.32492512131558898 0 -0.053758356383399347 -0.34227053445218492 0 -0.05485003603542217 -0.32635096789637308 0 -0.053758356383399347 -0.34227053445218492 0 -0.05485003603542217 -0.32635096789637308 0 -0.040433990698784408 -0.33303390474206801 0 -0.060601328465961113 -0.31522063959552349 0 -0.036875630840046088 -0.31266793609198501 0 -0.05485003603542217 -0.32635096789637308 0 -0.060601328465961113 -0.31522063959552349 0 -0.036875630840046088 -0.31266793609198501 0 -0.05485003603542217 -0.32635096789637308 0 -0.036875630840046088 -0.31266793609198501 0 -0.040433990698784408 -0.33303390474206801 0 -0.036875630840046088 -0.31266793609198501 0 -0.040433990698784408 -0.33303390474206801 0 -0.021823573115687989 -0.33026720409470478 0 -0.036813758847377143 -0.34911913648957782 0 -0.040433990698784408 -0.33303390474206801 0 -0.021823573115687989 -0.33026720409470478 0 -0.036813758847377143 -0.34911913648957782 0 -0.053758356383399347 -0.34227053445218492 0 -0.040433990698784408 -0.33303390474206801 0 -0.021823573115687989 -0.33026720409470478 0 -0.019869161311354799 -0.35596773852697039 0 -0.023273213403233409 -0.31120442006834698 0 -0.021823573115687989 -0.33026720409470478 0 -0.036875630840046088 -0.31266793609198501 0 -0.021823573115687989 -0.33026720409470478 0 -0.023273213403233409 -0.31120442006834698 0 -0.021823573115687989 -0.33026720409470478 0 -0.010691527248981619 -0.32000539535807482 0 -0.023273213403233409 -0.31120442006834698 0 -0.036875630840046088 -0.31266793609198501 0 -0.021823573115687989 -0.33026720409470478 0 -0.010691527248981619 -0.32000539535807482 0 -0.001743670801821866 -0.33028792556549919 0 0.0040743483248141601 -0.30826203170374838 0 -0.021823573115687989 -0.33026720409470478 0 -0.010691527248981619 -0.32000539535807482 0 -0.001743670801821866 -0.33028792556549919 0 -0.023273213403233409 -0.31120442006834698 0 -0.010691527248981619 -0.32000539535807482 0 0.0040743483248141601 -0.30826203170374838 0 -0.021823573115687989 -0.33026720409470478 0 -0.001743670801821866 -0.33028792556549919 0 -0.0049525976164628283 -0.34999319935167172 0 -0.021823573115687989 -0.33026720409470478 0 -0.0049525976164628283 -0.34999319935167172 0 -0.021823573115687989 -0.33026720409470478 0 -0.0049525976164628283 -0.34999319935167172 0 -0.019869161311354799 -0.35596773852697039 0 -0.0049525976164628283 -0.34999319935167172 0 -0.019869161311354799 -0.35596773852697039 0 -0.00033184129408025948 -0.36386425713067733 0 -0.036813758847377143 -0.34911913648957782 0 -0.021823573115687989 -0.33026720409470478 0 -0.019869161311354799 -0.35596773852697039 0 -0.036813758847377143 -0.34911913648957782 0 -0.019869161311354799 -0.35596773852697039 0 -0.036813758847377143 -0.34911913648957782 0 -0.036338050016985098 -0.35537471228386192 0 -0.019869161311354799 -0.35596773852697039 0 -0.038011333006478992 -0.3693672940245763 0 -0.01891774365057004 -0.36847889011553792 0 -0.03187206142677744 -0.38333167213433428 0 -0.036338050016985098 -0.35537471228386192 0 -0.019869161311354799 -0.35596773852697039 0 -0.01891774365057004 -0.36847889011553792 0 -0.036338050016985098 -0.35537471228386192 0 -0.038011333006478992 -0.3693672940245763 0 -0.01891774365057004 -0.36847889011553792 0 -0.036338050016985098 -0.35537471228386192 0 -0.01891774365057004 -0.36847889011553792 0 -0.019869161311354799 -0.35596773852697039 0 -0.01891774365057004 -0.36847889011553792 0 -0.019869161311354799 -0.35596773852697039 0 -0.00033184129408025948 -0.36386425713067733 0 -0.019869161311354799 -0.35596773852697039 0 -0.01891774365057004 -0.36847889011553792 0 -0.00033184129408025948 -0.36386425713067733 0 -0.01891774365057004 -0.36847889011553792 0 -0.00033184129408025948 -0.36386425713067733 0 0.0043911497260468446 -0.38601267381842841 0 -0.01891774365057004 -0.36847889011553792 0 0.0043911497260468446 -0.38601267381842841 0 0.001646805659493981 -0.38483714105840322 0 -0.01891774365057004 -0.36847889011553792 0 0.0043911497260468446 -0.38601267381842841 0 -0.01891774365057004 -0.36847889011553792 0 -0.0067782353210113586 -0.39139035025588531 0 -0.01692313518510407 -0.3947080110367201 0 -0.01891774365057004 -0.36847889011553792 0 -0.0067782353210113586 -0.39139035025588531 0 0.001646805659493981 -0.38483714105840322 0 -0.0041048790184469277 -0.39962520101249083 0 -0.01692313518510407 -0.3947080110367201 0 -0.0081533824311354405 -0.41472136405803001 0 -0.0041048790184469277 -0.39962520101249083 0 -0.0067782353210113586 -0.39139035025588531 0 0.001646805659493981 -0.38483714105840322 0 -0.0041048790184469277 -0.39962520101249083 0 -0.0067782353210113586 -0.39139035025588531 0 -0.01692313518510407 -0.3947080110367201 0 -0.01692313518510407 -0.3947080110367201 0 -0.039001420031430818 -0.40517504974619822 0 -0.024134051640877782 -0.41451760942150578 0 -0.01692313518510407 -0.3947080110367201 0 -0.03187206142677744 -0.38333167213433428 0 -0.039001420031430818 -0.40517504974619822 0 -0.01891774365057004 -0.36847889011553792 0 -0.01692313518510407 -0.3947080110367201 0 -0.03187206142677744 -0.38333167213433428 0 -0.01891774365057004 -0.36847889011553792 0 -0.01692313518510407 -0.3947080110367201 0 -0.038011333006478992 -0.3693672940245763 0 -0.03187206142677744 -0.38333167213433428 0 -0.051713096776128328 -0.37948743843322491 0 -0.03187206142677744 -0.38333167213433428 0 -0.039001420031430818 -0.40517504974619822 0 -0.051713096776128328 -0.37948743843322491 0 -0.051713096776128328 -0.37948743843322491 0 -0.063540476194177645 -0.40694207645262209 0 -0.039001420031430818 -0.40517504974619822 0 -0.051713096776128328 -0.37948743843322491 0 -0.063540476194177645 -0.40694207645262209 0 -0.052339896804340688 -0.42422477411552428 0 -0.052458018101313723 -0.44481920696847083 0 -0.075367855612227072 -0.43439671447201977 0 -0.039001420031430818 -0.40517504974619822 0 -0.052339896804340688 -0.42422477411552428 0 -0.063540476194177645 -0.40694207645262209 0 -0.039001420031430818 -0.40517504974619822 0 -0.032446550368702989 -0.42955388142979628 0 -0.024134051640877782 -0.41451760942150578 0 -0.039001420031430818 -0.40517504974619822 0 -0.052339896804340688 -0.42422477411552428 0 -0.032446550368702989 -0.42955388142979628 0 -0.052339896804340688 -0.42422477411552428 0 -0.032446550368702989 -0.42955388142979628 0 -0.052458018101313723 -0.44481920696847083 0 -0.032446550368702989 -0.42955388142979628 0 -0.01428641607733315 -0.43244134323017758 0 -0.023291935020321512 -0.44792409455967303 0 -0.032446550368702989 -0.42955388142979628 0 -0.024134051640877782 -0.41451760942150578 0 -0.01428641607733315 -0.43244134323017758 0 -0.01692313518510407 -0.3947080110367201 0 -0.024134051640877782 -0.41451760942150578 0 -0.0081533824311354405 -0.41472136405803001 0 -0.0041048790184469277 -0.39962520101249083 0 -0.0081533824311354405 -0.41472136405803001 0 0.0096835521855221027 -0.41246913865341522 0 -0.0081533824311354405 -0.41472136405803001 0 -0.0022572301893488398 -0.42507109376321661 0 0.0096835521855221027 -0.41246913865341522 0 -0.024134051640877782 -0.41451760942150578 0 -0.0081533824311354405 -0.41472136405803001 0 -0.01428641607733315 -0.43244134323017758 0 -0.0081533824311354405 -0.41472136405803001 0 -0.01428641607733315 -0.43244134323017758 0 -0.0022572301893488398 -0.42507109376321661 0 -0.01428641607733315 -0.43244134323017758 0 -0.0022572301893488398 -0.42507109376321661 0 -0.0042305411252634593 -0.43622662998366918 0 -0.0022572301893488398 -0.42507109376321661 0 -0.0042305411252634593 -0.43622662998366918 0 0.0057006365014656019 -0.4294969928907908 0 -0.0042305411252634593 -0.43622662998366918 0 -0.009987602282749853 -0.44650255935807809 0 0.00171772081740895 -0.44652484712816631 0 -0.01428641607733315 -0.43244134323017758 0 -0.0042305411252634593 -0.43622662998366918 0 -0.009987602282749853 -0.44650255935807809 0 -0.009987602282749853 -0.44650255935807809 0 -0.0025303026137990241 -0.45648319955166389 0 0.00171772081740895 -0.44652484712816631 0 -0.0025303026137990241 -0.45648319955166389 0 -0.014141957984552421 -0.46257676966001932 0 0.0040988649333950026 -0.46829310919736061 0 -0.009987602282749853 -0.44650255935807809 0 -0.0025303026137990241 -0.45648319955166389 0 -0.014141957984552421 -0.46257676966001932 0 -0.014141957984552421 -0.46257676966001932 0 -0.01766581032834166 -0.47859704629937222 0 -0.035549123410839302 -0.46225817563562888 0 -0.014141957984552421 -0.46257676966001932 0 -0.023291935020321512 -0.44792409455967303 0 -0.035549123410839302 -0.46225817563562888 0 -0.009987602282749853 -0.44650255935807809 0 -0.014141957984552421 -0.46257676966001932 0 -0.023291935020321512 -0.44792409455967303 0 -0.032446550368702989 -0.42955388142979628 0 -0.023291935020321512 -0.44792409455967303 0 -0.036153286118416887 -0.44565343647237032 0 -0.01428641607733315 -0.43244134323017758 0 -0.009987602282749853 -0.44650255935807809 0 -0.023291935020321512 -0.44792409455967303 0 -0.0067890831900702109 -0.5 0 -0.01766581032834166 -0.47859704629937222 0 0.0051058715143244091 -0.48400014151992721 0 -0.014141957984552421 -0.46257676966001932 0 -0.01766581032834166 -0.47859704629937222 0 0.0040988649333950026 -0.46829310919736061 0 -0.01766581032834166 -0.47859704629937222 0 0.0040988649333950026 -0.46829310919736061 0 0.0051058715143244091 -0.48400014151992721 0 -0.0067890831900702109 -0.5 0 -0.01766581032834166 -0.47859704629937222 0 -0.03521763438604697 -0.5 0 -0.01766581032834166 -0.47859704629937222 0 -0.03521763438604697 -0.5 0 -0.045245997813358758 -0.48277910258142959 0 -0.01766581032834166 -0.47859704629937222 0 -0.045245997813358758 -0.48277910258142959 0 -0.035549123410839302 -0.46225817563562888 0 -0.045245997813358758 -0.48277910258142959 0 -0.062008960325510468 -0.47275410329431811 0 -0.035549123410839302 -0.46225817563562888 0 -0.03521763438604697 -0.5 0 -0.045245997813358758 -0.48277910258142959 0 -0.063646185582023729 -0.5 0 -0.045245997813358758 -0.48277910258142959 0 -0.062008960325510468 -0.47275410329431811 0 -0.063646185582023729 -0.5 0 -0.023291935020321512 -0.44792409455967303 0 -0.036153286118416887 -0.44565343647237032 0 -0.035549123410839302 -0.46225817563562888 0 -0.036153286118416887 -0.44565343647237032 0 -0.035549123410839302 -0.46225817563562888 0 -0.052458018101313723 -0.44481920696847083 0 -0.032446550368702989 -0.42955388142979628 0 -0.036153286118416887 -0.44565343647237032 0 -0.052458018101313723 -0.44481920696847083 0 -0.062008960325510468 -0.47275410329431811 0 -0.035549123410839302 -0.46225817563562888 0 -0.052458018101313723 -0.44481920696847083 0 -0.062008960325510468 -0.47275410329431811 0 -0.052458018101313723 -0.44481920696847083 0 -0.087195235030276499 -0.46185135249141718 0 -0.052458018101313723 -0.44481920696847083 0 -0.087195235030276499 -0.46185135249141718 0 -0.075367855612227072 -0.43439671447201977 0 -0.087195235030276499 -0.46185135249141718 0 -0.10534083360900889 -0.4397602892879352 0 -0.075367855612227072 -0.43439671447201977 0 -0.087195235030276499 -0.46185135249141718 0 -0.075367855612227072 -0.43439671447201977 0 -0.062008960325510468 -0.47275410329431811 0 -0.063646185582023729 -0.5 0 -0.081516359442699651 -0.48196411022947688 0 -0.062008960325510468 -0.47275410329431811 0 -0.087195235030276499 -0.46185135249141718 0 -0.081516359442699651 -0.48196411022947688 0 -0.087195235030276499 -0.46185135249141718 0 -0.081516359442699651 -0.48196411022947688 0 -0.10578146090603149 -0.48216500881827329 0 -0.081516359442699651 -0.48196411022947688 0 -0.092074736778000321 -0.5 0 -0.10578146090603149 -0.48216500881827329 0 -0.063646185582023729 -0.5 0 -0.081516359442699651 -0.48196411022947688 0 -0.092074736778000321 -0.5 0 -0.087195235030276499 -0.46185135249141718 0 -0.10578146090603149 -0.48216500881827329 0 -0.1201536232768925 -0.46295462635476942 0 -0.092074736778000321 -0.5 0 -0.10578146090603149 -0.48216500881827329 0 -0.1205032879739769 -0.5 0 -0.1267921368491573 -0.48314498010293672 0 -0.10578146090603149 -0.48216500881827329 0 -0.1201536232768925 -0.46295462635476942 0 -0.1267921368491573 -0.48314498010293672 0 -0.10578146090603149 -0.48216500881827329 0 -0.1205032879739769 -0.5 0 -0.087195235030276499 -0.46185135249141718 0 -0.10534083360900889 -0.4397602892879352 0 -0.1201536232768925 -0.46295462635476942 0 -0.1312064970229409 -0.44244490655103669 0 -0.10534083360900889 -0.4397602892879352 0 -0.1201536232768925 -0.46295462635476942 0 -0.1312064970229409 -0.44244490655103669 0 -0.10534083360900889 -0.4397602892879352 0 -0.12288138973471591 -0.42442320070196671 0 -0.10534083360900889 -0.4397602892879352 0 -0.12288138973471591 -0.42442320070196671 0 -0.095240400977000678 -0.41249093515640178 0 -0.13487115793912099 -0.40423317639942541 0 -0.12288138973471591 -0.42442320070196671 0 -0.1168934569830135 -0.40477599869467451 0 -0.12288138973471591 -0.42442320070196671 0 -0.095240400977000678 -0.41249093515640178 0 -0.1168934569830135 -0.40477599869467451 0 -0.12556807921864879 -0.38849123483631842 0 -0.1168934569830135 -0.40477599869467451 0 -0.1070214613404958 -0.38888620179648509 0 -0.12556807921864879 -0.38849123483631842 0 -0.1188146674808004 -0.36725312872772381 0 -0.1070214613404958 -0.38888620179648509 0 -0.099948652785021949 -0.37173661250824058 0 -0.1070214613404958 -0.38888620179648509 0 -0.081161317021135077 -0.38378596945075177 0 -0.1188146674808004 -0.36725312872772381 0 -0.099948652785021949 -0.37173661250824058 0 -0.1070214613404958 -0.38888620179648509 0 -0.095240400977000678 -0.41249093515640178 0 -0.1070214613404958 -0.38888620179648509 0 -0.081161317021135077 -0.38378596945075177 0 -0.095240400977000678 -0.41249093515640178 0 -0.1168934569830135 -0.40477599869467451 0 -0.1070214613404958 -0.38888620179648509 0 -0.095240400977000678 -0.41249093515640178 0 -0.081161317021135077 -0.38378596945075177 0 -0.063540476194177645 -0.40694207645262209 0 -0.051713096776128328 -0.37948743843322491 0 -0.081161317021135077 -0.38378596945075177 0 -0.063540476194177645 -0.40694207645262209 0 -0.067888138964050285 -0.36406054247855352 0 -0.051713096776128328 -0.37948743843322491 0 -0.081161317021135077 -0.38378596945075177 0 -0.052339896804340688 -0.42422477411552428 0 -0.063540476194177645 -0.40694207645262209 0 -0.075367855612227072 -0.43439671447201977 0 -0.063540476194177645 -0.40694207645262209 0 -0.075367855612227072 -0.43439671447201977 0 -0.095240400977000678 -0.41249093515640178 0 -0.063540476194177645 -0.40694207645262209 0 -0.075367855612227072 -0.43439671447201977 0 -0.10534083360900889 -0.4397602892879352 0 -0.095240400977000678 -0.41249093515640178 0 -0.075367855612227072 -0.43439671447201977 0 -0.077304353764093017 -0.082782875984134863 0 -0.087864607209527837 -0.097286919407215941 0 -0.1004859620604284 -0.079829639934848318 0 -0.083875109567612377 -0.06608822424709776 0 -0.1004859620604284 -0.079829639934848318 0 -0.083875109567612377 -0.06608822424709776 0 -0.077304353764093017 -0.082782875984134863 0 -0.1004859620604284 -0.079829639934848318 0 -0.083875109567612377 -0.06608822424709776 0 -0.1004859620604284 -0.079829639934848318 0 -0.093479092836095568 -0.055503649681363461 0 -0.083875109567612377 -0.06608822424709776 0 -0.067097097811131143 -0.069402046372447346 0 -0.077304353764093017 -0.082782875984134863 0 -0.067097097811131143 -0.069402046372447346 0 -0.077304353764093017 -0.082782875984134863 0 -0.06186389792156459 -0.092558521849410047 0 -0.077304353764093017 -0.082782875984134863 0 -0.087864607209527837 -0.097286919407215941 0 -0.06186389792156459 -0.092558521849410047 0 -0.075243252358631496 -0.11474419887958651 0 -0.06186389792156459 -0.092558521849410047 0 -0.075243252358631496 -0.11474419887958651 0 -0.087864607209527837 -0.097286919407215941 0 -0.06186389792156459 -0.092558521849410047 0 -0.075243252358631496 -0.11474419887958651 0 -0.06186389792156459 -0.092558521849410047 0 -0.057649232348529179 -0.098388054071584824 0 -0.075243252358631496 -0.11474419887958651 0 -0.075068152520711987 -0.13071587010171121 0 -0.06681392121257887 -0.12640326332392959 0 -0.075243252358631496 -0.11474419887958651 0 -0.057649232348529179 -0.098388054071584824 0 -0.06681392121257887 -0.12640326332392959 0 -0.075243252358631496 -0.11474419887958651 0 -0.06681392121257887 -0.12640326332392959 0 -0.075243252358631496 -0.11474419887958651 0 -0.087864607209527837 -0.097286919407215941 0 -0.09550610472206314 -0.1172707871788625 0 -0.075243252358631496 -0.11474419887958651 0 -0.09550610472206314 -0.1172707871788625 0 -0.088608208428010968 -0.13690600050254809 0 -0.075243252358631496 -0.11474419887958651 0 -0.087864607209527837 -0.097286919407215941 0 -0.087864607209527837 -0.097286919407215941 0 -0.104026665673675 -0.102626836085976 0 -0.09550610472206314 -0.1172707871788625 0 -0.104026665673675 -0.102626836085976 0 -0.09550610472206314 -0.1172707871788625 0 -0.1150295462803429 -0.1217424259751462 0 -0.09550610472206314 -0.1172707871788625 0 -0.1150295462803429 -0.1217424259751462 0 -0.1027772718311543 -0.12941499187885949 0 -0.104026665673675 -0.102626836085976 0 -0.1150295462803429 -0.1217424259751462 0 -0.1212471080960127 -0.097004407933807407 0 -0.1212471080960127 -0.097004407933807407 0 -0.1004859620604284 -0.079829639934848318 0 -0.1212471080960127 -0.097004407933807407 0 -0.1183536417828548 -0.078020180016959456 0 -0.13377871334743241 -0.077936100334677433 0 -0.1212471080960127 -0.097004407933807407 0 -0.1004859620604284 -0.079829639934848318 0 -0.1183536417828548 -0.078020180016959456 0 -0.087864607209527837 -0.097286919407215941 0 -0.1004859620604284 -0.079829639934848318 0 -0.087864607209527837 -0.097286919407215941 0 -0.104026665673675 -0.102626836085976 0 -0.1004859620604284 -0.079829639934848318 0 -0.104026665673675 -0.102626836085976 0 -0.1212471080960127 -0.097004407933807407 0 -0.1004859620604284 -0.079829639934848318 0 -0.1004859620604284 -0.079829639934848318 0 -0.1135786858043141 -0.06172038461703501 0 -0.093479092836095568 -0.055503649681363461 0 -0.1004859620604284 -0.079829639934848318 0 -0.1135786858043141 -0.06172038461703501 0 -0.1183536417828548 -0.078020180016959456 0 -0.1135786858043141 -0.06172038461703501 0 -0.12885258059726659 -0.064719484041567951 0 -0.1004859620604284 -0.079829639934848318 0 -0.1183536417828548 -0.078020180016959456 0 -0.1135786858043141 -0.06172038461703501 0 -0.1135786858043141 -0.06172038461703501 0 -0.1266714095482025 -0.043611129299223519 0 -0.1135786858043141 -0.06172038461703501 0 -0.12885258059726659 -0.064719484041567951 0 -0.1266714095482025 -0.043611129299223519 0 -0.1135786858043141 -0.06172038461703501 0 -0.10390361955847879 -0.045389108357233081 0 -0.1266714095482025 -0.043611129299223519 0 -0.10390361955847879 -0.045389108357233081 0 -0.10587981894977889 -0.027932612822133059 0 -0.1266714095482025 -0.043611129299223519 0 -0.1210568347698693 -0.027924388199292691 0 -0.10587981894977889 -0.027932612822133059 0 -0.1266714095482025 -0.043611129299223519 0 -0.10587981894977889 -0.027932612822133059 0 -0.1266714095482025 -0.043611129299223519 0 -0.10390361955847879 -0.045389108357233081 0 -0.092727373063927809 -0.02951073109186609 0 -0.085603864677806396 -0.04226533314515319 0 -0.10390361955847879 -0.045389108357233081 0 -0.10587981894977889 -0.027932612822133059 0 -0.092727373063927809 -0.02951073109186609 0 -0.10390361955847879 -0.045389108357233081 0 -0.093479092836095568 -0.055503649681363461 0 -0.085603864677806396 -0.04226533314515319 0 -0.1135786858043141 -0.06172038461703501 0 -0.10390361955847879 -0.045389108357233081 0 -0.093479092836095568 -0.055503649681363461 0 -0.1222840736381321 -0.0043715844633764982 0 -0.12257544939466419 -0.01515918467811004 0 -0.109530651746324 0.00091513813098781371 0 -0.12257544939466419 -0.01515918467811004 0 -0.10584894508048361 -0.013555477798158419 0 -0.109530651746324 0.00091513813098781371 0 -0.12257544939466419 -0.01515918467811004 0 -0.109530651746324 0.00091513813098781371 0 -0.12257544939466419 -0.01515918467811004 0 -0.113840262048699 -0.021142915874423549 0 -0.10584894508048361 -0.013555477798158419 0 -0.12257544939466419 -0.01515918467811004 0 -0.113840262048699 -0.021142915874423549 0 -0.1210568347698693 -0.027924388199292691 0 -0.113840262048699 -0.021142915874423549 0 -0.1210568347698693 -0.027924388199292691 0 -0.10587981894977889 -0.027932612822133059 0 -0.10587981894977889 -0.027932612822133059 0 -0.085088228351355183 -0.01225409634504256 0 -0.10587981894977889 -0.027932612822133059 0 -0.085088228351355183 -0.01225409634504256 0 -0.092727373063927809 -0.02951073109186609 0 -0.10587981894977889 -0.027932612822133059 0 -0.10584894508048361 -0.013555477798158419 0 -0.085088228351355183 -0.01225409634504256 0 -0.113840262048699 -0.021142915874423549 0 -0.10587981894977889 -0.027932612822133059 0 -0.10584894508048361 -0.013555477798158419 0 -0.10584894508048361 -0.013555477798158419 0 -0.097804271532689085 -0.0045970153036278358 0 -0.085088228351355183 -0.01225409634504256 0 -0.10584894508048361 -0.013555477798158419 0 -0.097804271532689085 -0.0045970153036278358 0 -0.109530651746324 0.00091513813098781371 0 -0.085088228351355183 -0.01225409634504256 0 -0.090749260952593599 0.0065063747977018227 0 -0.06429663775293179 0.0034244201320481082 0 -0.097804271532689085 -0.0045970153036278358 0 -0.085088228351355183 -0.01225409634504256 0 -0.090749260952593599 0.0065063747977018227 0 -0.083142123280423016 -0.02036741240326469 0 -0.073719380516677521 -0.0084714961356081846 0 -0.085088228351355183 -0.01225409634504256 0 -0.083142123280423016 -0.02036741240326469 0 -0.073719380516677521 -0.0084714961356081846 0 -0.085088228351355183 -0.01225409634504256 0 -0.083142123280423016 -0.02036741240326469 0 -0.092727373063927809 -0.02951073109186609 0 -0.083142123280423016 -0.02036741240326469 0 -0.076640934029432797 -0.024876905228624731 0 -0.080043387052895085 -0.03191309667677434 0 -0.083142123280423016 -0.02036741240326469 0 -0.092727373063927809 -0.02951073109186609 0 -0.080043387052895085 -0.03191309667677434 0 -0.076640934029432797 -0.024876905228624731 0 -0.080043387052895085 -0.03191309667677434 0 -0.07084035887150042 -0.032062387241534519 0 -0.076640934029432797 -0.024876905228624731 0 -0.069979010068711212 -0.0246790216852311 0 -0.07084035887150042 -0.032062387241534519 0 -0.069979010068711212 -0.0246790216852311 0 -0.07084035887150042 -0.032062387241534519 0 -0.060570478402932483 -0.028099736336767999 0 -0.069979010068711212 -0.0246790216852311 0 -0.064040792110119843 -0.021569303366042791 0 -0.060570478402932483 -0.028099736336767999 0 -0.067487519166832308 -0.016034548496951059 0 -0.064040792110119843 -0.021569303366042791 0 -0.058126160802003397 -0.01746390694522101 0 -0.069979010068711212 -0.0246790216852311 0 -0.067487519166832308 -0.016034548496951059 0 -0.064040792110119843 -0.021569303366042791 0 -0.069979010068711212 -0.0246790216852311 0 -0.067487519166832308 -0.016034548496951059 0 -0.074306035507958376 -0.018806879734922122 0 -0.083142123280423016 -0.02036741240326469 0 -0.076640934029432797 -0.024876905228624731 0 -0.074306035507958376 -0.018806879734922122 0 -0.083142123280423016 -0.02036741240326469 0 -0.074306035507958376 -0.018806879734922122 0 -0.073719380516677521 -0.0084714961356081846 0 -0.076640934029432797 -0.024876905228624731 0 -0.069979010068711212 -0.0246790216852311 0 -0.074306035507958376 -0.018806879734922122 0 -0.085088228351355183 -0.01225409634504256 0 -0.06429663775293179 0.0034244201320481082 0 -0.085088228351355183 -0.01225409634504256 0 -0.073719380516677521 -0.0084714961356081846 0 -0.06429663775293179 0.0034244201320481082 0 -0.067487519166832308 -0.016034548496951059 0 -0.074306035507958376 -0.018806879734922122 0 -0.073719380516677521 -0.0084714961356081846 0 -0.067487519166832308 -0.016034548496951059 0 -0.073719380516677521 -0.0084714961356081846 0 -0.063513459446068524 -0.0090165539297122621 0 -0.067487519166832308 -0.016034548496951059 0 -0.063513459446068524 -0.0090165539297122621 0 -0.058126160802003397 -0.01746390694522101 0 -0.073719380516677521 -0.0084714961356081846 0 -0.063513459446068524 -0.0090165539297122621 0 -0.06429663775293179 0.0034244201320481082 0 -0.073719380516677521 -0.0084714961356081846 0 -0.06429663775293179 0.0034244201320481082 0 -0.093479092836095568 -0.055503649681363461 0 -0.085603864677806396 -0.04226533314515319 0 -0.073642358463065855 -0.051346642372020038 0 -0.083875109567612377 -0.06608822424709776 0 -0.093479092836095568 -0.055503649681363461 0 -0.073642358463065855 -0.051346642372020038 0 -0.092727373063927809 -0.02951073109186609 0 -0.080043387052895085 -0.03191309667677434 0 -0.085603864677806396 -0.04226533314515319 0 -0.080043387052895085 -0.03191309667677434 0 -0.085603864677806396 -0.04226533314515319 0 -0.073055534627006896 -0.039988116649505197 0 -0.073055534627006896 -0.039988116649505197 0 -0.064792609814278201 -0.045234644096475547 0 -0.073642358463065855 -0.051346642372020038 0 -0.085603864677806396 -0.04226533314515319 0 -0.073055534627006896 -0.039988116649505197 0 -0.073642358463065855 -0.051346642372020038 0 -0.080043387052895085 -0.03191309667677434 0 -0.073055534627006896 -0.039988116649505197 0 -0.07084035887150042 -0.032062387241534519 0 -0.073055534627006896 -0.039988116649505197 0 -0.07084035887150042 -0.032062387241534519 0 -0.06341062888249549 -0.03710659636507363 0 -0.07084035887150042 -0.032062387241534519 0 -0.06341062888249549 -0.03710659636507363 0 -0.060570478402932483 -0.028099736336767999 0 -0.073055534627006896 -0.039988116649505197 0 -0.06341062888249549 -0.03710659636507363 0 -0.064792609814278201 -0.045234644096475547 0 -0.064792609814278201 -0.045234644096475547 0 -0.073642358463065855 -0.051346642372020038 0 -0.05741232366595643 -0.053263168962786177 0 -0.067097097811131143 -0.069402046372447346 0 -0.073642358463065855 -0.051346642372020038 0 -0.05741232366595643 -0.053263168962786177 0 -0.083875109567612377 -0.06608822424709776 0 -0.067097097811131143 -0.069402046372447346 0 -0.073642358463065855 -0.051346642372020038 0 -0.05741232366595643 -0.053263168962786177 0 -0.041567260673632048 -0.049227650663808062 0 -0.048484543484495421 -0.070372844819234823 0 -0.05741232366595643 -0.053263168962786177 0 -0.050253069888237328 -0.045157109061775877 0 -0.041567260673632048 -0.049227650663808062 0 -0.064792609814278201 -0.045234644096475547 0 -0.05741232366595643 -0.053263168962786177 0 -0.057305337231762149 -0.042229721406022228 0 -0.05741232366595643 -0.053263168962786177 0 -0.057305337231762149 -0.042229721406022228 0 -0.050253069888237328 -0.045157109061775877 0 -0.06341062888249549 -0.03710659636507363 0 -0.064792609814278201 -0.045234644096475547 0 -0.057305337231762149 -0.042229721406022228 0 -0.06341062888249549 -0.03710659636507363 0 -0.057305337231762149 -0.042229721406022228 0 -0.055084076744833239 -0.034005238212484412 0 -0.06341062888249549 -0.03710659636507363 0 -0.055084076744833239 -0.034005238212484412 0 -0.060570478402932483 -0.028099736336767999 0 -0.057305337231762149 -0.042229721406022228 0 -0.055084076744833239 -0.034005238212484412 0 -0.050023444986879627 -0.038057225284062357 0 -0.055084076744833239 -0.034005238212484412 0 -0.050023444986879627 -0.038057225284062357 0 -0.046816112919905027 -0.032289589403370227 0 -0.055084076744833239 -0.034005238212484412 0 -0.046816112919905027 -0.032289589403370227 0 -0.051738492923786621 -0.02833609696993479 0 -0.050023444986879627 -0.038057225284062357 0 -0.046816112919905027 -0.032289589403370227 0 -0.045500027393125093 -0.036803531306487461 0 -0.057305337231762149 -0.042229721406022228 0 -0.050023444986879627 -0.038057225284062357 0 -0.050253069888237328 -0.045157109061775877 0 -0.050023444986879627 -0.038057225284062357 0 -0.050253069888237328 -0.045157109061775877 0 -0.044956982882956367 -0.043007778992200582 0 -0.050253069888237328 -0.045157109061775877 0 -0.044956982882956367 -0.043007778992200582 0 -0.041567260673632048 -0.049227650663808062 0 -0.04228706549090526 -0.036241261645687868 0 -0.041567260673632048 -0.049227650663808062 0 -0.034649977862767758 -0.028082456508381599 0 -0.041567260673632048 -0.049227650663808062 0 -0.034649977862767758 -0.028082456508381599 0 -0.035720276519934938 -0.044697214786521867 0 -0.041567260673632048 -0.049227650663808062 0 -0.034649977862767758 -0.028082456508381599 0 -0.044956982882956367 -0.043007778992200582 0 -0.04228706549090526 -0.036241261645687868 0 -0.041567260673632048 -0.049227650663808062 0 -0.050023444986879627 -0.038057225284062357 0 -0.044956982882956367 -0.043007778992200582 0 -0.045500027393125093 -0.036803531306487461 0 -0.046816112919905027 -0.032289589403370227 0 -0.04228706549090526 -0.036241261645687868 0 -0.040232031213045298 -0.028036562999879291 0 -0.046816112919905027 -0.032289589403370227 0 -0.045500027393125093 -0.036803531306487461 0 -0.04228706549090526 -0.036241261645687868 0 -0.044956982882956367 -0.043007778992200582 0 -0.045500027393125093 -0.036803531306487461 0 -0.04228706549090526 -0.036241261645687868 0 -0.035720276519934938 -0.044697214786521867 0 -0.03483069748015382 -0.047732005225900542 0 -0.03483069748015382 -0.047732005225900542 0 -0.048484543484495421 -0.070372844819234823 0 -0.03483069748015382 -0.047732005225900542 0 -0.027671456074471711 -0.072155689237760195 0 -0.041567260673632048 -0.049227650663808062 0 -0.048484543484495421 -0.070372844819234823 0 -0.03483069748015382 -0.047732005225900542 0 -0.041567260673632048 -0.049227650663808062 0 -0.048484543484495421 -0.070372844819234823 0 -0.035720276519934938 -0.044697214786521867 0 -0.03483069748015382 -0.047732005225900542 0 -0.041567260673632048 -0.049227650663808062 0 -0.053937598991897748 -0.0065372382028289176 0 -0.06429663775293179 0.0034244201320481082 0 -0.042331935630484048 0.002039555730186072 0 -0.063513459446068524 -0.0090165539297122621 0 -0.053937598991897748 -0.0065372382028289176 0 -0.06429663775293179 0.0034244201320481082 0 -0.063513459446068524 -0.0090165539297122621 0 -0.053937598991897748 -0.0065372382028289176 0 -0.058126160802003397 -0.01746390694522101 0 -0.053937598991897748 -0.0065372382028289176 0 -0.050463467020892952 -0.01500959425819927 0 -0.058126160802003397 -0.01746390694522101 0 -0.053937598991897748 -0.0065372382028289176 0 -0.050463467020892952 -0.01500959425819927 0 -0.042519271216591548 -0.011649386613891409 0 -0.050463467020892952 -0.01500959425819927 0 -0.051423540449548631 -0.021105503730232979 0 -0.046056561501089117 -0.020350262485940261 0 -0.051423540449548631 -0.021105503730232979 0 -0.046403085956034179 -0.026491762327595241 0 -0.046056561501089117 -0.020350262485940261 0 -0.050463467020892952 -0.01500959425819927 0 -0.051423540449548631 -0.021105503730232979 0 -0.058126160802003397 -0.01746390694522101 0 -0.051423540449548631 -0.021105503730232979 0 -0.058126160802003397 -0.01746390694522101 0 -0.060570478402932483 -0.028099736336767999 0 -0.064040792110119843 -0.021569303366042791 0 -0.058126160802003397 -0.01746390694522101 0 -0.060570478402932483 -0.028099736336767999 0 -0.055084076744833239 -0.034005238212484412 0 -0.060570478402932483 -0.028099736336767999 0 -0.051738492923786621 -0.02833609696993479 0 -0.051423540449548631 -0.021105503730232979 0 -0.060570478402932483 -0.028099736336767999 0 -0.051738492923786621 -0.02833609696993479 0 -0.051423540449548631 -0.021105503730232979 0 -0.051738492923786621 -0.02833609696993479 0 -0.046403085956034179 -0.026491762327595241 0 -0.046816112919905027 -0.032289589403370227 0 -0.051738492923786621 -0.02833609696993479 0 -0.046403085956034179 -0.026491762327595241 0 -0.040232031213045298 -0.028036562999879291 0 -0.042519271216591548 -0.011649386613891409 0 -0.026366295026715381 -0.0080643654216814211 0 -0.040232031213045298 -0.028036562999879291 0 -0.034649977862767758 -0.028082456508381599 0 -0.026366295026715381 -0.0080643654216814211 0 -0.040232031213045298 -0.028036562999879291 0 -0.046056561501089117 -0.020350262485940261 0 -0.042519271216591548 -0.011649386613891409 0 -0.040232031213045298 -0.028036562999879291 0 -0.026366295026715381 -0.0080643654216814211 0 -0.046816112919905027 -0.032289589403370227 0 -0.046403085956034179 -0.026491762327595241 0 -0.040232031213045298 -0.028036562999879291 0 -0.046403085956034179 -0.026491762327595241 0 -0.040232031213045298 -0.028036562999879291 0 -0.046056561501089117 -0.020350262485940261 0 -0.04228706549090526 -0.036241261645687868 0 -0.040232031213045298 -0.028036562999879291 0 -0.034649977862767758 -0.028082456508381599 0 -0.050463467020892952 -0.01500959425819927 0 -0.046056561501089117 -0.020350262485940261 0 -0.042519271216591548 -0.011649386613891409 0 -0.042519271216591548 -0.011649386613891409 0 -0.026366295026715381 -0.0080643654216814211 0 -0.042331935630484048 0.002039555730186072 0 -0.053937598991897748 -0.0065372382028289176 0 -0.042519271216591548 -0.011649386613891409 0 -0.042331935630484048 0.002039555730186072 0 -0.026366295026715381 -0.0080643654216814211 0 -0.020464940397846281 -0.023910673006840879 0 -0.0060991833155395643 -8.9340787780604891e-05 0 -0.034649977862767758 -0.028082456508381599 0 -0.026366295026715381 -0.0080643654216814211 0 -0.020464940397846281 -0.023910673006840879 0 -0.020464940397846281 -0.023910673006840879 0 -0.0060991833155395643 -8.9340787780604891e-05 0 0.002201472470244434 -0.02866876371560861 0 -0.020464940397846281 -0.023910673006840879 0 -0.0060991833155395643 -8.9340787780604891e-05 0 -0.03483069748015382 -0.047732005225900542 0 -0.01576040923141377 -0.059871490652215878 0 -0.016786339832905499 -0.043882678359220273 0 -0.03483069748015382 -0.047732005225900542 0 -0.01576040923141377 -0.059871490652215878 0 -0.027671456074471711 -0.072155689237760195 0 -0.03483069748015382 -0.047732005225900542 0 -0.020464940397846281 -0.023910673006840879 0 -0.035720276519934938 -0.044697214786521867 0 -0.034649977862767758 -0.028082456508381599 0 -0.020464940397846281 -0.023910673006840879 0 -0.035720276519934938 -0.044697214786521867 0 -0.03483069748015382 -0.047732005225900542 0 -0.020464940397846281 -0.023910673006840879 0 -0.03483069748015382 -0.047732005225900542 0 -0.020464940397846281 -0.023910673006840879 0 -0.016786339832905499 -0.043882678359220273 0 -0.020464940397846281 -0.023910673006840879 0 -0.016786339832905499 -0.043882678359220273 0 0.002201472470244434 -0.02866876371560861 0 -0.016786339832905499 -0.043882678359220273 0 -0.0016479949996232549 -0.050446966672088263 0 0.002201472470244434 -0.02866876371560861 0 -0.01576040923141377 -0.059871490652215878 0 -0.016786339832905499 -0.043882678359220273 0 -0.0016479949996232549 -0.050446966672088263 0 -0.01576040923141377 -0.059871490652215878 0 -0.0016479949996232549 -0.050446966672088263 0 -0.0039602916157648153 -0.062265683657639848 0 -0.0039602916157648153 -0.062265683657639848 0 -0.0080005306177633496 -0.07258112693547758 0 0.0019642167837423809 -0.068240051189366921 0 -0.0080005306177633496 -0.07258112693547758 0 -0.0057797454750161533 -0.088245702054726247 0 -0.027671456074471711 -0.072155689237760195 0 -0.0080005306177633496 -0.07258112693547758 0 0.002424066089086858 -0.079267165279983537 0 0.0019642167837423809 -0.068240051189366921 0 -0.01576040923141377 -0.059871490652215878 0 -0.0039602916157648153 -0.062265683657639848 0 -0.0080005306177633496 -0.07258112693547758 0 -0.0080005306177633496 -0.07258112693547758 0 -0.0057797454750161533 -0.088245702054726247 0 0.002424066089086858 -0.079267165279983537 0 -0.0057797454750161533 -0.088245702054726247 0 -0.0052467944873015203 -0.096165306797296429 0 0.001469916082576286 -0.092579802972193065 0 -0.0057797454750161533 -0.088245702054726247 0 0.001469916082576286 -0.092579802972193065 0 0.0014602778350073331 -0.087593538843067337 0 -0.0057797454750161533 -0.088245702054726247 0 0.0014602778350073331 -0.087593538843067337 0 0.002424066089086858 -0.079267165279983537 0 -0.0057797454750161533 -0.088245702054726247 0 -0.020512214668788921 -0.096579373249619752 0 -0.0052467944873015203 -0.096165306797296429 0 -0.0057797454750161533 -0.088245702054726247 0 -0.027671456074471711 -0.072155689237760195 0 -0.020512214668788921 -0.096579373249619752 0 -0.027671456074471711 -0.072155689237760195 0 -0.020512214668788921 -0.096579373249619752 0 -0.027671456074471711 -0.072155689237760195 0 -0.040584195814180893 -0.093147902248180731 0 -0.020512214668788921 -0.096579373249619752 0 -0.01576040923141377 -0.059871490652215878 0 -0.0080005306177633496 -0.07258112693547758 0 -0.027671456074471711 -0.072155689237760195 0 -0.03483069748015382 -0.047732005225900542 0 -0.027671456074471711 -0.072155689237760195 0 -0.048484543484495421 -0.070372844819234823 0 -0.027671456074471711 -0.072155689237760195 0 -0.040584195814180893 -0.093147902248180731 0 -0.048484543484495421 -0.070372844819234823 0 -0.06186389792156459 -0.092558521849410047 0 -0.048484543484495421 -0.070372844819234823 0 -0.040584195814180893 -0.093147902248180731 0 -0.048484543484495421 -0.070372844819234823 0 -0.057649232348529179 -0.098388054071584824 0 -0.06186389792156459 -0.092558521849410047 0 -0.048484543484495421 -0.070372844819234823 0 -0.057649232348529179 -0.098388054071584824 0 -0.048484543484495421 -0.070372844819234823 0 -0.057649232348529179 -0.098388054071584824 0 -0.067097097811131143 -0.069402046372447346 0 -0.06186389792156459 -0.092558521849410047 0 -0.048484543484495421 -0.070372844819234823 0 -0.067097097811131143 -0.069402046372447346 0 -0.05741232366595643 -0.053263168962786177 0 -0.048484543484495421 -0.070372844819234823 0 -0.057649232348529179 -0.098388054071584824 0 -0.06681392121257887 -0.12640326332392959 0 -0.052438807980705618 -0.1111987662290085 0 -0.057649232348529179 -0.098388054071584824 0 -0.06681392121257887 -0.12640326332392959 0 -0.052438807980705618 -0.1111987662290085 0 -0.056892416264249887 -0.12362733855905279 0 -0.046397425986292942 -0.1205391281819983 0 -0.052438807980705618 -0.1111987662290085 0 -0.056892416264249887 -0.12362733855905279 0 -0.06681392121257887 -0.12640326332392959 0 -0.040584195814180893 -0.093147902248180731 0 -0.052438807980705618 -0.1111987662290085 0 -0.057649232348529179 -0.098388054071584824 0 -0.040584195814180893 -0.093147902248180731 0 -0.036154093296250397 -0.1105108106259553 0 -0.020512214668788921 -0.096579373249619752 0 -0.040584195814180893 -0.093147902248180731 0 -0.052438807980705618 -0.1111987662290085 0 -0.036154093296250397 -0.1105108106259553 0 -0.052438807980705618 -0.1111987662290085 0 -0.036154093296250397 -0.1105108106259553 0 -0.046397425986292942 -0.1205391281819983 0 -0.036154093296250397 -0.1105108106259553 0 -0.046397425986292942 -0.1205391281819983 0 -0.035783013721102118 -0.12602412215471751 0 -0.036154093296250397 -0.1105108106259553 0 -0.025703438144007971 -0.1173096726813647 0 -0.035783013721102118 -0.12602412215471751 0 -0.025703438144007971 -0.1173096726813647 0 -0.020512214668788921 -0.096579373249619752 0 -0.013352973263106121 -0.12100305726147929 0 -0.025703438144007971 -0.1173096726813647 0 -0.013352973263106121 -0.12100305726147929 0 -0.02271489577079229 -0.13243100011505179 0 -0.036154093296250397 -0.1105108106259553 0 -0.025703438144007971 -0.1173096726813647 0 -0.020512214668788921 -0.096579373249619752 0 -0.020512214668788921 -0.096579373249619752 0 -0.013352973263106121 -0.12100305726147929 0 -0.020512214668788921 -0.096579373249619752 0 -0.00333287263979966 -0.1047378732862483 0 -0.0055628076297433351 -0.1138071827427924 0 -0.020512214668788921 -0.096579373249619752 0 -0.00333287263979966 -0.1047378732862483 0 -0.0052467944873015203 -0.096165306797296429 0 -0.00333287263979966 -0.1047378732862483 0 -0.0052467944873015203 -0.096165306797296429 0 0.001920944264520855 -0.098683782423694716 0 -0.0052467944873015203 -0.096165306797296429 0 0.001920944264520855 -0.098683782423694716 0 0.001469916082576286 -0.092579802972193065 0 -0.020512214668788921 -0.096579373249619752 0 -0.013352973263106121 -0.12100305726147929 0 -0.0055628076297433351 -0.1138071827427924 0 -0.0055628076297433351 -0.1138071827427924 0 -0.0018458120868778921 -0.12033927360542369 0 0.0023032816237074918 -0.11206378985153879 0 -0.00333287263979966 -0.1047378732862483 0 -0.0055628076297433351 -0.1138071827427924 0 0.0023032816237074918 -0.11206378985153879 0 -0.013352973263106121 -0.12100305726147929 0 -0.0055628076297433351 -0.1138071827427924 0 -0.0018458120868778921 -0.12033927360542369 0 -0.013352973263106121 -0.12100305726147929 0 -0.0018458120868778921 -0.12033927360542369 0 -0.0019404310547477179 -0.13265418859280839 0 -0.0019404310547477179 -0.13265418859280839 0 -0.02271489577079229 -0.13243100011505179 0 -0.01501769808675628 -0.146530565222703 0 -0.013352973263106121 -0.12100305726147929 0 -0.0019404310547477179 -0.13265418859280839 0 -0.02271489577079229 -0.13243100011505179 0 -0.0019404310547477179 -0.13265418859280839 0 -0.01501769808675628 -0.146530565222703 0 -0.02271489577079229 -0.13243100011505179 0 -0.01501769808675628 -0.146530565222703 0 -0.03716008162535573 -0.1416616651156081 0 -0.025703438144007971 -0.1173096726813647 0 -0.02271489577079229 -0.13243100011505179 0 -0.035783013721102118 -0.12602412215471751 0 -0.01501769808675628 -0.146530565222703 0 -0.02555561956886291 -0.1577124250886891 0 -0.03716008162535573 -0.1416616651156081 0 -0.01501769808675628 -0.146530565222703 0 -0.03716008162535573 -0.1416616651156081 0 -0.01501769808675628 -0.146530565222703 0 -0.012454478671098329 -0.15900608628290699 0 -0.02555561956886291 -0.1577124250886891 0 -0.01501769808675628 -0.146530565222703 0 -0.02555561956886291 -0.1577124250886891 0 -0.01501769808675628 -0.146530565222703 0 0.01252646365084472 -0.15258726511682991 0 -0.01501769808675628 -0.146530565222703 0 -0.0021876112663072578 -0.15798446653076381 0 0.01252646365084472 -0.15258726511682991 0 -0.0019404310547477179 -0.13265418859280839 0 -0.01501769808675628 -0.146530565222703 0 0.0041305717972906809 -0.1454459938073209 0 -0.01501769808675628 -0.146530565222703 0 -0.0021876112663072578 -0.15798446653076381 0 -0.012454478671098329 -0.15900608628290699 0 -0.0021876112663072578 -0.15798446653076381 0 -0.0043931643207690656 -0.1666921578166749 0 -0.012454478671098329 -0.15900608628290699 0 -0.0043931643207690656 -0.1666921578166749 0 -0.011254588778495179 -0.17920295530366559 0 -0.018999924385077568 -0.16843124628953651 0 -0.0043931643207690656 -0.1666921578166749 0 -0.012454478671098329 -0.15900608628290699 0 -0.018999924385077568 -0.16843124628953651 0 -0.011254588778495179 -0.17920295530366559 0 -0.0036465812241667779 -0.18931108225399881 0 0.002600368018374051 -0.1781835494704333 0 -0.0043931643207690656 -0.1666921578166749 0 -0.011254588778495179 -0.17920295530366559 0 0.002600368018374051 -0.1781835494704333 0 -0.011254588778495179 -0.17920295530366559 0 -0.0036465812241667779 -0.18931108225399881 0 -0.018312768209507429 -0.19348783488613319 0 -0.011254588778495179 -0.17920295530366559 0 -0.02720315463024061 -0.18119105992040491 0 -0.018312768209507429 -0.19348783488613319 0 -0.02720315463024061 -0.18119105992040491 0 -0.018999924385077568 -0.16843124628953651 0 -0.036093541050970721 -0.16889428495467421 0 -0.011254588778495179 -0.17920295530366559 0 -0.02720315463024061 -0.18119105992040491 0 -0.018999924385077568 -0.16843124628953651 0 -0.02720315463024061 -0.18119105992040491 0 -0.036639210109528711 -0.18719995919000701 0 -0.018312768209507429 -0.19348783488613319 0 -0.02720315463024061 -0.18119105992040491 0 -0.018312768209507429 -0.19348783488613319 0 -0.018999924385077568 -0.16843124628953651 0 -0.02555561956886291 -0.1577124250886891 0 -0.036093541050970721 -0.16889428495467421 0 -0.012454478671098329 -0.15900608628290699 0 -0.018999924385077568 -0.16843124628953651 0 -0.02555561956886291 -0.1577124250886891 0 -0.02555561956886291 -0.1577124250886891 0 -0.036093541050970721 -0.16889428495467421 0 -0.036093541050970721 -0.16889428495467421 0 -0.047698003107468537 -0.1528435249816025 0 -0.036093541050970721 -0.16889428495467421 0 -0.051704409575608852 -0.1698939236328178 0 -0.047698003107468537 -0.1528435249816025 0 -0.02555561956886291 -0.1577124250886891 0 -0.036093541050970721 -0.16889428495467421 0 -0.047698003107468537 -0.1528435249816025 0 -0.036093541050970721 -0.16889428495467421 0 -0.051777457260847197 -0.18553659468401529 0 -0.051704409575608852 -0.1698939236328178 0 -0.036093541050970721 -0.16889428495467421 0 -0.051777457260847197 -0.18553659468401529 0 -0.036093541050970721 -0.16889428495467421 0 -0.036639210109528711 -0.18719995919000701 0 -0.051777457260847197 -0.18553659468401529 0 -0.02720315463024061 -0.18119105992040491 0 -0.036093541050970721 -0.16889428495467421 0 -0.036639210109528711 -0.18719995919000701 0 -0.02720315463024061 -0.18119105992040491 0 -0.036093541050970721 -0.16889428495467421 0 -0.051777457260847197 -0.18553659468401529 0 -0.051704409575608852 -0.1698939236328178 0 -0.069543417105455071 -0.18524103437198569 0 -0.051704409575608852 -0.1698939236328178 0 -0.064563197772354392 -0.16098605858604451 0 -0.069543417105455071 -0.18524103437198569 0 -0.051704409575608852 -0.1698939236328178 0 -0.047698003107468537 -0.1528435249816025 0 -0.064563197772354392 -0.16098605858604451 0 -0.047698003107468537 -0.1528435249816025 0 -0.059582978439253753 -0.13673108280010349 0 -0.064563197772354392 -0.16098605858604451 0 -0.047698003107468537 -0.1528435249816025 0 -0.059582978439253753 -0.13673108280010349 0 -0.059582978439253753 -0.13673108280010349 0 -0.064563197772354392 -0.16098605858604451 0 -0.047698003107468537 -0.1528435249816025 0 -0.059582978439253753 -0.13673108280010349 0 -0.03716008162535573 -0.1416616651156081 0 -0.059582978439253753 -0.13673108280010349 0 -0.03716008162535573 -0.1416616651156081 0 -0.059582978439253753 -0.13673108280010349 0 -0.05205904969531628 -0.1313154331921885 0 -0.03716008162535573 -0.1416616651156081 0 -0.056892416264249887 -0.12362733855905279 0 -0.059582978439253753 -0.13673108280010349 0 -0.05205904969531628 -0.1313154331921885 0 -0.056892416264249887 -0.12362733855905279 0 -0.059582978439253753 -0.13673108280010349 0 -0.06681392121257887 -0.12640326332392959 0 -0.056892416264249887 -0.12362733855905279 0 -0.059582978439253753 -0.13673108280010349 0 -0.056892416264249887 -0.12362733855905279 0 -0.046397425986292942 -0.1205391281819983 0 -0.05205904969531628 -0.1313154331921885 0 -0.046397425986292942 -0.1205391281819983 0 -0.05205904969531628 -0.1313154331921885 0 -0.035783013721102118 -0.12602412215471751 0 -0.05205904969531628 -0.1313154331921885 0 -0.035783013721102118 -0.12602412215471751 0 -0.03716008162535573 -0.1416616651156081 0 -0.02271489577079229 -0.13243100011505179 0 -0.035783013721102118 -0.12602412215471751 0 -0.03716008162535573 -0.1416616651156081 0 -0.02555561956886291 -0.1577124250886891 0 -0.047698003107468537 -0.1528435249816025 0 -0.03716008162535573 -0.1416616651156081 0 -0.028394657244909801 -0.24385738322368439 0 -0.032909214176296157 -0.24475273974506859 0 -0.028394657244909801 -0.24385738322368439 0 -0.024584330696107229 -0.23561543231475951 0 -0.028944150764401381 -0.23663153804268389 0 -0.028394657244909801 -0.24385738322368439 0 -0.028944150764401381 -0.23663153804268389 0 -0.032909214176296157 -0.24475273974506859 0 -0.028394657244909801 -0.24385738322368439 0 -0.028944150764401381 -0.23663153804268389 0 -0.028944150764401381 -0.23663153804268389 0 -0.032909214176296157 -0.24475273974506859 0 -0.028394657244909801 -0.24385738322368439 0 -0.024584330696107229 -0.23561543231475951 0 -0.016291194110752218 -0.23401910136067619 0 -0.012355192092672371 -0.2544562184924033 0 -0.028394657244909801 -0.24385738322368439 0 -0.001425766107822968 -0.2385087359652546 0 -0.028394657244909801 -0.24385738322368439 0 -0.001425766107822968 -0.2385087359652546 0 -0.028394657244909801 -0.24385738322368439 0 -0.001425766107822968 -0.2385087359652546 0 -0.016291194110752218 -0.23401910136067619 0 -0.001425766107822968 -0.2385087359652546 0 -0.01154047867219443 -0.22513367210260751 0 -0.016291194110752218 -0.23401910136067619 0 -0.001425766107822968 -0.2385087359652546 0 -0.01154047867219443 -0.22513367210260751 0 -0.0022972425086637831 -0.21563977589084049 0 -0.019159764374336051 -0.2239903741336384 0 -0.024512163324110811 -0.21933372756885841 0 -0.01874766510025784 -0.2135116630040565 0 -0.019159764374336051 -0.2239903741336384 0 -0.024707320664364971 -0.2279537066319933 0 -0.024512163324110811 -0.21933372756885841 0 -0.01154047867219443 -0.22513367210260751 0 -0.019159764374336051 -0.2239903741336384 0 -0.01874766510025784 -0.2135116630040565 0 -0.019159764374336051 -0.2239903741336384 0 -0.016291194110752218 -0.23401910136067619 0 -0.024707320664364971 -0.2279537066319933 0 -0.01154047867219443 -0.22513367210260751 0 -0.019159764374336051 -0.2239903741336384 0 -0.016291194110752218 -0.23401910136067619 0 -0.024584330696107229 -0.23561543231475951 0 -0.016291194110752218 -0.23401910136067619 0 -0.024707320664364971 -0.2279537066319933 0 -0.028944150764401381 -0.23663153804268389 0 -0.0297666940377363 -0.22581508591549521 0 -0.028944150764401381 -0.23663153804268389 0 -0.024707320664364971 -0.2279537066319933 0 -0.024584330696107229 -0.23561543231475951 0 -0.028944150764401381 -0.23663153804268389 0 -0.024707320664364971 -0.2279537066319933 0 -0.028944150764401381 -0.23663153804268389 0 -0.024707320664364971 -0.2279537066319933 0 -0.0297666940377363 -0.22581508591549521 0 -0.024512163324110811 -0.21933372756885841 0 -0.0297666940377363 -0.22581508591549521 0 -0.032913213536692312 -0.21925909102049529 0 -0.024707320664364971 -0.2279537066319933 0 -0.024512163324110811 -0.21933372756885841 0 -0.0297666940377363 -0.22581508591549521 0 -0.01874766510025784 -0.2135116630040565 0 -0.018312768209507429 -0.19348783488613319 0 -0.031988399454843712 -0.2105287144450253 0 -0.024512163324110811 -0.21933372756885841 0 -0.031988399454843712 -0.2105287144450253 0 -0.032913213536692312 -0.21925909102049529 0 -0.024512163324110811 -0.21933372756885841 0 -0.01874766510025784 -0.2135116630040565 0 -0.031988399454843712 -0.2105287144450253 0 -0.0022972425086637831 -0.21563977589084049 0 -0.018312768209507429 -0.19348783488613319 0 -0.01874766510025784 -0.2135116630040565 0 -0.0022972425086637831 -0.21563977589084049 0 -0.018312768209507429 -0.19348783488613319 0 -0.01154047867219443 -0.22513367210260751 0 -0.01874766510025784 -0.2135116630040565 0 -0.0022972425086637831 -0.21563977589084049 0 -0.0022972425086637831 -0.21563977589084049 0 -0.0036465812241667779 -0.18931108225399881 0 -0.018312768209507429 -0.19348783488613319 0 -0.0036465812241667779 -0.18931108225399881 0 -0.018312768209507429 -0.19348783488613319 0 -0.018312768209507429 -0.19348783488613319 0 -0.04641820232403164 -0.20149192252202999 0 -0.031988399454843712 -0.2105287144450253 0 -0.036639210109528711 -0.18719995919000701 0 -0.051777457260847197 -0.18553659468401529 0 -0.04641820232403164 -0.20149192252202999 0 -0.036639210109528711 -0.18719995919000701 0 -0.018312768209507429 -0.19348783488613319 0 -0.04641820232403164 -0.20149192252202999 0 -0.018312768209507429 -0.19348783488613319 0 -0.04641820232403164 -0.20149192252202999 0 -0.051777457260847197 -0.18553659468401529 0 -0.04641820232403164 -0.20149192252202999 0 -0.069543417105455071 -0.18524103437198569 0 -0.04641820232403164 -0.20149192252202999 0 -0.059146128576676109 -0.2192356625480115 0 -0.074523636438555724 -0.20949601015792679 0 -0.04641820232403164 -0.20149192252202999 0 -0.043183719181953677 -0.21731773117989339 0 -0.059146128576676109 -0.2192356625480115 0 -0.04641820232403164 -0.20149192252202999 0 -0.074523636438555724 -0.20949601015792679 0 -0.04641820232403164 -0.20149192252202999 0 -0.043183719181953677 -0.21731773117989339 0 -0.031988399454843712 -0.2105287144450253 0 -0.043183719181953677 -0.21731773117989339 0 -0.031988399454843712 -0.2105287144450253 0 -0.032913213536692312 -0.21925909102049529 0 -0.043183719181953677 -0.21731773117989339 0 -0.037506885413519667 -0.22533063561343969 0 -0.032913213536692312 -0.21925909102049529 0 -0.0297666940377363 -0.22581508591549521 0 -0.037506885413519667 -0.22533063561343969 0 -0.032913213536692312 -0.21925909102049529 0 -0.0297666940377363 -0.22581508591549521 0 -0.037506885413519667 -0.22533063561343969 0 -0.035371444572737422 -0.23267372404497749 0 -0.028944150764401381 -0.23663153804268389 0 -0.0297666940377363 -0.22581508591549521 0 -0.035371444572737422 -0.23267372404497749 0 -0.037506885413519667 -0.22533063561343969 0 -0.035371444572737422 -0.23267372404497749 0 -0.047495252602829899 -0.232602765716455 0 -0.043183719181953677 -0.21731773117989339 0 -0.037506885413519667 -0.22533063561343969 0 -0.047495252602829899 -0.232602765716455 0 -0.059146128576676109 -0.2192356625480115 0 -0.047495252602829899 -0.232602765716455 0 -0.067361476495189893 -0.23490584505782591 0 -0.043183719181953677 -0.21731773117989339 0 -0.059146128576676109 -0.2192356625480115 0 -0.047495252602829899 -0.232602765716455 0 -0.047495252602829899 -0.232602765716455 0 -0.05892050568749304 -0.249911469569086 0 -0.067361476495189893 -0.23490584505782591 0 -0.05892050568749304 -0.249911469569086 0 -0.032909214176296157 -0.24475273974506859 0 -0.047495252602829899 -0.232602765716455 0 -0.05892050568749304 -0.249911469569086 0 -0.032909214176296157 -0.24475273974506859 0 -0.028944150764401381 -0.23663153804268389 0 -0.035371444572737422 -0.23267372404497749 0 -0.032909214176296157 -0.24475273974506859 0 -0.035371444572737422 -0.23267372404497749 0 -0.047495252602829899 -0.232602765716455 0 -0.032909214176296157 -0.24475273974506859 0 -0.085006490694977677 -0.25639204894748607 0 -0.083708227451886941 -0.23341670605043 0 -0.085006490694977677 -0.25639204894748607 0 -0.083708227451886941 -0.23341670605043 0 -0.1005841607031852 -0.23817822102090749 0 -0.085006490694977677 -0.25639204894748607 0 -0.1005841607031852 -0.23817822102090749 0 -0.085006490694977677 -0.25639204894748607 0 -0.067361476495189893 -0.23490584505782591 0 -0.083708227451886941 -0.23341670605043 0 -0.085006490694977677 -0.25639204894748607 0 -0.05892050568749304 -0.249911469569086 0 -0.067361476495189893 -0.23490584505782591 0 -0.059146128576676109 -0.2192356625480115 0 -0.067361476495189893 -0.23490584505782591 0 -0.076896459704742792 -0.22105228248576669 0 -0.067361476495189893 -0.23490584505782591 0 -0.076896459704742792 -0.22105228248576669 0 -0.083708227451886941 -0.23341670605043 0 -0.076896459704742792 -0.22105228248576669 0 -0.083708227451886941 -0.23341670605043 0 -0.082484657705083092 -0.21176321270775639 0 -0.083708227451886941 -0.23341670605043 0 -0.082484657705083092 -0.21176321270775639 0 -0.083708227451886941 -0.23341670605043 0 -0.082484657705083092 -0.21176321270775639 0 -0.09884537037325257 -0.21642254575517211 0 -0.082484657705083092 -0.21176321270775639 0 -0.09884537037325257 -0.21642254575517211 0 -0.082484657705083092 -0.21176321270775639 0 -0.074523636438555724 -0.20949601015792679 0 -0.081275296063747227 -0.19036115996985839 0 -0.082484657705083092 -0.21176321270775639 0 -0.094580378375186014 -0.2003445272160774 0 -0.09884537037325257 -0.21642254575517211 0 -0.082484657705083092 -0.21176321270775639 0 -0.074523636438555724 -0.20949601015792679 0 -0.059146128576676109 -0.2192356625480115 0 -0.076896459704742792 -0.22105228248576669 0 -0.074523636438555724 -0.20949601015792679 0 -0.076896459704742792 -0.22105228248576669 0 -0.082484657705083092 -0.21176321270775639 0 -0.074523636438555724 -0.20949601015792679 0 -0.076896459704742792 -0.22105228248576669 0 -0.074523636438555724 -0.20949601015792679 0 -0.074523636438555724 -0.20949601015792679 0 -0.069543417105455071 -0.18524103437198569 0 -0.074523636438555724 -0.20949601015792679 0 -0.081275296063747227 -0.19036115996985839 0 -0.069543417105455071 -0.18524103437198569 0 -0.04641820232403164 -0.20149192252202999 0 -0.074523636438555724 -0.20949601015792679 0 -0.069543417105455071 -0.18524103437198569 0 -0.082484657705083092 -0.21176321270775639 0 -0.081275296063747227 -0.19036115996985839 0 -0.094580378375186014 -0.2003445272160774 0 -0.082484657705083092 -0.21176321270775639 0 -0.081275296063747227 -0.19036115996985839 0 -0.081275296063747227 -0.19036115996985839 0 -0.09312662380723738 -0.1894674209227292 0 -0.094580378375186014 -0.2003445272160774 0 -0.094580378375186014 -0.2003445272160774 0 -0.10274835218336879 -0.1905941955979735 0 -0.1112148150005743 -0.20404271003684341 0 -0.09312662380723738 -0.1894674209227292 0 -0.094580378375186014 -0.2003445272160774 0 -0.10274835218336879 -0.1905941955979735 0 -0.1153381205667638 -0.1812296037484748 0 -0.12870307663614031 -0.2033914053714381 0 -0.1112148150005743 -0.20404271003684341 0 -0.1153381205667638 -0.1812296037484748 0 -0.12870307663614031 -0.2033914053714381 0 -0.10274835218336879 -0.1905941955979735 0 -0.1112148150005743 -0.20404271003684341 0 -0.1153381205667638 -0.1812296037484748 0 -0.1112148150005743 -0.20404271003684341 0 -0.1152060830414235 -0.22108187880258259 0 -0.12870307663614031 -0.2033914053714381 0 -0.1152060830414235 -0.22108187880258259 0 -0.13116491875254641 -0.20242238175341759 0 -0.1112148150005743 -0.20404271003684341 0 -0.09884537037325257 -0.21642254575517211 0 -0.1152060830414235 -0.22108187880258259 0 -0.094580378375186014 -0.2003445272160774 0 -0.1112148150005743 -0.20404271003684341 0 -0.09884537037325257 -0.21642254575517211 0 -0.083708227451886941 -0.23341670605043 0 -0.09884537037325257 -0.21642254575517211 0 -0.1005841607031852 -0.23817822102090749 0 -0.09884537037325257 -0.21642254575517211 0 -0.1152060830414235 -0.22108187880258259 0 -0.1005841607031852 -0.23817822102090749 0 -0.1152060830414235 -0.22108187880258259 0 -0.1005841607031852 -0.23817822102090749 0 -0.09884537037325257 -0.21642254575517211 0 -0.1152060830414235 -0.22108187880258259 0 -0.1152060830414235 -0.22108187880258259 0 -0.1345001038955726 -0.22657658253625559 0 -0.1152060830414235 -0.22108187880258259 0 -0.116061991631914 -0.24504142951452931 0 -0.12759994776565231 -0.23772262632743249 0 -0.1298643864382503 -0.25385480936049493 0 -0.116061991631914 -0.24504142951452931 0 -0.12759994776565231 -0.23772262632743249 0 -0.1152060830414235 -0.22108187880258259 0 -0.116061991631914 -0.24504142951452931 0 -0.1005841607031852 -0.23817822102090749 0 -0.1051668604971054 -0.25908334977756231 0 -0.116061991631914 -0.24504142951452931 0 -0.1005841607031852 -0.23817822102090749 0 -0.088608208428010968 -0.13690600050254809 0 -0.088198043600930004 -0.15776439276576071 0 -0.1019731644973874 -0.15906780212551139 0 -0.078856572781073567 -0.14755705449406251 0 -0.088608208428010968 -0.13690600050254809 0 -0.088198043600930004 -0.15776439276576071 0 -0.078856572781073567 -0.14755705449406251 0 -0.088608208428010968 -0.13690600050254809 0 -0.079480350638286013 -0.13866091082712029 0 -0.075243252358631496 -0.11474419887958651 0 -0.088608208428010968 -0.13690600050254809 0 -0.075243252358631496 -0.11474419887958651 0 -0.088608208428010968 -0.13690600050254809 0 -0.075068152520711987 -0.13071587010171121 0 -0.088608208428010968 -0.13690600050254809 0 -0.079480350638286013 -0.13866091082712029 0 -0.075068152520711987 -0.13071587010171121 0 -0.079480350638286013 -0.13866091082712029 0 -0.070958626711632042 -0.13907306516538229 0 -0.075068152520711987 -0.13071587010171121 0 -0.070958626711632042 -0.13907306516538229 0 -0.075068152520711987 -0.13071587010171121 0 -0.06681392121257887 -0.12640326332392959 0 -0.059582978439253753 -0.13673108280010349 0 -0.06681392121257887 -0.12640326332392959 0 -0.070958626711632042 -0.13907306516538229 0 -0.06681392121257887 -0.12640326332392959 0 -0.059582978439253753 -0.13673108280010349 0 -0.070958626711632042 -0.13907306516538229 0 -0.06681392121257887 -0.12640326332392959 0 -0.078856572781073567 -0.14755705449406251 0 -0.070958626711632042 -0.13907306516538229 0 -0.064563197772354392 -0.16098605858604451 0 -0.059582978439253753 -0.13673108280010349 0 -0.070958626711632042 -0.13907306516538229 0 -0.064563197772354392 -0.16098605858604451 0 -0.078856572781073567 -0.14755705449406251 0 -0.079480350638286013 -0.13866091082712029 0 -0.070958626711632042 -0.13907306516538229 0 -0.078856572781073567 -0.14755705449406251 0 -0.064563197772354392 -0.16098605858604451 0 -0.08006593442241039 -0.16895910723196039 0 -0.064563197772354392 -0.16098605858604451 0 -0.069543417105455071 -0.18524103437198569 0 -0.08006593442241039 -0.16895910723196039 0 -0.081275296063747227 -0.19036115996985839 0 -0.069543417105455071 -0.18524103437198569 0 -0.08006593442241039 -0.16895910723196039 0 -0.064563197772354392 -0.16098605858604451 0 -0.069543417105455071 -0.18524103437198569 0 -0.081275296063747227 -0.19036115996985839 0 -0.08006593442241039 -0.16895910723196039 0 -0.094951803925115333 -0.17684033320685821 0 -0.081275296063747227 -0.19036115996985839 0 -0.08006593442241039 -0.16895910723196039 0 -0.081275296063747227 -0.19036115996985839 0 -0.09312662380723738 -0.1894674209227292 0 -0.094951803925115333 -0.17684033320685821 0 -0.088198043600930004 -0.15776439276576071 0 -0.08006593442241039 -0.16895910723196039 0 -0.094951803925115333 -0.17684033320685821 0 -0.078856572781073567 -0.14755705449406251 0 -0.088198043600930004 -0.15776439276576071 0 -0.08006593442241039 -0.16895910723196039 0 -0.078856572781073567 -0.14755705449406251 0 -0.08006593442241039 -0.16895910723196039 0 -0.088198043600930004 -0.15776439276576071 0 -0.1019731644973874 -0.15906780212551139 0 -0.094951803925115333 -0.17684033320685821 0 -0.1019731644973874 -0.15906780212551139 0 -0.1153381205667638 -0.1812296037484748 0 -0.1019731644973874 -0.15906780212551139 0 -0.094951803925115333 -0.17684033320685821 0 -0.1153381205667638 -0.1812296037484748 0 -0.10274835218336879 -0.1905941955979735 0 -0.094951803925115333 -0.17684033320685821 0 -0.1153381205667638 -0.1812296037484748 0 -0.09312662380723738 -0.1894674209227292 0 -0.10274835218336879 -0.1905941955979735 0 -0.094951803925115333 -0.17684033320685821 0 -0.1019731644973874 -0.15906780212551139 0 -0.1153381205667638 -0.1812296037484748 0 -0.1197608403414477 -0.1590431075043415 0 -0.1153381205667638 -0.1812296037484748 0 -0.1197608403414477 -0.1590431075043415 0 -0.13381718573203649 -0.16752140988300379 0 -0.1197608403414477 -0.1590431075043415 0 -0.1119652278942003 -0.1417407538588811 0 -0.13060811480726961 -0.1487322537254582 0 -0.1019731644973874 -0.15906780212551139 0 -0.1197608403414477 -0.1590431075043415 0 -0.1119652278942003 -0.1417407538588811 0 -0.1119652278942003 -0.1417407538588811 0 -0.1277709132176251 -0.1319886983110099 0 -0.13060811480726961 -0.1487322537254582 0 -0.088608208428010968 -0.13690600050254809 0 -0.1019731644973874 -0.15906780212551139 0 -0.1119652278942003 -0.1417407538588811 0 -0.088608208428010968 -0.13690600050254809 0 -0.1019731644973874 -0.15906780212551139 0 -0.088608208428010968 -0.13690600050254809 0 -0.1119652278942003 -0.1417407538588811 0 -0.1027772718311543 -0.12941499187885949 0 -0.09550610472206314 -0.1172707871788625 0 -0.088608208428010968 -0.13690600050254809 0 -0.1027772718311543 -0.12941499187885949 0 -0.1150295462803429 -0.1217424259751462 0 -0.1119652278942003 -0.1417407538588811 0 -0.1277709132176251 -0.1319886983110099 0 -0.1150295462803429 -0.1217424259751462 0 -0.1119652278942003 -0.1417407538588811 0 -0.1027772718311543 -0.12941499187885949 0 -0.1277709132176251 -0.1319886983110099 0 -0.1392434229747162 -0.13354888206279741 0 -0.14200825413159679 -0.11417917593276659 0 -0.1277709132176251 -0.1319886983110099 0 -0.1392434229747162 -0.13354888206279741 0 -0.13060811480726961 -0.1487322537254582 0 -0.1392434229747162 -0.13354888206279741 0 -0.16066979563309411 -0.13302327092000241 0 -0.14200825413159679 -0.11417917593276659 0 -0.1392434229747162 -0.13354888206279741 0 -0.14764662458678049 -0.13920978454428609 0 -0.16066979563309411 -0.13302327092000241 0 -0.16276940016718261 -0.13135394393172359 0 -0.16066979563309411 -0.13302327092000241 0 -0.14200825413159679 -0.11417917593276659 0 -0.1392434229747162 -0.13354888206279741 0 -0.14764662458678049 -0.13920978454428609 0 -0.14150168792645959 -0.14487139594373361 0 -0.14764662458678049 -0.13920978454428609 0 -0.15449306214049291 -0.1405138654068378 0 -0.16066979563309411 -0.13302327092000241 0 -0.14956287573651811 -0.14684627422740501 0 -0.15053262447222929 -0.16046138308477759 0 -0.15629961175847551 -0.1518972974876574 0 -0.14956287573651811 -0.14684627422740501 0 -0.1581328857550135 -0.1457742156575573 0 -0.15629961175847551 -0.1518972974876574 0 -0.15449306214049291 -0.1405138654068378 0 -0.14956287573651811 -0.14684627422740501 0 -0.1581328857550135 -0.1457742156575573 0 -0.14764662458678049 -0.13920978454428609 0 -0.15449306214049291 -0.1405138654068378 0 -0.14956287573651811 -0.14684627422740501 0 -0.14764662458678049 -0.13920978454428609 0 -0.14956287573651811 -0.14684627422740501 0 -0.14150168792645959 -0.14487139594373361 0 -0.14956287573651811 -0.14684627422740501 0 -0.14135517134552911 -0.15375581150127551 0 -0.15053262447222929 -0.16046138308477759 0 -0.14956287573651811 -0.14684627422740501 0 -0.14150168792645959 -0.14487139594373361 0 -0.14135517134552911 -0.15375581150127551 0 -0.14150168792645959 -0.14487139594373361 0 -0.14135517134552911 -0.15375581150127551 0 -0.13060811480726961 -0.1487322537254582 0 -0.1392434229747162 -0.13354888206279741 0 -0.14150168792645959 -0.14487139594373361 0 -0.13060811480726961 -0.1487322537254582 0 -0.1197608403414477 -0.1590431075043415 0 -0.13060811480726961 -0.1487322537254582 0 -0.13381718573203649 -0.16752140988300379 0 -0.14135517134552911 -0.15375581150127551 0 -0.13060811480726961 -0.1487322537254582 0 -0.13381718573203649 -0.16752140988300379 0 -0.13381718573203649 -0.16752140988300379 0 -0.14712375446367079 -0.18376288470425389 0 -0.13122941123023149 -0.18766553709211761 0 -0.1153381205667638 -0.1812296037484748 0 -0.13381718573203649 -0.16752140988300379 0 -0.13122941123023149 -0.18766553709211761 0 -0.14712375446367079 -0.18376288470425389 0 -0.1630825901747969 -0.16510338765509169 0 -0.14712375446367079 -0.18376288470425389 0 -0.15053262447222929 -0.16046138308477759 0 -0.1630825901747969 -0.16510338765509169 0 -0.14135517134552911 -0.15375581150127551 0 -0.13381718573203649 -0.16752140988300379 0 -0.15053262447222929 -0.16046138308477759 0 -0.13381718573203649 -0.16752140988300379 0 -0.14712375446367079 -0.18376288470425389 0 -0.15053262447222929 -0.16046138308477759 0 -0.16367651846648859 -0.15647213946342581 0 -0.1630825901747969 -0.16510338765509169 0 -0.15053262447222929 -0.16046138308477759 0 -0.16367651846648859 -0.15647213946342581 0 -0.15629961175847551 -0.1518972974876574 0 -0.15053262447222929 -0.16046138308477759 0 -0.16367651846648859 -0.15647213946342581 0 -0.1630825901747969 -0.16510338765509169 0 -0.1630825901747969 -0.16510338765509169 0 -0.16129088755352139 -0.19114126163131731 0 -0.1630825901747969 -0.16510338765509169 0 -0.17725775669502949 -0.17915938251426849 0 -0.16129088755352139 -0.19114126163131731 0 -0.14712375446367079 -0.18376288470425389 0 -0.1630825901747969 -0.16510338765509169 0 -0.16129088755352139 -0.19114126163131731 0 -0.1630825901747969 -0.16510338765509169 0 -0.18175205357112539 -0.16402932186493829 0 -0.17985727457437239 -0.14548997852422399 0 -0.1630825901747969 -0.16510338765509169 0 -0.17725775669502949 -0.17915938251426849 0 -0.18175205357112539 -0.16402932186493829 0 -0.17725775669502949 -0.17915938251426849 0 -0.18175205357112539 -0.16402932186493829 0 -0.19561735705448041 -0.1713215631747543 0 -0.18175205357112539 -0.16402932186493829 0 -0.17985727457437239 -0.14548997852422399 0 -0.1914379570148344 -0.1550701593988057 0 -0.17985727457437239 -0.14548997852422399 0 -0.1914379570148344 -0.1550701593988057 0 -0.17985727457437239 -0.14548997852422399 0 -0.17853371006652469 -0.13151769492653631 0 -0.19229672016129801 -0.13094544642777101 0 -0.17985727457437239 -0.14548997852422399 0 -0.19229672016129801 -0.13094544642777101 0 -0.17853371006652469 -0.13151769492653631 0 -0.16276940016718261 -0.13135394393172359 0 -0.1792114453632461 -0.11828141082242689 0 -0.17985727457437239 -0.14548997852422399 0 -0.17853371006652469 -0.13151769492653631 0 -0.16276940016718261 -0.13135394393172359 0 -0.17853371006652469 -0.13151769492653631 0 -0.19229672016129801 -0.13094544642777101 0 -0.1792114453632461 -0.11828141082242689 0 -0.17985727457437239 -0.14548997852422399 0 -0.16276940016718261 -0.13135394393172359 0 -0.17985727457437239 -0.14548997852422399 0 -0.16276940016718261 -0.13135394393172359 0 -0.1618089342428837 -0.1395489787065223 0 -0.16276940016718261 -0.13135394393172359 0 -0.16066979563309411 -0.13302327092000241 0 -0.16276940016718261 -0.13135394393172359 0 -0.1618089342428837 -0.1395489787065223 0 -0.16066979563309411 -0.13302327092000241 0 -0.15449306214049291 -0.1405138654068378 0 -0.1618089342428837 -0.1395489787065223 0 -0.16066979563309411 -0.13302327092000241 0 -0.17985727457437239 -0.14548997852422399 0 -0.1621239148753971 -0.15074067286111101 0 -0.16450891577631391 -0.14509820525581071 0 -0.1630825901747969 -0.16510338765509169 0 -0.17985727457437239 -0.14548997852422399 0 -0.15449306214049291 -0.1405138654068378 0 -0.1618089342428837 -0.1395489787065223 0 -0.1581328857550135 -0.1457742156575573 0 -0.16367651846648859 -0.15647213946342581 0 -0.17985727457437239 -0.14548997852422399 0 -0.1621239148753971 -0.15074067286111101 0 -0.16367651846648859 -0.15647213946342581 0 -0.1630825901747969 -0.16510338765509169 0 -0.17985727457437239 -0.14548997852422399 0 -0.17985727457437239 -0.14548997852422399 0 -0.1618089342428837 -0.1395489787065223 0 -0.16450891577631391 -0.14509820525581071 0 -0.1618089342428837 -0.1395489787065223 0 -0.1581328857550135 -0.1457742156575573 0 -0.16450891577631391 -0.14509820525581071 0 -0.1581328857550135 -0.1457742156575573 0 -0.1621239148753971 -0.15074067286111101 0 -0.16450891577631391 -0.14509820525581071 0 -0.1581328857550135 -0.1457742156575573 0 -0.15629961175847551 -0.1518972974876574 0 -0.1621239148753971 -0.15074067286111101 0 -0.16367651846648859 -0.15647213946342581 0 -0.15629961175847551 -0.1518972974876574 0 -0.1621239148753971 -0.15074067286111101 0 -0.1442367616874598 -0.25770305990911868 0 -0.14236717382110289 -0.24205843142330161 0 -0.1577074823109649 -0.24321700958376799 0 -0.14236717382110289 -0.24205843142330161 0 -0.15379412474972301 -0.23207128626992379 0 -0.1577074823109649 -0.24321700958376799 0 -0.1298643864382503 -0.25385480936049493 0 -0.14236717382110289 -0.24205843142330161 0 -0.12759994776565231 -0.23772262632743249 0 -0.14236717382110289 -0.24205843142330161 0 -0.12759994776565231 -0.23772262632743249 0 -0.1345001038955726 -0.22657658253625559 0 -0.1152060830414235 -0.22108187880258259 0 -0.12759994776565231 -0.23772262632743249 0 -0.1345001038955726 -0.22657658253625559 0 -0.15379412474972301 -0.23207128626992379 0 -0.14552950999904821 -0.2163208181990276 0 -0.1594991849322431 -0.21717913560754271 0 -0.1345001038955726 -0.22657658253625559 0 -0.15379412474972301 -0.23207128626992379 0 -0.14552950999904821 -0.2163208181990276 0 -0.14236717382110289 -0.24205843142330161 0 -0.1345001038955726 -0.22657658253625559 0 -0.15379412474972301 -0.23207128626992379 0 -0.1345001038955726 -0.22657658253625559 0 -0.15379412474972301 -0.23207128626992379 0 -0.14868921766515611 -0.20335470482799861 0 -0.14552950999904821 -0.2163208181990276 0 -0.13116491875254641 -0.20242238175341759 0 -0.14868921766515611 -0.20335470482799861 0 -0.14552950999904821 -0.2163208181990276 0 -0.1594991849322431 -0.21717913560754271 0 -0.1152060830414235 -0.22108187880258259 0 -0.1345001038955726 -0.22657658253625559 0 -0.13116491875254641 -0.20242238175341759 0 -0.1345001038955726 -0.22657658253625559 0 -0.14552950999904821 -0.2163208181990276 0 -0.13116491875254641 -0.20242238175341759 0 -0.1152060830414235 -0.22108187880258259 0 -0.12870307663614031 -0.2033914053714381 0 -0.13116491875254641 -0.20242238175341759 0 -0.14712375446367079 -0.18376288470425389 0 -0.13116491875254641 -0.20242238175341759 0 -0.14712375446367079 -0.18376288470425389 0 -0.13122941123023149 -0.18766553709211761 0 -0.13116491875254641 -0.20242238175341759 0 -0.1153381205667638 -0.1812296037484748 0 -0.12870307663614031 -0.2033914053714381 0 -0.13122941123023149 -0.18766553709211761 0 -0.12870307663614031 -0.2033914053714381 0 -0.13122941123023149 -0.18766553709211761 0 -0.13116491875254641 -0.20242238175341759 0 -0.14712375446367079 -0.18376288470425389 0 -0.14868921766515611 -0.20335470482799861 0 -0.16129088755352139 -0.19114126163131731 0 -0.14712375446367079 -0.18376288470425389 0 -0.14868921766515611 -0.20335470482799861 0 -0.13116491875254641 -0.20242238175341759 0 -0.17725775669502949 -0.17915938251426849 0 -0.16129088755352139 -0.19114126163131731 0 -0.17570513754791101 -0.19372457485433789 0 -0.16129088755352139 -0.19114126163131731 0 -0.17570513754791101 -0.19372457485433789 0 -0.17202643326026859 -0.20386246550942791 0 -0.17725775669502949 -0.17915938251426849 0 -0.17570513754791101 -0.19372457485433789 0 -0.1922454726828243 -0.2007351897623379 0 -0.17570513754791101 -0.19372457485433789 0 -0.17202643326026859 -0.20386246550942791 0 -0.1922454726828243 -0.2007351897623379 0 -0.17202643326026859 -0.20386246550942791 0 -0.17674415983322789 -0.21655320901279321 0 -0.1922454726828243 -0.2007351897623379 0 -0.17674415983322789 -0.21655320901279321 0 -0.18887358831116821 -0.23014881634992149 0 -0.1922454726828243 -0.2007351897623379 0 -0.16129088755352139 -0.19114126163131731 0 -0.1594991849322431 -0.21717913560754271 0 -0.14868921766515611 -0.20335470482799861 0 -0.16129088755352139 -0.19114126163131731 0 -0.1594991849322431 -0.21717913560754271 0 -0.16129088755352139 -0.19114126163131731 0 -0.17202643326026859 -0.20386246550942791 0 -0.1594991849322431 -0.21717913560754271 0 -0.17202643326026859 -0.20386246550942791 0 -0.17674415983322789 -0.21655320901279321 0 -0.1594991849322431 -0.21717913560754271 0 -0.17674415983322789 -0.21655320901279321 0 -0.1594991849322431 -0.21717913560754271 0 -0.1710761199796354 -0.23084043783473579 0 -0.1594991849322431 -0.21717913560754271 0 -0.1710761199796354 -0.23084043783473579 0 -0.1577074823109649 -0.24321700958376799 0 -0.1594991849322431 -0.21717913560754271 0 -0.1577074823109649 -0.24321700958376799 0 -0.15379412474972301 -0.23207128626992379 0 -0.1594991849322431 -0.21717913560754271 0 -0.1577074823109649 -0.24321700958376799 0 -0.17674415983322789 -0.21655320901279321 0 -0.1710761199796354 -0.23084043783473579 0 -0.18887358831116821 -0.23014881634992149 0 -0.1710761199796354 -0.23084043783473579 0 -0.17659671807339011 -0.24537187428510521 0 -0.18887358831116821 -0.23014881634992149 0 -0.17659671807339011 -0.24537187428510521 0 -0.19488141057802469 -0.24805167948801479 0 -0.18887358831116821 -0.23014881634992149 0 -0.1710761199796354 -0.23084043783473579 0 -0.17659671807339011 -0.24537187428510521 0 -0.1577074823109649 -0.24321700958376799 0 -0.16542516462752349 -0.25635557756913258 0 -0.17659671807339011 -0.24537187428510521 0 -0.1577074823109649 -0.24321700958376799 0 -0.205664598069071 -0.23779467667816259 0 -0.20964649182153711 -0.24952010593262849 0 -0.22012117889351029 -0.2400435588235918 0 -0.205664598069071 -0.23779467667816259 0 -0.20964649182153711 -0.24952010593262849 0 -0.19488141057802469 -0.24805167948801479 0 -0.205664598069071 -0.23779467667816259 0 -0.19488141057802469 -0.24805167948801479 0 -0.18887358831116821 -0.23014881634992149 0 -0.205664598069071 -0.23779467667816259 0 -0.18887358831116821 -0.23014881634992149 0 -0.20876536439284091 -0.22267576192387059 0 -0.205664598069071 -0.23779467667816259 0 -0.20876536439284091 -0.22267576192387059 0 -0.22012117889351029 -0.2400435588235918 0 -0.20876536439284091 -0.22267576192387059 0 -0.21805132790657941 -0.204157678948304 0 -0.1922454726828243 -0.2007351897623379 0 -0.20876536439284091 -0.22267576192387059 0 -0.21805132790657941 -0.204157678948304 0 -0.22763602049389201 -0.22317465098090589 0 -0.18887358831116821 -0.23014881634992149 0 -0.20876536439284091 -0.22267576192387059 0 -0.1922454726828243 -0.2007351897623379 0 -0.18887358831116821 -0.23014881634992149 0 -0.1922454726828243 -0.2007351897623379 0 -0.21805132790657941 -0.204157678948304 0 -0.2087668629824308 -0.18641930324715311 0 -0.22878305162887569 -0.1859682450326669 0 -0.21805132790657941 -0.204157678948304 0 -0.1922454726828243 -0.2007351897623379 0 -0.2087668629824308 -0.18641930324715311 0 -0.21805132790657941 -0.204157678948304 0 -0.2436799567302437 -0.20799839925541519 0 -0.22878305162887569 -0.1859682450326669 0 -0.2436799567302437 -0.20799839925541519 0 -0.22878305162887569 -0.1859682450326669 0 -0.2444562172080032 -0.19255798064419799 0 -0.2436799567302437 -0.20799839925541519 0 -0.22878305162887569 -0.1859682450326669 0 -0.2444562172080032 -0.19255798064419799 0 -0.2436799567302437 -0.20799839925541519 0 -0.25843591323808313 -0.19859255576957191 0 -0.21805132790657941 -0.204157678948304 0 -0.2436799567302437 -0.20799839925541519 0 -0.22763602049389201 -0.22317465098090589 0 -0.22763602049389201 -0.22317465098090589 0 -0.23685469227879691 -0.2370723156309599 0 -0.22012117889351029 -0.2400435588235918 0 -0.20876536439284091 -0.22267576192387059 0 -0.22763602049389201 -0.22317465098090589 0 -0.22012117889351029 -0.2400435588235918 0 -0.22763602049389201 -0.22317465098090589 0 -0.23862002467726631 -0.2267878153062716 0 -0.23685469227879691 -0.2370723156309599 0 -0.2436799567302437 -0.20799839925541519 0 -0.24901269716281221 -0.22584988992876209 0 -0.23862002467726631 -0.2267878153062716 0 -0.2436799567302437 -0.20799839925541519 0 -0.22763602049389201 -0.22317465098090589 0 -0.23862002467726631 -0.2267878153062716 0 -0.24901269716281221 -0.22584988992876209 0 -0.23862002467726631 -0.2267878153062716 0 -0.23685469227879691 -0.2370723156309599 0 -0.23907402377079429 -0.25352901113119691 0 -0.23685469227879691 -0.2370723156309599 0 -0.22930264905426681 -0.24807207366278219 0 -0.24901269716281221 -0.22584988992876209 0 -0.23685469227879691 -0.2370723156309599 0 -0.25217385243102691 -0.24332397570100661 0 -0.23907402377079429 -0.25352901113119691 0 -0.23685469227879691 -0.2370723156309599 0 -0.25217385243102691 -0.24332397570100661 0 -0.22116070127396589 -0.26164340906538019 0 -0.22930264905426681 -0.24807207366278219 0 -0.22012117889351029 -0.2400435588235918 0 -0.23685469227879691 -0.2370723156309599 0 -0.22930264905426681 -0.24807207366278219 0 -0.22012117889351029 -0.2400435588235918 0 -0.21452136309678921 -0.1448194233918626 0 -0.1989892414261385 -0.1419079365871711 0 -0.21388614652750779 -0.16393809080991861 0 -0.1989892414261385 -0.1419079365871711 0 -0.21388614652750779 -0.16393809080991861 0 -0.21452136309678921 -0.1448194233918626 0 -0.21388614652750779 -0.16393809080991861 0 -0.22550739124081309 -0.15659643054905989 0 -0.21452136309678921 -0.1448194233918626 0 -0.2152397441970671 -0.12934384493006509 0 -0.20692618774383001 -0.13475201147557109 0 -0.21452136309678921 -0.1448194233918626 0 -0.2152397441970671 -0.12934384493006509 0 -0.2257759102080561 -0.14226032973951661 0 -0.2152397441970671 -0.12934384493006509 0 -0.20692618774383001 -0.13475201147557109 0 -0.20114577313028689 -0.1230960761321193 0 -0.21452136309678921 -0.1448194233918626 0 -0.20692618774383001 -0.13475201147557109 0 -0.1989892414261385 -0.1419079365871711 0 -0.20692618774383001 -0.13475201147557109 0 -0.1989892414261385 -0.1419079365871711 0 -0.20114577313028689 -0.1230960761321193 0 -0.1989892414261385 -0.1419079365871711 0 -0.20114577313028689 -0.1230960761321193 0 -0.194387957864772 -0.13510336974662421 0 -0.1989892414261385 -0.1419079365871711 0 -0.20114577313028689 -0.1230960761321193 0 -0.194387957864772 -0.13510336974662421 0 -0.1989892414261385 -0.1419079365871711 0 -0.19229672016129801 -0.13094544642777101 0 -0.194387957864772 -0.13510336974662421 0 -0.20114577313028689 -0.1230960761321193 0 -0.19229672016129801 -0.13094544642777101 0 -0.194387957864772 -0.13510336974662421 0 -0.1913938302082831 -0.14170337813691919 0 -0.17985727457437239 -0.14548997852422399 0 -0.19229672016129801 -0.13094544642777101 0 -0.1913938302082831 -0.14170337813691919 0 -0.194387957864772 -0.13510336974662421 0 -0.1913938302082831 -0.14170337813691919 0 -0.1989892414261385 -0.1419079365871711 0 -0.17985727457437239 -0.14548997852422399 0 -0.1913938302082831 -0.14170337813691919 0 -0.1914379570148344 -0.1550701593988057 0 -0.1989892414261385 -0.1419079365871711 0 -0.1914379570148344 -0.1550701593988057 0 -0.19561735705448041 -0.1713215631747543 0 -0.1913938302082831 -0.14170337813691919 0 -0.1989892414261385 -0.1419079365871711 0 -0.1914379570148344 -0.1550701593988057 0 -0.18175205357112539 -0.16402932186493829 0 -0.1914379570148344 -0.1550701593988057 0 -0.19561735705448041 -0.1713215631747543 0 -0.1989892414261385 -0.1419079365871711 0 -0.19561735705448041 -0.1713215631747543 0 -0.1989892414261385 -0.1419079365871711 0 -0.19561735705448041 -0.1713215631747543 0 -0.21388614652750779 -0.16393809080991861 0 -0.1922454726828243 -0.2007351897623379 0 -0.19561735705448041 -0.1713215631747543 0 -0.17725775669502949 -0.17915938251426849 0 -0.1922454726828243 -0.2007351897623379 0 -0.19561735705448041 -0.1713215631747543 0 -0.1922454726828243 -0.2007351897623379 0 -0.19561735705448041 -0.1713215631747543 0 -0.2087668629824308 -0.18641930324715311 0 -0.2087668629824308 -0.18641930324715311 0 -0.21388614652750779 -0.16393809080991861 0 -0.22878305162887569 -0.1859682450326669 0 -0.19561735705448041 -0.1713215631747543 0 -0.2087668629824308 -0.18641930324715311 0 -0.21388614652750779 -0.16393809080991861 0 -0.21388614652750779 -0.16393809080991861 0 -0.22550739124081309 -0.15659643054905989 0 -0.23307345651087591 -0.17169815656450321 0 -0.22550739124081309 -0.15659643054905989 0 -0.23307345651087591 -0.17169815656450321 0 -0.2403126674229922 -0.16023970645019731 0 -0.21388614652750779 -0.16393809080991861 0 -0.22878305162887569 -0.1859682450326669 0 -0.21388614652750779 -0.16393809080991861 0 -0.23307345651087591 -0.17169815656450321 0 -0.22878305162887569 -0.1859682450326669 0 -0.23307345651087591 -0.17169815656450321 0 -0.22878305162887569 -0.1859682450326669 0 -0.23944247087763251 -0.1833817579140975 0 -0.23307345651087591 -0.17169815656450321 0 -0.23944247087763251 -0.1833817579140975 0 -0.24937429033053729 -0.1794161311098848 0 -0.2444562172080032 -0.19255798064419799 0 -0.22878305162887569 -0.1859682450326669 0 -0.23944247087763251 -0.1833817579140975 0 -0.24937429033053729 -0.1794161311098848 0 -0.2403126674229922 -0.16023970645019731 0 -0.25847959544788829 -0.18262572372651459 0 -0.2444562172080032 -0.19255798064419799 0 -0.23944247087763251 -0.1833817579140975 0 -0.24937429033053729 -0.1794161311098848 0 -0.2403126674229922 -0.16023970645019731 0 -0.24405810290454921 -0.1456016429592133 0 -0.25780483416841699 -0.16345312024383929 0 -0.2403126674229922 -0.16023970645019731 0 -0.25847959544788829 -0.18262572372651459 0 -0.23307345651087591 -0.17169815656450321 0 -0.24937429033053729 -0.1794161311098848 0 -0.2403126674229922 -0.16023970645019731 0 -0.24937429033053729 -0.1794161311098848 0 -0.2403126674229922 -0.16023970645019731 0 -0.2403126674229922 -0.16023970645019731 0 -0.22895777308177609 -0.13621020554570709 0 -0.2403126674229922 -0.16023970645019731 0 -0.24405810290454921 -0.1456016429592133 0 -0.22895777308177609 -0.13621020554570709 0 -0.22550739124081309 -0.15659643054905989 0 -0.2403126674229922 -0.16023970645019731 0 -0.2257759102080561 -0.14226032973951661 0 -0.2403126674229922 -0.16023970645019731 0 -0.2257759102080561 -0.14226032973951661 0 -0.2403126674229922 -0.16023970645019731 0 -0.2257759102080561 -0.14226032973951661 0 -0.22895777308177609 -0.13621020554570709 0 -0.21452136309678921 -0.1448194233918626 0 -0.22550739124081309 -0.15659643054905989 0 -0.2257759102080561 -0.14226032973951661 0 -0.21655027228172299 -0.12781736871256821 0 -0.22895777308177609 -0.13621020554570709 0 -0.2176028787405615 -0.1121807046412161 0 -0.22895777308177609 -0.13621020554570709 0 -0.23693937286337449 -0.1267619623991792 0 -0.2176028787405615 -0.1121807046412161 0 -0.21655027228172299 -0.12781736871256821 0 -0.2257759102080561 -0.14226032973951661 0 -0.21655027228172299 -0.12781736871256821 0 -0.2257759102080561 -0.14226032973951661 0 -0.22895777308177609 -0.13621020554570709 0 -0.2152397441970671 -0.12934384493006509 0 -0.2257759102080561 -0.14226032973951661 0 -0.2152397441970671 -0.12934384493006509 0 -0.21655027228172299 -0.12781736871256821 0 -0.2257759102080561 -0.14226032973951661 0 -0.23693937286337449 -0.1267619623991792 0 -0.25627586698618687 -0.14134322015714329 0 -0.24405810290454921 -0.1456016429592133 0 -0.22895777308177609 -0.13621020554570709 0 -0.23693937286337449 -0.1267619623991792 0 -0.23693937286337449 -0.1267619623991792 0 -0.25151550799412831 -0.12459638277672851 0 -0.25627586698618687 -0.14134322015714329 0 -0.24405810290454921 -0.1456016429592133 0 -0.23693937286337449 -0.1267619623991792 0 -0.25627586698618687 -0.14134322015714329 0 -0.23693937286337449 -0.1267619623991792 0 -0.2439067314911941 -0.1169419102230787 0 -0.25151550799412831 -0.12459638277672851 0 -0.2439067314911941 -0.1169419102230787 0 -0.25151550799412831 -0.12459638277672851 0 -0.25331740349288923 -0.1111972380002446 0 -0.23693937286337449 -0.1267619623991792 0 -0.2439067314911941 -0.1169419102230787 0 -0.23356499855906801 -0.111800668366017 0 -0.2439067314911941 -0.1169419102230787 0 -0.2427491849825146 -0.1072669056570493 0 -0.23356499855906801 -0.111800668366017 0 -0.2439067314911941 -0.1169419102230787 0 -0.2427491849825146 -0.1072669056570493 0 -0.25331740349288923 -0.1111972380002446 0 -0.2427491849825146 -0.1072669056570493 0 -0.2480226747362333 -0.095484894819556659 0 -0.25331740349288923 -0.1111972380002446 0 -0.2427491849825146 -0.1072669056570493 0 -0.2480226747362333 -0.095484894819556659 0 -0.23392691964065049 -0.1013279942836177 0 -0.2480226747362333 -0.095484894819556659 0 -0.23392691964065049 -0.1013279942836177 0 -0.23388235090032691 -0.089307217586544696 0 -0.2427491849825146 -0.1072669056570493 0 -0.23392691964065049 -0.1013279942836177 0 -0.23356499855906801 -0.111800668366017 0 -0.23392691964065049 -0.1013279942836177 0 -0.22528950960598151 -0.10488588038569061 0 -0.23356499855906801 -0.111800668366017 0 -0.23392691964065049 -0.1013279942836177 0 -0.2209902200991683 -0.095231874868985475 0 -0.22528950960598151 -0.10488588038569061 0 -0.23392691964065049 -0.1013279942836177 0 -0.2209902200991683 -0.095231874868985475 0 -0.23388235090032691 -0.089307217586544696 0 -0.2209902200991683 -0.095231874868985475 0 -0.22528950960598151 -0.10488588038569061 0 -0.2194782511816297 -0.1019507434247839 0 -0.22528950960598151 -0.10488588038569061 0 -0.2194782511816297 -0.1019507434247839 0 -0.2176028787405615 -0.1121807046412161 0 -0.23693937286337449 -0.1267619623991792 0 -0.23356499855906801 -0.111800668366017 0 -0.2176028787405615 -0.1121807046412161 0 -0.23693937286337449 -0.1267619623991792 0 -0.2176028787405615 -0.1121807046412161 0 -0.22528950960598151 -0.10488588038569061 0 -0.23356499855906801 -0.111800668366017 0 -0.2176028787405615 -0.1121807046412161 0 -0.22895777308177609 -0.13621020554570709 0 -0.2176028787405615 -0.1121807046412161 0 -0.24429087302217839 -0.081351402293697431 0 -0.2335812562598566 -0.078054404423050727 0 -0.2463991354039248 -0.054245067532845387 0 -0.2335812562598566 -0.078054404423050727 0 -0.22585368735607289 -0.070203780036278682 0 -0.2463991354039248 -0.054245067532845387 0 -0.24429087302217839 -0.081351402293697431 0 -0.23388235090032691 -0.089307217586544696 0 -0.2335812562598566 -0.078054404423050727 0 -0.2480226747362333 -0.095484894819556659 0 -0.24429087302217839 -0.081351402293697431 0 -0.23388235090032691 -0.089307217586544696 0 -0.2209902200991683 -0.095231874868985475 0 -0.23388235090032691 -0.089307217586544696 0 -0.22286086599177701 -0.083577182147476586 0 -0.23388235090032691 -0.089307217586544696 0 -0.22286086599177701 -0.083577182147476586 0 -0.2335812562598566 -0.078054404423050727 0 -0.22286086599177701 -0.083577182147476586 0 -0.2335812562598566 -0.078054404423050727 0 -0.22585368735607289 -0.070203780036278682 0 -0.22585368735607289 -0.070203780036278682 0 -0.21754098321818141 -0.062641895168441319 0 -0.2241982264164796 -0.05499779522922324 0 -0.22585368735607289 -0.070203780036278682 0 -0.21085012036003059 -0.069144692218533227 0 -0.20530823930822051 -0.086162492539711186 0 -0.21085012036003059 -0.069144692218533227 0 -0.20530823930822051 -0.086162492539711186 0 -0.19784493257702601 -0.070368463070264703 0 -0.21085012036003059 -0.069144692218533227 0 -0.19784493257702601 -0.070368463070264703 0 -0.20926189874014281 -0.056221313189730102 0 -0.22585368735607289 -0.070203780036278682 0 -0.21085012036003059 -0.069144692218533227 0 -0.21754098321818141 -0.062641895168441319 0 -0.21085012036003059 -0.069144692218533227 0 -0.21754098321818141 -0.062641895168441319 0 -0.20926189874014281 -0.056221313189730102 0 -0.22286086599177701 -0.083577182147476586 0 -0.22585368735607289 -0.070203780036278682 0 -0.20530823930822051 -0.086162492539711186 0 -0.22585368735607289 -0.070203780036278682 0 -0.20530823930822051 -0.086162492539711186 0 -0.22286086599177701 -0.083577182147476586 0 -0.20530823930822051 -0.086162492539711186 0 -0.2092137946530393 -0.09442752283157177 0 -0.22286086599177701 -0.083577182147476586 0 -0.2092137946530393 -0.09442752283157177 0 -0.2209902200991683 -0.095231874868985475 0 -0.22286086599177701 -0.083577182147476586 0 -0.2092137946530393 -0.09442752283157177 0 -0.20530823930822051 -0.086162492539711186 0 -0.200887804087866 -0.089596073285062167 0 -0.2032625704704735 -0.09438365846545485 0 -0.20530823930822051 -0.086162492539711186 0 -0.2092137946530393 -0.09442752283157177 0 -0.2032625704704735 -0.09438365846545485 0 -0.20530823930822051 -0.086162492539711186 0 -0.2092137946530393 -0.09442752283157177 0 -0.1963019252708241 -0.096118087961067494 0 -0.18463317888935879 -0.077850381102573335 0 -0.19699521602665901 -0.084019099591735882 0 -0.1963019252708241 -0.096118087961067494 0 -0.18463317888935879 -0.077850381102573335 0 -0.20530823930822051 -0.086162492539711186 0 -0.19784493257702601 -0.070368463070264703 0 -0.20530823930822051 -0.086162492539711186 0 -0.19699521602665901 -0.084019099591735882 0 -0.19784493257702601 -0.070368463070264703 0 -0.200887804087866 -0.089596073285062167 0 -0.19699521602665901 -0.084019099591735882 0 -0.1963019252708241 -0.096118087961067494 0 -0.20530823930822051 -0.086162492539711186 0 -0.200887804087866 -0.089596073285062167 0 -0.19699521602665901 -0.084019099591735882 0 -0.200887804087866 -0.089596073285062167 0 -0.2032625704704735 -0.09438365846545485 0 -0.1963019252708241 -0.096118087961067494 0 -0.20530823930822051 -0.086162492539711186 0 -0.200887804087866 -0.089596073285062167 0 -0.19784493257702601 -0.070368463070264703 0 -0.186499578884223 -0.065223657546711208 0 -0.19055577156261419 -0.053093111769927252 0 -0.19784493257702601 -0.070368463070264703 0 -0.186499578884223 -0.065223657546711208 0 -0.18463317888935879 -0.077850381102573335 0 -0.19699521602665901 -0.084019099591735882 0 -0.19784493257702601 -0.070368463070264703 0 -0.18463317888935879 -0.077850381102573335 0 -0.21655027228172299 -0.12781736871256821 0 -0.20732463435539281 -0.113374407685618 0 -0.2176028787405615 -0.1121807046412161 0 -0.20732463435539281 -0.113374407685618 0 -0.21197512500995941 -0.10793692977577619 0 -0.20732463435539281 -0.113374407685618 0 -0.20473616574822509 -0.1164009143313192 0 -0.2152397441970671 -0.12934384493006509 0 -0.20473616574822509 -0.1164009143313192 0 -0.20114577313028689 -0.1230960761321193 0 -0.21655027228172299 -0.12781736871256821 0 -0.20732463435539281 -0.113374407685618 0 -0.20473616574822509 -0.1164009143313192 0 -0.2152397441970671 -0.12934384493006509 0 -0.20473616574822509 -0.1164009143313192 0 -0.21655027228172299 -0.12781736871256821 0 -0.20732463435539281 -0.113374407685618 0 -0.2152397441970671 -0.12934384493006509 0 -0.21655027228172299 -0.12781736871256821 0 -0.20473616574822509 -0.1164009143313192 0 -0.20732463435539281 -0.113374407685618 0 -0.2176028787405615 -0.1121807046412161 0 -0.21197512500995941 -0.10793692977577619 0 -0.2176028787405615 -0.1121807046412161 0 -0.21197512500995941 -0.10793692977577619 0 -0.2176028787405615 -0.1121807046412161 0 -0.2143083856782701 -0.1052088190699963 0 -0.2194782511816297 -0.1019507434247839 0 -0.2176028787405615 -0.1121807046412161 0 -0.2143083856782701 -0.1052088190699963 0 -0.2194782511816297 -0.1019507434247839 0 -0.2143083856782701 -0.1052088190699963 0 -0.21528600074824211 -0.099330840413248939 0 -0.2143083856782701 -0.1052088190699963 0 -0.21197512500995941 -0.10793692977577619 0 -0.20882738736475751 -0.1014650728228892 0 -0.2176028787405615 -0.1121807046412161 0 -0.2143083856782701 -0.1052088190699963 0 -0.21197512500995941 -0.10793692977577619 0 -0.2143083856782701 -0.1052088190699963 0 -0.21197512500995941 -0.10793692977577619 0 -0.2209902200991683 -0.095231874868985475 0 -0.21528600074824211 -0.099330840413248939 0 -0.2092137946530393 -0.09442752283157177 0 -0.2143083856782701 -0.1052088190699963 0 -0.21528600074824211 -0.099330840413248939 0 -0.2092137946530393 -0.09442752283157177 0 -0.2143083856782701 -0.1052088190699963 0 -0.2092137946530393 -0.09442752283157177 0 -0.2209902200991683 -0.095231874868985475 0 -0.2194782511816297 -0.1019507434247839 0 -0.21528600074824211 -0.099330840413248939 0 -0.2143083856782701 -0.1052088190699963 0 -0.2092137946530393 -0.09442752283157177 0 -0.20882738736475751 -0.1014650728228892 0 -0.2092137946530393 -0.09442752283157177 0 -0.20882738736475751 -0.1014650728228892 0 -0.20183738463007381 -0.1002922655143155 0 -0.2092137946530393 -0.09442752283157177 0 -0.20183738463007381 -0.1002922655143155 0 -0.2092137946530393 -0.09442752283157177 0 -0.2032625704704735 -0.09438365846545485 0 -0.20183738463007381 -0.1002922655143155 0 -0.20732463435539281 -0.113374407685618 0 -0.19993459095052671 -0.10180511462033701 0 -0.21197512500995941 -0.10793692977577619 0 -0.20882738736475751 -0.1014650728228892 0 -0.20183738463007381 -0.1002922655143155 0 -0.21197512500995941 -0.10793692977577619 0 -0.20183738463007381 -0.1002922655143155 0 -0.21197512500995941 -0.10793692977577619 0 -0.19993459095052671 -0.10180511462033701 0 -0.20183738463007381 -0.1002922655143155 0 -0.20732463435539281 -0.113374407685618 0 -0.21197512500995941 -0.10793692977577619 0 -0.19993459095052671 -0.10180511462033701 0 -0.20732463435539281 -0.113374407685618 0 -0.19993459095052671 -0.10180511462033701 0 -0.19565349055930989 -0.1052088777131307 0 -0.19993459095052671 -0.10180511462033701 0 -0.19565349055930989 -0.1052088777131307 0 -0.19993459095052671 -0.10180511462033701 0 -0.19565349055930989 -0.1052088777131307 0 -0.1963019252708241 -0.096118087961067494 0 -0.2032625704704735 -0.09438365846545485 0 -0.20183738463007381 -0.1002922655143155 0 -0.1963019252708241 -0.096118087961067494 0 -0.19993459095052671 -0.10180511462033701 0 -0.20183738463007381 -0.1002922655143155 0 -0.1963019252708241 -0.096118087961067494 0 -0.19993459095052671 -0.10180511462033701 0 -0.20183738463007381 -0.1002922655143155 0 -0.20183738463007381 -0.1002922655143155 0 -0.1963019252708241 -0.096118087961067494 0 -0.19993459095052671 -0.10180511462033701 0 -0.1963019252708241 -0.096118087961067494 0 -0.19565349055930989 -0.1052088777131307 0 -0.18563618130172271 -0.092865147513111063 0 -0.19565349055930989 -0.1052088777131307 0 -0.1963019252708241 -0.096118087961067494 0 -0.18563618130172271 -0.092865147513111063 0 -0.19565349055930989 -0.1052088777131307 0 -0.19297445545801939 -0.1177091623236617 0 -0.1792114453632461 -0.11828141082242689 0 -0.20732463435539281 -0.113374407685618 0 -0.20473616574822509 -0.1164009143313192 0 -0.19565349055930989 -0.1052088777131307 0 -0.20473616574822509 -0.1164009143313192 0 -0.19565349055930989 -0.1052088777131307 0 -0.19297445545801939 -0.1177091623236617 0 -0.20473616574822509 -0.1164009143313192 0 -0.19565349055930989 -0.1052088777131307 0 -0.19229672016129801 -0.13094544642777101 0 -0.20473616574822509 -0.1164009143313192 0 -0.20114577313028689 -0.1230960761321193 0 -0.19229672016129801 -0.13094544642777101 0 -0.20473616574822509 -0.1164009143313192 0 -0.19297445545801939 -0.1177091623236617 0 -0.19229672016129801 -0.13094544642777101 0 -0.20473616574822509 -0.1164009143313192 0 -0.19229672016129801 -0.13094544642777101 0 -0.19297445545801939 -0.1177091623236617 0 -0.1792114453632461 -0.11828141082242689 0 -0.19565349055930989 -0.1052088777131307 0 -0.1792114453632461 -0.11828141082242689 0 -0.1792114453632461 -0.11828141082242689 0 -0.16394203573489691 -0.11492410814500351 0 -0.1758763692545379 -0.10391821293081629 0 -0.16276940016718261 -0.13135394393172359 0 -0.1792114453632461 -0.11828141082242689 0 -0.16276940016718261 -0.13135394393172359 0 -0.1792114453632461 -0.11828141082242689 0 -0.16394203573489691 -0.11492410814500351 0 -0.16394203573489691 -0.11492410814500351 0 -0.1616199497943264 -0.100152752733317 0 -0.1758763692545379 -0.10391821293081629 0 -0.1616199497943264 -0.100152752733317 0 -0.1758763692545379 -0.10391821293081629 0 -0.1701425994894023 -0.091423256590710641 0 -0.19565349055930989 -0.1052088777131307 0 -0.1758763692545379 -0.10391821293081629 0 -0.18563618130172271 -0.092865147513111063 0 -0.19565349055930989 -0.1052088777131307 0 -0.1792114453632461 -0.11828141082242689 0 -0.1758763692545379 -0.10391821293081629 0 -0.1758763692545379 -0.10391821293081629 0 -0.18563618130172271 -0.092865147513111063 0 -0.1701425994894023 -0.091423256590710641 0 -0.1963019252708241 -0.096118087961067494 0 -0.17561887204413659 -0.080521417313090732 0 -0.18463317888935879 -0.077850381102573335 0 -0.18563618130172271 -0.092865147513111063 0 -0.17561887204413659 -0.080521417313090732 0 -0.1963019252708241 -0.096118087961067494 0 -0.17561887204413659 -0.080521417313090732 0 -0.1963019252708241 -0.096118087961067494 0 -0.18563618130172271 -0.092865147513111063 0 -0.17561887204413659 -0.080521417313090732 0 -0.18563618130172271 -0.092865147513111063 0 -0.17561887204413659 -0.080521417313090732 0 -0.1701425994894023 -0.091423256590710641 0 -0.17561887204413659 -0.080521417313090732 0 -0.18463317888935879 -0.077850381102573335 0 -0.1729644325078929 -0.05958267424407955 0 -0.186499578884223 -0.065223657546711208 0 -0.18463317888935879 -0.077850381102573335 0 -0.1729644325078929 -0.05958267424407955 0 -0.18463317888935879 -0.077850381102573335 0 -0.1729644325078929 -0.05958267424407955 0 -0.17561887204413659 -0.080521417313090732 0 -0.16237772949514401 -0.064205150443217035 0 -0.17561887204413659 -0.080521417313090732 0 -0.1633894747677766 -0.071299477038988146 0 -0.16237772949514401 -0.064205150443217035 0 -0.17561887204413659 -0.080521417313090732 0 -0.16237772949514401 -0.064205150443217035 0 -0.1729644325078929 -0.05958267424407955 0 -0.17561887204413659 -0.080521417313090732 0 -0.1633894747677766 -0.071299477038988146 0 -0.17561887204413659 -0.080521417313090732 0 -0.1633894747677766 -0.071299477038988146 0 -0.1652164690096565 -0.081321458482485731 0 -0.15826493609601519 -0.076275922172672428 0 -0.1633894747677766 -0.071299477038988146 0 -0.1652164690096565 -0.081321458482485731 0 -0.1633894747677766 -0.071299477038988146 0 -0.1511600774914181 -0.062077536764883527 0 -0.15826493609601519 -0.076275922172672428 0 -0.1633894747677766 -0.071299477038988146 0 -0.1511600774914181 -0.062077536764883527 0 -0.1633894747677766 -0.071299477038988146 0 -0.16237772949514401 -0.064205150443217035 0 -0.1511600774914181 -0.062077536764883527 0 -0.1701425994894023 -0.091423256590710641 0 -0.1652164690096565 -0.081321458482485731 0 -0.1601123893826456 -0.087601536093022195 0 -0.17561887204413659 -0.080521417313090732 0 -0.1701425994894023 -0.091423256590710641 0 -0.1652164690096565 -0.081321458482485731 0 -0.15826493609601519 -0.076275922172672428 0 -0.1652164690096565 -0.081321458482485731 0 -0.1601123893826456 -0.087601536093022195 0 -0.1616199497943264 -0.100152752733317 0 -0.1601123893826456 -0.087601536093022195 0 -0.14820984598721321 -0.089862924078038406 0 -0.1616199497943264 -0.100152752733317 0 -0.1701425994894023 -0.091423256590710641 0 -0.1601123893826456 -0.087601536093022195 0 -0.14820984598721321 -0.089862924078038406 0 -0.1463002500142199 -0.074035604109631448 0 -0.13377871334743241 -0.077936100334677433 0 -0.15826493609601519 -0.076275922172672428 0 -0.14820984598721321 -0.089862924078038406 0 -0.1463002500142199 -0.074035604109631448 0 -0.15826493609601519 -0.076275922172672428 0 -0.1601123893826456 -0.087601536093022195 0 -0.14820984598721321 -0.089862924078038406 0 -0.15826493609601519 -0.076275922172672428 0 -0.1511600774914181 -0.062077536764883527 0 -0.15826493609601519 -0.076275922172672428 0 -0.1463002500142199 -0.074035604109631448 0 -0.1511600774914181 -0.062077536764883527 0 -0.1463002500142199 -0.074035604109631448 0 -0.14001317585919629 -0.064623484526778421 0 -0.1511600774914181 -0.062077536764883527 0 -0.14001317585919629 -0.064623484526778421 0 -0.13377871334743241 -0.077936100334677433 0 -0.12885258059726659 -0.064719484041567951 0 -0.1463002500142199 -0.074035604109631448 0 -0.14001317585919629 -0.064623484526778421 0 -0.13377871334743241 -0.077936100334677433 0 -0.1183536417828548 -0.078020180016959456 0 -0.13377871334743241 -0.077936100334677433 0 -0.12885258059726659 -0.064719484041567951 0 -0.1212471080960127 -0.097004407933807407 0 -0.14820984598721321 -0.089862924078038406 0 -0.13377871334743241 -0.077936100334677433 0 -0.1212471080960127 -0.097004407933807407 0 -0.14200825413159679 -0.11417917593276659 0 -0.1212471080960127 -0.097004407933807407 0 -0.14820984598721321 -0.089862924078038406 0 -0.14200825413159679 -0.11417917593276659 0 -0.1150295462803429 -0.1217424259751462 0 -0.1277709132176251 -0.1319886983110099 0 -0.14200825413159679 -0.11417917593276659 0 -0.1150295462803429 -0.1217424259751462 0 -0.1212471080960127 -0.097004407933807407 0 -0.14200825413159679 -0.11417917593276659 0 -0.16276940016718261 -0.13135394393172359 0 -0.14200825413159679 -0.11417917593276659 0 -0.16394203573489691 -0.11492410814500351 0 -0.1616199497943264 -0.100152752733317 0 -0.14200825413159679 -0.11417917593276659 0 -0.16276940016718261 -0.13135394393172359 0 -0.16394203573489691 -0.11492410814500351 0 -0.14200825413159679 -0.11417917593276659 0 -0.1616199497943264 -0.100152752733317 0 -0.14820984598721321 -0.089862924078038406 0 -0.14200825413159679 -0.11417917593276659 0 -0.15251229991028711 -0.0078691942855123181 0 -0.1358954443971564 -0.031572616703471758 0 -0.15251229991028711 -0.0078691942855123181 0 -0.1371060560418903 -0.01001551412788081 0 -0.1358954443971564 -0.031572616703471758 0 -0.15251229991028711 -0.0078691942855123181 0 -0.14922781487779679 -0.03145498215623202 0 -0.160308924112954 -0.028199633990935578 0 -0.15251229991028711 -0.0078691942855123181 0 -0.1358954443971564 -0.031572616703471758 0 -0.14922781487779679 -0.03145498215623202 0 -0.15251229991028711 -0.0078691942855123181 0 -0.1371060560418903 -0.01001551412788081 0 -0.14089948435513211 0.0045028521199517741 0 -0.1222840736381321 -0.0043715844633764982 0 -0.1371060560418903 -0.01001551412788081 0 -0.14089948435513211 0.0045028521199517741 0 -0.1222840736381321 -0.0043715844633764982 0 -0.1371060560418903 -0.01001551412788081 0 -0.1358954443971564 -0.031572616703471758 0 -0.12257544939466419 -0.01515918467811004 0 -0.1358954443971564 -0.031572616703471758 0 -0.1222840736381321 -0.0043715844633764982 0 -0.12257544939466419 -0.01515918467811004 0 -0.1358954443971564 -0.031572616703471758 0 -0.1222840736381321 -0.0043715844633764982 0 -0.1358954443971564 -0.031572616703471758 0 -0.12257544939466419 -0.01515918467811004 0 -0.1210568347698693 -0.027924388199292691 0 -0.1358954443971564 -0.031572616703471758 0 -0.1266714095482025 -0.043611129299223519 0 -0.1358954443971564 -0.031572616703471758 0 -0.1210568347698693 -0.027924388199292691 0 -0.1266714095482025 -0.043611129299223519 0 -0.1358954443971564 -0.031572616703471758 0 -0.1266714095482025 -0.043611129299223519 0 -0.13588186443405689 -0.041115244103642229 0 -0.13891574351981001 -0.05284433303205395 0 -0.13588186443405689 -0.041115244103642229 0 -0.1358954443971564 -0.031572616703471758 0 -0.1435277609442876 -0.046825076734177448 0 -0.1358954443971564 -0.031572616703471758 0 -0.1435277609442876 -0.046825076734177448 0 -0.1266714095482025 -0.043611129299223519 0 -0.13588186443405689 -0.041115244103642229 0 -0.1358954443971564 -0.031572616703471758 0 -0.12885258059726659 -0.064719484041567951 0 -0.1266714095482025 -0.043611129299223519 0 -0.13891574351981001 -0.05284433303205395 0 -0.1266714095482025 -0.043611129299223519 0 -0.13891574351981001 -0.05284433303205395 0 -0.13588186443405689 -0.041115244103642229 0 -0.13891574351981001 -0.05284433303205395 0 -0.1435277609442876 -0.046825076734177448 0 -0.14001317585919629 -0.064623484526778421 0 -0.12885258059726659 -0.064719484041567951 0 -0.13891574351981001 -0.05284433303205395 0 -0.16237772949514401 -0.064205150443217035 0 -0.1491365869461502 -0.047888883573344337 0 -0.16237772949514401 -0.064205150443217035 0 -0.1491365869461502 -0.047888883573344337 0 -0.1511600774914181 -0.062077536764883527 0 -0.13891574351981001 -0.05284433303205395 0 -0.1511600774914181 -0.062077536764883527 0 -0.14001317585919629 -0.064623484526778421 0 -0.13891574351981001 -0.05284433303205395 0 -0.1511600774914181 -0.062077536764883527 0 -0.13891574351981001 -0.05284433303205395 0 -0.1511600774914181 -0.062077536764883527 0 -0.1435277609442876 -0.046825076734177448 0 -0.1511600774914181 -0.062077536764883527 0 -0.1435277609442876 -0.046825076734177448 0 -0.1491365869461502 -0.047888883573344337 0 -0.1511600774914181 -0.062077536764883527 0 -0.1435277609442876 -0.046825076734177448 0 -0.1358954443971564 -0.031572616703471758 0 -0.1491365869461502 -0.047888883573344337 0 -0.1435277609442876 -0.046825076734177448 0 -0.1358954443971564 -0.031572616703471758 0 -0.1491365869461502 -0.047888883573344337 0 -0.14922781487779679 -0.03145498215623202 0 -0.1491365869461502 -0.047888883573344337 0 -0.14922781487779679 -0.03145498215623202 0 -0.161295686126427 -0.041314967385585752 0 -0.1358954443971564 -0.031572616703471758 0 -0.1491365869461502 -0.047888883573344337 0 -0.161295686126427 -0.041314967385585752 0 -0.1774559756575414 -0.043472676947356292 0 -0.1723652753123717 -0.024278922908554029 0 -0.14922781487779679 -0.03145498215623202 0 -0.161295686126427 -0.041314967385585752 0 -0.160308924112954 -0.028199633990935578 0 -0.161295686126427 -0.041314967385585752 0 -0.1723652753123717 -0.024278922908554029 0 -0.160308924112954 -0.028199633990935578 0 -0.161295686126427 -0.041314967385585752 0 -0.1729644325078929 -0.05958267424407955 0 -0.16237772949514401 -0.064205150443217035 0 -0.1491365869461502 -0.047888883573344337 0 -0.161295686126427 -0.041314967385585752 0 -0.161295686126427 -0.041314967385585752 0 -0.1729644325078929 -0.05958267424407955 0 -0.1774559756575414 -0.043472676947356292 0 -0.16237772949514401 -0.064205150443217035 0 -0.161295686126427 -0.041314967385585752 0 -0.1729644325078929 -0.05958267424407955 0 -0.186499578884223 -0.065223657546711208 0 -0.1729644325078929 -0.05958267424407955 0 -0.19055577156261419 -0.053093111769927252 0 -0.1729644325078929 -0.05958267424407955 0 -0.1774559756575414 -0.043472676947356292 0 -0.19055577156261419 -0.053093111769927252 0 -0.1774559756575414 -0.043472676947356292 0 -0.19055577156261419 -0.053093111769927252 0 -0.19222735548846739 -0.034417581308306647 0 -0.1774559756575414 -0.043472676947356292 0 -0.1723652753123717 -0.024278922908554029 0 -0.19222735548846739 -0.034417581308306647 0 -0.18631810391595299 -0.019958538114399509 0 -0.1723652753123717 -0.024278922908554029 0 -0.17782312591884469 -0.0047091890594081476 0 -0.18631810391595299 -0.019958538114399509 0 -0.1723652753123717 -0.024278922908554029 0 -0.19222735548846739 -0.034417581308306647 0 -0.15251229991028711 -0.0078691942855123181 0 -0.1723652753123717 -0.024278922908554029 0 -0.160308924112954 -0.028199633990935578 0 -0.15251229991028711 -0.0078691942855123181 0 -0.1723652753123717 -0.024278922908554029 0 -0.17782312591884469 -0.0047091890594081476 0 -0.17782312591884469 -0.0047091890594081476 0 -0.19944529478696479 -0.012571765856828581 0 -0.19614921834684179 0.01383979763140139 0 -0.18631810391595299 -0.019958538114399509 0 -0.17782312591884469 -0.0047091890594081476 0 -0.19944529478696479 -0.012571765856828581 0 -0.19944529478696479 -0.012571765856828581 0 -0.20810122832653799 -0.028762113609045809 0 -0.19222735548846739 -0.034417581308306647 0 -0.18631810391595299 -0.019958538114399509 0 -0.19944529478696479 -0.012571765856828581 0 -0.19222735548846739 -0.034417581308306647 0 -0.20810122832653799 -0.028762113609045809 0 -0.22363591247334441 -0.038641874426612988 0 -0.22228503560871021 -0.01534386608090663 0 -0.19944529478696479 -0.012571765856828581 0 -0.20810122832653799 -0.028762113609045809 0 -0.22228503560871021 -0.01534386608090663 0 -0.19944529478696479 -0.012571765856828581 0 -0.22228503560871021 -0.01534386608090663 0 -0.22093415874407599 0.0079541422647997212 0 -0.19784493257702601 -0.070368463070264703 0 -0.19055577156261419 -0.053093111769927252 0 -0.20926189874014281 -0.056221313189730102 0 -0.19055577156261419 -0.053093111769927252 0 -0.20475643331822141 -0.042227198860724569 0 -0.20926189874014281 -0.056221313189730102 0 -0.19055577156261419 -0.053093111769927252 0 -0.19222735548846739 -0.034417581308306647 0 -0.20475643331822141 -0.042227198860724569 0 -0.20810122832653799 -0.028762113609045809 0 -0.19222735548846739 -0.034417581308306647 0 -0.20475643331822141 -0.042227198860724569 0 -0.20810122832653799 -0.028762113609045809 0 -0.20475643331822141 -0.042227198860724569 0 -0.22363591247334441 -0.038641874426612988 0 -0.20475643331822141 -0.042227198860724569 0 -0.20926189874014281 -0.056221313189730102 0 -0.22363591247334441 -0.038641874426612988 0 -0.21754098321818141 -0.062641895168441319 0 -0.20926189874014281 -0.056221313189730102 0 -0.2241982264164796 -0.05499779522922324 0 -0.22585368735607289 -0.070203780036278682 0 -0.2241982264164796 -0.05499779522922324 0 -0.2463991354039248 -0.054245067532845387 0 -0.20926189874014281 -0.056221313189730102 0 -0.2241982264164796 -0.05499779522922324 0 -0.22363591247334441 -0.038641874426612988 0 -0.2241982264164796 -0.05499779522922324 0 -0.22363591247334441 -0.038641874426612988 0 -0.2463991354039248 -0.054245067532845387 0 -0.22363591247334441 -0.038641874426612988 0 -0.24918379221973039 -0.035778506608754083 0 -0.2463991354039248 -0.054245067532845387 0 -0.22585368735607289 -0.070203780036278682 0 -0.2463991354039248 -0.054245067532845387 0 -0.22228503560871021 -0.01534386608090663 0 -0.22093415874407599 0.0079541422647997212 0 -0.22228503560871021 -0.01534386608090663 0 -0.24163447896342441 -0.01871264830198761 0 -0.23887829093550719 0.0026937934494007118 0 -0.22228503560871021 -0.01534386608090663 0 -0.22093415874407599 0.0079541422647997212 0 -0.23887829093550719 0.0026937934494007118 0 -0.22363591247334441 -0.038641874426612988 0 -0.22228503560871021 -0.01534386608090663 0 -0.22363591247334441 -0.038641874426612988 0 -0.22228503560871021 -0.01534386608090663 0 -0.24163447896342441 -0.01871264830198761 0 -0.22363591247334441 -0.038641874426612988 0 -0.24918379221973039 -0.035778506608754083 0 -0.24163447896342441 -0.01871264830198761 0 -0.24163447896342441 -0.01871264830198761 0 -0.25368046575302122 -0.0060765949484967302 0 -0.23887829093550719 0.0026937934494007118 0 -0.25368046575302122 -0.0060765949484967302 0 -0.26260319579713842 -0.018888150339740041 0 -0.2687292122232216 -0.00039107927712494318 0 -0.24163447896342441 -0.01871264830198761 0 -0.25368046575302122 -0.0060765949484967302 0 -0.26260319579713842 -0.018888150339740041 0 -0.24918379221973039 -0.035778506608754083 0 -0.24163447896342441 -0.01871264830198761 0 -0.26260319579713842 -0.018888150339740041 0 -0.24918379221973039 -0.035778506608754083 0 -0.26260319579713842 -0.018888150339740041 0 -0.26694458345177657 -0.038286355029412071 0 -0.27906786145888812 -0.018121877555533589 0 -0.28749003149962832 -0.02232764252597846 0 -0.26694458345177657 -0.038286355029412071 0 -0.26260319579713842 -0.018888150339740041 0 -0.27906786145888812 -0.018121877555533589 0 -0.26694458345177657 -0.038286355029412071 0 -0.28749003149962832 -0.02232764252597846 0 -0.26694458345177657 -0.038286355029412071 0 -0.26260319579713842 -0.018888150339740041 0 -0.2687292122232216 -0.00039107927712494318 0 -0.2781645443580531 -0.0079291546951160002 0 -0.2687292122232216 -0.00039107927712494318 0 -0.2781645443580531 -0.0079291546951160002 0 -0.28669271409587033 0.00067394175626276775 0 -0.26260319579713842 -0.018888150339740041 0 -0.27906786145888812 -0.018121877555533589 0 -0.2781645443580531 -0.0079291546951160002 0 -0.28798747637047972 -0.010795788221254651 0 -0.30442587094067991 -0.0091726997856424724 0 -0.28669271409587033 0.00067394175626276775 0 -0.28798747637047972 -0.010795788221254651 0 -0.28749003149962832 -0.02232764252597846 0 -0.30442587094067991 -0.0091726997856424724 0 -0.2781645443580531 -0.0079291546951160002 0 -0.28798747637047972 -0.010795788221254651 0 -0.28669271409587033 0.00067394175626276775 0 -0.27906786145888812 -0.018121877555533589 0 -0.2781645443580531 -0.0079291546951160002 0 -0.28798747637047972 -0.010795788221254651 0 -0.27906786145888812 -0.018121877555533589 0 -0.28749003149962832 -0.02232764252597846 0 -0.28749003149962832 -0.02232764252597846 0 -0.30442587094067991 -0.0091726997856424724 0 -0.27906786145888812 -0.018121877555533589 0 -0.28798747637047972 -0.010795788221254651 0 -0.28749003149962832 -0.02232764252597846 0 -0.28749003149962832 -0.02232764252597846 0 -0.3044771387579725 -0.021932105168762709 0 -0.31305957118469552 -0.035096260803409017 0 -0.28749003149962832 -0.02232764252597846 0 -0.31305957118469552 -0.035096260803409017 0 -0.28749003149962832 -0.02232764252597846 0 -0.3044771387579725 -0.021932105168762709 0 -0.30442587094067991 -0.0091726997856424724 0 -0.3044771387579725 -0.021932105168762709 0 -0.31293308140688653 -0.021131817560020891 0 -0.31305957118469552 -0.035096260803409017 0 -0.3044771387579725 -0.021932105168762709 0 -0.30442587094067991 -0.0091726997856424724 0 -0.31293308140688653 -0.021131817560020891 0 -0.30442587094067991 -0.0091726997856424724 0 -0.28669271409587033 0.00067394175626276775 0 -0.30636397558727529 0.0074589686305737476 0 -0.30115091797579452 -0.048663747370743207 0 -0.2987525865777424 -0.062200949590156152 0 -0.31301417961341382 -0.055836524747439123 0 -0.28749003149962832 -0.02232764252597846 0 -0.29444922120781769 -0.038764987909169303 0 -0.31305957118469552 -0.035096260803409017 0 -0.30115091797579452 -0.048663747370743207 0 -0.29444922120781769 -0.038764987909169303 0 -0.31305957118469552 -0.035096260803409017 0 -0.30115091797579452 -0.048663747370743207 0 -0.31305957118469552 -0.035096260803409017 0 -0.31301417961341382 -0.055836524747439123 0 -0.30115091797579452 -0.048663747370743207 0 -0.29444922120781769 -0.038764987909169303 0 -0.28647903129530322 -0.051420013803542428 0 -0.28749003149962832 -0.02232764252597846 0 -0.29444922120781769 -0.038764987909169303 0 -0.28117345016485201 -0.04031271913022233 0 -0.29444922120781769 -0.038764987909169303 0 -0.28647903129530322 -0.051420013803542428 0 -0.28117345016485201 -0.04031271913022233 0 -0.2987525865777424 -0.062200949590156152 0 -0.28647903129530322 -0.051420013803542428 0 -0.28038348839110883 -0.069310788107078664 0 -0.30115091797579452 -0.048663747370743207 0 -0.2987525865777424 -0.062200949590156152 0 -0.28647903129530322 -0.051420013803542428 0 -0.28647903129530322 -0.051420013803542428 0 -0.26877486342999501 -0.055398903369259858 0 -0.28038348839110883 -0.069310788107078664 0 -0.28647903129530322 -0.051420013803542428 0 -0.26877486342999501 -0.055398903369259858 0 -0.28117345016485201 -0.04031271913022233 0 -0.28749003149962832 -0.02232764252597846 0 -0.26694458345177657 -0.038286355029412071 0 -0.28117345016485201 -0.04031271913022233 0 -0.26877486342999501 -0.055398903369259858 0 -0.26694458345177657 -0.038286355029412071 0 -0.28117345016485201 -0.04031271913022233 0 -0.24918379221973039 -0.035778506608754083 0 -0.2463991354039248 -0.054245067532845387 0 -0.26694458345177657 -0.038286355029412071 0 -0.2463991354039248 -0.054245067532845387 0 -0.26694458345177657 -0.038286355029412071 0 -0.2463991354039248 -0.054245067532845387 0 -0.26877486342999501 -0.055398903369259858 0 -0.26127996779737811 -0.076382155525281506 0 -0.2463991354039248 -0.054245067532845387 0 -0.26877486342999501 -0.055398903369259858 0 -0.26694458345177657 -0.038286355029412071 0 -0.24429087302217839 -0.081351402293697431 0 -0.2463991354039248 -0.054245067532845387 0 -0.26127996779737811 -0.076382155525281506 0 -0.2480226747362333 -0.095484894819556659 0 -0.24429087302217839 -0.081351402293697431 0 -0.26127996779737811 -0.076382155525281506 0 -0.2480226747362333 -0.095484894819556659 0 -0.26127996779737811 -0.076382155525281506 0 -0.26482739361412022 -0.09778201459808189 0 -0.26127996779737811 -0.076382155525281506 0 -0.27852055927444008 -0.085869198427154 0 -0.26482739361412022 -0.09778201459808189 0 -0.26877486342999501 -0.055398903369259858 0 -0.26127996779737811 -0.076382155525281506 0 -0.28038348839110883 -0.069310788107078664 0 -0.26127996779737811 -0.076382155525281506 0 -0.27852055927444008 -0.085869198427154 0 -0.28038348839110883 -0.069310788107078664 0 -0.264675904622168 -0.1183076420975329 0 -0.25151550799412831 -0.12459638277672851 0 -0.25331740349288923 -0.1111972380002446 0 -0.264675904622168 -0.1183076420975329 0 -0.25331740349288923 -0.1111972380002446 0 -0.26482739361412022 -0.09778201459808189 0 -0.2480226747362333 -0.095484894819556659 0 -0.25331740349288923 -0.1111972380002446 0 -0.26482739361412022 -0.09778201459808189 0 -0.27852055927444008 -0.085869198427154 0 -0.26482739361412022 -0.09778201459808189 0 -0.27916702414219918 -0.1057322757198714 0 -0.264675904622168 -0.1183076420975329 0 -0.26482739361412022 -0.09778201459808189 0 -0.27916702414219918 -0.1057322757198714 0 -0.264675904622168 -0.1183076420975329 0 -0.27916702414219918 -0.1057322757198714 0 -0.28045548244648721 -0.1240426558428291 0 -0.28045548244648721 -0.1240426558428291 0 -0.29433631348535771 -0.1078895494449022 0 -0.2980187751593063 -0.12565406075212199 0 -0.27916702414219918 -0.1057322757198714 0 -0.28045548244648721 -0.1240426558428291 0 -0.29433631348535771 -0.1078895494449022 0 -0.27852055927444008 -0.085869198427154 0 -0.27916702414219918 -0.1057322757198714 0 -0.29212200263632548 -0.092728480994261189 0 -0.27916702414219918 -0.1057322757198714 0 -0.29433631348535771 -0.1078895494449022 0 -0.29212200263632548 -0.092728480994261189 0 -0.29433631348535771 -0.1078895494449022 0 -0.29212200263632548 -0.092728480994261189 0 -0.31254320302108102 -0.094179350907818801 0 -0.29433631348535771 -0.1078895494449022 0 -0.30841569085692472 -0.1139337451672613 0 -0.31254320302108102 -0.094179350907818801 0 -0.29433631348535771 -0.1078895494449022 0 -0.30841569085692472 -0.1139337451672613 0 -0.2980187751593063 -0.12565406075212199 0 -0.30841569085692472 -0.1139337451672613 0 -0.2980187751593063 -0.12565406075212199 0 -0.31341845216565373 -0.12550313349223591 0 -0.27852055927444008 -0.085869198427154 0 -0.28038348839110883 -0.069310788107078664 0 -0.29703775443158381 -0.079120755172711874 0 -0.2987525865777424 -0.062200949590156152 0 -0.28038348839110883 -0.069310788107078664 0 -0.29703775443158381 -0.079120755172711874 0 -0.27852055927444008 -0.085869198427154 0 -0.29212200263632548 -0.092728480994261189 0 -0.29703775443158381 -0.079120755172711874 0 -0.29703775443158381 -0.079120755172711874 0 -0.31155704384043531 -0.072849312427470558 0 -0.31254320302108102 -0.094179350907818801 0 -0.29212200263632548 -0.092728480994261189 0 -0.29703775443158381 -0.079120755172711874 0 -0.31254320302108102 -0.094179350907818801 0 -0.2987525865777424 -0.062200949590156152 0 -0.29703775443158381 -0.079120755172711874 0 -0.31155704384043531 -0.072849312427470558 0 -0.2987525865777424 -0.062200949590156152 0 -0.31155704384043531 -0.072849312427470558 0 -0.31301417961341382 -0.055836524747439123 0 -0.31155704384043531 -0.072849312427470558 0 -0.32863863121469977 -0.065250175803737362 0 -0.31301417961341382 -0.055836524747439123 0 -0.31155704384043531 -0.072849312427470558 0 -0.3246732346439129 -0.081075367848591595 0 -0.32863863121469977 -0.065250175803737362 0 -0.31155704384043531 -0.072849312427470558 0 -0.3246732346439129 -0.081075367848591595 0 -0.31254320302108102 -0.094179350907818801 0 -0.3246732346439129 -0.081075367848591595 0 -0.31254320302108102 -0.094179350907818801 0 -0.33104364797798319 -0.09801739053255229 0 -0.3246732346439129 -0.081075367848591595 0 -0.33605711437912472 -0.087161765430062682 0 -0.33104364797798319 -0.09801739053255229 0 -0.3246732346439129 -0.081075367848591595 0 -0.33605711437912472 -0.087161765430062682 0 -0.33669710172521489 -0.077175772691618516 0 -0.33605711437912472 -0.087161765430062682 0 -0.33104364797798319 -0.09801739053255229 0 -0.34383104858962249 -0.095183539519734933 0 -0.33605711437912472 -0.087161765430062682 0 -0.34383104858962249 -0.095183539519734933 0 -0.34439970555546912 -0.084578675140067783 0 -0.33605711437912472 -0.087161765430062682 0 -0.33669710172521489 -0.077175772691618516 0 -0.34439970555546912 -0.084578675140067783 0 -0.3246732346439129 -0.081075367848591595 0 -0.33669710172521489 -0.077175772691618516 0 -0.32863863121469977 -0.065250175803737362 0 -0.33669710172521489 -0.077175772691618516 0 -0.32863863121469977 -0.065250175803737362 0 -0.34801412465104892 -0.070412392379920627 0 -0.33669710172521489 -0.077175772691618516 0 -0.34801412465104892 -0.070412392379920627 0 -0.34439970555546912 -0.084578675140067783 0 -0.32719855170750428 -0.12291759668899679 0 -0.32203809378256709 -0.11178708422841931 0 -0.31341845216565373 -0.12550313349223591 0 -0.30841569085692472 -0.1139337451672613 0 -0.32203809378256709 -0.11178708422841931 0 -0.31341845216565373 -0.12550313349223591 0 -0.32719855170750428 -0.12291759668899679 0 -0.32203809378256709 -0.11178708422841931 0 -0.33444281415331051 -0.1118980979121095 0 -0.32203809378256709 -0.11178708422841931 0 -0.31254320302108102 -0.094179350907818801 0 -0.33104364797798319 -0.09801739053255229 0 -0.30841569085692472 -0.1139337451672613 0 -0.32203809378256709 -0.11178708422841931 0 -0.31254320302108102 -0.094179350907818801 0 -0.33104364797798319 -0.09801739053255229 0 -0.34144129267367079 -0.1046012171331611 0 -0.34383104858962249 -0.095183539519734933 0 -0.32203809378256709 -0.11178708422841931 0 -0.33104364797798319 -0.09801739053255229 0 -0.33444281415331051 -0.1118980979121095 0 -0.33104364797798319 -0.09801739053255229 0 -0.34144129267367079 -0.1046012171331611 0 -0.33444281415331051 -0.1118980979121095 0 -0.34144129267367079 -0.1046012171331611 0 -0.33444281415331051 -0.1118980979121095 0 -0.34611413263602581 -0.1127455639500831 0 -0.33444281415331051 -0.1118980979121095 0 -0.33983874289660487 -0.1200698395012714 0 -0.34611413263602581 -0.1127455639500831 0 -0.32719855170750428 -0.12291759668899679 0 -0.33983874289660487 -0.1200698395012714 0 -0.33489623770692178 -0.13130139151947101 0 -0.32719855170750428 -0.12291759668899679 0 -0.33444281415331051 -0.1118980979121095 0 -0.33983874289660487 -0.1200698395012714 0 -0.35781422145107322 -0.1242965498811112 0 -0.3558184444142119 -0.1192620098177108 0 -0.36132971483109788 -0.120209583446948 0 -0.3558184444142119 -0.1192620098177108 0 -0.35800407364407733 -0.11434273280461051 0 -0.36132971483109788 -0.120209583446948 0 -0.3558184444142119 -0.1192620098177108 0 -0.35245997120530398 -0.12379184712105901 0 -0.34959243374603532 -0.11895198966460491 0 -0.35781422145107322 -0.1242965498811112 0 -0.3558184444142119 -0.1192620098177108 0 -0.35245997120530398 -0.12379184712105901 0 -0.35245997120530398 -0.12379184712105901 0 -0.34959243374603532 -0.11895198966460491 0 -0.3448096548514894 -0.1272925732026722 0 -0.33983874289660487 -0.1200698395012714 0 -0.34959243374603532 -0.11895198966460491 0 -0.3448096548514894 -0.1272925732026722 0 -0.33983874289660487 -0.1200698395012714 0 -0.34959243374603532 -0.11895198966460491 0 -0.34611413263602581 -0.1127455639500831 0 -0.34959243374603532 -0.11895198966460491 0 -0.34611413263602581 -0.1127455639500831 0 -0.3540849030961587 -0.1127595043533938 0 -0.34611413263602581 -0.1127455639500831 0 -0.3540849030961587 -0.1127595043533938 0 -0.35177482001141192 -0.10516149375132559 0 -0.3540849030961587 -0.1127595043533938 0 -0.35800407364407733 -0.11434273280461051 0 -0.3607832322348406 -0.1051398336003896 0 -0.3558184444142119 -0.1192620098177108 0 -0.34959243374603532 -0.11895198966460491 0 -0.3540849030961587 -0.1127595043533938 0 -0.3558184444142119 -0.1192620098177108 0 -0.3540849030961587 -0.1127595043533938 0 -0.35800407364407733 -0.11434273280461051 0 -0.3540849030961587 -0.1127595043533938 0 -0.35177482001141192 -0.10516149375132559 0 -0.3607832322348406 -0.1051398336003896 0 -0.34144129267367079 -0.1046012171331611 0 -0.34611413263602581 -0.1127455639500831 0 -0.35177482001141192 -0.10516149375132559 0 -0.34144129267367079 -0.1046012171331611 0 -0.35177482001141192 -0.10516149375132559 0 -0.34383104858962249 -0.095183539519734933 0 -0.35177482001141192 -0.10516149375132559 0 -0.34383104858962249 -0.095183539519734933 0 -0.35739913843233412 -0.092959905679002114 0 -0.35177482001141192 -0.10516149375132559 0 -0.3607832322348406 -0.1051398336003896 0 -0.35739913843233412 -0.092959905679002114 0 -0.3702554986144142 -0.096721424319973118 0 -0.3607832322348406 -0.1051398336003896 0 -0.36256026990520168 -0.1169713834079686 0 -0.3702554986144142 -0.096721424319973118 0 -0.36256026990520168 -0.1169713834079686 0 -0.37524695561068788 -0.11103670725272161 0 -0.3702554986144142 -0.096721424319973118 0 -0.36256026990520168 -0.1169713834079686 0 -0.3702554986144142 -0.096721424319973118 0 -0.3607832322348406 -0.1051398336003896 0 -0.35739913843233412 -0.092959905679002114 0 -0.36256026990520168 -0.1169713834079686 0 -0.37732416674567443 -0.1351576518325032 0 -0.37522264613750661 -0.1204780820721596 0 -0.3607832322348406 -0.1051398336003896 0 -0.36256026990520168 -0.1169713834079686 0 -0.36132971483109788 -0.120209583446948 0 -0.35800407364407733 -0.11434273280461051 0 -0.3607832322348406 -0.1051398336003896 0 -0.36132971483109788 -0.120209583446948 0 -0.36256026990520168 -0.1169713834079686 0 -0.37522264613750661 -0.1204780820721596 0 -0.37524695561068788 -0.11103670725272161 0 -0.36256026990520168 -0.1169713834079686 0 -0.36132971483109788 -0.120209583446948 0 -0.36476093191418357 -0.12990588975340961 0 -0.35781422145107322 -0.1242965498811112 0 -0.36132971483109788 -0.120209583446948 0 -0.36476093191418357 -0.12990588975340961 0 -0.36256026990520168 -0.1169713834079686 0 -0.36132971483109788 -0.120209583446948 0 -0.34801412465104892 -0.070412392379920627 0 -0.36309755803908672 -0.077310273322317186 0 -0.36479289152511979 -0.062874062339952075 0 -0.34801412465104892 -0.070412392379920627 0 -0.35739913843233412 -0.092959905679002114 0 -0.36309755803908672 -0.077310273322317186 0 -0.34801412465104892 -0.070412392379920627 0 -0.34439970555546912 -0.084578675140067783 0 -0.35739913843233412 -0.092959905679002114 0 -0.34801412465104892 -0.070412392379920627 0 -0.35739913843233412 -0.092959905679002114 0 -0.34383104858962249 -0.095183539519734933 0 -0.34439970555546912 -0.084578675140067783 0 -0.35739913843233412 -0.092959905679002114 0 -0.3702554986144142 -0.096721424319973118 0 -0.37918128239773041 -0.073233265192998262 0 -0.35739913843233412 -0.092959905679002114 0 -0.36748336937089132 -0.08505621712857267 0 -0.36309755803908672 -0.077310273322317186 0 -0.3702554986144142 -0.096721424319973118 0 -0.36748336937089132 -0.08505621712857267 0 -0.37918128239773041 -0.073233265192998262 0 -0.36748336937089132 -0.08505621712857267 0 -0.36309755803908672 -0.077310273322317186 0 -0.37918128239773041 -0.073233265192998262 0 -0.3702554986144142 -0.096721424319973118 0 -0.35739913843233412 -0.092959905679002114 0 -0.36748336937089132 -0.08505621712857267 0 -0.36309755803908672 -0.077310273322317186 0 -0.36479289152511979 -0.062874062339952075 0 -0.37918128239773041 -0.073233265192998262 0 -0.36479289152511979 -0.062874062339952075 0 -0.36398573043032001 -0.045122201745531908 0 -0.38810706618104662 -0.049745106066023309 0 -0.36479289152511979 -0.062874062339952075 0 -0.35130885223902958 -0.054196740326480287 0 -0.36398573043032001 -0.045122201745531908 0 -0.35130885223902958 -0.054196740326480287 0 -0.34807321791376311 -0.041416703288293548 0 -0.36398573043032001 -0.045122201745531908 0 -0.34801412465104892 -0.070412392379920627 0 -0.35130885223902958 -0.054196740326480287 0 -0.33862911086976272 -0.047864879080839542 0 -0.34801412465104892 -0.070412392379920627 0 -0.36479289152511979 -0.062874062339952075 0 -0.35130885223902958 -0.054196740326480287 0 -0.35130885223902958 -0.054196740326480287 0 -0.34807321791376311 -0.041416703288293548 0 -0.33862911086976272 -0.047864879080839542 0 -0.35130885223902958 -0.054196740326480287 0 -0.33862911086976272 -0.047864879080839542 0 -0.34807321791376311 -0.041416703288293548 0 -0.36398573043032001 -0.045122201745531908 0 -0.35506693315808902 -0.02946171919552449 0 -0.34807321791376311 -0.041416703288293548 0 -0.35506693315808902 -0.02946171919552449 0 -0.33137546287161412 -0.030437976093091471 0 -0.36398573043032001 -0.045122201745531908 0 -0.35506693315808902 -0.02946171919552449 0 -0.37598279533181522 -0.029628349151500848 0 -0.36257320357981859 -0.012194253395404061 0 -0.35506693315808902 -0.02946171919552449 0 -0.37598279533181522 -0.029628349151500848 0 -0.36257320357981859 -0.012194253395404061 0 -0.38484909517029481 -0.014784741646386121 0 -0.37598279533181522 -0.029628349151500848 0 -0.36257320357981859 -0.012194253395404061 0 -0.3809477351706122 0.0027779631661205301 0 -0.35669899738390448 0.0061599450621230532 0 -0.36257320357981859 -0.012194253395404061 0 -0.34396552384851448 -0.002286048506845227 0 -0.34100458896053509 -0.01515020857335795 0 -0.36257320357981859 -0.012194253395404061 0 -0.34396552384851448 -0.002286048506845227 0 -0.35669899738390448 0.0061599450621230532 0 -0.36257320357981859 -0.012194253395404061 0 -0.35506693315808902 -0.02946171919552449 0 -0.34100458896053509 -0.01515020857335795 0 -0.35506693315808902 -0.02946171919552449 0 -0.33137546287161412 -0.030437976093091471 0 -0.34100458896053509 -0.01515020857335795 0 -0.33137546287161412 -0.030437976093091471 0 -0.34100458896053509 -0.01515020857335795 0 -0.32412181487346448 -0.013011073105343791 0 -0.34100458896053509 -0.01515020857335795 0 -0.33237148267863559 -0.0023354662605286139 0 -0.32412181487346448 -0.013011073105343791 0 -0.34396552384851448 -0.002286048506845227 0 -0.34100458896053509 -0.01515020857335795 0 -0.33237148267863559 -0.0023354662605286139 0 -0.30442587094067991 -0.0091726997856424724 0 -0.32136171038173122 0.0039822429546938244 0 -0.30442587094067991 -0.0091726997856424724 0 -0.32412181487346448 -0.013011073105343791 0 -0.31293308140688653 -0.021131817560020891 0 -0.33237148267863559 -0.0023354662605286139 0 -0.32412181487346448 -0.013011073105343791 0 -0.32136171038173122 0.0039822429546938244 0 -0.30442587094067991 -0.0091726997856424724 0 -0.32412181487346448 -0.013011073105343791 0 -0.32136171038173122 0.0039822429546938244 0 -0.33137546287161412 -0.030437976093091471 0 -0.32412181487346448 -0.013011073105343791 0 -0.33137546287161412 -0.030437976093091471 0 -0.32412181487346448 -0.013011073105343791 0 -0.31293308140688653 -0.021131817560020891 0 -0.33137546287161412 -0.030437976093091471 0 -0.31293308140688653 -0.021131817560020891 0 -0.31305957118469552 -0.035096260803409017 0 -0.31305957118469552 -0.035096260803409017 0 -0.33862911086976272 -0.047864879080839542 0 -0.31305957118469552 -0.035096260803409017 0 -0.32333537322064287 -0.051011960108856259 0 -0.33862911086976272 -0.047864879080839542 0 -0.33137546287161412 -0.030437976093091471 0 -0.31305957118469552 -0.035096260803409017 0 -0.33862911086976272 -0.047864879080839542 0 -0.31305957118469552 -0.035096260803409017 0 -0.31301417961341382 -0.055836524747439123 0 -0.32333537322064287 -0.051011960108856259 0 -0.32863863121469977 -0.065250175803737362 0 -0.31301417961341382 -0.055836524747439123 0 -0.32333537322064287 -0.051011960108856259 0 -0.32863863121469977 -0.065250175803737362 0 -0.34801412465104892 -0.070412392379920627 0 -0.33862911086976272 -0.047864879080839542 0 -0.34801412465104892 -0.070412392379920627 0 -0.33862911086976272 -0.047864879080839542 0 -0.32863863121469977 -0.065250175803737362 0 -0.32333537322064287 -0.051011960108856259 0 -0.33862911086976272 -0.047864879080839542 0 -0.33137546287161412 -0.030437976093091471 0 -0.33862911086976272 -0.047864879080839542 0 -0.34807321791376311 -0.041416703288293548 0 -0.33137546287161412 -0.030437976093091471 0 -0.33862911086976272 -0.047864879080839542 0 -0.3080344920095332 -0.2394981872891698 0 -0.3039917807950242 -0.22484263451184869 0 -0.31704814812596011 -0.22231818335913739 0 -0.3039917807950242 -0.22484263451184869 0 -0.30610443113730712 -0.2143965331084986 0 -0.31704814812596011 -0.22231818335913739 0 -0.3039917807950242 -0.22484263451184869 0 -0.29451347096308711 -0.22980740594663801 0 -0.29425836173923342 -0.21819286285579989 0 -0.3039917807950242 -0.22484263451184869 0 -0.29425836173923342 -0.21819286285579989 0 -0.30610443113730712 -0.2143965331084986 0 -0.3080344920095332 -0.2394981872891698 0 -0.3039917807950242 -0.22484263451184869 0 -0.29451347096308711 -0.22980740594663801 0 -0.29451347096308711 -0.22980740594663801 0 -0.28325760176737891 -0.22604876213234409 0 -0.29425836173923342 -0.21819286285579989 0 -0.28325760176737891 -0.22604876213234409 0 -0.28025048869802988 -0.21312873548146191 0 -0.29425836173923342 -0.21819286285579989 0 -0.29451347096308711 -0.22980740594663801 0 -0.28325760176737891 -0.22604876213234409 0 -0.28620697419901409 -0.23705181503581829 0 -0.28168474985437852 -0.25014812438121031 0 -0.3080344920095332 -0.2394981872891698 0 -0.29475034209373052 -0.25911400252729272 0 -0.28168474985437852 -0.25014812438121031 0 -0.3080344920095332 -0.2394981872891698 0 -0.28168474985437852 -0.25014812438121031 0 -0.3080344920095332 -0.2394981872891698 0 -0.28620697419901409 -0.23705181503581829 0 -0.3080344920095332 -0.2394981872891698 0 -0.29451347096308711 -0.22980740594663801 0 -0.28620697419901409 -0.23705181503581829 0 -0.27347376693297959 -0.25205870770091199 0 -0.28168474985437852 -0.25014812438121031 0 -0.2747568611491189 -0.2404335734730243 0 -0.28168474985437852 -0.25014812438121031 0 -0.28620697419901409 -0.23705181503581829 0 -0.2747568611491189 -0.2404335734730243 0 -0.27347376693297959 -0.25205870770091199 0 -0.2747568611491189 -0.2404335734730243 0 -0.25857686183161172 -0.23002855347816359 0 -0.2747568611491189 -0.2404335734730243 0 -0.25857686183161172 -0.23002855347816359 0 -0.27384195292761049 -0.23288066676901709 0 -0.27347376693297959 -0.25205870770091199 0 -0.25857686183161172 -0.23002855347816359 0 -0.28620697419901409 -0.23705181503581829 0 -0.2747568611491189 -0.2404335734730243 0 -0.27384195292761049 -0.23288066676901709 0 -0.27347376693297959 -0.25205870770091199 0 -0.26038277371618063 -0.2477199445964943 0 -0.25857686183161172 -0.23002855347816359 0 -0.24901269716281221 -0.22584988992876209 0 -0.25217385243102691 -0.24332397570100661 0 -0.25217385243102691 -0.24332397570100661 0 -0.26038277371618063 -0.2477199445964943 0 -0.25857686183161172 -0.23002855347816359 0 -0.24901269716281221 -0.22584988992876209 0 -0.25217385243102691 -0.24332397570100661 0 -0.25857686183161172 -0.23002855347816359 0 -0.2436799567302437 -0.20799839925541519 0 -0.25857686183161172 -0.23002855347816359 0 -0.2436799567302437 -0.20799839925541519 0 -0.24901269716281221 -0.22584988992876209 0 -0.25857686183161172 -0.23002855347816359 0 -0.25857686183161172 -0.23002855347816359 0 -0.27186358310036651 -0.22308906019588989 0 -0.2658271565377528 -0.2133306268404451 0 -0.25857686183161172 -0.23002855347816359 0 -0.27186358310036651 -0.22308906019588989 0 -0.27384195292761049 -0.23288066676901709 0 -0.28325760176737891 -0.22604876213234409 0 -0.27186358310036651 -0.22308906019588989 0 -0.27384195292761049 -0.23288066676901709 0 -0.28325760176737891 -0.22604876213234409 0 -0.28620697419901409 -0.23705181503581829 0 -0.27384195292761049 -0.23288066676901709 0 -0.28325760176737891 -0.22604876213234409 0 -0.27186358310036651 -0.22308906019588989 0 -0.28025048869802988 -0.21312873548146191 0 -0.28025048869802988 -0.21312873548146191 0 -0.27212625567993781 -0.20101985444733861 0 -0.28465210052720408 -0.19916355984493761 0 -0.28025048869802988 -0.21312873548146191 0 -0.2658271565377528 -0.2133306268404451 0 -0.27212625567993781 -0.20101985444733861 0 -0.27186358310036651 -0.22308906019588989 0 -0.28025048869802988 -0.21312873548146191 0 -0.2658271565377528 -0.2133306268404451 0 -0.2436799567302437 -0.20799839925541519 0 -0.25857686183161172 -0.23002855347816359 0 -0.25662997208442279 -0.212487533835899 0 -0.25857686183161172 -0.23002855347816359 0 -0.2658271565377528 -0.2133306268404451 0 -0.25662997208442279 -0.212487533835899 0 -0.2658271565377528 -0.2133306268404451 0 -0.25843591323808313 -0.19859255576957191 0 -0.27212625567993781 -0.20101985444733861 0 -0.2658271565377528 -0.2133306268404451 0 -0.25662997208442279 -0.212487533835899 0 -0.25843591323808313 -0.19859255576957191 0 -0.2436799567302437 -0.20799839925541519 0 -0.25662997208442279 -0.212487533835899 0 -0.25843591323808313 -0.19859255576957191 0 -0.2444562172080032 -0.19255798064419799 0 -0.24937429033053729 -0.1794161311098848 0 -0.25843591323808313 -0.19859255576957191 0 -0.24937429033053729 -0.1794161311098848 0 -0.25843591323808313 -0.19859255576957191 0 -0.25843591323808313 -0.19859255576957191 0 -0.26682298180914737 -0.19043964572189401 0 -0.25847959544788829 -0.18262572372651459 0 -0.26682298180914737 -0.19043964572189401 0 -0.27212625567993781 -0.20101985444733861 0 -0.27761737707342099 -0.19066155682474589 0 -0.25843591323808313 -0.19859255576957191 0 -0.26682298180914737 -0.19043964572189401 0 -0.27212625567993781 -0.20101985444733861 0 -0.27212625567993781 -0.20101985444733861 0 -0.27761737707342099 -0.19066155682474589 0 -0.28465210052720408 -0.19916355984493761 0 -0.27761737707342099 -0.19066155682474589 0 -0.28465210052720408 -0.19916355984493761 0 -0.2888471632894743 -0.18439219998153419 0 -0.28465210052720408 -0.19916355984493761 0 -0.29885830588359458 -0.19359004445491329 0 -0.2888471632894743 -0.18439219998153419 0 -0.28465210052720408 -0.19916355984493761 0 -0.29439658309422839 -0.2057923874281499 0 -0.29885830588359458 -0.19359004445491329 0 -0.28025048869802988 -0.21312873548146191 0 -0.28465210052720408 -0.19916355984493761 0 -0.29439658309422839 -0.2057923874281499 0 -0.28025048869802988 -0.21312873548146191 0 -0.29425836173923342 -0.21819286285579989 0 -0.29439658309422839 -0.2057923874281499 0 -0.29439658309422839 -0.2057923874281499 0 -0.30610443113730712 -0.2143965331084986 0 -0.30613969332292462 -0.20387452098569889 0 -0.29425836173923342 -0.21819286285579989 0 -0.29439658309422839 -0.2057923874281499 0 -0.30610443113730712 -0.2143965331084986 0 -0.30610443113730712 -0.2143965331084986 0 -0.30613969332292462 -0.20387452098569889 0 -0.31866032871303479 -0.20934451070301349 0 -0.30613969332292462 -0.20387452098569889 0 -0.31267881778645779 -0.1962491292339191 0 -0.31866032871303479 -0.20934451070301349 0 -0.30613969332292462 -0.20387452098569889 0 -0.29885830588359458 -0.19359004445491329 0 -0.31267881778645779 -0.1962491292339191 0 -0.29885830588359458 -0.19359004445491329 0 -0.30765683528807891 -0.18154297536319941 0 -0.31267881778645779 -0.1962491292339191 0 -0.29439658309422839 -0.2057923874281499 0 -0.30613969332292462 -0.20387452098569889 0 -0.29885830588359458 -0.19359004445491329 0 -0.30765683528807891 -0.18154297536319941 0 -0.29285567870007562 -0.16947314076005299 0 -0.31261878620483491 -0.16668950472562749 0 -0.29885830588359458 -0.19359004445491329 0 -0.30765683528807891 -0.18154297536319941 0 -0.2888471632894743 -0.18439219998153419 0 -0.29888415398233692 -0.1542524267608173 0 -0.3201444893871328 -0.15163637893595569 0 -0.31261878620483491 -0.16668950472562749 0 -0.29285567870007562 -0.16947314076005299 0 -0.29888415398233692 -0.1542524267608173 0 -0.31261878620483491 -0.16668950472562749 0 -0.29285567870007562 -0.16947314076005299 0 -0.27561236110899923 -0.1559244779151073 0 -0.29888415398233692 -0.1542524267608173 0 -0.30765683528807891 -0.18154297536319941 0 -0.29285567870007562 -0.16947314076005299 0 -0.2888471632894743 -0.18439219998153419 0 -0.29285567870007562 -0.16947314076005299 0 -0.2888471632894743 -0.18439219998153419 0 -0.27383058106986818 -0.1765826474180236 0 -0.27761737707342099 -0.19066155682474589 0 -0.2888471632894743 -0.18439219998153419 0 -0.27383058106986818 -0.1765826474180236 0 -0.26682298180914737 -0.19043964572189401 0 -0.27761737707342099 -0.19066155682474589 0 -0.27383058106986818 -0.1765826474180236 0 -0.26682298180914737 -0.19043964572189401 0 -0.27383058106986818 -0.1765826474180236 0 -0.25847959544788829 -0.18262572372651459 0 -0.27383058106986818 -0.1765826474180236 0 -0.25847959544788829 -0.18262572372651459 0 -0.25780483416841699 -0.16345312024383929 0 -0.24937429033053729 -0.1794161311098848 0 -0.25843591323808313 -0.19859255576957191 0 -0.25847959544788829 -0.18262572372651459 0 -0.2403126674229922 -0.16023970645019731 0 -0.25847959544788829 -0.18262572372651459 0 -0.25780483416841699 -0.16345312024383929 0 -0.27383058106986818 -0.1765826474180236 0 -0.25780483416841699 -0.16345312024383929 0 -0.27561236110899923 -0.1559244779151073 0 -0.29285567870007562 -0.16947314076005299 0 -0.27383058106986818 -0.1765826474180236 0 -0.27561236110899923 -0.1559244779151073 0 -0.27561236110899923 -0.1559244779151073 0 -0.25627586698618687 -0.14134322015714329 0 -0.28683711039502441 -0.14132084649032889 0 -0.27561236110899923 -0.1559244779151073 0 -0.25627586698618687 -0.14134322015714329 0 -0.25780483416841699 -0.16345312024383929 0 -0.27561236110899923 -0.1559244779151073 0 -0.25627586698618687 -0.14134322015714329 0 -0.24405810290454921 -0.1456016429592133 0 -0.25780483416841699 -0.16345312024383929 0 -0.25627586698618687 -0.14134322015714329 0 -0.264675904622168 -0.1183076420975329 0 -0.25151550799412831 -0.12459638277672851 0 -0.25627586698618687 -0.14134322015714329 0 -0.264675904622168 -0.1183076420975329 0 -0.28045548244648721 -0.1240426558428291 0 -0.25627586698618687 -0.14134322015714329 0 -0.28045548244648721 -0.1240426558428291 0 -0.25627586698618687 -0.14134322015714329 0 -0.28683711039502441 -0.14132084649032889 0 -0.28683711039502441 -0.14132084649032889 0 -0.3052364980979545 -0.14047021173783161 0 -0.2980187751593063 -0.12565406075212199 0 -0.28045548244648721 -0.1240426558428291 0 -0.28683711039502441 -0.14132084649032889 0 -0.2980187751593063 -0.12565406075212199 0 -0.27561236110899923 -0.1559244779151073 0 -0.28683711039502441 -0.14132084649032889 0 -0.29888415398233692 -0.1542524267608173 0 -0.29888415398233692 -0.1542524267608173 0 -0.3052364980979545 -0.14047021173783161 0 -0.3201444893871328 -0.15163637893595569 0 -0.28683711039502441 -0.14132084649032889 0 -0.29888415398233692 -0.1542524267608173 0 -0.3052364980979545 -0.14047021173783161 0 -0.3052364980979545 -0.14047021173783161 0 -0.2980187751593063 -0.12565406075212199 0 -0.31341845216565373 -0.12550313349223591 0 -0.3052364980979545 -0.14047021173783161 0 -0.32101165496941902 -0.13642196876916049 0 -0.31341845216565373 -0.12550313349223591 0 -0.32719855170750428 -0.12291759668899679 0 -0.32101165496941902 -0.13642196876916049 0 -0.33489623770692178 -0.13130139151947101 0 -0.32719855170750428 -0.12291759668899679 0 -0.32101165496941902 -0.13642196876916049 0 -0.31341845216565373 -0.12550313349223591 0 -0.3052364980979545 -0.14047021173783161 0 -0.32101165496941902 -0.13642196876916049 0 -0.3201444893871328 -0.15163637893595569 0 -0.3201444893871328 -0.15163637893595569 0 -0.33192147130281069 -0.14195464082195219 0 -0.33213898148900051 -0.15136524699607401 0 -0.32101165496941902 -0.13642196876916049 0 -0.3201444893871328 -0.15163637893595569 0 -0.33192147130281069 -0.14195464082195219 0 -0.33192147130281069 -0.14195464082195219 0 -0.33213898148900051 -0.15136524699607401 0 -0.34213437633210469 -0.15162843961457531 0 -0.3201444893871328 -0.15163637893595569 0 -0.33213898148900051 -0.15136524699607401 0 -0.33234692411979933 -0.1607760694419503 0 -0.33213898148900051 -0.15136524699607401 0 -0.34213437633210469 -0.15162843961457531 0 -0.33234692411979933 -0.1607760694419503 0 -0.33192147130281069 -0.14195464082195219 0 -0.34213437633210469 -0.15162843961457531 0 -0.3445973505137026 -0.13915173013277271 0 -0.33192147130281069 -0.14195464082195219 0 -0.33489623770692178 -0.13130139151947101 0 -0.3445973505137026 -0.13915173013277271 0 -0.32101165496941902 -0.13642196876916049 0 -0.33192147130281069 -0.14195464082195219 0 -0.33489623770692178 -0.13130139151947101 0 -0.33983874289660487 -0.1200698395012714 0 -0.33489623770692178 -0.13130139151947101 0 -0.3448096548514894 -0.1272925732026722 0 -0.33489623770692178 -0.13130139151947101 0 -0.3448096548514894 -0.1272925732026722 0 -0.3445973505137026 -0.13915173013277271 0 -0.3448096548514894 -0.1272925732026722 0 -0.34969379765890207 -0.13329663444477641 0 -0.35426510156371033 -0.12915611303919619 0 -0.35245997120530398 -0.12379184712105901 0 -0.3448096548514894 -0.1272925732026722 0 -0.35426510156371033 -0.12915611303919619 0 -0.3448096548514894 -0.1272925732026722 0 -0.34969379765890207 -0.13329663444477641 0 -0.3445973505137026 -0.13915173013277271 0 -0.34969379765890207 -0.13329663444477641 0 -0.3445973505137026 -0.13915173013277271 0 -0.35663598090091853 -0.1375908028332474 0 -0.34969379765890207 -0.13329663444477641 0 -0.35663598090091853 -0.1375908028332474 0 -0.35426510156371033 -0.12915611303919619 0 -0.35781422145107322 -0.1242965498811112 0 -0.35426510156371033 -0.12915611303919619 0 -0.36476093191418357 -0.12990588975340961 0 -0.35663598090091853 -0.1375908028332474 0 -0.35426510156371033 -0.12915611303919619 0 -0.36476093191418357 -0.12990588975340961 0 -0.35781422145107322 -0.1242965498811112 0 -0.35245997120530398 -0.12379184712105901 0 -0.35426510156371033 -0.12915611303919619 0 -0.36256026990520168 -0.1169713834079686 0 -0.37732416674567443 -0.1351576518325032 0 -0.36256026990520168 -0.1169713834079686 0 -0.36476093191418357 -0.12990588975340961 0 -0.37732416674567443 -0.1351576518325032 0 -0.35663598090091853 -0.1375908028332474 0 -0.36476093191418357 -0.12990588975340961 0 -0.36696995385583192 -0.14044264584422481 0 -0.36476093191418357 -0.12990588975340961 0 -0.36696995385583192 -0.14044264584422481 0 -0.37732416674567443 -0.1351576518325032 0 -0.36696995385583192 -0.14044264584422481 0 -0.37414374842693138 -0.15097620031239059 0 -0.37732416674567443 -0.1351576518325032 0 -0.37414374842693138 -0.15097620031239059 0 -0.36198494129145148 -0.14858268448957329 0 -0.36545404627064493 -0.16050578640834889 0 -0.36696995385583192 -0.14044264584422481 0 -0.37414374842693138 -0.15097620031239059 0 -0.36198494129145148 -0.14858268448957329 0 -0.35663598090091853 -0.1375908028332474 0 -0.36696995385583192 -0.14044264584422481 0 -0.36198494129145148 -0.14858268448957329 0 -0.36198494129145148 -0.14858268448957329 0 -0.35526179173074329 -0.156691908586435 0 -0.36545404627064493 -0.16050578640834889 0 -0.36198494129145148 -0.14858268448957329 0 -0.35239847002040692 -0.14630478447130771 0 -0.35526179173074329 -0.156691908586435 0 -0.35663598090091853 -0.1375908028332474 0 -0.36198494129145148 -0.14858268448957329 0 -0.35239847002040692 -0.14630478447130771 0 -0.34213437633210469 -0.15162843961457531 0 -0.3445973505137026 -0.13915173013277271 0 -0.35239847002040692 -0.14630478447130771 0 -0.3445973505137026 -0.13915173013277271 0 -0.35663598090091853 -0.1375908028332474 0 -0.35239847002040692 -0.14630478447130771 0 -0.34213437633210469 -0.15162843961457531 0 -0.35239847002040692 -0.14630478447130771 0 -0.35526179173074329 -0.156691908586435 0 -0.34213437633210469 -0.15162843961457531 0 -0.34555524608915211 -0.16473127086450429 0 -0.35526179173074329 -0.156691908586435 0 -0.34555524608915211 -0.16473127086450429 0 -0.35846343651874391 -0.1681434867971687 0 -0.35050450360414348 -0.1730365723113661 0 -0.34555524608915211 -0.16473127086450429 0 -0.35050450360414348 -0.1730365723113661 0 -0.34223414367063071 -0.17771913371323411 0 -0.34555524608915211 -0.16473127086450429 0 -0.35846343651874391 -0.1681434867971687 0 -0.35526179173074329 -0.156691908586435 0 -0.35846343651874391 -0.1681434867971687 0 -0.35526179173074329 -0.156691908586435 0 -0.36545404627064493 -0.16050578640834889 0 -0.35846343651874391 -0.1681434867971687 0 -0.36545404627064493 -0.16050578640834889 0 -0.36727734960922198 -0.17240243837353891 0 -0.36545404627064493 -0.16050578640834889 0 -0.36727734960922198 -0.17240243837353891 0 -0.3755930100467777 -0.16623799989098681 0 -0.36727734960922198 -0.17240243837353891 0 -0.37535669443598968 -0.17623405701400921 0 -0.3755930100467777 -0.16623799989098681 0 -0.37414374842693138 -0.15097620031239059 0 -0.36545404627064493 -0.16050578640834889 0 -0.3755930100467777 -0.16623799989098681 0 -0.37412626093821821 -0.18640492796425631 0 -0.36680258108440378 -0.18191659448728059 0 -0.37535669443598968 -0.17623405701400921 0 -0.37412626093821821 -0.18640492796425631 0 -0.36680258108440378 -0.18191659448728059 0 -0.3671411858503113 -0.18893942953436341 0 -0.36727734960922198 -0.17240243837353891 0 -0.36680258108440378 -0.18191659448728059 0 -0.37535669443598968 -0.17623405701400921 0 -0.36727734960922198 -0.17240243837353891 0 -0.35978040771058623 -0.17736079950596911 0 -0.36680258108440378 -0.18191659448728059 0 -0.35846343651874391 -0.1681434867971687 0 -0.36727734960922198 -0.17240243837353891 0 -0.35978040771058623 -0.17736079950596911 0 -0.36680258108440378 -0.18191659448728059 0 -0.35833922982581851 -0.1878599546212755 0 -0.3671411858503113 -0.18893942953436341 0 -0.35978040771058623 -0.17736079950596911 0 -0.36680258108440378 -0.18191659448728059 0 -0.35833922982581851 -0.1878599546212755 0 -0.35215777102460782 -0.18053613693877499 0 -0.34801628649779009 -0.18758487802954871 0 -0.35833922982581851 -0.1878599546212755 0 -0.35978040771058623 -0.17736079950596911 0 -0.35215777102460782 -0.18053613693877499 0 -0.35833922982581851 -0.1878599546212755 0 -0.35846343651874391 -0.1681434867971687 0 -0.35978040771058623 -0.17736079950596911 0 -0.35050450360414348 -0.1730365723113661 0 -0.35978040771058623 -0.17736079950596911 0 -0.35215777102460782 -0.18053613693877499 0 -0.35050450360414348 -0.1730365723113661 0 -0.35215777102460782 -0.18053613693877499 0 -0.35050450360414348 -0.1730365723113661 0 -0.34223414367063071 -0.17771913371323411 0 -0.35215777102460782 -0.18053613693877499 0 -0.34223414367063071 -0.17771913371323411 0 -0.34801628649779009 -0.18758487802954871 0 -0.34223414367063071 -0.17771913371323411 0 -0.33992300674812609 -0.1880073555762731 0 -0.34801628649779009 -0.18758487802954871 0 -0.33196048872554063 -0.1830114204233087 0 -0.34223414367063071 -0.17771913371323411 0 -0.33992300674812609 -0.1880073555762731 0 -0.33196048872554063 -0.1830114204233087 0 -0.3334121694414206 -0.1715398216656539 0 -0.32282098551458938 -0.17699528958184579 0 -0.33196048872554063 -0.1830114204233087 0 -0.34223414367063071 -0.17771913371323411 0 -0.3334121694414206 -0.1715398216656539 0 -0.34555524608915211 -0.16473127086450429 0 -0.33234692411979933 -0.1607760694419503 0 -0.3334121694414206 -0.1715398216656539 0 -0.34555524608915211 -0.16473127086450429 0 -0.34223414367063071 -0.17771913371323411 0 -0.3334121694414206 -0.1715398216656539 0 -0.34213437633210469 -0.15162843961457531 0 -0.34555524608915211 -0.16473127086450429 0 -0.33234692411979933 -0.1607760694419503 0 -0.33234692411979933 -0.1607760694419503 0 -0.3334121694414206 -0.1715398216656539 0 -0.32403268448746181 -0.16610867509664759 0 -0.3334121694414206 -0.1715398216656539 0 -0.32403268448746181 -0.16610867509664759 0 -0.32282098551458938 -0.17699528958184579 0 -0.3201444893871328 -0.15163637893595569 0 -0.33234692411979933 -0.1607760694419503 0 -0.32403268448746181 -0.16610867509664759 0 -0.3201444893871328 -0.15163637893595569 0 -0.32403268448746181 -0.16610867509664759 0 -0.31261878620483491 -0.16668950472562749 0 -0.32403268448746181 -0.16610867509664759 0 -0.31261878620483491 -0.16668950472562749 0 -0.32282098551458938 -0.17699528958184579 0 -0.30765683528807891 -0.18154297536319941 0 -0.31261878620483491 -0.16668950472562749 0 -0.32282098551458938 -0.17699528958184579 0 -0.30765683528807891 -0.18154297536319941 0 -0.32282098551458938 -0.17699528958184579 0 -0.3217792285360912 -0.18884344633988351 0 -0.33196048872554063 -0.1830114204233087 0 -0.32282098551458938 -0.17699528958184579 0 -0.3217792285360912 -0.18884344633988351 0 -0.32347998057841271 -0.19869347841953269 0 -0.3217792285360912 -0.18884344633988351 0 -0.33232323399557012 -0.19421734009433189 0 -0.32347998057841271 -0.19869347841953269 0 -0.3217792285360912 -0.18884344633988351 0 -0.31267881778645779 -0.1962491292339191 0 -0.30765683528807891 -0.18154297536319941 0 -0.3217792285360912 -0.18884344633988351 0 -0.31267881778645779 -0.1962491292339191 0 -0.32347998057841271 -0.19869347841953269 0 -0.31267881778645779 -0.1962491292339191 0 -0.31866032871303479 -0.20934451070301349 0 -0.30610443113730712 -0.2143965331084986 0 -0.31866032871303479 -0.20934451070301349 0 -0.31704814812596011 -0.22231818335913739 0 -0.31866032871303479 -0.20934451070301349 0 -0.33077095576725191 -0.21536487988480871 0 -0.31704814812596011 -0.22231818335913739 0 -0.31866032871303479 -0.20934451070301349 0 -0.33195829386090908 -0.20481296572651519 0 -0.33077095576725191 -0.21536487988480871 0 -0.32347998057841271 -0.19869347841953269 0 -0.31866032871303479 -0.20934451070301349 0 -0.33195829386090908 -0.20481296572651519 0 -0.33195829386090908 -0.20481296572651519 0 -0.33077095576725191 -0.21536487988480871 0 -0.34242579831356329 -0.20877012000792231 0 -0.33077095576725191 -0.21536487988480871 0 -0.34242579831356329 -0.20877012000792231 0 -0.34283180394797652 -0.21899183831950469 0 -0.33195829386090908 -0.20481296572651519 0 -0.34242579831356329 -0.20877012000792231 0 -0.34247664510384968 -0.19706844638813881 0 -0.33195829386090908 -0.20481296572651519 0 -0.34247664510384968 -0.19706844638813881 0 -0.33232323399557012 -0.19421734009433189 0 -0.32347998057841271 -0.19869347841953269 0 -0.33195829386090908 -0.20481296572651519 0 -0.33232323399557012 -0.19421734009433189 0 -0.33196048872554063 -0.1830114204233087 0 -0.33232323399557012 -0.19421734009433189 0 -0.33992300674812609 -0.1880073555762731 0 -0.33196048872554063 -0.1830114204233087 0 -0.3217792285360912 -0.18884344633988351 0 -0.33232323399557012 -0.19421734009433189 0 -0.34247664510384968 -0.19706844638813881 0 -0.33232323399557012 -0.19421734009433189 0 -0.33992300674812609 -0.1880073555762731 0 -0.34247664510384968 -0.19706844638813881 0 -0.33992300674812609 -0.1880073555762731 0 -0.34801628649779009 -0.18758487802954871 0 -0.34247664510384968 -0.19706844638813881 0 -0.34801628649779009 -0.18758487802954871 0 -0.35163013713926311 -0.19434796754619851 0 -0.34247664510384968 -0.19706844638813881 0 -0.35032522400023769 -0.20145769059422949 0 -0.35163013713926311 -0.19434796754619851 0 -0.34242579831356329 -0.20877012000792231 0 -0.34247664510384968 -0.19706844638813881 0 -0.35032522400023769 -0.20145769059422949 0 -0.35032522400023769 -0.20145769059422949 0 -0.35766763389745349 -0.19701927302030059 0 -0.35718784412316362 -0.2041656901878986 0 -0.35032522400023769 -0.20145769059422949 0 -0.35766763389745349 -0.19701927302030059 0 -0.35163013713926311 -0.19434796754619851 0 -0.35766763389745349 -0.19701927302030059 0 -0.35833922982581851 -0.1878599546212755 0 -0.35163013713926311 -0.19434796754619851 0 -0.34801628649779009 -0.18758487802954871 0 -0.35833922982581851 -0.1878599546212755 0 -0.35163013713926311 -0.19434796754619851 0 -0.35833922982581851 -0.1878599546212755 0 -0.3671411858503113 -0.18893942953436341 0 -0.36352572509852682 -0.19429067591632079 0 -0.35766763389745349 -0.19701927302030059 0 -0.35833922982581851 -0.1878599546212755 0 -0.36352572509852682 -0.19429067591632079 0 -0.35766763389745349 -0.19701927302030059 0 -0.36352572509852682 -0.19429067591632079 0 -0.36499764319771189 -0.1999936592558807 0 -0.36352572509852682 -0.19429067591632079 0 -0.36499764319771189 -0.1999936592558807 0 -0.37161229782966809 -0.19488439022634291 0 -0.35766763389745349 -0.19701927302030059 0 -0.36499764319771189 -0.1999936592558807 0 -0.35718784412316362 -0.2041656901878986 0 -0.36499764319771189 -0.1999936592558807 0 -0.37440509936479321 -0.2010034787108366 0 -0.36664311868232152 -0.20772794521279719 0 -0.36499764319771189 -0.1999936592558807 0 -0.37440509936479321 -0.2010034787108366 0 -0.37161229782966809 -0.19488439022634291 0 -0.3671411858503113 -0.18893942953436341 0 -0.36352572509852682 -0.19429067591632079 0 -0.37161229782966809 -0.19488439022634291 0 -0.37412626093821821 -0.18640492796425631 0 -0.3671411858503113 -0.18893942953436341 0 -0.37161229782966809 -0.19488439022634291 0 -0.36499764319771189 -0.1999936592558807 0 -0.36664311868232152 -0.20772794521279719 0 -0.35718784412316362 -0.2041656901878986 0 -0.36664311868232152 -0.20772794521279719 0 -0.35718784412316362 -0.2041656901878986 0 -0.35794408997629928 -0.21084420120436809 0 -0.36664311868232152 -0.20772794521279719 0 -0.35794408997629928 -0.21084420120436809 0 -0.3591831638290397 -0.21882511451253031 0 -0.37437919224452409 -0.21268324239397979 0 -0.3591831638290397 -0.21882511451253031 0 -0.37437919224452409 -0.21268324239397979 0 -0.36664311868232152 -0.20772794521279719 0 -0.3591831638290397 -0.21882511451253031 0 -0.34791107139879263 -0.21461154328118751 0 -0.3591831638290397 -0.21882511451253031 0 -0.34283180394797652 -0.21899183831950469 0 -0.35461797010065388 -0.2145527873232935 0 -0.34791107139879263 -0.21461154328118751 0 -0.3591831638290397 -0.21882511451253031 0 -0.35461797010065388 -0.2145527873232935 0 -0.3591831638290397 -0.21882511451253031 0 -0.35461797010065388 -0.2145527873232935 0 -0.35794408997629928 -0.21084420120436809 0 -0.3591831638290397 -0.21882511451253031 0 -0.35461797010065388 -0.2145527873232935 0 -0.35794408997629928 -0.21084420120436809 0 -0.35208835314631798 -0.20894946878531981 0 -0.35718784412316362 -0.2041656901878986 0 -0.35794408997629928 -0.21084420120436809 0 -0.35208835314631798 -0.20894946878531981 0 -0.35032522400023769 -0.20145769059422949 0 -0.35718784412316362 -0.2041656901878986 0 -0.35208835314631798 -0.20894946878531981 0 -0.34242579831356329 -0.20877012000792231 0 -0.35208835314631798 -0.20894946878531981 0 -0.34791107139879263 -0.21461154328118751 0 -0.34242579831356329 -0.20877012000792231 0 -0.35032522400023769 -0.20145769059422949 0 -0.35208835314631798 -0.20894946878531981 0 -0.34242579831356329 -0.20877012000792231 0 -0.34791107139879263 -0.21461154328118751 0 -0.34283180394797652 -0.21899183831950469 0 -0.35461797010065388 -0.2145527873232935 0 -0.35208835314631798 -0.20894946878531981 0 -0.34791107139879263 -0.21461154328118751 0 -0.3591831638290397 -0.21882511451253031 0 -0.36022887783916319 -0.23604711739657941 0 -0.33438423416468849 -0.22884825019713009 0 -0.3591831638290397 -0.21882511451253031 0 -0.33438423416468849 -0.22884825019713009 0 -0.3591831638290397 -0.21882511451253031 0 -0.34283180394797652 -0.21899183831950469 0 -0.33438423416468849 -0.22884825019713009 0 -0.37437919224452409 -0.21268324239397979 0 -0.3591831638290397 -0.21882511451253031 0 -0.37748232784572811 -0.2359503496329321 0 -0.3591831638290397 -0.21882511451253031 0 -0.36022887783916319 -0.23604711739657941 0 -0.37748232784572811 -0.2359503496329321 0 -0.3591831638290397 -0.21882511451253031 0 -0.37748232784572811 -0.2359503496329321 0 -0.37037932240072358 -0.24999915582584881 0 -0.36022887783916319 -0.23604711739657941 0 -0.37748232784572811 -0.2359503496329321 0 -0.3555286812485845 -0.2501349896800531 0 -0.37037932240072358 -0.24999915582584881 0 -0.36022887783916319 -0.23604711739657941 0 -0.3555286812485845 -0.2501349896800531 0 -0.36022887783916319 -0.23604711739657941 0 -0.33438423416468849 -0.22884825019713009 0 -0.3420568595076029 -0.25747954770235609 0 -0.3555286812485845 -0.2501349896800531 0 -0.33438423416468849 -0.22884825019713009 0 -0.32281716316625958 -0.25524718493382248 0 -0.3420568595076029 -0.25747954770235609 0 -0.33438423416468849 -0.22884825019713009 0 -0.3420568595076029 -0.25747954770235609 0 -0.33438423416468849 -0.22884825019713009 0 -0.33077095576725191 -0.21536487988480871 0 -0.34283180394797652 -0.21899183831950469 0 -0.33438423416468849 -0.22884825019713009 0 -0.33077095576725191 -0.21536487988480871 0 -0.33438423416468849 -0.22884825019713009 0 -0.3080344920095332 -0.2394981872891698 0 -0.33438423416468849 -0.22884825019713009 0 -0.31704814812596011 -0.22231818335913739 0 -0.33077095576725191 -0.21536487988480871 0 -0.33438423416468849 -0.22884825019713009 0 -0.31704814812596011 -0.22231818335913739 0 -0.3080344920095332 -0.2394981872891698 0 -0.33438423416468849 -0.22884825019713009 0 -0.32281716316625958 -0.25524718493382248 0 -0.3080344920095332 -0.2394981872891698 0 -0.33438423416468849 -0.22884825019713009 0 -0.43023046646914581 -0.23985392379185319 0 -0.41744802216696569 -0.21903303238228489 0 -0.44462161006640921 -0.2190110932760814 0 -0.43023046646914581 -0.23985392379185319 0 -0.44462161006640921 -0.2190110932760814 0 -0.41744802216696569 -0.21903303238228489 0 -0.41453464611169838 -0.23510384606665799 0 -0.39947786323732332 -0.22860651549460059 0 -0.43023046646914581 -0.23985392379185319 0 -0.41744802216696569 -0.21903303238228489 0 -0.41453464611169838 -0.23510384606665799 0 -0.41744802216696569 -0.21903303238228489 0 -0.39947786323732332 -0.22860651549460059 0 -0.4029274497153611 -0.2136009029985024 0 -0.4093805058146377 -0.2506716607137715 0 -0.41453464611169838 -0.23510384606665799 0 -0.39947786323732332 -0.22860651549460059 0 -0.4093805058146377 -0.2506716607137715 0 -0.42375174642720059 -0.25747665660699209 0 -0.43023046646914581 -0.23985392379185319 0 -0.4093805058146377 -0.2506716607137715 0 -0.43023046646914581 -0.23985392379185319 0 -0.41453464611169838 -0.23510384606665799 0 -0.4093805058146377 -0.2506716607137715 0 -0.39228016303406871 -0.23903993014678601 0 -0.39947786323732332 -0.22860651549460059 0 -0.39578149186241629 -0.25307558475333419 0 -0.4093805058146377 -0.2506716607137715 0 -0.39228016303406871 -0.23903993014678601 0 -0.4093805058146377 -0.2506716607137715 0 -0.39947786323732332 -0.22860651549460059 0 -0.38213681964367452 -0.25932860156274218 0 -0.39578149186241629 -0.25307558475333419 0 -0.37748232784572811 -0.2359503496329321 0 -0.38213681964367452 -0.25932860156274218 0 -0.37037932240072358 -0.24999915582584881 0 -0.37748232784572811 -0.2359503496329321 0 -0.39578149186241629 -0.25307558475333419 0 -0.39228016303406871 -0.23903993014678601 0 -0.37748232784572811 -0.2359503496329321 0 -0.39578149186241629 -0.25307558475333419 0 -0.37748232784572811 -0.2359503496329321 0 -0.37437919224452409 -0.21268324239397979 0 -0.37748232784572811 -0.2359503496329321 0 -0.38540020837955158 -0.22305385507505149 0 -0.39228016303406871 -0.23903993014678601 0 -0.37748232784572811 -0.2359503496329321 0 -0.38540020837955158 -0.22305385507505149 0 -0.38540020837955158 -0.22305385507505149 0 -0.39947786323732332 -0.22860651549460059 0 -0.38957522066000883 -0.20654137027542971 0 -0.39228016303406871 -0.23903993014678601 0 -0.38540020837955158 -0.22305385507505149 0 -0.39947786323732332 -0.22860651549460059 0 -0.39947786323732332 -0.22860651549460059 0 -0.4029274497153611 -0.2136009029985024 0 -0.38957522066000883 -0.20654137027542971 0 -0.38957522066000883 -0.20654137027542971 0 -0.38822297524924398 -0.2035282865326285 0 -0.405208692797148 -0.20022269384169761 0 -0.4029274497153611 -0.2136009029985024 0 -0.38957522066000883 -0.20654137027542971 0 -0.405208692797148 -0.20022269384169761 0 -0.39947786323732332 -0.22860651549460059 0 -0.38957522066000883 -0.20654137027542971 0 -0.38957522066000883 -0.20654137027542971 0 -0.405208692797148 -0.20022269384169761 0 -0.37437919224452409 -0.21268324239397979 0 -0.38540020837955158 -0.22305385507505149 0 -0.38957522066000883 -0.20654137027542971 0 -0.37440509936479321 -0.2010034787108366 0 -0.36664311868232152 -0.20772794521279719 0 -0.38822297524924398 -0.2035282865326285 0 -0.36664311868232152 -0.20772794521279719 0 -0.38822297524924398 -0.2035282865326285 0 -0.37437919224452409 -0.21268324239397979 0 -0.36664311868232152 -0.20772794521279719 0 -0.38822297524924398 -0.2035282865326285 0 -0.37437919224452409 -0.21268324239397979 0 -0.38957522066000883 -0.20654137027542971 0 -0.38822297524924398 -0.2035282865326285 0 -0.38957522066000883 -0.20654137027542971 0 -0.38822297524924398 -0.2035282865326285 0 -0.37437919224452409 -0.21268324239397979 0 -0.38957522066000883 -0.20654137027542971 0 -0.37161229782966809 -0.19488439022634291 0 -0.38102451516259789 -0.19152308316486569 0 -0.37994467581138641 -0.19805875226922071 0 -0.37412626093821821 -0.18640492796425631 0 -0.37161229782966809 -0.19488439022634291 0 -0.38102451516259789 -0.19152308316486569 0 -0.38102451516259789 -0.19152308316486569 0 -0.37994467581138641 -0.19805875226922071 0 -0.38307280076577571 -0.19563095418573359 0 -0.37440509936479321 -0.2010034787108366 0 -0.38822297524924398 -0.2035282865326285 0 -0.37994467581138641 -0.19805875226922071 0 -0.37440509936479321 -0.2010034787108366 0 -0.37161229782966809 -0.19488439022634291 0 -0.37994467581138641 -0.19805875226922071 0 -0.38822297524924398 -0.2035282865326285 0 -0.37994467581138641 -0.19805875226922071 0 -0.38617773200625949 -0.19897105962954231 0 -0.38617773200625949 -0.19897105962954231 0 -0.38307280076577571 -0.19563095418573359 0 -0.38896539421689619 -0.19153555996744981 0 -0.37994467581138641 -0.19805875226922071 0 -0.38617773200625949 -0.19897105962954231 0 -0.38307280076577571 -0.19563095418573359 0 -0.38822297524924398 -0.2035282865326285 0 -0.38617773200625949 -0.19897105962954231 0 -0.38896539421689619 -0.19153555996744981 0 -0.38822297524924398 -0.2035282865326285 0 -0.38617773200625949 -0.19897105962954231 0 -0.38102451516259789 -0.19152308316486569 0 -0.38896539421689619 -0.19153555996744981 0 -0.38276769207642652 -0.1830953735691094 0 -0.38102451516259789 -0.19152308316486569 0 -0.38307280076577571 -0.19563095418573359 0 -0.38896539421689619 -0.19153555996744981 0 -0.38896539421689619 -0.19153555996744981 0 -0.39820428917594408 -0.19088785020773821 0 -0.391780015281598 -0.1815468823694793 0 -0.38822297524924398 -0.2035282865326285 0 -0.405208692797148 -0.20022269384169761 0 -0.38822297524924398 -0.2035282865326285 0 -0.39820428917594408 -0.19088785020773821 0 -0.405208692797148 -0.20022269384169761 0 -0.38822297524924398 -0.2035282865326285 0 -0.38896539421689619 -0.19153555996744981 0 -0.39820428917594408 -0.19088785020773821 0 -0.39820428917594408 -0.19088785020773821 0 -0.405208692797148 -0.20022269384169761 0 -0.40673842328362109 -0.18718266024673119 0 -0.405208692797148 -0.20022269384169761 0 -0.42625555382956598 -0.19612676149150199 0 -0.405208692797148 -0.20022269384169761 0 -0.42358270348472071 -0.1927963571132755 0 -0.40673842328362109 -0.18718266024673119 0 -0.405208692797148 -0.20022269384169761 0 -0.42358270348472071 -0.1927963571132755 0 -0.42625555382956598 -0.19612676149150199 0 -0.405208692797148 -0.20022269384169761 0 -0.42358270348472071 -0.1927963571132755 0 -0.41744802216696569 -0.21903303238228489 0 -0.405208692797148 -0.20022269384169761 0 -0.42625555382956598 -0.19612676149150199 0 -0.41744802216696569 -0.21903303238228489 0 -0.4029274497153611 -0.2136009029985024 0 -0.405208692797148 -0.20022269384169761 0 -0.42625555382956598 -0.19612676149150199 0 -0.44462161006640921 -0.2190110932760814 0 -0.41744802216696569 -0.21903303238228489 0 -0.42625555382956598 -0.19612676149150199 0 -0.44462161006640921 -0.2190110932760814 0 -0.42358270348472071 -0.1927963571132755 0 -0.44282999077731777 -0.18501706281690261 0 -0.42625555382956598 -0.19612676149150199 0 -0.44599077341184978 -0.19228608785371731 0 -0.42358270348472071 -0.1927963571132755 0 -0.42625555382956598 -0.19612676149150199 0 -0.44282999077731777 -0.18501706281690261 0 -0.42358270348472071 -0.1927963571132755 0 -0.42625555382956598 -0.19612676149150199 0 -0.42358270348472071 -0.1927963571132755 0 -0.43422243861600102 -0.17429194703959949 0 -0.44282999077731777 -0.18501706281690261 0 -0.43422243861600102 -0.17429194703959949 0 -0.42388092841407032 -0.16103602093524191 0 -0.44888482387646289 -0.16145448699070419 0 -0.42388092841407032 -0.16103602093524191 0 -0.40636759916208859 -0.17134612555866849 0 -0.40838513860014819 -0.15289614790076031 0 -0.43422243861600102 -0.17429194703959949 0 -0.42388092841407032 -0.16103602093524191 0 -0.40636759916208859 -0.17134612555866849 0 -0.42358270348472071 -0.1927963571132755 0 -0.40636759916208859 -0.17134612555866849 0 -0.40673842328362109 -0.18718266024673119 0 -0.42358270348472071 -0.1927963571132755 0 -0.43422243861600102 -0.17429194703959949 0 -0.40636759916208859 -0.17134612555866849 0 -0.43422243861600102 -0.17429194703959949 0 -0.40636759916208859 -0.17134612555866849 0 -0.42358270348472071 -0.1927963571132755 0 -0.40636759916208859 -0.17134612555866849 0 -0.39820428917594408 -0.19088785020773821 0 -0.40673842328362109 -0.18718266024673119 0 -0.40032883179820278 -0.18066027451227981 0 -0.40636759916208859 -0.17134612555866849 0 -0.40673842328362109 -0.18718266024673119 0 -0.40032883179820278 -0.18066027451227981 0 -0.40636759916208859 -0.17134612555866849 0 -0.40032883179820278 -0.18066027451227981 0 -0.39372502479038712 -0.17000909515790349 0 -0.40032883179820278 -0.18066027451227981 0 -0.391780015281598 -0.1815468823694793 0 -0.39372502479038712 -0.17000909515790349 0 -0.39820428917594408 -0.19088785020773821 0 -0.40032883179820278 -0.18066027451227981 0 -0.391780015281598 -0.1815468823694793 0 -0.38896539421689619 -0.19153555996744981 0 -0.391780015281598 -0.1815468823694793 0 -0.38276769207642652 -0.1830953735691094 0 -0.391780015281598 -0.1815468823694793 0 -0.3843440371601477 -0.17296361895491619 0 -0.38276769207642652 -0.1830953735691094 0 -0.391780015281598 -0.1815468823694793 0 -0.3843440371601477 -0.17296361895491619 0 -0.39372502479038712 -0.17000909515790349 0 -0.3843440371601477 -0.17296361895491619 0 -0.37535669443598968 -0.17623405701400921 0 -0.38276769207642652 -0.1830953735691094 0 -0.37412626093821821 -0.18640492796425631 0 -0.38102451516259789 -0.19152308316486569 0 -0.38276769207642652 -0.1830953735691094 0 -0.37412626093821821 -0.18640492796425631 0 -0.37535669443598968 -0.17623405701400921 0 -0.38276769207642652 -0.1830953735691094 0 -0.38526736899256497 -0.16254671664751821 0 -0.39372502479038712 -0.17000909515790349 0 -0.39184588295388229 -0.15325188869558529 0 -0.37414374842693138 -0.15097620031239059 0 -0.3755930100467777 -0.16623799989098681 0 -0.38526736899256497 -0.16254671664751821 0 -0.3843440371601477 -0.17296361895491619 0 -0.3755930100467777 -0.16623799989098681 0 -0.38526736899256497 -0.16254671664751821 0 -0.3843440371601477 -0.17296361895491619 0 -0.37535669443598968 -0.17623405701400921 0 -0.3755930100467777 -0.16623799989098681 0 -0.3843440371601477 -0.17296361895491619 0 -0.38526736899256497 -0.16254671664751821 0 -0.39372502479038712 -0.17000909515790349 0 -0.40636759916208859 -0.17134612555866849 0 -0.39184588295388229 -0.15325188869558529 0 -0.40636759916208859 -0.17134612555866849 0 -0.39372502479038712 -0.17000909515790349 0 -0.39184588295388229 -0.15325188869558529 0 -0.40636759916208859 -0.17134612555866849 0 -0.39184588295388229 -0.15325188869558529 0 -0.40838513860014819 -0.15289614790076031 0 -0.40636759916208859 -0.17134612555866849 0 -0.39372502479038712 -0.17000909515790349 0 -0.39184588295388229 -0.15325188869558529 0 -0.40111314751346627 -0.13466118424139989 0 -0.40838513860014819 -0.15289614790076031 0 -0.39184588295388229 -0.15325188869558529 0 -0.37732416674567443 -0.1351576518325032 0 -0.40111314751346627 -0.13466118424139989 0 -0.37414374842693138 -0.15097620031239059 0 -0.38526736899256497 -0.16254671664751821 0 -0.39184588295388229 -0.15325188869558529 0 -0.39184588295388229 -0.15325188869558529 0 -0.37732416674567443 -0.1351576518325032 0 -0.37414374842693138 -0.15097620031239059 0 -0.39184588295388229 -0.15325188869558529 0 -0.37732416674567443 -0.1351576518325032 0 -0.37732416674567443 -0.1351576518325032 0 -0.40111314751346627 -0.13466118424139989 0 -0.38551701165619767 -0.1186545542339927 0 -0.40111314751346627 -0.13466118424139989 0 -0.4200171579975 -0.1428709483248034 0 -0.42163284423163039 -0.1229039083375334 0 -0.42388092841407032 -0.16103602093524191 0 -0.40838513860014819 -0.15289614790076031 0 -0.4200171579975 -0.1428709483248034 0 -0.40111314751346627 -0.13466118424139989 0 -0.40838513860014819 -0.15289614790076031 0 -0.4200171579975 -0.1428709483248034 0 -0.42388092841407032 -0.16103602093524191 0 -0.4200171579975 -0.1428709483248034 0 -0.44755623545957268 -0.14094354732044639 0 -0.4200171579975 -0.1428709483248034 0 -0.44755623545957268 -0.14094354732044639 0 -0.42163284423163039 -0.1229039083375334 0 -0.44755623545957268 -0.14094354732044639 0 -0.46702312222815362 -0.15153135695474279 0 -0.46503749030638131 -0.1201852284944262 0 -0.42388092841407032 -0.16103602093524191 0 -0.44755623545957268 -0.14094354732044639 0 -0.44888482387646289 -0.16145448699070419 0 -0.44755623545957268 -0.14094354732044639 0 -0.46702312222815362 -0.15153135695474279 0 -0.44888482387646289 -0.16145448699070419 0 -0.44755623545957268 -0.14094354732044639 0 -0.46503749030638131 -0.1201852284944262 0 -0.46702312222815362 -0.15153135695474279 0 -0.48094773686457598 -0.1367098916680124 0 -0.46503749030638131 -0.1201852284944262 0 -0.48094773686457598 -0.1367098916680124 0 -0.46503749030638131 -0.1201852284944262 0 -0.4857007944648295 -0.1207730779530433 0 -0.48094773686457598 -0.1367098916680124 0 -0.50000000000000022 -0.13880604300878599 0 -0.4857007944648295 -0.1207730779530433 0 -0.50000000000000022 -0.13880604300878599 0 -0.48893615212081432 -0.15482991940468571 0 -0.48094773686457598 -0.1367098916680124 0 -0.50000000000000022 -0.13880604300878599 0 -0.48893615212081432 -0.15482991940468571 0 -0.50000000000000022 -0.13880604300878599 0 -0.48893615212081432 -0.15482991940468571 0 -0.50000000000001532 -0.1619103091269368 0 -0.46702312222815362 -0.15153135695474279 0 -0.48094773686457598 -0.1367098916680124 0 -0.48893615212081432 -0.15482991940468571 0 -0.48893615212081432 -0.15482991940468571 0 -0.47787230424162958 -0.17085379580058621 0 -0.46702312222815362 -0.15153135695474279 0 -0.47787230424162958 -0.17085379580058621 0 -0.46207727806991372 -0.17723776852052719 0 -0.46702312222815362 -0.15153135695474279 0 -0.48893615212081432 -0.15482991940468571 0 -0.47787230424162958 -0.17085379580058621 0 -0.48893615212081432 -0.15482991940468571 0 -0.47787230424162958 -0.17085379580058621 0 -0.50000000000001532 -0.1619103091269368 0 -0.47787230424162958 -0.17085379580058621 0 -0.50000000000001532 -0.1619103091269368 0 -0.50000000000000488 -0.18124833081659769 0 -0.47787230424162958 -0.17085379580058621 0 -0.50000000000001532 -0.1619103091269368 0 -0.50000000000000488 -0.18124833081659769 0 -0.47268951545127719 -0.17836007823229291 0 -0.49028144196665818 -0.1836666751124971 0 -0.50000000000000488 -0.18124833081659769 0 -0.47268951545127719 -0.17836007823229291 0 -0.49028144196665818 -0.1836666751124971 0 -0.46572599299413281 -0.1884454142159287 0 -0.47787230424162958 -0.17085379580058621 0 -0.50000000000000488 -0.18124833081659769 0 -0.47268951545127719 -0.17836007823229291 0 -0.47787230424162958 -0.17085379580058621 0 -0.47268951545127719 -0.17836007823229291 0 -0.46207727806991372 -0.17723776852052719 0 -0.47787230424162958 -0.17085379580058621 0 -0.46207727806991372 -0.17723776852052719 0 -0.49028144196665818 -0.1836666751124971 0 -0.47268951545127719 -0.17836007823229291 0 -0.46572599299413281 -0.1884454142159287 0 -0.47787230424162958 -0.17085379580058621 0 -0.47268951545127719 -0.17836007823229291 0 -0.47268951545127719 -0.17836007823229291 0 -0.46572599299413281 -0.1884454142159287 0 -0.47268951545127719 -0.17836007823229291 0 -0.46207727806991372 -0.17723776852052719 0 -0.46572599299413281 -0.1884454142159287 0 -0.45496057929012329 -0.1857524047749595 0 -0.46207727806991372 -0.17723776852052719 0 -0.44282999077731777 -0.18501706281690261 0 -0.45496057929012329 -0.1857524047749595 0 -0.46207727806991372 -0.17723776852052719 0 -0.46572599299413281 -0.1884454142159287 0 -0.47268951545127719 -0.17836007823229291 0 -0.46207727806991372 -0.17723776852052719 0 -0.46702312222815362 -0.15153135695474279 0 -0.46207727806991372 -0.17723776852052719 0 -0.44888482387646289 -0.16145448699070419 0 -0.43422243861600102 -0.17429194703959949 0 -0.46207727806991372 -0.17723776852052719 0 -0.44888482387646289 -0.16145448699070419 0 -0.43422243861600102 -0.17429194703959949 0 -0.46207727806991372 -0.17723776852052719 0 -0.44282999077731777 -0.18501706281690261 0 -0.43422243861600102 -0.17429194703959949 0 -0.46207727806991372 -0.17723776852052719 0 -0.46207727806991372 -0.17723776852052719 0 -0.44282999077731777 -0.18501706281690261 0 -0.42625555382956598 -0.19612676149150199 0 -0.44282999077731777 -0.18501706281690261 0 -0.44599077341184978 -0.19228608785371731 0 -0.42625555382956598 -0.19612676149150199 0 -0.44599077341184978 -0.19228608785371731 0 -0.44462161006640921 -0.2190110932760814 0 -0.45496057929012329 -0.1857524047749595 0 -0.44282999077731777 -0.18501706281690261 0 -0.44599077341184978 -0.19228608785371731 0 -0.44599077341184978 -0.19228608785371731 0 -0.4551738015302691 -0.20372825374600381 0 -0.44462161006640921 -0.2190110932760814 0 -0.4551738015302691 -0.20372825374600381 0 -0.45748136804653577 -0.215837986767138 0 -0.44462161006640921 -0.2190110932760814 0 -0.4551738015302691 -0.20372825374600381 0 -0.44462161006640921 -0.2190110932760814 0 -0.45748136804653577 -0.215837986767138 0 -0.4672844036349284 -0.2031670508929008 0 -0.47093415502521058 -0.22131426350988309 0 -0.4551738015302691 -0.20372825374600381 0 -0.45748136804653577 -0.215837986767138 0 -0.4672844036349284 -0.2031670508929008 0 -0.44599077341184978 -0.19228608785371731 0 -0.46572599299413281 -0.1884454142159287 0 -0.4551738015302691 -0.20372825374600381 0 -0.4672844036349284 -0.2031670508929008 0 -0.46572599299413281 -0.1884454142159287 0 -0.45496057929012329 -0.1857524047749595 0 -0.44599077341184978 -0.19228608785371731 0 -0.46572599299413281 -0.1884454142159287 0 -0.44599077341184978 -0.19228608785371731 0 -0.4551738015302691 -0.20372825374600381 0 -0.46572599299413281 -0.1884454142159287 0 -0.4551738015302691 -0.20372825374600381 0 -0.46572599299413281 -0.1884454142159287 0 -0.49028144196665818 -0.1836666751124971 0 -0.46572599299413281 -0.1884454142159287 0 -0.48080246527715192 -0.2027467238985983 0 -0.4672844036349284 -0.2031670508929008 0 -0.46572599299413281 -0.1884454142159287 0 -0.48080246527715192 -0.2027467238985983 0 -0.49028144196665818 -0.1836666751124971 0 -0.48080246527715192 -0.2027467238985983 0 -0.5 -0.2090851688799524 0 -0.49028144196665818 -0.1836666751124971 0 -0.50000000000000488 -0.18124833081659769 0 -0.5 -0.2090851688799524 0 -0.48080246527715192 -0.2027467238985983 0 -0.5 -0.2090851688799524 0 -0.48572414893933258 -0.22467199847371369 0 -0.48080246527715192 -0.2027467238985983 0 -0.47093415502521058 -0.22131426350988309 0 -0.48572414893933258 -0.22467199847371369 0 -0.4672844036349284 -0.2031670508929008 0 -0.48080246527715192 -0.2027467238985983 0 -0.47093415502521058 -0.22131426350988309 0 -0.47093415502521058 -0.22131426350988309 0 -0.48572414893933258 -0.22467199847371369 0 -0.47737559893209919 -0.2436496940318624 0 -0.47093415502521058 -0.22131426350988309 0 -0.47737559893209919 -0.2436496940318624 0 -0.46208531904319461 -0.236770957099911 0 -0.5 -0.2090851688799524 0 -0.48572414893933258 -0.22467199847371369 0 -0.5 -0.23692200694330709 0 -0.48572414893933258 -0.22467199847371369 0 -0.5 -0.23692200694330709 0 -0.47737559893209919 -0.2436496940318624 0 -0.5 -0.26475884500666191 0 -0.5 -0.23692200694330709 0 -0.47737559893209919 -0.2436496940318624 0 -0.45801144875205019 -0.25334539799888911 0 -0.47737559893209919 -0.2436496940318624 0 -0.45801144875205019 -0.25334539799888911 0 -0.46208531904319461 -0.236770957099911 0 -0.44834333113090741 -0.24016017746343199 0 -0.45801144875205019 -0.25334539799888911 0 -0.47737559893209919 -0.2436496940318624 0 -0.46208531904319461 -0.236770957099911 0 -0.46208531904319461 -0.236770957099911 0 -0.45742452564993907 -0.2275301903700099 0 -0.44834333113090741 -0.24016017746343199 0 -0.47093415502521058 -0.22131426350988309 0 -0.46208531904319461 -0.236770957099911 0 -0.45742452564993907 -0.2275301903700099 0 -0.45748136804653577 -0.215837986767138 0 -0.47093415502521058 -0.22131426350988309 0 -0.45742452564993907 -0.2275301903700099 0 -0.45748136804653577 -0.215837986767138 0 -0.45742452564993907 -0.2275301903700099 0 -0.44827845500384689 -0.2235675670096853 0 -0.43023046646914581 -0.23985392379185319 0 -0.44827845500384689 -0.2235675670096853 0 -0.44462161006640921 -0.2190110932760814 0 -0.45742452564993907 -0.2275301903700099 0 -0.44827845500384689 -0.2235675670096853 0 -0.44834333113090741 -0.24016017746343199 0 -0.45748136804653577 -0.215837986767138 0 -0.44827845500384689 -0.2235675670096853 0 -0.44462161006640921 -0.2190110932760814 0 -0.44827845500384689 -0.2235675670096853 0 -0.44462161006640921 -0.2190110932760814 0 -0.43023046646914581 -0.23985392379185319 0 -0.44827845500384689 -0.2235675670096853 0 -0.44834333113090741 -0.24016017746343199 0 -0.43864729857200108 -0.26304110196591568 0 -0.43023046646914581 -0.23985392379185319 0 -0.44834333113090741 -0.24016017746343199 0 -0.40861272440553781 -0.049186011585142013 0 -0.42795871190741591 -0.051220396517092717 0 -0.42235840103521449 -0.034675026478302069 0 -0.40861272440553781 -0.049186011585142013 0 -0.42235840103521449 -0.034675026478302069 0 -0.39703284996436289 -0.026256946939048259 0 -0.40861272440553781 -0.049186011585142013 0 -0.42795871190741591 -0.051220396517092717 0 -0.4209693825399754 -0.064073139365195056 0 -0.40861272440553781 -0.049186011585142013 0 -0.40366856539997292 -0.072621504347480798 0 -0.4209693825399754 -0.064073139365195056 0 -0.42795871190741591 -0.051220396517092717 0 -0.4209693825399754 -0.064073139365195056 0 -0.44028282676244079 -0.064245903855236458 0 -0.42795871190741591 -0.051220396517092717 0 -0.42235840103521449 -0.034675026478302069 0 -0.44757022479391079 -0.043921901301587997 0 -0.42235840103521449 -0.034675026478302069 0 -0.44757022479391079 -0.043921901301587997 0 -0.43960898304192048 -0.023521391493968601 0 -0.42235840103521449 -0.034675026478302069 0 -0.41921392636651439 -0.01638213025511872 0 -0.43960898304192048 -0.023521391493968601 0 -0.43328114868639828 -0.0090595337897695014 0 -0.41921392636651439 -0.01638213025511872 0 -0.43960898304192048 -0.023521391493968601 0 -0.43328114868639828 -0.0090595337897695014 0 -0.41921392636651439 -0.01638213025511872 0 -0.41937054600511359 0.0023375494341298609 0 -0.41921392636651439 -0.01638213025511872 0 -0.40363162946607678 -0.0071174322637537688 0 -0.41937054600511359 0.0023375494341298609 0 -0.41921392636651439 -0.01638213025511872 0 -0.39703284996436289 -0.026256946939048259 0 -0.40363162946607678 -0.0071174322637537688 0 -0.42235840103521449 -0.034675026478302069 0 -0.41921392636651439 -0.01638213025511872 0 -0.39703284996436289 -0.026256946939048259 0 -0.39703284996436289 -0.026256946939048259 0 -0.40363162946607678 -0.0071174322637537688 0 -0.38484909517029481 -0.014784741646386121 0 -0.40363162946607678 -0.0071174322637537688 0 -0.38484909517029481 -0.014784741646386121 0 -0.3809477351706122 0.0027779631661205301 0 -0.36257320357981859 -0.012194253395404061 0 -0.38484909517029481 -0.014784741646386121 0 -0.3809477351706122 0.0027779631661205301 0 -0.39703284996436289 -0.026256946939048259 0 -0.38484909517029481 -0.014784741646386121 0 -0.37598279533181522 -0.029628349151500848 0 -0.39703284996436289 -0.026256946939048259 0 -0.37598279533181522 -0.029628349151500848 0 -0.38810706618104662 -0.049745106066023309 0 -0.36398573043032001 -0.045122201745531908 0 -0.37598279533181522 -0.029628349151500848 0 -0.38810706618104662 -0.049745106066023309 0 -0.39703284996436289 -0.026256946939048259 0 -0.38810706618104662 -0.049745106066023309 0 -0.40861272440553781 -0.049186011585142013 0 -0.39703284996436289 -0.026256946939048259 0 -0.38810706618104662 -0.049745106066023309 0 -0.40861272440553781 -0.049186011585142013 0 -0.38810706618104662 -0.049745106066023309 0 -0.40366856539997292 -0.072621504347480798 0 -0.38810706618104662 -0.049745106066023309 0 -0.37918128239773041 -0.073233265192998262 0 -0.36479289152511979 -0.062874062339952075 0 -0.38810706618104662 -0.049745106066023309 0 -0.37918128239773041 -0.073233265192998262 0 -0.38810706618104662 -0.049745106066023309 0 -0.37918128239773041 -0.073233265192998262 0 -0.40366856539997292 -0.072621504347480798 0 -0.37918128239773041 -0.073233265192998262 0 -0.39619889241447459 -0.09158796185438918 0 -0.38464238827253139 -0.1004914855687177 0 -0.3702554986144142 -0.096721424319973118 0 -0.37918128239773041 -0.073233265192998262 0 -0.38464238827253139 -0.1004914855687177 0 -0.37918128239773041 -0.073233265192998262 0 -0.39619889241447459 -0.09158796185438918 0 -0.40366856539997292 -0.072621504347480798 0 -0.39619889241447459 -0.09158796185438918 0 -0.40366856539997292 -0.072621504347480798 0 -0.41522649143400853 -0.098607886959600988 0 -0.37732416674567443 -0.1351576518325032 0 -0.38551701165619767 -0.1186545542339927 0 -0.37522264613750661 -0.1204780820721596 0 -0.38551701165619767 -0.1186545542339927 0 -0.38464238827253139 -0.1004914855687177 0 -0.40145468894168362 -0.1117150005582314 0 -0.38551701165619767 -0.1186545542339927 0 -0.37524695561068788 -0.11103670725272161 0 -0.38464238827253139 -0.1004914855687177 0 -0.38551701165619767 -0.1186545542339927 0 -0.37522264613750661 -0.1204780820721596 0 -0.37524695561068788 -0.11103670725272161 0 -0.3702554986144142 -0.096721424319973118 0 -0.37524695561068788 -0.11103670725272161 0 -0.38464238827253139 -0.1004914855687177 0 -0.39619889241447459 -0.09158796185438918 0 -0.38464238827253139 -0.1004914855687177 0 -0.40145468894168362 -0.1117150005582314 0 -0.39619889241447459 -0.09158796185438918 0 -0.40145468894168362 -0.1117150005582314 0 -0.41522649143400853 -0.098607886959600988 0 -0.40111314751346627 -0.13466118424139989 0 -0.38551701165619767 -0.1186545542339927 0 -0.40145468894168362 -0.1117150005582314 0 -0.44755623545957268 -0.14094354732044639 0 -0.42163284423163039 -0.1229039083375334 0 -0.44186540301422722 -0.1071829400144996 0 -0.40145468894168362 -0.1117150005582314 0 -0.42163284423163039 -0.1229039083375334 0 -0.41522649143400853 -0.098607886959600988 0 -0.40111314751346627 -0.13466118424139989 0 -0.40145468894168362 -0.1117150005582314 0 -0.42163284423163039 -0.1229039083375334 0 -0.41522649143400853 -0.098607886959600988 0 -0.4285471445958528 -0.08217933981738626 0 -0.44186540301422722 -0.1071829400144996 0 -0.42163284423163039 -0.1229039083375334 0 -0.41522649143400853 -0.098607886959600988 0 -0.44186540301422722 -0.1071829400144996 0 -0.40366856539997292 -0.072621504347480798 0 -0.4209693825399754 -0.064073139365195056 0 -0.4285471445958528 -0.08217933981738626 0 -0.40366856539997292 -0.072621504347480798 0 -0.41522649143400853 -0.098607886959600988 0 -0.4285471445958528 -0.08217933981738626 0 -0.4209693825399754 -0.064073139365195056 0 -0.4285471445958528 -0.08217933981738626 0 -0.44028282676244079 -0.064245903855236458 0 -0.44028282676244079 -0.064245903855236458 0 -0.45149471580549388 -0.082488446232582502 0 -0.47197997055397978 -0.061512118566184298 0 -0.4285471445958528 -0.08217933981738626 0 -0.44028282676244079 -0.064245903855236458 0 -0.45149471580549388 -0.082488446232582502 0 -0.4285471445958528 -0.08217933981738626 0 -0.45149471580549388 -0.082488446232582502 0 -0.44186540301422722 -0.1071829400144996 0 -0.45149471580549388 -0.082488446232582502 0 -0.46266014724958648 -0.10044326484988871 0 -0.47183395125857441 -0.083090051654580041 0 -0.45149471580549388 -0.082488446232582502 0 -0.47183395125857441 -0.083090051654580041 0 -0.47197997055397978 -0.061512118566184298 0 -0.44755623545957268 -0.14094354732044639 0 -0.44186540301422722 -0.1071829400144996 0 -0.46503749030638131 -0.1201852284944262 0 -0.45149471580549388 -0.082488446232582502 0 -0.44186540301422722 -0.1071829400144996 0 -0.46266014724958648 -0.10044326484988871 0 -0.44186540301422722 -0.1071829400144996 0 -0.46266014724958648 -0.10044326484988871 0 -0.46503749030638131 -0.1201852284944262 0 -0.46503749030638131 -0.1201852284944262 0 -0.48251874515318999 -0.099426909668405894 0 -0.4857007944648295 -0.1207730779530433 0 -0.46503749030638131 -0.1201852284944262 0 -0.48251874515318999 -0.099426909668405894 0 -0.46266014724958648 -0.10044326484988871 0 -0.46503749030638131 -0.1201852284944262 0 -0.48251874515318999 -0.099426909668405894 0 -0.46266014724958648 -0.10044326484988871 0 -0.48251874515318999 -0.099426909668405894 0 -0.47183395125857441 -0.083090051654580041 0 -0.48251874515318999 -0.099426909668405894 0 -0.5 -0.1087373169255859 0 -0.49999999999999911 -0.078668590842385977 0 -0.48251874515318999 -0.099426909668405894 0 -0.5 -0.1087373169255859 0 -0.4857007944648295 -0.1207730779530433 0 -0.50000000000000022 -0.13880604300878599 0 -0.5 -0.1087373169255859 0 -0.4857007944648295 -0.1207730779530433 0 -0.47183395125857441 -0.083090051654580041 0 -0.49999999999999911 -0.078668590842385977 0 -0.47197997055397978 -0.061512118566184298 0 -0.48251874515318999 -0.099426909668405894 0 -0.47183395125857441 -0.083090051654580041 0 -0.49999999999999911 -0.078668590842385977 0 -0.48251874515318999 -0.099426909668405894 0 -0.49999999999999911 -0.078668590842385977 0 -0.49999999999999911 -0.078668590842385977 0 -0.5 -0.050849560728652883 0 -0.47197997055397978 -0.061512118566184298 0 -0.5 -0.050849560728652883 0 -0.47819464505182152 -0.03659521624160382 0 -0.5 -0.023030530614919661 0 -0.5 -0.050849560728652883 0 -0.47819464505182152 -0.03659521624160382 0 -0.47197997055397978 -0.061512118566184298 0 -0.44028282676244079 -0.064245903855236458 0 -0.47197997055397978 -0.061512118566184298 0 -0.44757022479391079 -0.043921901301587997 0 -0.47819464505182152 -0.03659521624160382 0 -0.47197997055397978 -0.061512118566184298 0 -0.44757022479391079 -0.043921901301587997 0 -0.47819464505182152 -0.03659521624160382 0 -0.44757022479391079 -0.043921901301587997 0 -0.45907776070717632 -0.02062181678599892 0 -0.42795871190741591 -0.051220396517092717 0 -0.44028282676244079 -0.064245903855236458 0 -0.44757022479391079 -0.043921901301587997 0 -0.43328114868639828 -0.0090595337897695014 0 -0.44970188090056618 -0.0070947829581152174 0 -0.43960898304192048 -0.023521391493968601 0 -0.43328114868639828 -0.0090595337897695014 0 -0.44970188090056618 -0.0070947829581152174 0 -0.4444869924105988 0.0039566657421790099 0 -0.44757022479391079 -0.043921901301587997 0 -0.43960898304192048 -0.023521391493968601 0 -0.45907776070717632 -0.02062181678599892 0 -0.44970188090056618 -0.0070947829581152174 0 -0.43960898304192048 -0.023521391493968601 0 -0.45907776070717632 -0.02062181678599892 0 -0.44970188090056618 -0.0070947829581152174 0 -0.45907776070717632 -0.02062181678599892 0 -0.46712162032275051 -0.003878327750432523 0 -0.44970188090056618 -0.0070947829581152174 0 -0.46712162032275051 -0.003878327750432523 0 -0.45627811214530728 0.007570946722698594 0 -0.45907776070717632 -0.02062181678599892 0 -0.46712162032275051 -0.003878327750432523 0 -0.47581576355292299 -0.019286372884052352 0 -0.46712162032275051 -0.003878327750432523 0 -0.48371714855787601 -0.0039271787647496654 0 -0.47581576355292299 -0.019286372884052352 0 -0.47819464505182152 -0.03659521624160382 0 -0.45907776070717632 -0.02062181678599892 0 -0.47581576355292299 -0.019286372884052352 0 -0.47819464505182152 -0.03659521624160382 0 -0.47581576355292299 -0.019286372884052352 0 -0.5 -0.023030530614919661 0 -0.48371714855787601 -0.0039271787647496654 0 -0.5 -0.023030530614919661 0 -0.5 0.0047884994988136587 0 -0.48371714855787601 -0.0039271787647496654 0 -0.47581576355292299 -0.019286372884052352 0 -0.5 -0.023030530614919661 0 -0.48371714855787601 -0.0039271787647496654 0 -0.5 0.0047884994988136587 0 -0.47813905607265461 0.020089238167622422 0 -0.47813905607265461 0.020089238167622422 0 -0.50000000000000155 0.032607529612546933 0 -0.48164415251432491 0.034216438295157803 0 -0.47813905607265461 0.020089238167622422 0 -0.50000000000000155 0.032607529612546933 0 -0.5 0.0047884994988136587 0 -0.47813905607265461 0.020089238167622422 0 -0.50000000000000155 0.032607529612546933 0 -0.47813905607265461 0.020089238167622422 0 -0.48164415251432491 0.034216438295157803 0 -0.46191098562896221 0.025338726721516221 0 -0.46712162032275051 -0.003878327750432523 0 -0.48371714855787601 -0.0039271787647496654 0 -0.47813905607265461 0.020089238167622422 0 -0.48620672975333729 0.05738452939685789 0 -0.49825151255027311 0.03964082755812999 0 -0.46988526684945331 0.048665473454496608 0 -0.48620672975333729 0.05738452939685789 0 -0.5 0.060709022869582241 0 -0.49825151255027311 0.03964082755812999 0 -0.48620672975333729 0.05738452939685789 0 -0.5 0.060709022869582241 0 -0.4873244939178214 0.069138125624743821 0 -0.5 0.060709022869582241 0 -0.50000000000000155 0.032607529612546933 0 -0.49825151255027311 0.03964082755812999 0 -0.50000000000000155 0.032607529612546933 0 -0.49825151255027311 0.03964082755812999 0 -0.48164415251432491 0.034216438295157803 0 -0.49825151255027311 0.03964082755812999 0 -0.46988526684945331 0.048665473454496608 0 -0.49825151255027311 0.03964082755812999 0 -0.48164415251432491 0.034216438295157803 0 -0.46988526684945331 0.048665473454496608 0 -0.48164415251432491 0.034216438295157803 0 -0.46988526684945331 0.048665473454496608 0 -0.46191098562896221 0.025338726721516221 0 -0.48620672975333729 0.05738452939685789 0 -0.46988526684945331 0.048665473454496608 0 -0.47557237544913838 0.068769197477336771 0 -0.46988526684945331 0.048665473454496608 0 -0.45958872070771523 0.068061906726397794 0 -0.47557237544913838 0.068769197477336771 0 -0.46988526684945331 0.048665473454496608 0 -0.44151902114863339 0.057690119350863253 0 -0.45958872070771523 0.068061906726397794 0 -0.46988526684945331 0.048665473454496608 0 -0.44151902114863339 0.057690119350863253 0 -0.46988526684945331 0.048665473454496608 0 -0.44463951997591838 0.035845953044838681 0 -0.46191098562896221 0.025338726721516221 0 -0.46988526684945331 0.048665473454496608 0 -0.44463951997591838 0.035845953044838681 0 -0.44151902114863339 0.057690119350863253 0 -0.46712162032275051 -0.003878327750432523 0 -0.47813905607265461 0.020089238167622422 0 -0.45627811214530728 0.007570946722698594 0 -0.47813905607265461 0.020089238167622422 0 -0.45627811214530728 0.007570946722698594 0 -0.47813905607265461 0.020089238167622422 0 -0.45627811214530728 0.007570946722698594 0 -0.46191098562896221 0.025338726721516221 0 -0.45627811214530728 0.007570946722698594 0 -0.46191098562896221 0.025338726721516221 0 -0.44611294451988182 0.016067716614950121 0 -0.44463951997591838 0.035845953044838681 0 -0.44611294451988182 0.016067716614950121 0 -0.42529466980475672 0.024055042012006169 0 -0.44463951997591838 0.035845953044838681 0 -0.46191098562896221 0.025338726721516221 0 -0.44611294451988182 0.016067716614950121 0 -0.44611294451988182 0.016067716614950121 0 -0.4444869924105988 0.0039566657421790099 0 -0.43310742331619101 0.0095230691159613554 0 -0.45627811214530728 0.007570946722698594 0 -0.44611294451988182 0.016067716614950121 0 -0.4444869924105988 0.0039566657421790099 0 -0.44970188090056618 -0.0070947829581152174 0 -0.45627811214530728 0.007570946722698594 0 -0.4444869924105988 0.0039566657421790099 0 -0.43310742331619101 0.0095230691159613554 0 -0.41937054600511359 0.0023375494341298609 0 -0.42529466980475672 0.024055042012006169 0 -0.43328114868639828 -0.0090595337897695014 0 -0.4444869924105988 0.0039566657421790099 0 -0.43310742331619101 0.0095230691159613554 0 -0.43328114868639828 -0.0090595337897695014 0 -0.43310742331619101 0.0095230691159613554 0 -0.41937054600511359 0.0023375494341298609 0 -0.40363162946607678 -0.0071174322637537688 0 -0.41937054600511359 0.0023375494341298609 0 -0.40405401227785381 0.012462467572653671 0 -0.41937054600511359 0.0023375494341298609 0 -0.42529466980475672 0.024055042012006169 0 -0.40405401227785381 0.012462467572653671 0 -0.42529466980475672 0.024055042012006169 0 -0.40447639508963118 0.032042367409061037 0 -0.40405401227785381 0.012462467572653671 0 -0.42529466980475672 0.024055042012006169 0 -0.40447639508963118 0.032042367409061037 0 -0.44611294451988182 0.016067716614950121 0 -0.42529466980475672 0.024055042012006169 0 -0.44611294451988182 0.016067716614950121 0 -0.43310742331619101 0.0095230691159613554 0 -0.42529466980475672 0.024055042012006169 0 -0.44463951997591838 0.035845953044838681 0 -0.44151902114863339 0.057690119350863253 0 -0.4231142319038233 0.04325864011519974 0 -0.44463951997591838 0.035845953044838681 0 -0.42529466980475672 0.024055042012006169 0 -0.4231142319038233 0.04325864011519974 0 -0.44151902114863339 0.057690119350863253 0 -0.41752021400487471 0.054882462732277149 0 -0.41315277544781348 0.066714765247229899 0 -0.44151902114863339 0.057690119350863253 0 -0.41315277544781348 0.066714765247229899 0 -0.44151902114863339 0.057690119350863253 0 -0.4231142319038233 0.04325864011519974 0 -0.41752021400487471 0.054882462732277149 0 -0.4231142319038233 0.04325864011519974 0 -0.41752021400487471 0.054882462732277149 0 -0.4049474874911887 0.053880240018951767 0 -0.41752021400487471 0.054882462732277149 0 -0.4049474874911887 0.053880240018951767 0 -0.41315277544781348 0.066714765247229899 0 -0.4231142319038233 0.04325864011519974 0 -0.40447639508963118 0.032042367409061037 0 -0.4049474874911887 0.053880240018951767 0 -0.42529466980475672 0.024055042012006169 0 -0.4231142319038233 0.04325864011519974 0 -0.40447639508963118 0.032042367409061037 0 -0.40447639508963118 0.032042367409061037 0 -0.39327930695316421 0.049160388635972579 0 -0.38485069663672228 0.039572138335468458 0 -0.40447639508963118 0.032042367409061037 0 -0.4049474874911887 0.053880240018951767 0 -0.40447639508963118 0.032042367409061037 0 -0.39327930695316421 0.049160388635972579 0 -0.4049474874911887 0.053880240018951767 0 -0.40447639508963118 0.032042367409061037 0 -0.38485069663672228 0.039572138335468458 0 -0.39327930695316421 0.049160388635972579 0 -0.4049474874911887 0.053880240018951767 0 -0.39244093105273892 0.065046064429682193 0 -0.39327930695316421 0.049160388635972579 0 -0.37968102449553931 0.055261132986699428 0 -0.38485069663672228 0.039572138335468458 0 -0.39327930695316421 0.049160388635972579 0 -0.37968102449553931 0.055261132986699428 0 -0.39244093105273892 0.065046064429682193 0 -0.37968102449553931 0.055261132986699428 0 -0.38485069663672228 0.039572138335468458 0 -0.36522499818381288 0.047101909261874721 0 -0.38485069663672228 0.039572138335468458 0 -0.36522499818381288 0.047101909261874721 0 -0.38485069663672228 0.039572138335468458 0 -0.38590037094696072 0.021936836233300599 0 -0.36858128962725328 0.031388571701146797 0 -0.38590037094696072 0.021936836233300599 0 -0.3809477351706122 0.0027779631661205301 0 -0.36948133179405301 0.016461005873055191 0 -0.38590037094696072 0.021936836233300599 0 -0.3809477351706122 0.0027779631661205301 0 -0.40405401227785381 0.012462467572653671 0 -0.40363162946607678 -0.0071174322637537688 0 -0.3809477351706122 0.0027779631661205301 0 -0.40405401227785381 0.012462467572653671 0 -0.40363162946607678 -0.0071174322637537688 0 -0.40405401227785381 0.012462467572653671 0 -0.40447639508963118 0.032042367409061037 0 -0.40405401227785381 0.012462467572653671 0 -0.40447639508963118 0.032042367409061037 0 -0.38485069663672228 0.039572138335468458 0 -0.38590037094696072 0.021936836233300599 0 -0.40447639508963118 0.032042367409061037 0 -0.38590037094696072 0.021936836233300599 0 -0.40405401227785381 0.012462467572653671 0 -0.40059926179245631 0.1084607832206728 0 -0.39022091381555862 0.096566279987345238 0 -0.40711926436149948 0.097577826434432594 0 -0.39022091381555862 0.096566279987345238 0 -0.41767377622974761 0.093560818110924676 0 -0.40059926179245631 0.1084607832206728 0 -0.39051650696077661 0.1160300865574569 0 -0.39022091381555862 0.096566279987345238 0 -0.39022091381555862 0.096566279987345238 0 -0.41767377622974761 0.093560818110924676 0 -0.40711926436149948 0.097577826434432594 0 -0.40106886709179629 0.1241105061030455 0 -0.39051650696077661 0.1160300865574569 0 -0.38576268352644438 0.13337342041875519 0 -0.40059926179245631 0.1084607832206728 0 -0.40106886709179629 0.1241105061030455 0 -0.39051650696077661 0.1160300865574569 0 -0.40059926179245631 0.1084607832206728 0 -0.40106886709179629 0.1241105061030455 0 -0.40940956246470322 0.11460041155907021 0 -0.39051650696077661 0.1160300865574569 0 -0.39022091381555862 0.096566279987345238 0 -0.37493080857762762 0.117639443057466 0 -0.39051650696077661 0.1160300865574569 0 -0.38576268352644438 0.13337342041875519 0 -0.37493080857762762 0.117639443057466 0 -0.39022091381555862 0.096566279987345238 0 -0.37749545954619118 0.085803985482563253 0 -0.3627680514013697 0.099571741863765773 0 -0.39022091381555862 0.096566279987345238 0 -0.3627680514013697 0.099571741863765773 0 -0.37493080857762762 0.117639443057466 0 -0.39022091381555862 0.096566279987345238 0 -0.3627680514013697 0.099571741863765773 0 -0.39022091381555862 0.096566279987345238 0 -0.37749545954619118 0.085803985482563253 0 -0.39144079095667927 0.080566481510165044 0 -0.37749545954619118 0.085803985482563253 0 -0.37866953800929221 0.072188859818500373 0 -0.39144079095667927 0.080566481510165044 0 -0.37968102449553931 0.055261132986699428 0 -0.37866953800929221 0.072188859818500373 0 -0.39244093105273892 0.065046064429682193 0 -0.37866953800929221 0.072188859818500373 0 -0.39244093105273892 0.065046064429682193 0 -0.39144079095667927 0.080566481510165044 0 -0.4049474874911887 0.053880240018951767 0 -0.40541857989274638 0.075718112628842482 0 -0.4049474874911887 0.053880240018951767 0 -0.39244093105273892 0.065046064429682193 0 -0.40541857989274638 0.075718112628842482 0 -0.39244093105273892 0.065046064429682193 0 -0.40541857989274638 0.075718112628842482 0 -0.39144079095667927 0.080566481510165044 0 -0.39022091381555862 0.096566279987345238 0 -0.39144079095667927 0.080566481510165044 0 -0.40425281656337342 0.085489858644613767 0 -0.39022091381555862 0.096566279987345238 0 -0.40425281656337342 0.085489858644613767 0 -0.41767377622974761 0.093560818110924676 0 -0.40541857989274638 0.075718112628842482 0 -0.39144079095667927 0.080566481510165044 0 -0.40425281656337342 0.085489858644613767 0 -0.40425281656337342 0.085489858644613767 0 -0.41729975828258659 0.080687640052584456 0 -0.41767377622974761 0.093560818110924676 0 -0.40541857989274638 0.075718112628842482 0 -0.40425281656337342 0.085489858644613767 0 -0.41729975828258659 0.080687640052584456 0 -0.41729975828258659 0.080687640052584456 0 -0.41767377622974761 0.093560818110924676 0 -0.42550265974734591 0.084161409318575173 0 -0.4049474874911887 0.053880240018951767 0 -0.40541857989274638 0.075718112628842482 0 -0.41315277544781348 0.066714765247229899 0 -0.40541857989274638 0.075718112628842482 0 -0.41729975828258659 0.080687640052584456 0 -0.41315277544781348 0.066714765247229899 0 -0.41729975828258659 0.080687640052584456 0 -0.41315277544781348 0.066714765247229899 0 -0.42582102052630483 0.07031721275256296 0 -0.44151902114863339 0.057690119350863253 0 -0.41315277544781348 0.066714765247229899 0 -0.42582102052630483 0.07031721275256296 0 -0.44151902114863339 0.057690119350863253 0 -0.42582102052630483 0.07031721275256296 0 -0.43131252722618579 0.076176326359574234 0 -0.41729975828258659 0.080687640052584456 0 -0.42582102052630483 0.07031721275256296 0 -0.43131252722618579 0.076176326359574234 0 -0.41767377622974761 0.093560818110924676 0 -0.42550265974734591 0.084161409318575173 0 -0.43393242556503708 0.084876127861055153 0 -0.41767377622974761 0.093560818110924676 0 -0.43393242556503708 0.084876127861055153 0 -0.43574621341281228 0.092000684707029781 0 -0.41767377622974761 0.093560818110924676 0 -0.43574621341281228 0.092000684707029781 0 -0.41729975828258659 0.080687640052584456 0 -0.43131252722618579 0.076176326359574234 0 -0.42550265974734591 0.084161409318575173 0 -0.43131252722618579 0.076176326359574234 0 -0.42550265974734591 0.084161409318575173 0 -0.43393242556503708 0.084876127861055153 0 -0.43131252722618579 0.076176326359574234 0 -0.43393242556503708 0.084876127861055153 0 -0.44646222260631607 0.077237279501373227 0 -0.43574621341281228 0.092000684707029781 0 -0.42485860770762701 0.099811938259830729 0 -0.40711926436149948 0.097577826434432594 0 -0.43574621341281228 0.092000684707029781 0 -0.43430112069833182 0.1037218314795582 0 -0.44182045411676751 0.1009442434872064 0 -0.43574621341281228 0.092000684707029781 0 -0.43430112069833182 0.1037218314795582 0 -0.42485860770762701 0.099811938259830729 0 -0.43430112069833182 0.1037218314795582 0 -0.42220205484740919 0.1051854499841563 0 -0.43044586471759272 0.11350447464778229 0 -0.43430112069833182 0.1037218314795582 0 -0.42220205484740919 0.1051854499841563 0 -0.42485860770762701 0.099811938259830729 0 -0.41767377622974761 0.093560818110924676 0 -0.43574621341281228 0.092000684707029781 0 -0.40711926436149948 0.097577826434432594 0 -0.43574621341281228 0.092000684707029781 0 -0.40711926436149948 0.097577826434432594 0 -0.42220205484740919 0.1051854499841563 0 -0.42485860770762701 0.099811938259830729 0 -0.40711926436149948 0.097577826434432594 0 -0.42220205484740919 0.1051854499841563 0 -0.41176605862493593 0.1078472848358358 0 -0.41878857275357828 0.11393957888981281 0 -0.40059926179245631 0.1084607832206728 0 -0.41176605862493593 0.1078472848358358 0 -0.40711926436149948 0.097577826434432594 0 -0.42220205484740919 0.1051854499841563 0 -0.41176605862493593 0.1078472848358358 0 -0.40711926436149948 0.097577826434432594 0 -0.40106886709179629 0.1241105061030455 0 -0.40940956246470322 0.11460041155907021 0 -0.41510746280380972 0.1230953258560631 0 -0.41176605862493593 0.1078472848358358 0 -0.40940956246470322 0.11460041155907021 0 -0.41878857275357828 0.11393957888981281 0 -0.40059926179245631 0.1084607832206728 0 -0.41176605862493593 0.1078472848358358 0 -0.40940956246470322 0.11460041155907021 0 -0.41878857275357828 0.11393957888981281 0 -0.41510746280380972 0.1230953258560631 0 -0.42565818041830678 0.1213866645062583 0 -0.40940956246470322 0.11460041155907021 0 -0.41878857275357828 0.11393957888981281 0 -0.41510746280380972 0.1230953258560631 0 -0.42220205484740919 0.1051854499841563 0 -0.41878857275357828 0.11393957888981281 0 -0.43044586471759272 0.11350447464778229 0 -0.41878857275357828 0.11393957888981281 0 -0.42565818041830678 0.1213866645062583 0 -0.43044586471759272 0.11350447464778229 0 -0.43044586471759272 0.11350447464778229 0 -0.43649514367316372 0.1247878400323679 0 -0.4452301159147663 0.1120054829945403 0 -0.43430112069833182 0.1037218314795582 0 -0.43044586471759272 0.11350447464778229 0 -0.4452301159147663 0.1120054829945403 0 -0.42565818041830678 0.1213866645062583 0 -0.43044586471759272 0.11350447464778229 0 -0.43649514367316372 0.1247878400323679 0 -0.43649514367316372 0.1247878400323679 0 -0.4452301159147663 0.1120054829945403 0 -0.45574823379143392 0.13031855558452959 0 -0.43430112069833182 0.1037218314795582 0 -0.4452301159147663 0.1120054829945403 0 -0.44182045411676751 0.1009442434872064 0 -0.43574621341281228 0.092000684707029781 0 -0.44182045411676751 0.1009442434872064 0 -0.45109682679022017 0.098032610988666793 0 -0.4452301159147663 0.1120054829945403 0 -0.44182045411676751 0.1009442434872064 0 -0.45109682679022017 0.098032610988666793 0 -0.4452301159147663 0.1120054829945403 0 -0.45109682679022017 0.098032610988666793 0 -0.46338795773716929 0.1099966646232115 0 -0.45109682679022017 0.098032610988666793 0 -0.46338795773716929 0.1099966646232115 0 -0.46450471748503519 0.087947463847919141 0 -0.4452301159147663 0.1120054829945403 0 -0.46338795773716929 0.1099966646232115 0 -0.45574823379143392 0.13031855558452959 0 -0.46338795773716929 0.1099966646232115 0 -0.47999599493417638 0.1288509746448924 0 -0.45574823379143392 0.13031855558452959 0 -0.44151902114863339 0.057690119350863253 0 -0.43131252722618579 0.076176326359574234 0 -0.44646222260631607 0.077237279501373227 0 -0.44151902114863339 0.057690119350863253 0 -0.44646222260631607 0.077237279501373227 0 -0.45958872070771523 0.068061906726397794 0 -0.44646222260631607 0.077237279501373227 0 -0.44523177242529111 0.091181827940779572 0 -0.46450471748503519 0.087947463847919141 0 -0.43393242556503708 0.084876127861055153 0 -0.44646222260631607 0.077237279501373227 0 -0.44523177242529111 0.091181827940779572 0 -0.43574621341281228 0.092000684707029781 0 -0.45109682679022017 0.098032610988666793 0 -0.44523177242529111 0.091181827940779572 0 -0.43574621341281228 0.092000684707029781 0 -0.44523177242529111 0.091181827940779572 0 -0.43393242556503708 0.084876127861055153 0 -0.43574621341281228 0.092000684707029781 0 -0.44523177242529111 0.091181827940779572 0 -0.45109682679022017 0.098032610988666793 0 -0.44523177242529111 0.091181827940779572 0 -0.46450471748503519 0.087947463847919141 0 -0.44523177242529111 0.091181827940779572 0 -0.46450471748503519 0.087947463847919141 0 -0.46450471748503519 0.087947463847919141 0 -0.45958872070771523 0.068061906726397794 0 -0.47557237544913838 0.068769197477336771 0 -0.44646222260631607 0.077237279501373227 0 -0.46450471748503519 0.087947463847919141 0 -0.45958872070771523 0.068061906726397794 0 -0.46450471748503519 0.087947463847919141 0 -0.47557237544913838 0.068769197477336771 0 -0.48014975772469948 0.077246767376165537 0 -0.48620672975333729 0.05738452939685789 0 -0.47557237544913838 0.068769197477336771 0 -0.4873244939178214 0.069138125624743821 0 -0.47557237544913838 0.068769197477336771 0 -0.48014975772469948 0.077246767376165537 0 -0.4873244939178214 0.069138125624743821 0 -0.46450471748503519 0.087947463847919141 0 -0.49319744404680299 0.083132282554662415 0 -0.48375185750738381 0.1028248996787211 0 -0.46450471748503519 0.087947463847919141 0 -0.48014975772469948 0.077246767376165537 0 -0.49319744404680299 0.083132282554662415 0 -0.46450471748503519 0.087947463847919141 0 -0.49319744404680299 0.083132282554662415 0 -0.5 0.088810516126617611 0 -0.49319744404680299 0.083132282554662415 0 -0.48375185750738381 0.1028248996787211 0 -0.5 0.060709022869582241 0 -0.5 0.088810516126617611 0 -0.49319744404680299 0.083132282554662415 0 -0.5 0.060709022869582241 0 -0.49319744404680299 0.083132282554662415 0 -0.4873244939178214 0.069138125624743821 0 -0.48014975772469948 0.077246767376165537 0 -0.49319744404680299 0.083132282554662415 0 -0.4873244939178214 0.069138125624743821 0 -0.46338795773716929 0.1099966646232115 0 -0.48375185750738381 0.1028248996787211 0 -0.47999599493417638 0.1288509746448924 0 -0.46338795773716929 0.1099966646232115 0 -0.46450471748503519 0.087947463847919141 0 -0.48375185750738381 0.1028248996787211 0 -0.5 0.088810516126617611 0 -0.48375185750738381 0.1028248996787211 0 -0.5 0.1169120093836529 0 -0.48375185750738381 0.1028248996787211 0 -0.5 0.1169120093836529 0 -0.47999599493417638 0.1288509746448924 0 -0.5 0.1169120093836529 0 -0.47999599493417638 0.1288509746448924 0 -0.5 0.14501350264068841 0 -0.4687613927396726 0.14912825107141731 0 -0.48418734322096818 0.14972476051431111 0 -0.46948535572287159 0.16564692285647339 0 -0.47999599493417638 0.1288509746448924 0 -0.4687613927396726 0.14912825107141731 0 -0.48418734322096818 0.14972476051431111 0 -0.48418734322096818 0.14972476051431111 0 -0.5 0.14501350264068841 0 -0.48809164897032398 0.164555162924198 0 -0.47999599493417638 0.1288509746448924 0 -0.48418734322096818 0.14972476051431111 0 -0.5 0.14501350264068841 0 -0.5 0.14501350264068841 0 -0.48809164897032398 0.164555162924198 0 -0.5 0.17311499589772389 0 -0.48809164897032398 0.164555162924198 0 -0.5 0.17311499589772389 0 -0.48926997435867192 0.18629563438748961 0 -0.5 0.17311499589772389 0 -0.48926997435867192 0.18629563438748961 0 -0.5 0.20121648915475959 0 -0.48809164897032398 0.164555162924198 0 -0.47435025931367347 0.185136811636709 0 -0.48809164897032398 0.164555162924198 0 -0.48926997435867192 0.18629563438748961 0 -0.47435025931367347 0.185136811636709 0 -0.48418734322096818 0.14972476051431111 0 -0.48809164897032398 0.164555162924198 0 -0.46948535572287159 0.16564692285647339 0 -0.48809164897032398 0.164555162924198 0 -0.47435025931367347 0.185136811636709 0 -0.46948535572287159 0.16564692285647339 0 -0.46948535572287159 0.16564692285647339 0 -0.45046722197397471 0.1831270350961394 0 -0.45002651447716152 0.1625312368677799 0 -0.4687613927396726 0.14912825107141731 0 -0.46948535572287159 0.16564692285647339 0 -0.45002651447716152 0.1625312368677799 0 -0.47435025931367347 0.185136811636709 0 -0.46948535572287159 0.16564692285647339 0 -0.45046722197397471 0.1831270350961394 0 -0.45046722197397471 0.1831270350961394 0 -0.45002651447716152 0.1625312368677799 0 -0.43001216374160389 0.17142314718493029 0 -0.45002651447716152 0.1625312368677799 0 -0.43468722821500833 0.15520626948619171 0 -0.43001216374160389 0.17142314718493029 0 -0.45002651447716152 0.1625312368677799 0 -0.45246009591553832 0.14653715611072771 0 -0.43468722821500833 0.15520626948619171 0 -0.45246009591553832 0.14653715611072771 0 -0.43811753748125731 0.13959391941304211 0 -0.43468722821500833 0.15520626948619171 0 -0.45246009591553832 0.14653715611072771 0 -0.43811753748125731 0.13959391941304211 0 -0.45574823379143392 0.13031855558452959 0 -0.43649514367316372 0.1247878400323679 0 -0.43811753748125731 0.13959391941304211 0 -0.45574823379143392 0.13031855558452959 0 -0.47999599493417638 0.1288509746448924 0 -0.4687613927396726 0.14912825107141731 0 -0.45574823379143392 0.13031855558452959 0 -0.4687613927396726 0.14912825107141731 0 -0.45002651447716152 0.1625312368677799 0 -0.45246009591553832 0.14653715611072771 0 -0.4687613927396726 0.14912825107141731 0 -0.45246009591553832 0.14653715611072771 0 -0.45574823379143392 0.13031855558452959 0 -0.47776068413743611 0.24602954292504409 0 -0.4754989785274949 0.22501399713464559 0 -0.46520357517897493 0.2340598110114416 0 -0.47776068413743611 0.24602954292504409 0 -0.5 0.22931798241179521 0 -0.5 0.25741947566883072 0 -0.5 0.22931798241179521 0 -0.4754989785274949 0.22501399713464559 0 -0.48056124454819682 0.20571449604655331 0 -0.47776068413743611 0.24602954292504409 0 -0.5 0.22931798241179521 0 -0.4754989785274949 0.22501399713464559 0 -0.4754989785274949 0.22501399713464559 0 -0.48056124454819682 0.20571449604655331 0 -0.46060886965702302 0.20571846034922001 0 -0.5 0.22931798241179521 0 -0.48056124454819682 0.20571449604655331 0 -0.5 0.20121648915475959 0 -0.48926997435867192 0.18629563438748961 0 -0.48056124454819682 0.20571449604655331 0 -0.5 0.20121648915475959 0 -0.47435025931367347 0.185136811636709 0 -0.48056124454819682 0.20571449604655331 0 -0.46060886965702302 0.20571846034922001 0 -0.48926997435867192 0.18629563438748961 0 -0.47435025931367347 0.185136811636709 0 -0.48056124454819682 0.20571449604655331 0 -0.47435025931367347 0.185136811636709 0 -0.45046722197397471 0.1831270350961394 0 -0.46060886965702302 0.20571846034922001 0 -0.47435025931367347 0.185136811636709 0 -0.46060886965702302 0.20571846034922001 0 -0.45046722197397471 0.1831270350961394 0 -0.44272793684600492 0.19884353562264129 0 -0.46060886965702302 0.20571846034922001 0 -0.45046722197397471 0.1831270350961394 0 -0.44272793684600492 0.19884353562264129 0 -0.42513030677536923 0.1906050210784847 0 -0.44372474379645233 0.2118724757740541 0 -0.46060886965702302 0.20571846034922001 0 -0.44686748000037241 0.22630010906173101 0 -0.44272793684600492 0.19884353562264129 0 -0.44372474379645233 0.2118724757740541 0 -0.46060886965702302 0.20571846034922001 0 -0.44272793684600492 0.19884353562264129 0 -0.44372474379645233 0.2118724757740541 0 -0.43165150367974459 0.2079736653861852 0 -0.4754989785274949 0.22501399713464559 0 -0.46060886965702302 0.20571846034922001 0 -0.46106334667291038 0.22298821988389139 0 -0.46060886965702302 0.20571846034922001 0 -0.46106334667291038 0.22298821988389139 0 -0.44686748000037241 0.22630010906173101 0 -0.46060886965702302 0.20571846034922001 0 -0.44686748000037241 0.22630010906173101 0 -0.4754989785274949 0.22501399713464559 0 -0.46106334667291038 0.22298821988389139 0 -0.46520357517897493 0.2340598110114416 0 -0.46106334667291038 0.22298821988389139 0 -0.46520357517897493 0.2340598110114416 0 -0.45346249511827269 0.23542680083812981 0 -0.46106334667291038 0.22298821988389139 0 -0.44686748000037241 0.22630010906173101 0 -0.45346249511827269 0.23542680083812981 0 -0.44686748000037241 0.22630010906173101 0 -0.43031251157748118 0.23082618911171421 0 -0.4356539223539096 0.2195046181957867 0 -0.44372474379645233 0.2118724757740541 0 -0.44686748000037241 0.22630010906173101 0 -0.4356539223539096 0.2195046181957867 0 -0.44686748000037241 0.22630010906173101 0 -0.43974957060265979 0.2477999823634939 0 -0.45346249511827269 0.23542680083812981 0 -0.44686748000037241 0.22630010906173101 0 -0.43974957060265979 0.2477999823634939 0 -0.4331260903437224 0.2468817577742424 0 -0.43974957060265979 0.2477999823634939 0 -0.45346249511827269 0.23542680083812981 0 -0.44686748000037241 0.22630010906173101 0 -0.4331260903437224 0.2468817577742424 0 -0.43974957060265979 0.2477999823634939 0 -0.44938809190214019 0.24913618733658899 0 -0.43974957060265979 0.2477999823634939 0 -0.44938809190214019 0.24913618733658899 0 -0.45346249511827269 0.23542680083812981 0 -0.47776068413743611 0.24602954292504409 0 -0.46520357517897493 0.2340598110114416 0 -0.46141841012159912 0.24507040340567721 0 -0.44938809190214019 0.24913618733658899 0 -0.45346249511827269 0.23542680083812981 0 -0.46141841012159912 0.24507040340567721 0 -0.46520357517897493 0.2340598110114416 0 -0.45346249511827269 0.23542680083812981 0 -0.46141841012159912 0.24507040340567721 0 -0.42532192026792442 0.24579985210197841 0 -0.40599452066631958 0.22623737966620541 0 -0.42532192026792442 0.24579985210197841 0 -0.40599452066631958 0.22623737966620541 0 -0.39635673541156891 0.2417843581429853 0 -0.42532192026792442 0.24579985210197841 0 -0.39635673541156891 0.2417843581429853 0 -0.41246051243446907 0.25499403182025637 0 -0.42532192026792442 0.24579985210197841 0 -0.39635673541156891 0.2417843581429853 0 -0.42532192026792442 0.24579985210197841 0 -0.4331260903437224 0.2468817577742424 0 -0.43031251157748118 0.23082618911171421 0 -0.44686748000037241 0.22630010906173101 0 -0.4331260903437224 0.2468817577742424 0 -0.43031251157748118 0.23082618911171421 0 -0.42532192026792442 0.24579985210197841 0 -0.43316652546530088 0.25373986866429499 0 -0.42532192026792442 0.24579985210197841 0 -0.4331260903437224 0.2468817577742424 0 -0.42532192026792442 0.24579985210197841 0 -0.43169760255248413 0.24902132550676301 0 -0.4331260903437224 0.2468817577742424 0 -0.42532192026792442 0.24579985210197841 0 -0.43169760255248413 0.24902132550676301 0 -0.43316652546530088 0.25373986866429499 0 -0.43169760255248413 0.24902132550676301 0 -0.4331260903437224 0.2468817577742424 0 -0.43316652546530088 0.25373986866429499 0 -0.43169760255248413 0.24902132550676301 0 -0.4331260903437224 0.2468817577742424 0 -0.43974957060265979 0.2477999823634939 0 -0.4331260903437224 0.2468817577742424 0 -0.43974957060265979 0.2477999823634939 0 -0.4331260903437224 0.2468817577742424 0 -0.43316652546530088 0.25373986866429499 0 -0.43031251157748118 0.23082618911171421 0 -0.4356539223539096 0.2195046181957867 0 -0.4234853598250834 0.21850667113583649 0 -0.42532192026792442 0.24579985210197841 0 -0.43031251157748118 0.23082618911171421 0 -0.40599452066631958 0.22623737966620541 0 -0.43031251157748118 0.23082618911171421 0 -0.4234853598250834 0.21850667113583649 0 -0.40599452066631958 0.22623737966620541 0 -0.41270033440275522 0.20696951306458461 0 -0.4234853598250834 0.21850667113583649 0 -0.40599452066631958 0.22623737966620541 0 -0.41270033440275522 0.20696951306458461 0 -0.4234853598250834 0.21850667113583649 0 -0.43165150367974459 0.2079736653861852 0 -0.44372474379645233 0.2118724757740541 0 -0.4356539223539096 0.2195046181957867 0 -0.43165150367974459 0.2079736653861852 0 -0.4356539223539096 0.2195046181957867 0 -0.4234853598250834 0.21850667113583649 0 -0.43165150367974459 0.2079736653861852 0 -0.44272793684600492 0.19884353562264129 0 -0.43165150367974459 0.2079736653861852 0 -0.42513030677536923 0.1906050210784847 0 -0.41270033440275522 0.20696951306458461 0 -0.43165150367974459 0.2079736653861852 0 -0.42513030677536923 0.1906050210784847 0 -0.41270033440275522 0.20696951306458461 0 -0.42513030677536923 0.1906050210784847 0 -0.40406647635431991 0.19119388207041149 0 -0.41270033440275522 0.20696951306458461 0 -0.40406647635431991 0.19119388207041149 0 -0.38666712106471512 0.2066749072304325 0 -0.40406647635431991 0.19119388207041149 0 -0.38666712106471512 0.2066749072304325 0 -0.38656004119525073 0.1797369747467665 0 -0.38666712106471512 0.2066749072304325 0 -0.36733972146311072 0.1871124347946595 0 -0.38666712106471512 0.2066749072304325 0 -0.38656004119525073 0.1797369747467665 0 -0.36733972146311072 0.1871124347946595 0 -0.38666712106471512 0.2066749072304325 0 -0.38437696795969262 0.22557122230981469 0 -0.36676528995403629 0.21377940251421371 0 -0.41270033440275522 0.20696951306458461 0 -0.38666712106471512 0.2066749072304325 0 -0.40599452066631958 0.22623737966620541 0 -0.38666712106471512 0.2066749072304325 0 -0.40599452066631958 0.22623737966620541 0 -0.40599452066631958 0.22623737966620541 0 -0.38437696795969262 0.22557122230981469 0 -0.39635673541156891 0.2417843581429853 0 -0.38666712106471512 0.2066749072304325 0 -0.40599452066631958 0.22623737966620541 0 -0.38437696795969262 0.22557122230981469 0 -0.39635673541156891 0.2417843581429853 0 -0.36739155055521322 0.23776886418399251 0 -0.38034939632101578 0.26165486428978091 0 -0.38437696795969262 0.22557122230981469 0 -0.39635673541156891 0.2417843581429853 0 -0.36739155055521322 0.23776886418399251 0 -0.39635673541156891 0.2417843581429853 0 -0.36739155055521322 0.23776886418399251 0 -0.42004927480552279 0.14761272175705159 0 -0.41974011186336441 0.1607007659976655 0 -0.40692128047049497 0.15710164510192759 0 -0.42004927480552279 0.14761272175705159 0 -0.40949474840705252 0.14433766241543361 0 -0.40692128047049497 0.15710164510192759 0 -0.42004927480552279 0.14761272175705159 0 -0.40949474840705252 0.14433766241543361 0 -0.41252600521628602 0.13396413143314581 0 -0.40949474840705252 0.14433766241543361 0 -0.41252600521628602 0.13396413143314581 0 -0.40029897841687467 0.13722980296904069 0 -0.40106886709179629 0.1241105061030455 0 -0.41510746280380972 0.1230953258560631 0 -0.41252600521628602 0.13396413143314581 0 -0.41510746280380972 0.1230953258560631 0 -0.41252600521628602 0.13396413143314581 0 -0.42513391023187153 0.1327980501806455 0 -0.42004927480552279 0.14761272175705159 0 -0.41252600521628602 0.13396413143314581 0 -0.42513391023187153 0.1327980501806455 0 -0.43811753748125731 0.13959391941304211 0 -0.42004927480552279 0.14761272175705159 0 -0.42513391023187153 0.1327980501806455 0 -0.41510746280380972 0.1230953258560631 0 -0.42565818041830678 0.1213866645062583 0 -0.42513391023187153 0.1327980501806455 0 -0.42565818041830678 0.1213866645062583 0 -0.43649514367316372 0.1247878400323679 0 -0.42513391023187153 0.1327980501806455 0 -0.43649514367316372 0.1247878400323679 0 -0.43811753748125731 0.13959391941304211 0 -0.42513391023187153 0.1327980501806455 0 -0.43811753748125731 0.13959391941304211 0 -0.42004927480552279 0.14761272175705159 0 -0.43468722821500833 0.15520626948619171 0 -0.42004927480552279 0.14761272175705159 0 -0.43468722821500833 0.15520626948619171 0 -0.41974011186336441 0.1607007659976655 0 -0.43468722821500833 0.15520626948619171 0 -0.43001216374160389 0.17142314718493029 0 -0.41974011186336441 0.1607007659976655 0 -0.45046722197397471 0.1831270350961394 0 -0.42513030677536923 0.1906050210784847 0 -0.43001216374160389 0.17142314718493029 0 -0.42513030677536923 0.1906050210784847 0 -0.40406647635431991 0.19119388207041149 0 -0.40703061208419189 0.17216004645822641 0 -0.42513030677536923 0.1906050210784847 0 -0.43001216374160389 0.17142314718493029 0 -0.40703061208419189 0.17216004645822641 0 -0.43001216374160389 0.17142314718493029 0 -0.40703061208419189 0.17216004645822641 0 -0.41974011186336441 0.1607007659976655 0 -0.40703061208419189 0.17216004645822641 0 -0.41974011186336441 0.1607007659976655 0 -0.40692128047049497 0.15710164510192759 0 -0.40703061208419189 0.17216004645822641 0 -0.40692128047049497 0.15710164510192759 0 -0.39421121084222238 0.1642228327889721 0 -0.40692128047049497 0.15710164510192759 0 -0.39421121084222238 0.1642228327889721 0 -0.3926425878427946 0.15036329447482349 0 -0.40703061208419189 0.17216004645822641 0 -0.39421121084222238 0.1642228327889721 0 -0.38656004119525073 0.1797369747467665 0 -0.40406647635431991 0.19119388207041149 0 -0.40703061208419189 0.17216004645822641 0 -0.38656004119525073 0.1797369747467665 0 -0.38656004119525073 0.1797369747467665 0 -0.38002578602110743 0.16240222273931679 0 -0.36955403342997389 0.171800738079259 0 -0.39421121084222238 0.1642228327889721 0 -0.38656004119525073 0.1797369747467665 0 -0.38002578602110743 0.16240222273931679 0 -0.39421121084222238 0.1642228327889721 0 -0.38002578602110743 0.16240222273931679 0 -0.3926425878427946 0.15036329447482349 0 -0.38002578602110743 0.16240222273931679 0 -0.37644029935099732 0.14899669277874611 0 -0.3926425878427946 0.15036329447482349 0 -0.37644029935099732 0.14899669277874611 0 -0.3926425878427946 0.15036329447482349 0 -0.38576268352644438 0.13337342041875519 0 -0.40949474840705252 0.14433766241543361 0 -0.3926425878427946 0.15036329447482349 0 -0.40029897841687467 0.13722980296904069 0 -0.40949474840705252 0.14433766241543361 0 -0.40692128047049497 0.15710164510192759 0 -0.3926425878427946 0.15036329447482349 0 -0.3926425878427946 0.15036329447482349 0 -0.40029897841687467 0.13722980296904069 0 -0.38576268352644438 0.13337342041875519 0 -0.40106886709179629 0.1241105061030455 0 -0.41252600521628602 0.13396413143314581 0 -0.40029897841687467 0.13722980296904069 0 -0.40106886709179629 0.1241105061030455 0 -0.40029897841687467 0.13722980296904069 0 -0.38576268352644438 0.13337342041875519 0 -0.37644029935099732 0.14899669277874611 0 -0.38576268352644438 0.13337342041875519 0 -0.36665526372176771 0.13730429675490469 0 -0.38576268352644438 0.13337342041875519 0 -0.36665526372176771 0.13730429675490469 0 -0.37493080857762762 0.117639443057466 0 -0.36665526372176771 0.13730429675490469 0 -0.37493080857762762 0.117639443057466 0 -0.35742372425334801 0.1206586607232582 0 -0.35263347434092718 0.1362403606906743 0 -0.33967887290048621 0.12754478955736179 0 -0.35742372425334801 0.1206586607232582 0 -0.36665526372176771 0.13730429675490469 0 -0.35263347434092718 0.1362403606906743 0 -0.35742372425334801 0.1206586607232582 0 -0.35263347434092718 0.1362403606906743 0 -0.34390454285092142 0.14511799507198361 0 -0.33967887290048621 0.12754478955736179 0 -0.34390454285092142 0.14511799507198361 0 -0.3555049679781126 0.1505760613458631 0 -0.34435467223445743 0.1638478259368214 0 -0.35263347434092718 0.1362403606906743 0 -0.34390454285092142 0.14511799507198361 0 -0.3555049679781126 0.1505760613458631 0 -0.36665526372176771 0.13730429675490469 0 -0.35263347434092718 0.1362403606906743 0 -0.3555049679781126 0.1505760613458631 0 -0.3555049679781126 0.1505760613458631 0 -0.36621615949343472 0.1486214512811308 0 -0.36585720665500848 0.15950360534376229 0 -0.36665526372176771 0.13730429675490469 0 -0.3555049679781126 0.1505760613458631 0 -0.36621615949343472 0.1486214512811308 0 -0.36665526372176771 0.13730429675490469 0 -0.3555049679781126 0.1505760613458631 0 -0.37644029935099732 0.14899669277874611 0 -0.36665526372176771 0.13730429675490469 0 -0.36621615949343472 0.1486214512811308 0 -0.37644029935099732 0.14899669277874611 0 -0.36621615949343472 0.1486214512811308 0 -0.36585720665500848 0.15950360534376229 0 -0.36955403342997389 0.171800738079259 0 -0.36585720665500848 0.15950360534376229 0 -0.34801232186150738 0.16754996235888531 0 -0.38002578602110743 0.16240222273931679 0 -0.37644029935099732 0.14899669277874611 0 -0.36585720665500848 0.15950360534376229 0 -0.38002578602110743 0.16240222273931679 0 -0.36955403342997389 0.171800738079259 0 -0.36585720665500848 0.15950360534376229 0 -0.38656004119525073 0.1797369747467665 0 -0.36955403342997389 0.171800738079259 0 -0.36733972146311072 0.1871124347946595 0 -0.36955403342997389 0.171800738079259 0 -0.36733972146311072 0.1871124347946595 0 -0.34801232186150738 0.16754996235888531 0 -0.36733972146311072 0.1871124347946595 0 -0.34801232186150738 0.16754996235888531 0 -0.36733972146311072 0.1871124347946595 0 -0.34950667467576979 0.18540237844482849 0 -0.34801232186150738 0.16754996235888531 0 -0.34950667467576979 0.18540237844482849 0 -0.34801232186150738 0.16754996235888531 0 -0.33711676114620809 0.17246283080323591 0 -0.3555049679781126 0.1505760613458631 0 -0.34801232186150738 0.16754996235888531 0 -0.34435467223445743 0.1638478259368214 0 -0.36585720665500848 0.15950360534376229 0 -0.34801232186150738 0.16754996235888531 0 -0.3555049679781126 0.1505760613458631 0 -0.36585720665500848 0.15950360534376229 0 -0.34801232186150738 0.16754996235888531 0 -0.34801232186150738 0.16754996235888531 0 -0.34435467223445743 0.1638478259368214 0 -0.3555049679781126 0.1505760613458631 0 -0.34435467223445743 0.1638478259368214 0 -0.34435467223445743 0.1638478259368214 0 -0.32474818188767252 0.16779016575308819 0 -0.32816760912653731 0.1474638848794603 0 -0.34435467223445743 0.1638478259368214 0 -0.33711676114620809 0.17246283080323591 0 -0.32474818188767252 0.16779016575308819 0 -0.34801232186150738 0.16754996235888531 0 -0.33711676114620809 0.17246283080323591 0 -0.34801232186150738 0.16754996235888531 0 -0.34435467223445743 0.1638478259368214 0 -0.33711676114620809 0.17246283080323591 0 -0.34435467223445743 0.1638478259368214 0 -0.33711676114620809 0.17246283080323591 0 -0.33711676114620809 0.17246283080323591 0 -0.32254383130781122 0.18980842401997181 0 -0.34950667467576979 0.18540237844482849 0 -0.33711676114620809 0.17246283080323591 0 -0.33787085547536277 0.19147881963790009 0 -0.33711676114620809 0.17246283080323591 0 -0.33787085547536277 0.19147881963790009 0 -0.32254383130781122 0.18980842401997181 0 -0.33711676114620809 0.17246283080323591 0 -0.31484008638213001 0.18250750636912971 0 -0.33711676114620809 0.17246283080323591 0 -0.32382557786184363 0.187204826960821 0 -0.32254383130781122 0.18980842401997181 0 -0.33711676114620809 0.17246283080323591 0 -0.32382557786184363 0.187204826960821 0 -0.31484008638213001 0.18250750636912971 0 -0.33711676114620809 0.17246283080323591 0 -0.31484008638213001 0.18250750636912971 0 -0.32474818188767252 0.16779016575308819 0 -0.32382557786184363 0.187204826960821 0 -0.31484008638213001 0.18250750636912971 0 -0.32382557786184363 0.187204826960821 0 -0.31484008638213001 0.18250750636912971 0 -0.3175149124965545 0.18913570420090309 0 -0.31484008638213001 0.18250750636912971 0 -0.32474818188767252 0.16779016575308819 0 -0.30924299170034703 0.16136492011651329 0 -0.32474818188767252 0.16779016575308819 0 -0.32816760912653731 0.1474638848794603 0 -0.30924299170034703 0.16136492011651329 0 -0.32816760912653731 0.1474638848794603 0 -0.30116539000869402 0.14324730272956501 0 -0.30924299170034703 0.16136492011651329 0 -0.33967887290048621 0.12754478955736179 0 -0.31198054601861852 0.13107994382209781 0 -0.32554516302573983 0.1169421376637811 0 -0.32816760912653731 0.1474638848794603 0 -0.31198054601861852 0.13107994382209781 0 -0.30116539000869402 0.14324730272956501 0 -0.33967887290048621 0.12754478955736179 0 -0.32816760912653731 0.1474638848794603 0 -0.31198054601861852 0.13107994382209781 0 -0.32816760912653731 0.1474638848794603 0 -0.31198054601861852 0.13107994382209781 0 -0.34390454285092142 0.14511799507198361 0 -0.33967887290048621 0.12754478955736179 0 -0.32816760912653731 0.1474638848794603 0 -0.34390454285092142 0.14511799507198361 0 -0.34435467223445743 0.1638478259368214 0 -0.32816760912653731 0.1474638848794603 0 -0.34435467223445743 0.1638478259368214 0 -0.32816760912653731 0.1474638848794603 0 -0.36739155055521322 0.23776886418399251 0 -0.34708085422443929 0.2263604768993365 0 -0.34287641500782712 0.25543372350954552 0 -0.36739155055521322 0.23776886418399251 0 -0.34708085422443929 0.2263604768993365 0 -0.36676528995403629 0.21377940251421371 0 -0.38437696795969262 0.22557122230981469 0 -0.36739155055521322 0.23776886418399251 0 -0.36676528995403629 0.21377940251421371 0 -0.34708085422443929 0.2263604768993365 0 -0.36676528995403629 0.21377940251421371 0 -0.34891190787006321 0.2019044193433967 0 -0.36733972146311072 0.1871124347946595 0 -0.36676528995403629 0.21377940251421371 0 -0.34891190787006321 0.2019044193433967 0 -0.38666712106471512 0.2066749072304325 0 -0.36733972146311072 0.1871124347946595 0 -0.36676528995403629 0.21377940251421371 0 -0.34950667467576979 0.18540237844482849 0 -0.34891190787006321 0.2019044193433967 0 -0.33787085547536277 0.19147881963790009 0 -0.36733972146311072 0.1871124347946595 0 -0.34950667467576979 0.18540237844482849 0 -0.34891190787006321 0.2019044193433967 0 -0.33787085547536277 0.19147881963790009 0 -0.32254383130781122 0.18980842401997181 0 -0.33127510237696228 0.20781604557806849 0 -0.34891190787006321 0.2019044193433967 0 -0.33787085547536277 0.19147881963790009 0 -0.33127510237696228 0.20781604557806849 0 -0.32254383130781122 0.18980842401997181 0 -0.30797090146941553 0.20715401723670851 0 -0.32254383130781122 0.18980842401997181 0 -0.31333543416458581 0.19454054343652899 0 -0.30797090146941553 0.20715401723670851 0 -0.32254383130781122 0.18980842401997181 0 -0.33127510237696228 0.20781604557806849 0 -0.30797090146941553 0.20715401723670851 0 -0.32382557786184363 0.187204826960821 0 -0.32254383130781122 0.18980842401997181 0 -0.3175149124965545 0.18913570420090309 0 -0.31484008638213001 0.18250750636912971 0 -0.3175149124965545 0.18913570420090309 0 -0.31333543416458581 0.19454054343652899 0 -0.32254383130781122 0.18980842401997181 0 -0.3175149124965545 0.18913570420090309 0 -0.31333543416458581 0.19454054343652899 0 -0.33127510237696228 0.20781604557806849 0 -0.32542365823862229 0.23129387037312621 0 -0.30797090146941553 0.20715401723670851 0 -0.34708085422443929 0.2263604768993365 0 -0.34891190787006321 0.2019044193433967 0 -0.33127510237696228 0.20781604557806849 0 -0.34708085422443929 0.2263604768993365 0 -0.33127510237696228 0.20781604557806849 0 -0.32542365823862229 0.23129387037312621 0 -0.32542365823862229 0.23129387037312621 0 -0.30726236964348741 0.2311629580639751 0 -0.30797090146941553 0.20715401723670851 0 -0.32542365823862229 0.23129387037312621 0 -0.30797090146941553 0.20715401723670851 0 -0.32542365823862229 0.23129387037312621 0 -0.32319077684055347 0.26047663771887131 0 -0.30652531113353643 0.2513270211066716 0 -0.32542365823862229 0.23129387037312621 0 -0.30726236964348741 0.2311629580639751 0 -0.30652531113353643 0.2513270211066716 0 -0.32542365823862229 0.23129387037312621 0 -0.34287641500782712 0.25543372350954552 0 -0.32319077684055347 0.26047663771887131 0 -0.34708085422443929 0.2263604768993365 0 -0.32542365823862229 0.23129387037312621 0 -0.34287641500782712 0.25543372350954552 0 -0.32542365823862229 0.23129387037312621 0 -0.34287641500782712 0.25543372350954552 0 -0.28166205787749471 0.24654461896357471 0 -0.2931984503859596 0.2247370928535708 0 -0.28166205787749471 0.24654461896357471 0 -0.29641179586741262 0.2414109455539028 0 -0.2931984503859596 0.2247370928535708 0 -0.28166205787749471 0.24654461896357471 0 -0.2931984503859596 0.2247370928535708 0 -0.28036732684319499 0.2400094815876522 0 -0.28166205787749471 0.24654461896357471 0 -0.29641179586741262 0.2414109455539028 0 -0.29199792964606591 0.25330556944924337 0 -0.29641179586741262 0.2414109455539028 0 -0.30726236964348741 0.2311629580639751 0 -0.30652531113353643 0.2513270211066716 0 -0.29641179586741262 0.2414109455539028 0 -0.30652531113353643 0.2513270211066716 0 -0.29199792964606591 0.25330556944924337 0 -0.29641179586741262 0.2414109455539028 0 -0.30726236964348741 0.2311629580639751 0 -0.2931984503859596 0.2247370928535708 0 -0.30726236964348741 0.2311629580639751 0 -0.2931984503859596 0.2247370928535708 0 -0.30797090146941553 0.20715401723670851 0 -0.2931984503859596 0.2247370928535708 0 -0.28036732684319499 0.2400094815876522 0 -0.2931984503859596 0.2247370928535708 0 -0.2776022789716367 0.22954082177353691 0 -0.28036732684319499 0.2400094815876522 0 -0.2931984503859596 0.2247370928535708 0 -0.281358107896717 0.2193365024463888 0 -0.2776022789716367 0.22954082177353691 0 -0.28771947209934101 0.20960201904970571 0 -0.3048116777877119 0.2027843238576062 0 -0.2887618699317796 0.19993246372866719 0 -0.2931984503859596 0.2247370928535708 0 -0.28771947209934101 0.20960201904970571 0 -0.3048116777877119 0.2027843238576062 0 -0.2931984503859596 0.2247370928535708 0 -0.281358107896717 0.2193365024463888 0 -0.28771947209934101 0.20960201904970571 0 -0.281358107896717 0.2193365024463888 0 -0.28771947209934101 0.20960201904970571 0 -0.27559782277396322 0.2102700743508866 0 -0.2931984503859596 0.2247370928535708 0 -0.30797090146941553 0.20715401723670851 0 -0.3048116777877119 0.2027843238576062 0 -0.2931984503859596 0.2247370928535708 0 -0.3048116777877119 0.2027843238576062 0 -0.2931984503859596 0.2247370928535708 0 -0.30797090146941553 0.20715401723670851 0 -0.30797090146941553 0.20715401723670851 0 -0.3048116777877119 0.2027843238576062 0 -0.31484008638213001 0.18250750636912971 0 -0.30773370029558211 0.18990082018728779 0 -0.29622147055053732 0.19090274297849361 0 -0.31484008638213001 0.18250750636912971 0 -0.3048116777877119 0.2027843238576062 0 -0.3048116777877119 0.2027843238576062 0 -0.29622147055053732 0.19090274297849361 0 -0.31484008638213001 0.18250750636912971 0 -0.31333543416458581 0.19454054343652899 0 -0.3048116777877119 0.2027843238576062 0 -0.31484008638213001 0.18250750636912971 0 -0.3048116777877119 0.2027843238576062 0 -0.30773370029558211 0.18990082018728779 0 -0.3048116777877119 0.2027843238576062 0 -0.29622147055053732 0.19090274297849361 0 -0.29212620103150022 0.19274932260086841 0 -0.31333543416458581 0.19454054343652899 0 -0.30797090146941553 0.20715401723670851 0 -0.3048116777877119 0.2027843238576062 0 -0.3048116777877119 0.2027843238576062 0 -0.30773370029558211 0.18990082018728779 0 -0.29622147055053732 0.19090274297849361 0 -0.3048116777877119 0.2027843238576062 0 -0.29212620103150022 0.19274932260086841 0 -0.2887618699317796 0.19993246372866719 0 -0.29622147055053732 0.19090274297849361 0 -0.29212620103150022 0.19274932260086841 0 -0.28771947209934101 0.20960201904970571 0 -0.2887618699317796 0.19993246372866719 0 -0.28025415824258781 0.19917025999610671 0 -0.2887618699317796 0.19993246372866719 0 -0.28576255785176208 0.19478431495531001 0 -0.28025415824258781 0.19917025999610671 0 -0.29212620103150022 0.19274932260086841 0 -0.2887618699317796 0.19993246372866719 0 -0.28576255785176208 0.19478431495531001 0 -0.29212620103150022 0.19274932260086841 0 -0.28576255785176208 0.19478431495531001 0 -0.28190800220118101 0.18728521349559771 0 -0.28576255785176208 0.19478431495531001 0 -0.28025415824258781 0.19917025999610671 0 -0.28190800220118101 0.18728521349559771 0 -0.28025415824258781 0.19917025999610671 0 -0.2703171977523518 0.19205052106089529 0 -0.28190800220118101 0.18728521349559771 0 -0.28025415824258781 0.19917025999610671 0 -0.27138302331033459 0.2011747106665337 0 -0.2703171977523518 0.19205052106089529 0 -0.27138302331033459 0.2011747106665337 0 -0.2703171977523518 0.19205052106089529 0 -0.26132428969069432 0.19909963868215391 0 -0.27138302331033459 0.2011747106665337 0 -0.26132428969069432 0.19909963868215391 0 -0.26497022856438979 0.2069094341203826 0 -0.2703171977523518 0.19205052106089529 0 -0.25967544573041268 0.188298846551406 0 -0.26132428969069432 0.19909963868215391 0 -0.25967544573041268 0.188298846551406 0 -0.25150433605041062 0.19473409522781959 0 -0.26132428969069432 0.19909963868215391 0 -0.25967544573041268 0.188298846551406 0 -0.25150433605041062 0.19473409522781959 0 -0.24806601312553511 0.18384609063628959 0 -0.25150433605041062 0.19473409522781959 0 -0.25398905249910619 0.20166687324756341 0 -0.26132428969069432 0.19909963868215391 0 -0.25150433605041062 0.19473409522781959 0 -0.25398905249910619 0.20166687324756341 0 -0.24666531613690271 0.20386508404673151 0 -0.26132428969069432 0.19909963868215391 0 -0.26497022856438979 0.2069094341203826 0 -0.25646226811841738 0.20896867503354849 0 -0.25398905249910619 0.20166687324756341 0 -0.25646226811841738 0.20896867503354849 0 -0.24666531613690271 0.20386508404673151 0 -0.25398905249910619 0.20166687324756341 0 -0.26132428969069432 0.19909963868215391 0 -0.25646226811841738 0.20896867503354849 0 -0.25646226811841738 0.20896867503354849 0 -0.24722957445290369 0.21404590575577129 0 -0.24666531613690271 0.20386508404673151 0 -0.25646226811841738 0.20896867503354849 0 -0.25483072364087211 0.2202441649145942 0 -0.24722957445290369 0.21404590575577129 0 -0.25646226811841738 0.20896867503354849 0 -0.26403964352415982 0.21708998646200561 0 -0.25483072364087211 0.2202441649145942 0 -0.26497022856438979 0.2069094341203826 0 -0.25646226811841738 0.20896867503354849 0 -0.26403964352415982 0.21708998646200561 0 -0.26497022856438979 0.2069094341203826 0 -0.26403964352415982 0.21708998646200561 0 -0.27559782277396322 0.2102700743508866 0 -0.26403964352415982 0.21708998646200561 0 -0.27559782277396322 0.2102700743508866 0 -0.27267251525268421 0.22253250420424381 0 -0.27138302331033459 0.2011747106665337 0 -0.26497022856438979 0.2069094341203826 0 -0.27559782277396322 0.2102700743508866 0 -0.28771947209934101 0.20960201904970571 0 -0.28025415824258781 0.19917025999610671 0 -0.27559782277396322 0.2102700743508866 0 -0.28025415824258781 0.19917025999610671 0 -0.27138302331033459 0.2011747106665337 0 -0.27559782277396322 0.2102700743508866 0 -0.281358107896717 0.2193365024463888 0 -0.27559782277396322 0.2102700743508866 0 -0.27267251525268421 0.22253250420424381 0 -0.281358107896717 0.2193365024463888 0 -0.2776022789716367 0.22954082177353691 0 -0.27267251525268421 0.22253250420424381 0 -0.2776022789716367 0.22954082177353691 0 -0.26996974689609371 0.2315365807403135 0 -0.27402816744195901 0.23649939988265209 0 -0.26996974689609371 0.2315365807403135 0 -0.26578556867597208 0.2256987066821014 0 -0.26193852525792638 0.23404364514103509 0 -0.26996974689609371 0.2315365807403135 0 -0.27267251525268421 0.22253250420424381 0 -0.26578556867597208 0.2256987066821014 0 -0.2776022789716367 0.22954082177353691 0 -0.26996974689609371 0.2315365807403135 0 -0.27267251525268421 0.22253250420424381 0 -0.26403964352415982 0.21708998646200561 0 -0.27267251525268421 0.22253250420424381 0 -0.26578556867597208 0.2256987066821014 0 -0.26403964352415982 0.21708998646200561 0 -0.26578556867597208 0.2256987066821014 0 -0.25905715122276968 0.22610257686098439 0 -0.26403964352415982 0.21708998646200561 0 -0.25905715122276968 0.22610257686098439 0 -0.25483072364087211 0.2202441649145942 0 -0.25905715122276968 0.22610257686098439 0 -0.25483072364087211 0.2202441649145942 0 -0.25372238742754161 0.23132372007593241 0 -0.25483072364087211 0.2202441649145942 0 -0.25372238742754161 0.23132372007593241 0 -0.24559854804269679 0.2252658723909238 0 -0.25905715122276968 0.22610257686098439 0 -0.25372238742754161 0.23132372007593241 0 -0.26193852525792638 0.23404364514103509 0 -0.26578556867597208 0.2256987066821014 0 -0.25905715122276968 0.22610257686098439 0 -0.26193852525792638 0.23404364514103509 0 -0.26193852525792638 0.23404364514103509 0 -0.26202403864547558 0.2429188321742308 0 -0.26874396735513312 0.23838850290156469 0 -0.26193852525792638 0.23404364514103509 0 -0.25380224261194823 0.2420236261065293 0 -0.26202403864547558 0.2429188321742308 0 -0.25372238742754161 0.23132372007593241 0 -0.26193852525792638 0.23404364514103509 0 -0.25380224261194823 0.2420236261065293 0 -0.25380224261194823 0.2420236261065293 0 -0.25786390678722121 0.25004617063311368 0 -0.24800282081558991 0.25311300777040008 0 -0.26202403864547558 0.2429188321742308 0 -0.26742202564945078 0.25040646433326869 0 -0.25786390678722121 0.25004617063311368 0 -0.25380224261194823 0.2420236261065293 0 -0.26202403864547558 0.2429188321742308 0 -0.25786390678722121 0.25004617063311368 0 -0.26791188719844911 0.2436838529548144 0 -0.27345751714373667 0.2430216124101934 0 -0.26742202564945078 0.25040646433326869 0 -0.26202403864547558 0.2429188321742308 0 -0.26791188719844911 0.2436838529548144 0 -0.26742202564945078 0.25040646433326869 0 -0.26996974689609371 0.2315365807403135 0 -0.26193852525792638 0.23404364514103509 0 -0.26874396735513312 0.23838850290156469 0 -0.26202403864547558 0.2429188321742308 0 -0.26791188719844911 0.2436838529548144 0 -0.26874396735513312 0.23838850290156469 0 -0.26996974689609371 0.2315365807403135 0 -0.26874396735513312 0.23838850290156469 0 -0.27402816744195901 0.23649939988265209 0 -0.26791188719844911 0.2436838529548144 0 -0.26874396735513312 0.23838850290156469 0 -0.27345751714373667 0.2430216124101934 0 -0.26874396735513312 0.23838850290156469 0 -0.27402816744195901 0.23649939988265209 0 -0.27345751714373667 0.2430216124101934 0 -0.2776022789716367 0.22954082177353691 0 -0.27402816744195901 0.23649939988265209 0 -0.28036732684319499 0.2400094815876522 0 -0.27402816744195901 0.23649939988265209 0 -0.28036732684319499 0.2400094815876522 0 -0.27345751714373667 0.2430216124101934 0 -0.28166205787749471 0.24654461896357471 0 -0.27345751714373667 0.2430216124101934 0 -0.26742202564945078 0.25040646433326869 0 -0.28166205787749471 0.24654461896357471 0 -0.28036732684319499 0.2400094815876522 0 -0.27345751714373667 0.2430216124101934 0 -0.29041236635411011 0.14198576070679761 0 -0.29362037367835109 0.1526921640559073 0 -0.28343409229691557 0.14731696245080361 0 -0.29041236635411011 0.14198576070679761 0 -0.29362037367835109 0.1526921640559073 0 -0.30116539000869402 0.14324730272956501 0 -0.29362037367835109 0.1526921640559073 0 -0.2831218423000007 0.15531135900157231 0 -0.28343409229691557 0.14731696245080361 0 -0.29041236635411011 0.14198576070679761 0 -0.28343409229691557 0.14731696245080361 0 -0.28340526165314389 0.1385769097237447 0 -0.28340526165314389 0.1385769097237447 0 -0.28816847720383448 0.13712488548245 0 -0.28653951604166089 0.131323010625637 0 -0.28816847720383448 0.13712488548245 0 -0.28653951604166089 0.131323010625637 0 -0.29231676476642321 0.1366138608736206 0 -0.29041236635411011 0.14198576070679761 0 -0.28340526165314389 0.1385769097237447 0 -0.28816847720383448 0.13712488548245 0 -0.28340526165314389 0.1385769097237447 0 -0.2846208269112781 0.12815264320601311 0 -0.28653951604166089 0.131323010625637 0 -0.2846208269112781 0.12815264320601311 0 -0.28653951604166089 0.131323010625637 0 -0.29546681449044748 0.130524411357057 0 -0.2846208269112781 0.12815264320601311 0 -0.28653951604166089 0.131323010625637 0 -0.29546681449044748 0.130524411357057 0 -0.29231676476642321 0.1366138608736206 0 -0.30116539000869402 0.14324730272956501 0 -0.28653951604166089 0.131323010625637 0 -0.29546681449044748 0.130524411357057 0 -0.29231676476642321 0.1366138608736206 0 -0.29041236635411011 0.14198576070679761 0 -0.29231676476642321 0.1366138608736206 0 -0.30116539000869402 0.14324730272956501 0 -0.29041236635411011 0.14198576070679761 0 -0.28816847720383448 0.13712488548245 0 -0.29231676476642321 0.1366138608736206 0 -0.29546681449044748 0.130524411357057 0 -0.31198054601861852 0.13107994382209781 0 -0.30116539000869402 0.14324730272956501 0 -0.29546681449044748 0.130524411357057 0 -0.31198054601861852 0.13107994382209781 0 -0.29579348291070151 0.1146960027647337 0 -0.29362037367835109 0.1526921640559073 0 -0.30116539000869402 0.14324730272956501 0 -0.30924299170034703 0.16136492011651329 0 -0.29362037367835109 0.1526921640559073 0 -0.30924299170034703 0.16136492011651329 0 -0.29499572810855512 0.17213352594103701 0 -0.31484008638213001 0.18250750636912971 0 -0.29499572810855512 0.17213352594103701 0 -0.31484008638213001 0.18250750636912971 0 -0.30924299170034703 0.16136492011651329 0 -0.29499572810855512 0.17213352594103701 0 -0.31484008638213001 0.18250750636912971 0 -0.29622147055053732 0.19090274297849361 0 -0.31484008638213001 0.18250750636912971 0 -0.29622147055053732 0.19090274297849361 0 -0.29499572810855512 0.17213352594103701 0 -0.29212620103150022 0.19274932260086841 0 -0.28568642019275953 0.17633114424571811 0 -0.28190800220118101 0.18728521349559771 0 -0.29622147055053732 0.19090274297849361 0 -0.29499572810855512 0.17213352594103701 0 -0.28568642019275953 0.17633114424571811 0 -0.29622147055053732 0.19090274297849361 0 -0.29212620103150022 0.19274932260086841 0 -0.28568642019275953 0.17633114424571811 0 -0.29622147055053732 0.19090274297849361 0 -0.28568642019275953 0.17633114424571811 0 -0.29362037367835109 0.1526921640559073 0 -0.2831218423000007 0.15531135900157231 0 -0.29499572810855512 0.17213352594103701 0 -0.29499572810855512 0.17213352594103701 0 -0.27515136983498051 0.16175954551294361 0 -0.29499572810855512 0.17213352594103701 0 -0.28568642019275953 0.17633114424571811 0 -0.27515136983498051 0.16175954551294361 0 -0.2831218423000007 0.15531135900157231 0 -0.29499572810855512 0.17213352594103701 0 -0.27515136983498051 0.16175954551294361 0 -0.28568642019275953 0.17633114424571811 0 -0.27515136983498051 0.16175954551294361 0 -0.27545552349656549 0.1741227203294059 0 -0.28568642019275953 0.17633114424571811 0 -0.27515136983498051 0.16175954551294361 0 -0.27515136983498051 0.16175954551294361 0 -0.2663292989169106 0.17095236925784049 0 -0.27545552349656549 0.1741227203294059 0 -0.27515136983498051 0.16175954551294361 0 -0.2663292989169106 0.17095236925784049 0 -0.26376522261784707 0.16342044040157611 0 -0.27515136983498051 0.16175954551294361 0 -0.26376522261784707 0.16342044040157611 0 -0.26229719964622539 0.15503980642543189 0 -0.27515136983498051 0.16175954551294361 0 -0.26229719964622539 0.15503980642543189 0 -0.2703171977523518 0.19205052106089529 0 -0.28190800220118101 0.18728521349559771 0 -0.2685115015813252 0.1817771165396237 0 -0.28190800220118101 0.18728521349559771 0 -0.27545552349656549 0.1741227203294059 0 -0.2685115015813252 0.1817771165396237 0 -0.28568642019275953 0.17633114424571811 0 -0.28190800220118101 0.18728521349559771 0 -0.27545552349656549 0.1741227203294059 0 -0.2663292989169106 0.17095236925784049 0 -0.27545552349656549 0.1741227203294059 0 -0.2685115015813252 0.1817771165396237 0 -0.2703171977523518 0.19205052106089529 0 -0.25967544573041268 0.188298846551406 0 -0.2685115015813252 0.1817771165396237 0 -0.25967544573041268 0.188298846551406 0 -0.2685115015813252 0.1817771165396237 0 -0.25738354139052999 0.1779530285425969 0 -0.2663292989169106 0.17095236925784049 0 -0.25738354139052999 0.1779530285425969 0 -0.25715384509131939 0.1690078263290978 0 -0.2663292989169106 0.17095236925784049 0 -0.2685115015813252 0.1817771165396237 0 -0.25738354139052999 0.1779530285425969 0 -0.25738354139052999 0.1779530285425969 0 -0.2484577803484381 0.16911774492432341 0 -0.24806601312553511 0.18384609063628959 0 -0.25738354139052999 0.1779530285425969 0 -0.25715384509131939 0.1690078263290978 0 -0.2484577803484381 0.16911774492432341 0 -0.25967544573041268 0.188298846551406 0 -0.25738354139052999 0.1779530285425969 0 -0.24806601312553511 0.18384609063628959 0 -0.26376522261784707 0.16342044040157611 0 -0.25789439959979971 0.1603426544825661 0 -0.26229719964622539 0.15503980642543189 0 -0.25789439959979971 0.1603426544825661 0 -0.26229719964622539 0.15503980642543189 0 -0.26376522261784707 0.16342044040157611 0 -0.25789439959979971 0.1603426544825661 0 -0.25715384509131939 0.1690078263290978 0 -0.2663292989169106 0.17095236925784049 0 -0.26376522261784707 0.16342044040157611 0 -0.25715384509131939 0.1690078263290978 0 -0.25789439959979971 0.1603426544825661 0 -0.25715384509131939 0.1690078263290978 0 -0.2484577803484381 0.16911774492432341 0 -0.25789439959979971 0.1603426544825661 0 -0.24770739827517721 0.15884923907876289 0 -0.2484577803484381 0.16911774492432341 0 -0.25789439959979971 0.1603426544825661 0 -0.25400879478249672 0.15070689988085861 0 -0.24770739827517721 0.15884923907876289 0 -0.25400879478249672 0.15070689988085861 0 -0.26657129282564801 0.1498919763006174 0 -0.2499487205023905 0.1269003962345385 0 -0.2846208269112781 0.12815264320601311 0 -0.26657129282564801 0.1498919763006174 0 -0.2499487205023905 0.1269003962345385 0 -0.25400879478249672 0.15070689988085861 0 -0.26229719964622539 0.15503980642543189 0 -0.26657129282564801 0.1498919763006174 0 -0.25789439959979971 0.1603426544825661 0 -0.25400879478249672 0.15070689988085861 0 -0.26229719964622539 0.15503980642543189 0 -0.25400879478249672 0.15070689988085861 0 -0.26229719964622539 0.15503980642543189 0 -0.26229719964622539 0.15503980642543189 0 -0.26657129282564801 0.1498919763006174 0 -0.2831218423000007 0.15531135900157231 0 -0.28343409229691557 0.14731696245080361 0 -0.26657129282564801 0.1498919763006174 0 -0.28343409229691557 0.14731696245080361 0 -0.28340526165314389 0.1385769097237447 0 -0.26657129282564801 0.1498919763006174 0 -0.27515136983498051 0.16175954551294361 0 -0.26657129282564801 0.1498919763006174 0 -0.2831218423000007 0.15531135900157231 0 -0.27515136983498051 0.16175954551294361 0 -0.26657129282564801 0.1498919763006174 0 -0.27515136983498051 0.16175954551294361 0 -0.26229719964622539 0.15503980642543189 0 -0.26657129282564801 0.1498919763006174 0 -0.28340526165314389 0.1385769097237447 0 -0.2846208269112781 0.12815264320601311 0 -0.26657129282564801 0.1498919763006174 0 -0.2846208269112781 0.12815264320601311 0 -0.26657129282564801 0.1498919763006174 0 -0.26657129282564801 0.1498919763006174 0 -0.2499487205023905 0.1269003962345385 0 -0.2846208269112781 0.12815264320601311 0 -0.27172629194349052 0.1068462142979982 0 -0.2499487205023905 0.1269003962345385 0 -0.25202467591831917 0.1031831303953244 0 -0.27172629194349052 0.1068462142979982 0 -0.2499487205023905 0.1269003962345385 0 -0.27172629194349052 0.1068462142979982 0 -0.25883175697570282 0.08553978538998358 0 -0.25202467591831917 0.1031831303953244 0 -0.27172629194349052 0.1068462142979982 0 -0.25883175697570282 0.08553978538998358 0 -0.27917472927643788 0.097875120670479987 0 -0.27172629194349052 0.1068462142979982 0 -0.25883175697570282 0.08553978538998358 0 -0.2846208269112781 0.12815264320601311 0 -0.27172629194349052 0.1068462142979982 0 -0.2846208269112781 0.12815264320601311 0 -0.27172629194349052 0.1068462142979982 0 -0.29579348291070151 0.1146960027647337 0 -0.2846208269112781 0.12815264320601311 0 -0.29546681449044748 0.130524411357057 0 -0.29579348291070151 0.1146960027647337 0 -0.2846208269112781 0.12815264320601311 0 -0.29579348291070151 0.1146960027647337 0 -0.27917472927643788 0.097875120670479987 0 -0.27172629194349052 0.1068462142979982 0 -0.29579348291070151 0.1146960027647337 0 -0.27917472927643788 0.097875120670479987 0 -0.29579348291070151 0.1146960027647337 0 -0.27917472927643788 0.097875120670479987 0 -0.29579348291070151 0.1146960027647337 0 -0.29468620596193912 0.090356749692257501 0 -0.29579348291070151 0.1146960027647337 0 -0.31006325857667127 0.097509110021902073 0 -0.31466713903662141 0.1048376939583852 0 -0.29579348291070151 0.1146960027647337 0 -0.31006325857667127 0.097509110021902073 0 -0.29468620596193912 0.090356749692257501 0 -0.29579348291070151 0.1146960027647337 0 -0.31006325857667127 0.097509110021902073 0 -0.31198054601861852 0.13107994382209781 0 -0.29579348291070151 0.1146960027647337 0 -0.31263059523002179 0.117411319040347 0 -0.29579348291070151 0.1146960027647337 0 -0.31263059523002179 0.117411319040347 0 -0.31466713903662141 0.1048376939583852 0 -0.31198054601861852 0.13107994382209781 0 -0.29579348291070151 0.1146960027647337 0 -0.31134765149775712 0.067833073982807413 0 -0.30775084040973488 0.081351725968802024 0 -0.29428961921366681 0.069895381810368473 0 -0.31006325857667127 0.097509110021902073 0 -0.30775084040973488 0.081351725968802024 0 -0.29468620596193912 0.090356749692257501 0 -0.30775084040973488 0.081351725968802024 0 -0.29468620596193912 0.090356749692257501 0 -0.29428961921366681 0.069895381810368473 0 -0.27917472927643788 0.097875120670479987 0 -0.29468620596193912 0.090356749692257501 0 -0.28020191898721158 0.080618038361085928 0 -0.29468620596193912 0.090356749692257501 0 -0.29428961921366681 0.069895381810368473 0 -0.28020191898721158 0.080618038361085928 0 -0.29428961921366681 0.069895381810368473 0 -0.27030306484183808 0.063908701056098943 0 -0.28541170846375191 0.054101045950701303 0 -0.29428961921366681 0.069895381810368473 0 -0.27030306484183808 0.063908701056098943 0 -0.28020191898721158 0.080618038361085928 0 -0.27030306484183808 0.063908701056098943 0 -0.28020191898721158 0.080618038361085928 0 -0.26255597564217631 0.081054238576224666 0 -0.27917472927643788 0.097875120670479987 0 -0.26255597564217631 0.081054238576224666 0 -0.27917472927643788 0.097875120670479987 0 -0.28020191898721158 0.080618038361085928 0 -0.26255597564217631 0.081054238576224666 0 -0.27917472927643788 0.097875120670479987 0 -0.26255597564217631 0.081054238576224666 0 -0.25883175697570282 0.08553978538998358 0 -0.27030306484183808 0.063908701056098943 0 -0.26255597564217631 0.081054238576224666 0 -0.24593722200791471 0.064233356481969039 0 -0.26255597564217631 0.081054238576224666 0 -0.24593722200791471 0.064233356481969039 0 -0.25883175697570282 0.08553978538998358 0 -0.24593722200791471 0.064233356481969039 0 -0.26255597564217631 0.081054238576224666 0 -0.25883175697570282 0.08553978538998358 0 -0.24593722200791471 0.064233356481969039 0 -0.27030306484183808 0.063908701056098943 0 -0.25654794015545968 0.054683927786505597 0 -0.26633368302547372 0.042579799869666222 0 -0.25654794015545968 0.054683927786505597 0 -0.24801373987997199 0.054302097415669472 0 -0.24593722200791471 0.064233356481969039 0 -0.27030306484183808 0.063908701056098943 0 -0.25654794015545968 0.054683927786505597 0 -0.24593722200791471 0.064233356481969039 0 -0.25654794015545968 0.054683927786505597 0 -0.24863621078836329 0.04311354441041032 0 -0.24801373987997199 0.054302097415669472 0 -0.26633368302547372 0.042579799869666222 0 -0.24652525723962471 0.025256980154944431 0 -0.24863621078836329 0.04311354441041032 0 -0.25654794015545968 0.054683927786505597 0 -0.26633368302547372 0.042579799869666222 0 -0.24863621078836329 0.04311354441041032 0 -0.26633368302547372 0.042579799869666222 0 -0.28541170846375191 0.054101045950701303 0 -0.28278655936470509 0.036755368513010853 0 -0.26633368302547372 0.042579799869666222 0 -0.27346723259980321 0.019261809699381419 0 -0.28278655936470509 0.036755368513010853 0 -0.27030306484183808 0.063908701056098943 0 -0.26633368302547372 0.042579799869666222 0 -0.28541170846375191 0.054101045950701303 0 -0.25368046575302122 -0.0060765949484967302 0 -0.2687292122232216 -0.00039107927712494318 0 -0.2559682256568111 0.0085224452031399753 0 -0.2559682256568111 0.0085224452031399753 0 -0.27346723259980321 0.019261809699381419 0 -0.24652525723962471 0.025256980154944431 0 -0.27346723259980321 0.019261809699381419 0 -0.24652525723962471 0.025256980154944431 0 -0.26633368302547372 0.042579799869666222 0 -0.27346723259980321 0.019261809699381419 0 -0.24652525723962471 0.025256980154944431 0 -0.2687292122232216 -0.00039107927712494318 0 -0.27346723259980321 0.019261809699381419 0 -0.28669271409587033 0.00067394175626276775 0 -0.2687292122232216 -0.00039107927712494318 0 -0.2559682256568111 0.0085224452031399753 0 -0.27346723259980321 0.019261809699381419 0 -0.27346723259980321 0.019261809699381419 0 -0.28669271409587033 0.00067394175626276775 0 -0.29342922958270468 0.016292084913638118 0 -0.28669271409587033 0.00067394175626276775 0 -0.29342922958270468 0.016292084913638118 0 -0.30636397558727529 0.0074589686305737476 0 -0.29342922958270468 0.016292084913638118 0 -0.28278655936470509 0.036755368513010853 0 -0.29796544892220012 0.031603439955737993 0 -0.27346723259980321 0.019261809699381419 0 -0.29342922958270468 0.016292084913638118 0 -0.28278655936470509 0.036755368513010853 0 -0.29342922958270468 0.016292084913638118 0 -0.31128922760479799 0.025597670344622139 0 -0.30636397558727529 0.0074589686305737476 0 -0.29342922958270468 0.016292084913638118 0 -0.31128922760479799 0.025597670344622139 0 -0.29796544892220012 0.031603439955737993 0 -0.31128922760479799 0.025597670344622139 0 -0.30636397558727529 0.0074589686305737476 0 -0.31967615519358261 0.01309571834917644 0 -0.30442587094067991 -0.0091726997856424724 0 -0.30636397558727529 0.0074589686305737476 0 -0.32136171038173122 0.0039822429546938244 0 -0.29428961921366681 0.069895381810368473 0 -0.28541170846375191 0.054101045950701303 0 -0.30443342253598488 0.047419101246825593 0 -0.28278655936470509 0.036755368513010853 0 -0.29796544892220012 0.031603439955737993 0 -0.30443342253598488 0.047419101246825593 0 -0.28541170846375191 0.054101045950701303 0 -0.28278655936470509 0.036755368513010853 0 -0.30443342253598488 0.047419101246825593 0 -0.31128922760479799 0.025597670344622139 0 -0.29796544892220012 0.031603439955737993 0 -0.30443342253598488 0.047419101246825593 0 -0.31134765149775712 0.067833073982807413 0 -0.29428961921366681 0.069895381810368473 0 -0.30443342253598488 0.047419101246825593 0 -0.31134765149775712 0.067833073982807413 0 -0.30443342253598488 0.047419101246825593 0 -0.32749567209038172 0.057836461044680092 0 -0.30443342253598488 0.047419101246825593 0 -0.32749567209038172 0.057836461044680092 0 -0.32358591364198208 0.035466089696928237 0 -0.32749567209038172 0.057836461044680092 0 -0.32358591364198208 0.035466089696928237 0 -0.31128922760479799 0.025597670344622139 0 -0.30443342253598488 0.047419101246825593 0 -0.32358591364198208 0.035466089696928237 0 -0.32749567209038172 0.057836461044680092 0 -0.32358591364198208 0.035466089696928237 0 -0.34535856748301552 0.037873264805799903 0 -0.32749567209038172 0.057836461044680092 0 -0.34877764926571442 0.056424638428939577 0 -0.34535856748301552 0.037873264805799903 0 -0.32749567209038172 0.057836461044680092 0 -0.34877764926571442 0.056424638428939577 0 -0.33965532917065677 0.068041417554307856 0 -0.32136171038173122 0.0039822429546938244 0 -0.31967615519358261 0.01309571834917644 0 -0.3382975498227826 0.017137185695030119 0 -0.30636397558727529 0.0074589686305737476 0 -0.32136171038173122 0.0039822429546938244 0 -0.31967615519358261 0.01309571834917644 0 -0.31128922760479799 0.025597670344622139 0 -0.32358591364198208 0.035466089696928237 0 -0.31967615519358261 0.01309571834917644 0 -0.32358591364198208 0.035466089696928237 0 -0.31967615519358261 0.01309571834917644 0 -0.32358591364198208 0.035466089696928237 0 -0.31967615519358261 0.01309571834917644 0 -0.3382975498227826 0.017137185695030119 0 -0.32358591364198208 0.035466089696928237 0 -0.3382975498227826 0.017137185695030119 0 -0.34535856748301552 0.037873264805799903 0 -0.33237148267863559 -0.0023354662605286139 0 -0.32136171038173122 0.0039822429546938244 0 -0.3382975498227826 0.017137185695030119 0 -0.32136171038173122 0.0039822429546938244 0 -0.3382975498227826 0.017137185695030119 0 -0.34396552384851448 -0.002286048506845227 0 -0.33237148267863559 -0.0023354662605286139 0 -0.3382975498227826 0.017137185695030119 0 -0.34396552384851448 -0.002286048506845227 0 -0.3382975498227826 0.017137185695030119 0 -0.35669899738390448 0.0061599450621230532 0 -0.3382975498227826 0.017137185695030119 0 -0.35669899738390448 0.0061599450621230532 0 -0.35509611680264752 0.022565830746099282 0 -0.3382975498227826 0.017137185695030119 0 -0.35509611680264752 0.022565830746099282 0 -0.34535856748301552 0.037873264805799903 0 -0.35509611680264752 0.022565830746099282 0 -0.34535856748301552 0.037873264805799903 0 -0.36858128962725328 0.031388571701146797 0 -0.38590037094696072 0.021936836233300599 0 -0.36948133179405301 0.016461005873055191 0 -0.36858128962725328 0.031388571701146797 0 -0.35509611680264752 0.022565830746099282 0 -0.36948133179405301 0.016461005873055191 0 -0.36858128962725328 0.031388571701146797 0 -0.3809477351706122 0.0027779631661205301 0 -0.35669899738390448 0.0061599450621230532 0 -0.36948133179405301 0.016461005873055191 0 -0.35669899738390448 0.0061599450621230532 0 -0.35509611680264752 0.022565830746099282 0 -0.36948133179405301 0.016461005873055191 0 -0.34877764926571442 0.056424638428939577 0 -0.34535856748301552 0.037873264805799903 0 -0.36522499818381288 0.047101909261874721 0 -0.34535856748301552 0.037873264805799903 0 -0.36858128962725328 0.031388571701146797 0 -0.36522499818381288 0.047101909261874721 0 -0.38485069663672228 0.039572138335468458 0 -0.36858128962725328 0.031388571701146797 0 -0.36522499818381288 0.047101909261874721 0 -0.34877764926571442 0.056424638428939577 0 -0.36522499818381288 0.047101909261874721 0 -0.36469040019974219 0.063788076308829988 0 -0.37968102449553931 0.055261132986699428 0 -0.36522499818381288 0.047101909261874721 0 -0.36469040019974219 0.063788076308829988 0 -0.37866953800929221 0.072188859818500373 0 -0.36469040019974219 0.063788076308829988 0 -0.36437800354805611 0.080126564233039821 0 -0.37968102449553931 0.055261132986699428 0 -0.37866953800929221 0.072188859818500373 0 -0.36469040019974219 0.063788076308829988 0 -0.36469040019974219 0.063788076308829988 0 -0.35141118769603907 0.071625353123926011 0 -0.36437800354805611 0.080126564233039821 0 -0.34877764926571442 0.056424638428939577 0 -0.36469040019974219 0.063788076308829988 0 -0.35141118769603907 0.071625353123926011 0 -0.35141118769603907 0.071625353123926011 0 -0.33965532917065677 0.068041417554307856 0 -0.34223240286875178 0.078278285120625971 0 -0.34877764926571442 0.056424638428939577 0 -0.35141118769603907 0.071625353123926011 0 -0.33965532917065677 0.068041417554307856 0 -0.34914540267198357 0.086755035559317878 0 -0.36437800354805611 0.080126564233039821 0 -0.3627680514013697 0.099571741863765773 0 -0.35141118769603907 0.071625353123926011 0 -0.34914540267198357 0.086755035559317878 0 -0.34223240286875178 0.078278285120625971 0 -0.35141118769603907 0.071625353123926011 0 -0.34914540267198357 0.086755035559317878 0 -0.36437800354805611 0.080126564233039821 0 -0.37749545954619118 0.085803985482563253 0 -0.36437800354805611 0.080126564233039821 0 -0.3627680514013697 0.099571741863765773 0 -0.37749545954619118 0.085803985482563253 0 -0.37866953800929221 0.072188859818500373 0 -0.36437800354805611 0.080126564233039821 0 -0.3627680514013697 0.099571741863765773 0 -0.37493080857762762 0.117639443057466 0 -0.35742372425334801 0.1206586607232582 0 -0.33967887290048621 0.12754478955736179 0 -0.35742372425334801 0.1206586607232582 0 -0.3353151889871806 0.1025772037401836 0 -0.34914540267198357 0.086755035559317878 0 -0.3627680514013697 0.099571741863765773 0 -0.3353151889871806 0.1025772037401836 0 -0.3627680514013697 0.099571741863765773 0 -0.35742372425334801 0.1206586607232582 0 -0.3353151889871806 0.1025772037401836 0 -0.3627680514013697 0.099571741863765773 0 -0.3353151889871806 0.1025772037401836 0 -0.33967887290048621 0.12754478955736179 0 -0.3353151889871806 0.1025772037401836 0 -0.33967887290048621 0.12754478955736179 0 -0.3353151889871806 0.1025772037401836 0 -0.32554516302573983 0.1169421376637811 0 -0.32554516302573983 0.1169421376637811 0 -0.31263059523002179 0.117411319040347 0 -0.31466713903662141 0.1048376939583852 0 -0.31198054601861852 0.13107994382209781 0 -0.32554516302573983 0.1169421376637811 0 -0.31263059523002179 0.117411319040347 0 -0.3353151889871806 0.1025772037401836 0 -0.31466713903662141 0.1048376939583852 0 -0.31734125986687589 0.098047396955438182 0 -0.3353151889871806 0.1025772037401836 0 -0.31734125986687589 0.098047396955438182 0 -0.32369163444242999 0.091732552077805216 0 -0.3353151889871806 0.1025772037401836 0 -0.31466713903662141 0.1048376939583852 0 -0.3353151889871806 0.1025772037401836 0 -0.32554516302573983 0.1169421376637811 0 -0.31466713903662141 0.1048376939583852 0 -0.31006325857667127 0.097509110021902073 0 -0.31466713903662141 0.1048376939583852 0 -0.31734125986687589 0.098047396955438182 0 -0.31006325857667127 0.097509110021902073 0 -0.31734125986687589 0.098047396955438182 0 -0.32369163444242999 0.091732552077805216 0 -0.31006325857667127 0.097509110021902073 0 -0.30775084040973488 0.081351725968802024 0 -0.32433303424264098 0.080322217279070296 0 -0.31006325857667127 0.097509110021902073 0 -0.32433303424264098 0.080322217279070296 0 -0.31006325857667127 0.097509110021902073 0 -0.32369163444242999 0.091732552077805216 0 -0.32433303424264098 0.080322217279070296 0 -0.32369163444242999 0.091732552077805216 0 -0.32433303424264098 0.080322217279070296 0 -0.33140543053878119 0.080206832392431912 0 -0.32749567209038172 0.057836461044680092 0 -0.32433303424264098 0.080322217279070296 0 -0.33140543053878119 0.080206832392431912 0 -0.31134765149775712 0.067833073982807413 0 -0.30775084040973488 0.081351725968802024 0 -0.32433303424264098 0.080322217279070296 0 -0.31134765149775712 0.067833073982807413 0 -0.32749567209038172 0.057836461044680092 0 -0.32433303424264098 0.080322217279070296 0 -0.32749567209038172 0.057836461044680092 0 -0.33140543053878119 0.080206832392431912 0 -0.32749567209038172 0.057836461044680092 0 -0.33965532917065677 0.068041417554307856 0 -0.33140543053878119 0.080206832392431912 0 -0.33965532917065677 0.068041417554307856 0 -0.34223240286875178 0.078278285120625971 0 -0.33140543053878119 0.080206832392431912 0 -0.3353151889871806 0.1025772037401836 0 -0.32369163444242999 0.091732552077805216 0 -0.33140543053878119 0.080206832392431912 0 -0.34223240286875178 0.078278285120625971 0 -0.3395246062666743 0.08695433920313983 0 -0.33140543053878119 0.080206832392431912 0 -0.3353151889871806 0.1025772037401836 0 -0.3395246062666743 0.08695433920313983 0 -0.33140543053878119 0.080206832392431912 0 -0.34914540267198357 0.086755035559317878 0 -0.34223240286875178 0.078278285120625971 0 -0.3395246062666743 0.08695433920313983 0 -0.34914540267198357 0.086755035559317878 0 -0.3353151889871806 0.1025772037401836 0 -0.3395246062666743 0.08695433920313983 0 -0.3353151889871806 0.1025772037401836 0 -0.33140543053878119 0.080206832392431912 0 -0.39490744557181329 0.47749542215548041 0 -0.40238690193534687 0.48618951775534291 0 -0.38204176093759867 0.48767303845213411 0 -0.39490744557181329 0.47749542215548041 0 -0.39324728345878118 0.47058229686955139 0 -0.38620655286583028 0.47549051880844878 0 -0.39490744557181329 0.47749542215548041 0 -0.39324728345878118 0.47058229686955139 0 -0.39950232781761019 0.4698941889100679 0 -0.39490744557181329 0.47749542215548041 0 -0.40605984641571291 0.47514297213733753 0 -0.39950232781761019 0.4698941889100679 0 -0.40605984641571291 0.47514297213733753 0 -0.39950232781761019 0.4698941889100679 0 -0.40344336090166311 0.46223533000004818 0 -0.39490744557181329 0.47749542215548041 0 -0.40605984641571291 0.47514297213733753 0 -0.40238690193534687 0.48618951775534291 0 -0.39981313985169459 0.5 0 -0.40238690193534687 0.48618951775534291 0 -0.38204176093759867 0.48767303845213411 0 -0.40238690193534687 0.48618951775534291 0 -0.38204176093759867 0.48767303845213411 0 -0.39981313985169459 0.5 0 -0.38204176093759867 0.48767303845213411 0 -0.37044734965704867 0.5 0 -0.38204176093759867 0.48767303845213411 0 -0.38620655286583028 0.47549051880844878 0 -0.37333950992086351 0.47327722219825058 0 -0.38204176093759867 0.48767303845213411 0 -0.37333950992086351 0.47327722219825058 0 -0.36994570678819511 0.48733690223976572 0 -0.39490744557181329 0.47749542215548041 0 -0.38204176093759867 0.48767303845213411 0 -0.38620655286583028 0.47549051880844878 0 -0.39324728345878118 0.47058229686955139 0 -0.38620655286583028 0.47549051880844878 0 -0.38559273904397229 0.46432478489105861 0 -0.38620655286583028 0.47549051880844878 0 -0.38559273904397229 0.46432478489105861 0 -0.37333950992086351 0.47327722219825058 0 -0.37626883962521179 0.45892663211557277 0 -0.38559273904397229 0.46432478489105861 0 -0.37333950992086351 0.47327722219825058 0 -0.37626883962521179 0.45892663211557277 0 -0.38281421218162648 0.45301532836957992 0 -0.37481481235924752 0.4476546642360138 0 -0.37626883962521179 0.45892663211557277 0 -0.38559273904397229 0.46432478489105861 0 -0.38281421218162648 0.45301532836957992 0 -0.38559273904397229 0.46432478489105861 0 -0.38281421218162648 0.45301532836957992 0 -0.39168507055110569 0.45433832731915158 0 -0.38559273904397229 0.46432478489105861 0 -0.39441247863106599 0.46340476004126452 0 -0.39168507055110569 0.45433832731915158 0 -0.37558425303023452 0.43976878428969562 0 -0.38178602289440311 0.44653188465487098 0 -0.38775378317896692 0.44369977129527732 0 -0.37558425303023452 0.43976878428969562 0 -0.38178602289440311 0.44653188465487098 0 -0.37481481235924752 0.4476546642360138 0 -0.38178602289440311 0.44653188465487098 0 -0.38281421218162648 0.45301532836957992 0 -0.37481481235924752 0.4476546642360138 0 -0.38600977220152549 0.44939632790971989 0 -0.38775378317896692 0.44369977129527732 0 -0.39168507055110569 0.45433832731915158 0 -0.38281421218162648 0.45301532836957992 0 -0.38600977220152549 0.44939632790971989 0 -0.39168507055110569 0.45433832731915158 0 -0.38178602289440311 0.44653188465487098 0 -0.38281421218162648 0.45301532836957992 0 -0.38600977220152549 0.44939632790971989 0 -0.38178602289440311 0.44653188465487098 0 -0.38600977220152549 0.44939632790971989 0 -0.38775378317896692 0.44369977129527732 0 -0.38520205828472109 0.43947649428889168 0 -0.38775378317896692 0.44369977129527732 0 -0.39305454088869402 0.44028907937492251 0 -0.38775378317896692 0.44369977129527732 0 -0.40344336090166311 0.46223533000004818 0 -0.38775378317896692 0.44369977129527732 0 -0.40152380697676188 0.45059662414066209 0 -0.40344336090166311 0.46223533000004818 0 -0.39305454088869402 0.44028907937492251 0 -0.39815501932632519 0.44415738894337708 0 -0.39840934245878362 0.43477159503588902 0 -0.38775378317896692 0.44369977129527732 0 -0.39305454088869402 0.44028907937492251 0 -0.39815501932632519 0.44415738894337708 0 -0.38520205828472109 0.43947649428889168 0 -0.39305454088869402 0.44028907937492251 0 -0.39840934245878362 0.43477159503588902 0 -0.38775378317896692 0.44369977129527732 0 -0.39815501932632519 0.44415738894337708 0 -0.40152380697676188 0.45059662414066209 0 -0.39815501932632519 0.44415738894337708 0 -0.40152380697676188 0.45059662414066209 0 -0.40890687271294718 0.44615818941335511 0 -0.39815501932632519 0.44415738894337708 0 -0.40890687271294718 0.44615818941335511 0 -0.39840934245878362 0.43477159503588902 0 -0.40890687271294718 0.44615818941335511 0 -0.39840934245878362 0.43477159503588902 0 -0.38775378317896692 0.44369977129527732 0 -0.39168507055110569 0.45433832731915158 0 -0.40344336090166311 0.46223533000004818 0 -0.39324728345878118 0.47058229686955139 0 -0.38559273904397229 0.46432478489105861 0 -0.39441247863106599 0.46340476004126452 0 -0.39324728345878118 0.47058229686955139 0 -0.39950232781761019 0.4698941889100679 0 -0.39441247863106599 0.46340476004126452 0 -0.39441247863106599 0.46340476004126452 0 -0.39168507055110569 0.45433832731915158 0 -0.40344336090166311 0.46223533000004818 0 -0.40152380697676188 0.45059662414066209 0 -0.40344336090166311 0.46223533000004818 0 -0.40935999876390688 0.45673244105125249 0 -0.39950232781761019 0.4698941889100679 0 -0.39441247863106599 0.46340476004126452 0 -0.40344336090166311 0.46223533000004818 0 -0.40344336090166311 0.46223533000004818 0 -0.41333145950128303 0.46415450668508118 0 -0.40935999876390688 0.45673244105125249 0 -0.41333145950128303 0.46415450668508118 0 -0.40935999876390688 0.45673244105125249 0 -0.41940440296711079 0.45754478379082109 0 -0.40935999876390688 0.45673244105125249 0 -0.41940440296711079 0.45754478379082109 0 -0.40890687271294718 0.44615818941335511 0 -0.41333145950128303 0.46415450668508118 0 -0.41940440296711079 0.45754478379082109 0 -0.41333145950128303 0.46415450668508118 0 -0.41940440296711079 0.45754478379082109 0 -0.42171457542345819 0.47025898220142759 0 -0.40152380697676188 0.45059662414066209 0 -0.40935999876390688 0.45673244105125249 0 -0.40890687271294718 0.44615818941335511 0 -0.41940440296711079 0.45754478379082109 0 -0.40890687271294718 0.44615818941335511 0 -0.41940440296711079 0.45754478379082109 0 -0.40890687271294718 0.44615818941335511 0 -0.41974589467358681 0.44604231398710442 0 -0.40890687271294718 0.44615818941335511 0 -0.41974589467358681 0.44604231398710442 0 -0.41955991599177078 0.43566433621052969 0 -0.43111238702251831 0.44480194653371191 0 -0.4428203710779261 0.43205910927660302 0 -0.41955991599177078 0.43566433621052969 0 -0.41974589467358681 0.44604231398710442 0 -0.43111238702251831 0.44480194653371191 0 -0.41955991599177078 0.43566433621052969 0 -0.41940440296711079 0.45754478379082109 0 -0.41974589467358681 0.44604231398710442 0 -0.43111238702251831 0.44480194653371191 0 -0.41940440296711079 0.45754478379082109 0 -0.43111238702251831 0.44480194653371191 0 -0.43111238702251831 0.44480194653371191 0 -0.4428203710779261 0.43205910927660302 0 -0.41940440296711079 0.45754478379082109 0 -0.4358735311723283 0.45703586748138431 0 -0.43124079344897592 0.47038363007629302 0 -0.41940440296711079 0.45754478379082109 0 -0.43111238702251831 0.44480194653371191 0 -0.4358735311723283 0.45703586748138431 0 -0.41940440296711079 0.45754478379082109 0 -0.43124079344897592 0.47038363007629302 0 -0.42171457542345819 0.47025898220142759 0 -0.41940440296711079 0.45754478379082109 0 -0.43124079344897592 0.47038363007629302 0 -0.43124079344897592 0.47038363007629302 0 -0.42675882117162323 0.47740960084324557 0 -0.44307718393084339 0.48322247636176258 0 -0.42273204293309502 0.48470599705855177 0 -0.44307718393084339 0.48322247636176258 0 -0.42675882117162323 0.47740960084324557 0 -0.42273204293309502 0.48470599705855177 0 -0.44307718393084339 0.48322247636176258 0 -0.43124079344897592 0.47038363007629302 0 -0.44307718393084339 0.48322247636176258 0 -0.42675882117162323 0.47740960084324557 0 -0.41913293862435919 0.48077088870481899 0 -0.42273204293309502 0.48470599705855177 0 -0.43124079344897592 0.47038363007629302 0 -0.42675882117162323 0.47740960084324557 0 -0.42171457542345819 0.47025898220142759 0 -0.42675882117162323 0.47740960084324557 0 -0.42171457542345819 0.47025898220142759 0 -0.41913293862435919 0.48077088870481899 0 -0.40344336090166311 0.46223533000004818 0 -0.41913293862435919 0.48077088870481899 0 -0.40238690193534687 0.48618951775534291 0 -0.41913293862435919 0.48077088870481899 0 -0.42273204293309502 0.48470599705855177 0 -0.40605984641571291 0.47514297213733753 0 -0.40344336090166311 0.46223533000004818 0 -0.41913293862435919 0.48077088870481899 0 -0.41333145950128303 0.46415450668508118 0 -0.42171457542345819 0.47025898220142759 0 -0.41913293862435919 0.48077088870481899 0 -0.40344336090166311 0.46223533000004818 0 -0.41333145950128303 0.46415450668508118 0 -0.41913293862435919 0.48077088870481899 0 -0.40605984641571291 0.47514297213733753 0 -0.40238690193534687 0.48618951775534291 0 -0.41913293862435919 0.48077088870481899 0 -0.39981313985169459 0.5 0 -0.42917893004634061 0.5 0 -0.42273204293309502 0.48470599705855177 0 -0.39981313985169459 0.5 0 -0.40238690193534687 0.48618951775534291 0 -0.42273204293309502 0.48470599705855177 0 -0.40238690193534687 0.48618951775534291 0 -0.42273204293309502 0.48470599705855177 0 -0.42273204293309502 0.48470599705855177 0 -0.43329083577145538 0.48926092584322811 0 -0.44307718393084339 0.48322247636176258 0 -0.42917893004634061 0.5 0 -0.42273204293309502 0.48470599705855177 0 -0.43329083577145538 0.48926092584322811 0 -0.42917893004634061 0.5 0 -0.43329083577145538 0.48926092584322811 0 -0.45854472024098653 0.50000000000000167 0 -0.44307718393084339 0.48322247636176258 0 -0.45854472024098653 0.50000000000000167 0 -0.43329083577145538 0.48926092584322811 0 -0.44307718393084339 0.48322247636176258 0 -0.45854472024098653 0.50000000000000167 0 -0.43124079344897592 0.47038363007629302 0 -0.44307718393084339 0.48322247636176258 0 -0.45176717470325878 0.46380821064388678 0 -0.46836306224000968 0.48137868851028581 0 -0.47128447964556919 0.46295763473221557 0 -0.45176717470325878 0.46380821064388678 0 -0.44307718393084339 0.48322247636176258 0 -0.46836306224000968 0.48137868851028581 0 -0.44307718393084339 0.48322247636176258 0 -0.46836306224000968 0.48137868851028581 0 -0.45176717470325878 0.46380821064388678 0 -0.44307718393084339 0.48322247636176258 0 -0.46836306224000968 0.48137868851028581 0 -0.45854472024098653 0.50000000000000167 0 -0.46836306224000968 0.48137868851028581 0 -0.49364894054917619 0.47953490065881132 0 -0.48751681264942431 0.50000000000000067 0 -0.46836306224000968 0.48137868851028581 0 -0.45854472024098653 0.50000000000000167 0 -0.48751681264942431 0.50000000000000067 0 -0.46836306224000968 0.48137868851028581 0 -0.48373181651593311 0.46957425119040169 0 -0.49364894054917619 0.47953490065881132 0 -0.46836306224000968 0.48137868851028581 0 -0.49364894054917619 0.47953490065881132 0 -0.46836306224000968 0.48137868851028581 0 -0.48373181651593311 0.46957425119040169 0 -0.47128447964556919 0.46295763473221557 0 -0.48373181651593311 0.46957425119040169 0 -0.49364894054917619 0.47953490065881132 0 -0.49724591349141689 0.46753051820072999 0 -0.50000000000000222 0.4712835840454942 0 -0.49364894054917619 0.47953490065881132 0 -0.49724591349141689 0.46753051820072999 0 -0.49364894054917619 0.47953490065881132 0 -0.49724591349141689 0.46753051820072999 0 -0.50000000000000222 0.4712835840454942 0 -0.49724591349141689 0.46753051820072999 0 -0.50000000000000222 0.4712835840454942 0 -0.49364894054917619 0.47953490065881132 0 -0.49999999999999489 0.47907179607069938 0 -0.49364894054917619 0.47953490065881132 0 -0.49999999999999489 0.47907179607069938 0 -0.49364894054917619 0.47953490065881132 0 -0.49999999999999489 0.47907179607069938 0 -0.5 0.5 0 -0.49364894054917619 0.47953490065881132 0 -0.5 0.5 0 -0.48751681264942431 0.50000000000000067 0 -0.49364894054917619 0.47953490065881132 0 -0.48751681264942431 0.50000000000000067 0 -0.48983763369558869 0.44158310504263121 0 -0.49999999999999989 0.45833914859562852 0 -0.49016642815461042 0.45788311804346032 0 -0.48983763369558869 0.44158310504263121 0 -0.49999999999999989 0.45833914859562852 0 -0.5 0.42883458196274332 0 -0.48983763369558869 0.44158310504263121 0 -0.49016642815461042 0.45788311804346032 0 -0.47438689006328361 0.43637992804850029 0 -0.49999999999999989 0.45833914859562852 0 -0.49873608737430708 0.46255727611453279 0 -0.49016642815461042 0.45788311804346032 0 -0.49873608737430708 0.46255727611453279 0 -0.49016642815461042 0.45788311804346032 0 -0.50000000000000222 0.4712835840454942 0 -0.49724591349141689 0.46753051820072999 0 -0.49873608737430708 0.46255727611453279 0 -0.49724591349141689 0.46753051820072999 0 -0.49873608737430708 0.46255727611453279 0 -0.49016642815461042 0.45788311804346032 0 -0.49724591349141689 0.46753051820072999 0 -0.49016642815461042 0.45788311804346032 0 -0.49724591349141689 0.46753051820072999 0 -0.49873608737430708 0.46255727611453279 0 -0.48373181651593311 0.46957425119040169 0 -0.49724591349141689 0.46753051820072999 0 -0.49016642815461042 0.45788311804346032 0 -0.49016642815461042 0.45788311804346032 0 -0.47128447964556919 0.46295763473221557 0 -0.46649339961626829 0.44497111366003139 0 -0.48373181651593311 0.46957425119040169 0 -0.49016642815461042 0.45788311804346032 0 -0.47128447964556919 0.46295763473221557 0 -0.49016642815461042 0.45788311804346032 0 -0.46649339961626829 0.44497111366003139 0 -0.49016642815461042 0.45788311804346032 0 -0.47438689006328361 0.43637992804850029 0 -0.49016642815461042 0.45788311804346032 0 -0.46649339961626829 0.44497111366003139 0 -0.47438689006328361 0.43637992804850029 0 -0.46649339961626829 0.44497111366003139 0 -0.4428203710779261 0.43205910927660302 0 -0.46649339961626829 0.44497111366003139 0 -0.45176717470325878 0.46380821064388678 0 -0.44584289771977759 0.4486407663622089 0 -0.47128447964556919 0.46295763473221557 0 -0.46649339961626829 0.44497111366003139 0 -0.45176717470325878 0.46380821064388678 0 -0.4358735311723283 0.45703586748138431 0 -0.45176717470325878 0.46380821064388678 0 -0.44584289771977759 0.4486407663622089 0 -0.4358735311723283 0.45703586748138431 0 -0.43124079344897592 0.47038363007629302 0 -0.45176717470325878 0.46380821064388678 0 -0.43111238702251831 0.44480194653371191 0 -0.44584289771977759 0.4486407663622089 0 -0.4428203710779261 0.43205910927660302 0 -0.46649339961626829 0.44497111366003139 0 -0.44584289771977759 0.4486407663622089 0 -0.4428203710779261 0.43205910927660302 0 -0.43111238702251831 0.44480194653371191 0 -0.4358735311723283 0.45703586748138431 0 -0.44584289771977759 0.4486407663622089 0 -0.4428203710779261 0.43205910927660302 0 -0.45860735197195701 0.41487673805354008 0 -0.4428203710779261 0.43205910927660302 0 -0.44776129043856289 0.41595327423210898 0 -0.45860735197195701 0.41487673805354008 0 -0.4428203710779261 0.43205910927660302 0 -0.44776129043856289 0.41595327423210898 0 -0.43716627103313022 0.4133956298611261 0 -0.45204174961864468 0.4059296197020697 0 -0.43716627103313022 0.4133956298611261 0 -0.45204174961864468 0.4059296197020697 0 -0.44140072212960357 0.40521549308841931 0 -0.43716627103313022 0.4133956298611261 0 -0.44776129043856289 0.41595327423210898 0 -0.45204174961864468 0.4059296197020697 0 -0.43716627103313022 0.4133956298611261 0 -0.44776129043856289 0.41595327423210898 0 -0.45860735197195701 0.41487673805354008 0 -0.45204174961864468 0.4059296197020697 0 -0.45860735197195701 0.41487673805354008 0 -0.45204174961864468 0.4059296197020697 0 -0.45860735197195701 0.41487673805354008 0 -0.45994546635435518 0.4019627403103333 0 -0.45204174961864468 0.4059296197020697 0 -0.45860735197195701 0.41487673805354008 0 -0.4724049013146398 0.39985964160135129 0 -0.4428203710779261 0.43205910927660302 0 -0.45860735197195701 0.41487673805354008 0 -0.45958420046582832 0.43070119401699292 0 -0.45860735197195701 0.41487673805354008 0 -0.47438689006328361 0.43637992804850029 0 -0.46649339961626829 0.44497111366003139 0 -0.4428203710779261 0.43205910927660302 0 -0.45958420046582832 0.43070119401699292 0 -0.45860735197195701 0.41487673805354008 0 -0.45958420046582832 0.43070119401699292 0 -0.47438689006328361 0.43637992804850029 0 -0.46649339961626829 0.44497111366003139 0 -0.45958420046582832 0.43070119401699292 0 -0.47438689006328361 0.43637992804850029 0 -0.45860735197195701 0.41487673805354008 0 -0.47438689006328361 0.43637992804850029 0 -0.4836654749670114 0.41841208652258888 0 -0.48983763369558869 0.44158310504263121 0 -0.47438689006328361 0.43637992804850029 0 -0.4836654749670114 0.41841208652258888 0 -0.45860735197195701 0.41487673805354008 0 -0.4836654749670114 0.41841208652258888 0 -0.4724049013146398 0.39985964160135129 0 -0.4836654749670114 0.41841208652258888 0 -0.5 0.42883458196274332 0 -0.5 0.39933001532985812 0 -0.48983763369558869 0.44158310504263121 0 -0.4836654749670114 0.41841208652258888 0 -0.5 0.42883458196274332 0 -0.48620245065732293 0.38484254514916288 0 -0.5 0.39933001532985812 0 -0.500000000000004 0.36982544869697259 0 -0.48620245065732293 0.38484254514916288 0 -0.500000000000004 0.36982544869697259 0 -0.48620245065732293 0.38484254514916288 0 -0.5 0.39933001532985812 0 -0.4724049013146398 0.39985964160135129 0 -0.4836654749670114 0.41841208652258888 0 -0.5 0.39933001532985812 0 -0.4724049013146398 0.39985964160135129 0 -0.48620245065732293 0.38484254514916288 0 -0.4724049013146398 0.39985964160135129 0 -0.48620245065732293 0.38484254514916288 0 -0.46882103669359348 0.38271975529743629 0 -0.47496095621428192 0.36016817074259322 0 -0.48620245065732293 0.38484254514916288 0 -0.4724049013146398 0.39985964160135129 0 -0.46882103669359348 0.38271975529743629 0 -0.46882103669359348 0.38271975529743629 0 -0.46300474617248288 0.39248374190397167 0 -0.45244523189891372 0.38892078790980428 0 -0.46882103669359348 0.38271975529743629 0 -0.45244523189891372 0.38892078790980428 0 -0.45043554360320448 0.37287948770410961 0 -0.4724049013146398 0.39985964160135129 0 -0.46882103669359348 0.38271975529743629 0 -0.46300474617248288 0.39248374190397167 0 -0.45860735197195701 0.41487673805354008 0 -0.4724049013146398 0.39985964160135129 0 -0.45994546635435518 0.4019627403103333 0 -0.4724049013146398 0.39985964160135129 0 -0.46300474617248288 0.39248374190397167 0 -0.45994546635435518 0.4019627403103333 0 -0.46300474617248288 0.39248374190397167 0 -0.45430833132047271 0.39673982167744432 0 -0.45994546635435518 0.4019627403103333 0 -0.46300474617248288 0.39248374190397167 0 -0.45430833132047271 0.39673982167744432 0 -0.45244523189891372 0.38892078790980428 0 -0.45430833132047271 0.39673982167744432 0 -0.45994546635435518 0.4019627403103333 0 -0.45050865349022079 0.40384042943938631 0 -0.45994546635435518 0.4019627403103333 0 -0.45204174961864468 0.4059296197020697 0 -0.45050865349022079 0.40384042943938631 0 -0.45994546635435518 0.4019627403103333 0 -0.45204174961864468 0.4059296197020697 0 -0.45204174961864468 0.4059296197020697 0 -0.45050865349022079 0.40384042943938631 0 -0.44140072212960357 0.40521549308841931 0 -0.45050865349022079 0.40384042943938631 0 -0.44680146788996927 0.39714892291331688 0 -0.44140072212960357 0.40521549308841931 0 -0.45204174961864468 0.4059296197020697 0 -0.45050865349022079 0.40384042943938631 0 -0.45430833132047271 0.39673982167744432 0 -0.45050865349022079 0.40384042943938631 0 -0.44680146788996927 0.39714892291331688 0 -0.45430833132047271 0.39673982167744432 0 -0.44680146788996927 0.39714892291331688 0 -0.45244523189891372 0.38892078790980428 0 -0.44680146788996927 0.39714892291331688 0 -0.45244523189891372 0.38892078790980428 0 -0.43741644519336342 0.3911176918987912 0 -0.44680146788996927 0.39714892291331688 0 -0.44140072212960357 0.40521549308841931 0 -0.43741644519336342 0.3911176918987912 0 -0.45244523189891372 0.38892078790980428 0 -0.43741644519336342 0.3911176918987912 0 -0.45043554360320448 0.37287948770410961 0 -0.43741644519336342 0.3911176918987912 0 -0.43036842009734949 0.37128442628390051 0 -0.45043554360320448 0.37287948770410961 0 -0.42352976909768741 0.38854168431897801 0 -0.43741644519336342 0.3911176918987912 0 -0.43036842009734949 0.37128442628390051 0 -0.42352976909768741 0.38854168431897801 0 -0.40044726833764949 0.38895064935752027 0 -0.42352976909768741 0.38854168431897801 0 -0.40731254649571569 0.36971446559326249 0 -0.43036842009734949 0.37128442628390051 0 -0.42352976909768741 0.38854168431897801 0 -0.40044726833764949 0.38895064935752027 0 -0.40731254649571569 0.36971446559326249 0 -0.42352976909768741 0.38854168431897801 0 -0.40893475308072091 0.40049586729479492 0 -0.40044726833764949 0.38895064935752027 0 -0.42352976909768741 0.38854168431897801 0 -0.40893475308072091 0.40049586729479492 0 -0.42147873413131209 0.40414659604710412 0 -0.40893475308072091 0.40049586729479492 0 -0.42147873413131209 0.40414659604710412 0 -0.41537776168563639 0.40974641200544432 0 -0.42352976909768741 0.38854168431897801 0 -0.42147873413131209 0.40414659604710412 0 -0.43741644519336342 0.3911176918987912 0 -0.44140072212960357 0.40521549308841931 0 -0.42147873413131209 0.40414659604710412 0 -0.43741644519336342 0.3911176918987912 0 -0.44140072212960357 0.40521549308841931 0 -0.42147873413131209 0.40414659604710412 0 -0.43716627103313022 0.4133956298611261 0 -0.42147873413131209 0.40414659604710412 0 -0.43716627103313022 0.4133956298611261 0 -0.4222907924476148 0.42086164002018062 0 -0.43716627103313022 0.4133956298611261 0 -0.4222907924476148 0.42086164002018062 0 -0.4428203710779261 0.43205910927660302 0 -0.4222907924476148 0.42086164002018062 0 -0.41955991599177078 0.43566433621052969 0 -0.4428203710779261 0.43205910927660302 0 -0.4222907924476148 0.42086164002018062 0 -0.4428203710779261 0.43205910927660302 0 -0.43716627103313022 0.4133956298611261 0 -0.4222907924476148 0.42086164002018062 0 -0.4222907924476148 0.42086164002018062 0 -0.40374642536616823 0.43016906715453662 0 -0.40890687271294718 0.44615818941335511 0 -0.41955991599177078 0.43566433621052969 0 -0.40374642536616823 0.43016906715453662 0 -0.4222907924476148 0.42086164002018062 0 -0.41955991599177078 0.43566433621052969 0 -0.40374642536616823 0.43016906715453662 0 -0.4222907924476148 0.42086164002018062 0 -0.40692682426899229 0.41912914207218088 0 -0.40374642536616823 0.43016906715453662 0 -0.42147873413131209 0.40414659604710412 0 -0.4222907924476148 0.42086164002018062 0 -0.41537776168563639 0.40974641200544432 0 -0.4222907924476148 0.42086164002018062 0 -0.40880676708289793 0.41348154465969839 0 -0.4222907924476148 0.42086164002018062 0 -0.41537776168563639 0.40974641200544432 0 -0.40880676708289793 0.41348154465969839 0 -0.4222907924476148 0.42086164002018062 0 -0.40692682426899229 0.41912914207218088 0 -0.40880676708289793 0.41348154465969839 0 -0.40893475308072091 0.40049586729479492 0 -0.41537776168563639 0.40974641200544432 0 -0.40880676708289793 0.41348154465969839 0 -0.40880676708289793 0.41348154465969839 0 -0.39308576733025469 0.40142057952788063 0 -0.40692682426899229 0.41912914207218088 0 -0.38949551486263201 0.42214667733134281 0 -0.40880676708289793 0.41348154465969839 0 -0.39653494405341022 0.41198361301216341 0 -0.38861272044836742 0.40249257445785058 0 -0.40692682426899229 0.41912914207218088 0 -0.40193048964567252 0.41507163245320172 0 -0.38949551486263201 0.42214667733134281 0 -0.40880676708289793 0.41348154465969839 0 -0.40193048964567252 0.41507163245320172 0 -0.39653494405341022 0.41198361301216341 0 -0.40880676708289793 0.41348154465969839 0 -0.38861272044836742 0.40249257445785058 0 -0.40692682426899229 0.41912914207218088 0 -0.40880676708289793 0.41348154465969839 0 -0.40193048964567252 0.41507163245320172 0 -0.39653494405341022 0.41198361301216341 0 -0.38949551486263201 0.42214667733134281 0 -0.38934961284783898 0.40990930145296328 0 -0.40193048964567252 0.41507163245320172 0 -0.39653494405341022 0.41198361301216341 0 -0.38949551486263201 0.42214667733134281 0 -0.39653494405341022 0.41198361301216341 0 -0.38934961284783898 0.40990930145296328 0 -0.38861272044836742 0.40249257445785058 0 -0.38520205828472109 0.43947649428889168 0 -0.40374642536616823 0.43016906715453662 0 -0.38949551486263201 0.42214667733134281 0 -0.38520205828472109 0.43947649428889168 0 -0.40374642536616823 0.43016906715453662 0 -0.39840934245878362 0.43477159503588902 0 -0.40692682426899229 0.41912914207218088 0 -0.40374642536616823 0.43016906715453662 0 -0.38949551486263201 0.42214667733134281 0 -0.38520205828472109 0.43947649428889168 0 -0.40374642536616823 0.43016906715453662 0 -0.40890687271294718 0.44615818941335511 0 -0.40374642536616823 0.43016906715453662 0 -0.39840934245878362 0.43477159503588902 0 -0.37558425303023452 0.43976878428969562 0 -0.38775378317896692 0.44369977129527732 0 -0.37206420545627189 0.42516421259050541 0 -0.38949551486263201 0.42214667733134281 0 -0.37206420545627189 0.42516421259050541 0 -0.38520205828472109 0.43947649428889168 0 -0.38775378317896692 0.44369977129527732 0 -0.37206420545627189 0.42516421259050541 0 -0.38520205828472109 0.43947649428889168 0 -0.38949551486263201 0.42214667733134281 0 -0.37206420545627189 0.42516421259050541 0 -0.38775378317896692 0.44369977129527732 0 -0.37206420545627189 0.42516421259050541 0 -0.38949551486263201 0.42214667733134281 0 -0.37864662773806562 0.41722752979911931 0 -0.37206420545627189 0.42516421259050541 0 -0.38314274612048332 0.41260464969060701 0 -0.38934961284783898 0.40990930145296328 0 -0.38238175539163088 0.40599038569393697 0 -0.38949551486263201 0.42214667733134281 0 -0.38314274612048332 0.41260464969060701 0 -0.37864662773806562 0.41722752979911931 0 -0.38949551486263201 0.42214667733134281 0 -0.38314274612048332 0.41260464969060701 0 -0.38934961284783898 0.40990930145296328 0 -0.38314274612048332 0.41260464969060701 0 -0.38238175539163088 0.40599038569393697 0 -0.37350898954660372 0.40884341438939542 0 -0.38314274612048332 0.41260464969060701 0 -0.37864662773806562 0.41722752979911931 0 -0.37350898954660372 0.40884341438939542 0 -0.38861272044836742 0.40249257445785058 0 -0.37736476757761162 0.38935961439606259 0 -0.39308576733025469 0.40142057952788063 0 -0.37813154251789888 0.40042869531825431 0 -0.38238175539163088 0.40599038569393697 0 -0.37350898954660372 0.40884341438939542 0 -0.37736476757761162 0.38935961439606259 0 -0.39308576733025469 0.40142057952788063 0 -0.37736476757761162 0.38935961439606259 0 -0.40044726833764949 0.38895064935752027 0 -0.39308576733025469 0.40142057952788063 0 -0.37813154251789888 0.40042869531825431 0 -0.38238175539163088 0.40599038569393697 0 -0.38861272044836742 0.40249257445785058 0 -0.38934961284783898 0.40990930145296328 0 -0.38238175539163088 0.40599038569393697 0 -0.38861272044836742 0.40249257445785058 0 -0.37813154251789888 0.40042869531825431 0 -0.38861272044836742 0.40249257445785058 0 -0.37736476757761162 0.38935961439606259 0 -0.37736476757761162 0.38935961439606259 0 -0.38941371878969883 0.37621176091410119 0 -0.37314783256138973 0.36653686702920141 0 -0.37736476757761162 0.38935961439606259 0 -0.38941371878969883 0.37621176091410119 0 -0.40044726833764949 0.38895064935752027 0 -0.37736476757761162 0.38935961439606259 0 -0.40044726833764949 0.38895064935752027 0 -0.38941371878969883 0.37621176091410119 0 -0.40044726833764949 0.38895064935752027 0 -0.40731254649571569 0.36971446559326249 0 -0.40893475308072091 0.40049586729479492 0 -0.40880676708289793 0.41348154465969839 0 -0.39308576733025469 0.40142057952788063 0 -0.40893475308072091 0.40049586729479492 0 -0.40044726833764949 0.38895064935752027 0 -0.39308576733025469 0.40142057952788063 0 -0.40880676708289793 0.41348154465969839 0 -0.38861272044836742 0.40249257445785058 0 -0.39308576733025469 0.40142057952788063 0 -0.40127540942841838 0.34595916120078157 0 -0.3901707040142714 0.36087984084199798 0 -0.40731254649571569 0.36971446559326249 0 -0.38941371878969883 0.37621176091410119 0 -0.3901707040142714 0.36087984084199798 0 -0.40731254649571569 0.36971446559326249 0 -0.38941371878969883 0.37621176091410119 0 -0.3901707040142714 0.36087984084199798 0 -0.37314783256138973 0.36653686702920141 0 -0.40127540942841838 0.34595916120078157 0 -0.3901707040142714 0.36087984084199798 0 -0.37962142275066407 0.34564359451383009 0 -0.3901707040142714 0.36087984084199798 0 -0.37962142275066407 0.34564359451383009 0 -0.37314783256138973 0.36653686702920141 0 -0.37962142275066407 0.34564359451383009 0 -0.39345778603011361 0.32539555727962538 0 -0.37494127925403331 0.32538872180934097 0 -0.39345778603011361 0.32539555727962538 0 -0.3777819285462356 0.30371342978238419 0 -0.39345778603011361 0.32539555727962538 0 -0.3777819285462356 0.30371342978238419 0 -0.37494127925403331 0.32538872180934097 0 -0.40127540942841838 0.34595916120078157 0 -0.39345778603011361 0.32539555727962538 0 -0.4205488779119424 0.32753448510117639 0 -0.40127540942841838 0.34595916120078157 0 -0.37962142275066407 0.34564359451383009 0 -0.39345778603011361 0.32539555727962538 0 -0.40127540942841838 0.34595916120078157 0 -0.4205488779119424 0.32753448510117639 0 -0.42156133890494152 0.35343928601697228 0 -0.39345778603011361 0.32539555727962538 0 -0.4205488779119424 0.32753448510117639 0 -0.4085358222261849 0.30629007038994033 0 -0.4205488779119424 0.32753448510117639 0 -0.43277974913817041 0.34077057890093138 0 -0.44705390244661253 0.33009460231428728 0 -0.4205488779119424 0.32753448510117639 0 -0.43277974913817041 0.34077057890093138 0 -0.42156133890494152 0.35343928601697228 0 -0.43277974913817041 0.34077057890093138 0 -0.42156133890494152 0.35343928601697228 0 -0.44195487728918531 0.35201394217128951 0 -0.42156133890494152 0.35343928601697228 0 -0.43036842009734949 0.37128442628390051 0 -0.44195487728918531 0.35201394217128951 0 -0.40127540942841838 0.34595916120078157 0 -0.42156133890494152 0.35343928601697228 0 -0.40731254649571569 0.36971446559326249 0 -0.42156133890494152 0.35343928601697228 0 -0.40731254649571569 0.36971446559326249 0 -0.43036842009734949 0.37128442628390051 0 -0.43036842009734949 0.37128442628390051 0 -0.45043554360320448 0.37287948770410961 0 -0.44195487728918531 0.35201394217128951 0 -0.45043554360320448 0.37287948770410961 0 -0.44195487728918531 0.35201394217128951 0 -0.45949397508777218 0.34779523497535653 0 -0.45043554360320448 0.37287948770410961 0 -0.45949397508777218 0.34779523497535653 0 -0.47496095621428192 0.36016817074259322 0 -0.46882103669359348 0.38271975529743629 0 -0.45043554360320448 0.37287948770410961 0 -0.47496095621428192 0.36016817074259322 0 -0.45949397508777218 0.34779523497535653 0 -0.47496095621428192 0.36016817074259322 0 -0.47276905251210388 0.33354568979412641 0 -0.47496095621428192 0.36016817074259322 0 -0.5 0.34172395543993722 0 -0.47276905251210388 0.33354568979412641 0 -0.47496095621428192 0.36016817074259322 0 -0.500000000000004 0.36982544869697259 0 -0.5 0.34172395543993722 0 -0.48620245065732293 0.38484254514916288 0 -0.47496095621428192 0.36016817074259322 0 -0.500000000000004 0.36982544869697259 0 -0.48525919103419962 0.32190233038011518 0 -0.5 0.31362246218290168 0 -0.5 0.34172395543993722 0 -0.48525919103419962 0.32190233038011518 0 -0.5 0.31362246218290168 0 -0.485560162466113 0.3067707523199083 0 -0.48525919103419962 0.32190233038011518 0 -0.5 0.34172395543993722 0 -0.47276905251210388 0.33354568979412641 0 -0.48525919103419962 0.32190233038011518 0 -0.46494391099544358 0.31193054610614129 0 -0.485560162466113 0.3067707523199083 0 -0.48525919103419962 0.32190233038011518 0 -0.47276905251210388 0.33354568979412641 0 -0.46494391099544358 0.31193054610614129 0 -0.47276905251210388 0.33354568979412641 0 -0.44705390244661253 0.33009460231428728 0 -0.46494391099544358 0.31193054610614129 0 -0.45949397508777218 0.34779523497535653 0 -0.47276905251210388 0.33354568979412641 0 -0.44705390244661253 0.33009460231428728 0 -0.44195487728918531 0.35201394217128951 0 -0.45949397508777218 0.34779523497535653 0 -0.44705390244661253 0.33009460231428728 0 -0.43277974913817041 0.34077057890093138 0 -0.44195487728918531 0.35201394217128951 0 -0.44705390244661253 0.33009460231428728 0 -0.4205488779119424 0.32753448510117639 0 -0.44705390244661253 0.33009460231428728 0 -0.44528449691207361 0.31072606717476908 0 -0.44705390244661253 0.33009460231428728 0 -0.44528449691207361 0.31072606717476908 0 -0.46494391099544358 0.31193054610614129 0 -0.44528449691207361 0.31072606717476908 0 -0.44876710461414271 0.29185104394040778 0 -0.42957627299925999 0.2992243359369855 0 -0.44528449691207361 0.31072606717476908 0 -0.44876710461414271 0.29185104394040778 0 -0.46494391099544358 0.31193054610614129 0 -0.44876710461414271 0.29185104394040778 0 -0.46809561679917611 0.28909379110137018 0 -0.45063107113223899 0.27141682988283189 0 -0.44876710461414271 0.29185104394040778 0 -0.46809561679917611 0.28909379110137018 0 -0.46494391099544358 0.31193054610614129 0 -0.46809561679917611 0.28909379110137018 0 -0.46494391099544358 0.31193054610614129 0 -0.485560162466113 0.3067707523199083 0 -0.46809561679917611 0.28909379110137018 0 -0.485560162466113 0.3067707523199083 0 -0.46809561679917611 0.28909379110137018 0 -0.48383501797111311 0.28817091292643049 0 -0.485560162466113 0.3067707523199083 0 -0.46809561679917611 0.28909379110137018 0 -0.48383501797111311 0.28817091292643049 0 -0.48168429261916329 0.27129813935857738 0 -0.48383501797111311 0.28817091292643049 0 -0.5 0.2855209689258662 0 -0.48168429261916329 0.27129813935857738 0 -0.48383501797111311 0.28817091292643049 0 -0.5 0.2855209689258662 0 -0.485560162466113 0.3067707523199083 0 -0.5 0.31362246218290168 0 -0.5 0.2855209689258662 0 -0.485560162466113 0.3067707523199083 0 -0.47776068413743611 0.24602954292504409 0 -0.5 0.25741947566883072 0 -0.48168429261916329 0.27129813935857738 0 -0.5 0.2855209689258662 0 -0.5 0.25741947566883072 0 -0.48168429261916329 0.27129813935857738 0 -0.46809561679917611 0.28909379110137018 0 -0.48168429261916329 0.27129813935857738 0 -0.46482969445195887 0.26200748233501492 0 -0.47776068413743611 0.24602954292504409 0 -0.48168429261916329 0.27129813935857738 0 -0.46482969445195887 0.26200748233501492 0 -0.44938809190214019 0.24913618733658899 0 -0.46141841012159912 0.24507040340567721 0 -0.46482969445195887 0.26200748233501492 0 -0.47776068413743611 0.24602954292504409 0 -0.46141841012159912 0.24507040340567721 0 -0.46482969445195887 0.26200748233501492 0 -0.44938809190214019 0.24913618733658899 0 -0.46482969445195887 0.26200748233501492 0 -0.45063107113223899 0.27141682988283189 0 -0.46809561679917611 0.28909379110137018 0 -0.46482969445195887 0.26200748233501492 0 -0.45063107113223899 0.27141682988283189 0 -0.46809561679917611 0.28909379110137018 0 -0.45063107113223899 0.27141682988283189 0 -0.44876710461414271 0.29185104394040778 0 -0.45063107113223899 0.27141682988283189 0 -0.43230618987697711 0.27694905875041792 0 -0.45063107113223899 0.27141682988283189 0 -0.43316652546530088 0.25373986866429499 0 -0.43230618987697711 0.27694905875041792 0 -0.44938809190214019 0.24913618733658899 0 -0.45063107113223899 0.27141682988283189 0 -0.43316652546530088 0.25373986866429499 0 -0.43974957060265979 0.2477999823634939 0 -0.44938809190214019 0.24913618733658899 0 -0.43316652546530088 0.25373986866429499 0 -0.45063107113223899 0.27141682988283189 0 -0.43316652546530088 0.25373986866429499 0 -0.43316652546530088 0.25373986866429499 0 -0.41470499315894582 0.27039772237032478 0 -0.43974957060265979 0.2477999823634939 0 -0.43316652546530088 0.25373986866429499 0 -0.42532192026792442 0.24579985210197841 0 -0.43316652546530088 0.25373986866429499 0 -0.41246051243446907 0.25499403182025637 0 -0.43316652546530088 0.25373986866429499 0 -0.41246051243446907 0.25499403182025637 0 -0.41470499315894582 0.27039772237032478 0 -0.41246051243446907 0.25499403182025637 0 -0.41470499315894582 0.27039772237032478 0 -0.39937580307607629 0.26462188642776691 0 -0.41470499315894582 0.27039772237032478 0 -0.43230618987697711 0.27694905875041792 0 -0.41597626210742422 0.288766035036855 0 -0.43316652546530088 0.25373986866429499 0 -0.41470499315894582 0.27039772237032478 0 -0.43230618987697711 0.27694905875041792 0 -0.44876710461414271 0.29185104394040778 0 -0.43230618987697711 0.27694905875041792 0 -0.42957627299925999 0.2992243359369855 0 -0.43230618987697711 0.27694905875041792 0 -0.42957627299925999 0.2992243359369855 0 -0.41597626210742422 0.288766035036855 0 -0.4205488779119424 0.32753448510117639 0 -0.44528449691207361 0.31072606717476908 0 -0.42957627299925999 0.2992243359369855 0 -0.4205488779119424 0.32753448510117639 0 -0.42957627299925999 0.2992243359369855 0 -0.4085358222261849 0.30629007038994033 0 -0.42957627299925999 0.2992243359369855 0 -0.4085358222261849 0.30629007038994033 0 -0.41597626210742422 0.288766035036855 0 -0.4085358222261849 0.30629007038994033 0 -0.41597626210742422 0.288766035036855 0 -0.39624346085259071 0.28705557607635451 0 -0.41470499315894582 0.27039772237032478 0 -0.41597626210742422 0.288766035036855 0 -0.39624346085259071 0.28705557607635451 0 -0.39624346085259071 0.28705557607635451 0 -0.3777819285462356 0.30371342978238419 0 -0.36032917177703161 0.27957357664596472 0 -0.4085358222261849 0.30629007038994033 0 -0.39624346085259071 0.28705557607635451 0 -0.3777819285462356 0.30371342978238419 0 -0.39345778603011361 0.32539555727962538 0 -0.4085358222261849 0.30629007038994033 0 -0.3777819285462356 0.30371342978238419 0 -0.39624346085259071 0.28705557607635451 0 -0.3777819285462356 0.30371342978238419 0 -0.39624346085259071 0.28705557607635451 0 -0.38034939632101578 0.26165486428978091 0 -0.36032917177703161 0.27957357664596472 0 -0.39635673541156891 0.2417843581429853 0 -0.38034939632101578 0.26165486428978091 0 -0.39937580307607629 0.26462188642776691 0 -0.39635673541156891 0.2417843581429853 0 -0.41246051243446907 0.25499403182025637 0 -0.39937580307607629 0.26462188642776691 0 -0.39624346085259071 0.28705557607635451 0 -0.38034939632101578 0.26165486428978091 0 -0.39937580307607629 0.26462188642776691 0 -0.41470499315894582 0.27039772237032478 0 -0.39624346085259071 0.28705557607635451 0 -0.39937580307607629 0.26462188642776691 0 -0.41470499315894582 0.27039772237032478 0 -0.39624346085259071 0.28705557607635451 0 -0.36032917177703161 0.27957357664596472 0 -0.33410591432286019 0.2776176734961453 0 -0.34287641500782712 0.25543372350954552 0 -0.36032917177703161 0.27957357664596472 0 -0.34287641500782712 0.25543372350954552 0 -0.36739155055521322 0.23776886418399251 0 -0.3627366334152719 0.25860775715732093 0 -0.34287641500782712 0.25543372350954552 0 -0.3627366334152719 0.25860775715732093 0 -0.36032917177703161 0.27957357664596472 0 -0.34287641500782712 0.25543372350954552 0 -0.36739155055521322 0.23776886418399251 0 -0.38034939632101578 0.26165486428978091 0 -0.3627366334152719 0.25860775715732093 0 -0.38034939632101578 0.26165486428978091 0 -0.3627366334152719 0.25860775715732093 0 -0.36032917177703161 0.27957357664596472 0 -0.3777819285462356 0.30371342978238419 0 -0.36032917177703161 0.27957357664596472 0 -0.34328939864069352 0.30101947125134659 0 -0.3777819285462356 0.30371342978238419 0 -0.34328939864069352 0.30101947125134659 0 -0.35689802041256602 0.3225569949170658 0 -0.3777819285462356 0.30371342978238419 0 -0.36032917177703161 0.27957357664596472 0 -0.36032917177703161 0.27957357664596472 0 -0.34328939864069352 0.30101947125134659 0 -0.33410591432286019 0.2776176734961453 0 -0.34328939864069352 0.30101947125134659 0 -0.32007136180823859 0.29138351594866591 0 -0.33410591432286019 0.2776176734961453 0 -0.34328939864069352 0.30101947125134659 0 -0.32038392598237903 0.30994818250671718 0 -0.33488287217376861 0.32165563653347318 0 -0.34328939864069352 0.30101947125134659 0 -0.32038392598237903 0.30994818250671718 0 -0.32007136180823859 0.29138351594866591 0 -0.32007136180823859 0.29138351594866591 0 -0.33410591432286019 0.2776176734961453 0 -0.30728320474673287 0.27624742375476402 0 -0.33410591432286019 0.2776176734961453 0 -0.30728320474673287 0.27624742375476402 0 -0.33410591432286019 0.2776176734961453 0 -0.32319077684055347 0.26047663771887131 0 -0.30728320474673287 0.27624742375476402 0 -0.33410591432286019 0.2776176734961453 0 -0.34287641500782712 0.25543372350954552 0 -0.32319077684055347 0.26047663771887131 0 -0.32319077684055347 0.26047663771887131 0 -0.30652531113353643 0.2513270211066716 0 -0.30728320474673287 0.27624742375476402 0 -0.30652531113353643 0.2513270211066716 0 -0.30728320474673287 0.27624742375476402 0 -0.294359025653332 0.26477412849912269 0 -0.30652531113353643 0.2513270211066716 0 -0.29199792964606591 0.25330556944924337 0 -0.294359025653332 0.26477412849912269 0 -0.30728320474673287 0.27624742375476402 0 -0.28046049517060567 0.27487717401338269 0 -0.30728320474673287 0.27624742375476402 0 -0.294359025653332 0.26477412849912269 0 -0.28046049517060567 0.27487717401338269 0 -0.30728320474673287 0.27624742375476402 0 -0.28046049517060567 0.27487717401338269 0 -0.28380863748364299 0.2904435180288335 0 -0.294359025653332 0.26477412849912269 0 -0.28388532136388861 0.26216552056085057 0 -0.28046049517060567 0.27487717401338269 0 -0.29199792964606591 0.25330556944924337 0 -0.294359025653332 0.26477412849912269 0 -0.28388532136388861 0.26216552056085057 0 -0.28166205787749471 0.24654461896357471 0 -0.29199792964606591 0.25330556944924337 0 -0.28388532136388861 0.26216552056085057 0 -0.28166205787749471 0.24654461896357471 0 -0.26742202564945078 0.25040646433326869 0 -0.27093517817661228 0.26395618718070057 0 -0.28166205787749471 0.24654461896357471 0 -0.27012566536902971 0.26835214507357852 0 -0.28166205787749471 0.24654461896357471 0 -0.28388532136388861 0.26216552056085057 0 -0.27012566536902971 0.26835214507357852 0 -0.28166205787749471 0.24654461896357471 0 -0.27093517817661228 0.26395618718070057 0 -0.27012566536902971 0.26835214507357852 0 -0.28046049517060567 0.27487717401338269 0 -0.25363778559447842 0.27350692427200241 0 -0.28046049517060567 0.27487717401338269 0 -0.27012566536902971 0.26835214507357852 0 -0.25363778559447842 0.27350692427200241 0 -0.28388532136388861 0.26216552056085057 0 -0.28046049517060567 0.27487717401338269 0 -0.27012566536902971 0.26835214507357852 0 -0.28046049517060567 0.27487717401338269 0 -0.25363778559447842 0.27350692427200241 0 -0.26624408311198772 0.28995108686270071 0 -0.27093517817661228 0.26395618718070057 0 -0.27012566536902971 0.26835214507357852 0 -0.25363778559447842 0.27350692427200241 0 -0.27093517817661228 0.26395618718070057 0 -0.25363778559447842 0.27350692427200241 0 -0.27093517817661228 0.26395618718070057 0 -0.25363778559447842 0.27350692427200241 0 -0.25714214375922329 0.25982886013905893 0 -0.25363778559447842 0.27350692427200241 0 -0.25714214375922329 0.25982886013905893 0 -0.2444451896747076 0.26404729237941471 0 -0.25714214375922329 0.25982886013905893 0 -0.25786390678722121 0.25004617063311368 0 -0.24800282081558991 0.25311300777040008 0 -0.26742202564945078 0.25040646433326869 0 -0.25714214375922329 0.25982886013905893 0 -0.25786390678722121 0.25004617063311368 0 -0.26742202564945078 0.25040646433326869 0 -0.27093517817661228 0.26395618718070057 0 -0.25714214375922329 0.25982886013905893 0 -0.26861968835565903 0.30940493865090568 0 -0.25190859989712849 0.32267914652403529 0 -0.24955002262375489 0.29959517145917181 0 -0.26624408311198772 0.28995108686270071 0 -0.26861968835565903 0.30940493865090568 0 -0.24955002262375489 0.29959517145917181 0 -0.25363778559447842 0.27350692427200241 0 -0.26624408311198772 0.28995108686270071 0 -0.24955002262375489 0.29959517145917181 0 -0.28046049517060567 0.27487717401338269 0 -0.26624408311198772 0.28995108686270071 0 -0.28380863748364299 0.2904435180288335 0 -0.26624408311198772 0.28995108686270071 0 -0.26861968835565903 0.30940493865090568 0 -0.28380863748364299 0.2904435180288335 0 -0.26861968835565903 0.30940493865090568 0 -0.29643571603322949 0.3017369668624143 0 -0.28380863748364299 0.2904435180288335 0 -0.26861968835565903 0.30940493865090568 0 -0.29643571603322949 0.3017369668624143 0 -0.28493867639476078 0.31962531949013062 0 -0.30728320474673287 0.27624742375476402 0 -0.29643571603322949 0.3017369668624143 0 -0.28380863748364299 0.2904435180288335 0 -0.32007136180823859 0.29138351594866591 0 -0.30728320474673287 0.27624742375476402 0 -0.29643571603322949 0.3017369668624143 0 -0.32038392598237903 0.30994818250671718 0 -0.29643571603322949 0.3017369668624143 0 -0.30314195263174282 0.31931745404620993 0 -0.32038392598237903 0.30994818250671718 0 -0.32007136180823859 0.29138351594866591 0 -0.29643571603322949 0.3017369668624143 0 -0.29562269102854127 0.33485673566541801 0 -0.31017246770937662 0.35204574129549332 0 -0.29562269102854127 0.33485673566541801 0 -0.31017246770937662 0.35204574129549332 0 -0.31782890355430798 0.33335297394048879 0 -0.30314195263174282 0.31931745404620993 0 -0.29562269102854127 0.33485673566541801 0 -0.31782890355430798 0.33335297394048879 0 -0.29562269102854127 0.33485673566541801 0 -0.28493867639476078 0.31962531949013062 0 -0.26758763809366432 0.33891484310787218 0 -0.29643571603322949 0.3017369668624143 0 -0.30314195263174282 0.31931745404620993 0 -0.28493867639476078 0.31962531949013062 0 -0.30314195263174282 0.31931745404620993 0 -0.29562269102854127 0.33485673566541801 0 -0.28493867639476078 0.31962531949013062 0 -0.26861968835565903 0.30940493865090568 0 -0.28493867639476078 0.31962531949013062 0 -0.26758763809366432 0.33891484310787218 0 -0.26758763809366432 0.33891484310787218 0 -0.25190859989712849 0.32267914652403529 0 -0.24443552246153269 0.33896729888257182 0 -0.26861968835565903 0.30940493865090568 0 -0.26758763809366432 0.33891484310787218 0 -0.25190859989712849 0.32267914652403529 0 -0.2709070612171503 0.3757267901420277 0 -0.24793647807619529 0.36272983982548312 0 -0.26860020240025578 0.35876494828412869 0 -0.2709070612171503 0.3757267901420277 0 -0.24793647807619529 0.36272983982548312 0 -0.26758763809366432 0.33891484310787218 0 -0.26860020240025578 0.35876494828412869 0 -0.24793647807619529 0.36272983982548312 0 -0.26758763809366432 0.33891484310787218 0 -0.24793647807619529 0.36272983982548312 0 -0.24443552246153269 0.33896729888257182 0 -0.26758763809366432 0.33891484310787218 0 -0.26860020240025578 0.35876494828412869 0 -0.2879979019050713 0.36100426520322521 0 -0.26860020240025578 0.35876494828412869 0 -0.2879979019050713 0.36100426520322521 0 -0.2709070612171503 0.3757267901420277 0 -0.29562269102854127 0.33485673566541801 0 -0.26758763809366432 0.33891484310787218 0 -0.2879979019050713 0.36100426520322521 0 -0.29562269102854127 0.33485673566541801 0 -0.2879979019050713 0.36100426520322521 0 -0.31017246770937662 0.35204574129549332 0 -0.2879979019050713 0.36100426520322521 0 -0.31017246770937662 0.35204574129549332 0 -0.30757225412210198 0.37673025947837652 0 -0.31017246770937662 0.35204574129549332 0 -0.32472224439021191 0.36923474692556868 0 -0.30757225412210198 0.37673025947837652 0 -0.31017246770937662 0.35204574129549332 0 -0.32472224439021191 0.36923474692556868 0 -0.32472224439021191 0.36923474692556868 0 -0.33925959826018959 0.36012577903504062 0 -0.3255128913059272 0.35202177384089978 0 -0.32472224439021191 0.36923474692556868 0 -0.33925959826018959 0.36012577903504062 0 -0.33879980053897052 0.37190000367902509 0 -0.33925959826018959 0.36012577903504062 0 -0.33879980053897052 0.37190000367902509 0 -0.35162962036551348 0.3696159137363686 0 -0.33925959826018959 0.36012577903504062 0 -0.3255128913059272 0.35202177384089978 0 -0.33601411227889638 0.34140056005174751 0 -0.33925959826018959 0.36012577903504062 0 -0.33601411227889638 0.34140056005174751 0 -0.35060765014597922 0.34836458062675058 0 -0.31017246770937662 0.35204574129549332 0 -0.32472224439021191 0.36923474692556868 0 -0.3255128913059272 0.35202177384089978 0 -0.31017246770937662 0.35204574129549332 0 -0.3255128913059272 0.35202177384089978 0 -0.31782890355430798 0.33335297394048879 0 -0.3255128913059272 0.35202177384089978 0 -0.31782890355430798 0.33335297394048879 0 -0.33601411227889638 0.34140056005174751 0 -0.32038392598237903 0.30994818250671718 0 -0.31782890355430798 0.33335297394048879 0 -0.33488287217376861 0.32165563653347318 0 -0.32038392598237903 0.30994818250671718 0 -0.30314195263174282 0.31931745404620993 0 -0.31782890355430798 0.33335297394048879 0 -0.31782890355430798 0.33335297394048879 0 -0.33488287217376861 0.32165563653347318 0 -0.33601411227889638 0.34140056005174751 0 -0.33488287217376861 0.32165563653347318 0 -0.33601411227889638 0.34140056005174751 0 -0.35689802041256602 0.3225569949170658 0 -0.33601411227889638 0.34140056005174751 0 -0.35689802041256602 0.3225569949170658 0 -0.35689802041256602 0.3225569949170658 0 -0.36470737923429752 0.33963753998220148 0 -0.35060765014597922 0.34836458062675058 0 -0.33601411227889638 0.34140056005174751 0 -0.35689802041256602 0.3225569949170658 0 -0.35060765014597922 0.34836458062675058 0 -0.34328939864069352 0.30101947125134659 0 -0.33488287217376861 0.32165563653347318 0 -0.35689802041256602 0.3225569949170658 0 -0.3777819285462356 0.30371342978238419 0 -0.35689802041256602 0.3225569949170658 0 -0.37494127925403331 0.32538872180934097 0 -0.3777819285462356 0.30371342978238419 0 -0.35689802041256602 0.3225569949170658 0 -0.37962142275066407 0.34564359451383009 0 -0.37494127925403331 0.32538872180934097 0 -0.36470737923429752 0.33963753998220148 0 -0.35689802041256602 0.3225569949170658 0 -0.37494127925403331 0.32538872180934097 0 -0.36470737923429752 0.33963753998220148 0 -0.37962142275066407 0.34564359451383009 0 -0.36470737923429752 0.33963753998220148 0 -0.36146852360824477 0.35623380804401972 0 -0.37962142275066407 0.34564359451383009 0 -0.36146852360824477 0.35623380804401972 0 -0.37314783256138973 0.36653686702920141 0 -0.36146852360824477 0.35623380804401972 0 -0.37314783256138973 0.36653686702920141 0 -0.35162962036551348 0.3696159137363686 0 -0.37314783256138973 0.36653686702920141 0 -0.35162962036551348 0.3696159137363686 0 -0.36449719397156249 0.37948776406621559 0 -0.36146852360824477 0.35623380804401972 0 -0.35162962036551348 0.3696159137363686 0 -0.35162962036551348 0.3696159137363686 0 -0.36449719397156249 0.37948776406621559 0 -0.33925959826018959 0.36012577903504062 0 -0.35162962036551348 0.3696159137363686 0 -0.33925959826018959 0.36012577903504062 0 -0.35162962036551348 0.3696159137363686 0 -0.35060765014597922 0.34836458062675058 0 -0.36146852360824477 0.35623380804401972 0 -0.35162962036551348 0.3696159137363686 0 -0.35060765014597922 0.34836458062675058 0 -0.36470737923429752 0.33963753998220148 0 -0.36146852360824477 0.35623380804401972 0 -0.35060765014597922 0.34836458062675058 0 -0.35982399829888839 0.38967039360749689 0 -0.35717371723821778 0.40757269270471902 0 -0.34228322902016528 0.38998117281893141 0 -0.35717371723821778 0.40757269270471902 0 -0.34068102198961359 0.40269895944522599 0 -0.34228322902016528 0.38998117281893141 0 -0.35717371723821778 0.40757269270471902 0 -0.34228322902016528 0.38998117281893141 0 -0.35982399829888839 0.38967039360749689 0 -0.34228322902016528 0.38998117281893141 0 -0.35162962036551348 0.3696159137363686 0 -0.3392720210710472 0.38642375255564421 0 -0.35162962036551348 0.3696159137363686 0 -0.35106248291686631 0.38198270918940758 0 -0.3392720210710472 0.38642375255564421 0 -0.35106248291686631 0.38198270918940758 0 -0.35982399829888839 0.38967039360749689 0 -0.34228322902016528 0.38998117281893141 0 -0.35106248291686631 0.38198270918940758 0 -0.34228322902016528 0.38998117281893141 0 -0.3392720210710472 0.38642375255564421 0 -0.35162962036551348 0.3696159137363686 0 -0.35106248291686631 0.38198270918940758 0 -0.36449719397156249 0.37948776406621559 0 -0.35106248291686631 0.38198270918940758 0 -0.35982399829888839 0.38967039360749689 0 -0.36449719397156249 0.37948776406621559 0 -0.37736476757761162 0.38935961439606259 0 -0.37314783256138973 0.36653686702920141 0 -0.36449719397156249 0.37948776406621559 0 -0.37736476757761162 0.38935961439606259 0 -0.35982399829888839 0.38967039360749689 0 -0.36449719397156249 0.37948776406621559 0 -0.37736476757761162 0.38935961439606259 0 -0.35982399829888839 0.38967039360749689 0 -0.37736476757761162 0.38935961439606259 0 -0.36449719397156249 0.37948776406621559 0 -0.35982399829888839 0.38967039360749689 0 -0.36767078997624458 0.39916937908993522 0 -0.35717371723821778 0.40757269270471902 0 -0.37813154251789888 0.40042869531825431 0 -0.37736476757761162 0.38935961439606259 0 -0.36767078997624458 0.39916937908993522 0 -0.36767078997624458 0.39916937908993522 0 -0.37350898954660372 0.40884341438939542 0 -0.35717371723821778 0.40757269270471902 0 -0.37736476757761162 0.38935961439606259 0 -0.35982399829888839 0.38967039360749689 0 -0.36767078997624458 0.39916937908993522 0 -0.37813154251789888 0.40042869531825431 0 -0.36767078997624458 0.39916937908993522 0 -0.37350898954660372 0.40884341438939542 0 -0.37206420545627189 0.42516421259050541 0 -0.35717371723821778 0.40757269270471902 0 -0.35544353965973852 0.41967370443181551 0 -0.37206420545627189 0.42516421259050541 0 -0.35717371723821778 0.40757269270471902 0 -0.37864662773806562 0.41722752979911931 0 -0.37350898954660372 0.40884341438939542 0 -0.37206420545627189 0.42516421259050541 0 -0.37350898954660372 0.40884341438939542 0 -0.37206420545627189 0.42516421259050541 0 -0.35717371723821778 0.40757269270471902 0 -0.36853465053276069 0.43395789291501202 0 -0.37206420545627189 0.42516421259050541 0 -0.34675411588956062 0.42954564406530987 0 -0.37206420545627189 0.42516421259050541 0 -0.34675411588956062 0.42954564406530987 0 -0.37558425303023452 0.43976878428969562 0 -0.36853465053276069 0.43395789291501202 0 -0.37206420545627189 0.42516421259050541 0 -0.36853465053276069 0.43395789291501202 0 -0.34675411588956062 0.42954564406530987 0 -0.34646933504476463 0.4452196266635754 0 -0.37206420545627189 0.42516421259050541 0 -0.34675411588956062 0.42954564406530987 0 -0.35544353965973852 0.41967370443181551 0 -0.35717371723821778 0.40757269270471902 0 -0.3446784148694047 0.41522559546254428 0 -0.34068102198961359 0.40269895944522599 0 -0.35717371723821778 0.40757269270471902 0 -0.35544353965973852 0.41967370443181551 0 -0.3446784148694047 0.41522559546254428 0 -0.34675411588956062 0.42954564406530987 0 -0.35544353965973852 0.41967370443181551 0 -0.3446784148694047 0.41522559546254428 0 -0.3446784148694047 0.41522559546254428 0 -0.33473602630913679 0.41080062494518571 0 -0.34068102198961359 0.40269895944522599 0 -0.3446784148694047 0.41522559546254428 0 -0.33443783534532828 0.41904650601603449 0 -0.33473602630913679 0.41080062494518571 0 -0.34675411588956062 0.42954564406530987 0 -0.3446784148694047 0.41522559546254428 0 -0.33443783534532828 0.41904650601603449 0 -0.33443783534532828 0.41904650601603449 0 -0.32589020218022652 0.42374247216830718 0 -0.32624145412934252 0.41478925836495772 0 -0.33443783534532828 0.41904650601603449 0 -0.33473602630913679 0.41080062494518571 0 -0.32624145412934252 0.41478925836495772 0 -0.33473602630913679 0.41080062494518571 0 -0.32624145412934252 0.41478925836495772 0 -0.32764140521199531 0.40224280543716601 0 -0.34675411588956062 0.42954564406530987 0 -0.32144402632284941 0.43392707554011523 0 -0.34675411588956062 0.42954564406530987 0 -0.33443783534532828 0.41904650601603449 0 -0.32589020218022652 0.42374247216830718 0 -0.34675411588956062 0.42954564406530987 0 -0.32144402632284941 0.43392707554011523 0 -0.32589020218022652 0.42374247216830718 0 -0.34675411588956062 0.42954564406530987 0 -0.32144402632284941 0.43392707554011523 0 -0.33142766990517958 0.44359749458483438 0 -0.32144402632284941 0.43392707554011523 0 -0.31601078935294391 0.41806185831868808 0 -0.31026439759793462 0.42033102996219007 0 -0.32144402632284941 0.43392707554011523 0 -0.32589020218022652 0.42374247216830718 0 -0.31601078935294391 0.41806185831868808 0 -0.31601078935294391 0.41806185831868808 0 -0.32764140521199531 0.40224280543716601 0 -0.32624145412934252 0.41478925836495772 0 -0.31601078935294391 0.41806185831868808 0 -0.32764140521199531 0.40224280543716601 0 -0.31601078935294391 0.41806185831868808 0 -0.31849362783804941 0.40629459828804682 0 -0.32764140521199531 0.40224280543716601 0 -0.32589020218022652 0.42374247216830718 0 -0.32624145412934252 0.41478925836495772 0 -0.31601078935294391 0.41806185831868808 0 -0.31601078935294391 0.41806185831868808 0 -0.31849362783804941 0.40629459828804682 0 -0.30861510005548332 0.41270841669431951 0 -0.32170721673177521 0.39216531270201382 0 -0.30861510005548332 0.41270841669431951 0 -0.31849362783804941 0.40629459828804682 0 -0.32170721673177521 0.39216531270201382 0 -0.30861510005548332 0.41270841669431951 0 -0.31849362783804941 0.40629459828804682 0 -0.32170721673177521 0.39216531270201382 0 -0.32764140521199531 0.40224280543716601 0 -0.32764140521199531 0.40224280543716601 0 -0.34027429376362728 0.39001676620169151 0 -0.3392720210710472 0.38642375255564421 0 -0.32170721673177521 0.39216531270201382 0 -0.32764140521199531 0.40224280543716601 0 -0.3392720210710472 0.38642375255564421 0 -0.32764140521199531 0.40224280543716601 0 -0.3392720210710472 0.38642375255564421 0 -0.33473602630913679 0.41080062494518571 0 -0.32764140521199531 0.40224280543716601 0 -0.34068102198961359 0.40269895944522599 0 -0.32764140521199531 0.40224280543716601 0 -0.34068102198961359 0.40269895944522599 0 -0.34027429376362728 0.39001676620169151 0 -0.34068102198961359 0.40269895944522599 0 -0.34228322902016528 0.38998117281893141 0 -0.34027429376362728 0.39001676620169151 0 -0.32472224439021191 0.36923474692556868 0 -0.33879980053897052 0.37190000367902509 0 -0.3392720210710472 0.38642375255564421 0 -0.32472224439021191 0.36923474692556868 0 -0.32170721673177521 0.39216531270201382 0 -0.3392720210710472 0.38642375255564421 0 -0.33879980053897052 0.37190000367902509 0 -0.35162962036551348 0.3696159137363686 0 -0.3392720210710472 0.38642375255564421 0 -0.32472224439021191 0.36923474692556868 0 -0.3392720210710472 0.38642375255564421 0 -0.34228322902016528 0.38998117281893141 0 -0.3392720210710472 0.38642375255564421 0 -0.34228322902016528 0.38998117281893141 0 -0.34027429376362728 0.39001676620169151 0 -0.34228322902016528 0.38998117281893141 0 -0.34027429376362728 0.39001676620169151 0 -0.3392720210710472 0.38642375255564421 0 -0.32472224439021191 0.36923474692556868 0 -0.32170721673177521 0.39216531270201382 0 -0.30757225412210198 0.37673025947837652 0 -0.30757225412210198 0.37673025947837652 0 -0.30570275566344979 0.39498971630578672 0 -0.29387764435810543 0.38872374045857222 0 -0.32170721673177521 0.39216531270201382 0 -0.30757225412210198 0.37673025947837652 0 -0.30570275566344979 0.39498971630578672 0 -0.30570275566344979 0.39498971630578672 0 -0.29642601029339311 0.40523158123237007 0 -0.29387764435810543 0.38872374045857222 0 -0.30570275566344979 0.39498971630578672 0 -0.29642601029339311 0.40523158123237007 0 -0.30861510005548332 0.41270841669431951 0 -0.32170721673177521 0.39216531270201382 0 -0.30570275566344979 0.39498971630578672 0 -0.30861510005548332 0.41270841669431951 0 -0.29642601029339311 0.40523158123237007 0 -0.28370806127361298 0.40394822033236971 0 -0.29387764435810543 0.38872374045857222 0 -0.28370806127361298 0.40394822033236971 0 -0.29387764435810543 0.38872374045857222 0 -0.27131752978195728 0.39486628372312582 0 -0.2879979019050713 0.36100426520322521 0 -0.29387764435810543 0.38872374045857222 0 -0.2709070612171503 0.3757267901420277 0 -0.2879979019050713 0.36100426520322521 0 -0.30757225412210198 0.37673025947837652 0 -0.29387764435810543 0.38872374045857222 0 -0.29387764435810543 0.38872374045857222 0 -0.2709070612171503 0.3757267901420277 0 -0.29387764435810543 0.38872374045857222 0 -0.2709070612171503 0.3757267901420277 0 -0.27131752978195728 0.39486628372312582 0 -0.28370806127361298 0.40394822033236971 0 -0.27131752978195728 0.39486628372312582 0 -0.27160751247139198 0.40959816715053848 0 -0.27131752978195728 0.39486628372312582 0 -0.25967077559403229 0.40897108603318683 0 -0.27160751247139198 0.40959816715053848 0 -0.25207500354250989 0.39285229113824099 0 -0.25967077559403229 0.40897108603318683 0 -0.24761294086593569 0.41443381151829423 0 -0.27131752978195728 0.39486628372312582 0 -0.25207500354250989 0.39285229113824099 0 -0.25967077559403229 0.40897108603318683 0 -0.2709070612171503 0.3757267901420277 0 -0.25207500354250989 0.39285229113824099 0 -0.24793647807619529 0.36272983982548312 0 -0.2709070612171503 0.3757267901420277 0 -0.27131752978195728 0.39486628372312582 0 -0.25207500354250989 0.39285229113824099 0 -0.2580689285417021 0.42922692192400391 0 -0.2521198901848119 0.4223400115759261 0 -0.26352291878338702 0.42035899168727209 0 -0.2580689285417021 0.42922692192400391 0 -0.26352291878338702 0.42035899168727209 0 -0.26730207145695528 0.43025608575479829 0 -0.2580689285417021 0.42922692192400391 0 -0.25907570013663911 0.43743077650676698 0 -0.26730207145695528 0.43025608575479829 0 -0.2580689285417021 0.42922692192400391 0 -0.25907570013663911 0.43743077650676698 0 -0.25417417357400579 0.4344584026021705 0 -0.25417417357400579 0.4344584026021705 0 -0.25004256813668041 0.43120033462999913 0 -0.24950949748100201 0.43997557734791232 0 -0.2580689285417021 0.42922692192400391 0 -0.25417417357400579 0.4344584026021705 0 -0.25004256813668041 0.43120033462999913 0 -0.25907570013663911 0.43743077650676698 0 -0.25417417357400579 0.4344584026021705 0 -0.24950949748100201 0.43997557734791232 0 -0.2580689285417021 0.42922692192400391 0 -0.25004256813668041 0.43120033462999913 0 -0.2521198901848119 0.4223400115759261 0 -0.2521198901848119 0.4223400115759261 0 -0.25967077559403229 0.40897108603318683 0 -0.24761294086593569 0.41443381151829423 0 -0.25967077559403229 0.40897108603318683 0 -0.26352291878338702 0.42035899168727209 0 -0.27160751247139198 0.40959816715053848 0 -0.2521198901848119 0.4223400115759261 0 -0.25967077559403229 0.40897108603318683 0 -0.26352291878338702 0.42035899168727209 0 -0.26352291878338702 0.42035899168727209 0 -0.27160751247139198 0.40959816715053848 0 -0.2739495322552486 0.42094914632653763 0 -0.28370806127361298 0.40394822033236971 0 -0.27160751247139198 0.40959816715053848 0 -0.28054670278539162 0.41399099311994308 0 -0.27160751247139198 0.40959816715053848 0 -0.28054670278539162 0.41399099311994308 0 -0.2739495322552486 0.42094914632653763 0 -0.28054670278539162 0.41399099311994308 0 -0.2739495322552486 0.42094914632653763 0 -0.28421627153293161 0.42300373004037622 0 -0.2739495322552486 0.42094914632653763 0 -0.27660560770755671 0.42929109506645591 0 -0.28421627153293161 0.42300373004037622 0 -0.26352291878338702 0.42035899168727209 0 -0.2739495322552486 0.42094914632653763 0 -0.26730207145695528 0.43025608575479829 0 -0.2739495322552486 0.42094914632653763 0 -0.27660560770755671 0.42929109506645591 0 -0.26730207145695528 0.43025608575479829 0 -0.27660560770755671 0.42929109506645591 0 -0.26730207145695528 0.43025608575479829 0 -0.27364351679327992 0.43763232373345112 0 -0.25907570013663911 0.43743077650676698 0 -0.26730207145695528 0.43025608575479829 0 -0.27364351679327992 0.43763232373345112 0 -0.27660560770755671 0.42929109506645591 0 -0.2828033379623488 0.43738903666030282 0 -0.27364351679327992 0.43763232373345112 0 -0.27660560770755671 0.42929109506645591 0 -0.28612528944635679 0.43097996429707353 0 -0.2828033379623488 0.43738903666030282 0 -0.28612528944635679 0.43097996429707353 0 -0.2828033379623488 0.43738903666030282 0 -0.29552298337919142 0.43325152068662509 0 -0.292745197581674 0.42416808819869112 0 -0.29552298337919142 0.43325152068662509 0 -0.29746421392979733 0.41752127617717377 0 -0.28421627153293161 0.42300373004037622 0 -0.292745197581674 0.42416808819869112 0 -0.28965243548503838 0.42785082580569139 0 -0.28612528944635679 0.43097996429707353 0 -0.28421627153293161 0.42300373004037622 0 -0.28965243548503838 0.42785082580569139 0 -0.27660560770755671 0.42929109506645591 0 -0.28612528944635679 0.43097996429707353 0 -0.28421627153293161 0.42300373004037622 0 -0.292745197581674 0.42416808819869112 0 -0.28965243548503838 0.42785082580569139 0 -0.29552298337919142 0.43325152068662509 0 -0.28612528944635679 0.43097996429707353 0 -0.28965243548503838 0.42785082580569139 0 -0.29552298337919142 0.43325152068662509 0 -0.28370806127361298 0.40394822033236971 0 -0.28054670278539162 0.41399099311994308 0 -0.28945991880601712 0.41406407147021002 0 -0.28421627153293161 0.42300373004037622 0 -0.292745197581674 0.42416808819869112 0 -0.28945991880601712 0.41406407147021002 0 -0.28054670278539162 0.41399099311994308 0 -0.28421627153293161 0.42300373004037622 0 -0.28945991880601712 0.41406407147021002 0 -0.292745197581674 0.42416808819869112 0 -0.28945991880601712 0.41406407147021002 0 -0.29746421392979733 0.41752127617717377 0 -0.29642601029339311 0.40523158123237007 0 -0.28945991880601712 0.41406407147021002 0 -0.29746421392979733 0.41752127617717377 0 -0.29642601029339311 0.40523158123237007 0 -0.28370806127361298 0.40394822033236971 0 -0.28945991880601712 0.41406407147021002 0 -0.29552298337919142 0.43325152068662509 0 -0.29746421392979733 0.41752127617717377 0 -0.30861510005548332 0.41270841669431951 0 -0.29642601029339311 0.40523158123237007 0 -0.29746421392979733 0.41752127617717377 0 -0.30861510005548332 0.41270841669431951 0 -0.31026439759793462 0.42033102996219007 0 -0.30861510005548332 0.41270841669431951 0 -0.30564194206844197 0.4259577804383371 0 -0.31601078935294391 0.41806185831868808 0 -0.31026439759793462 0.42033102996219007 0 -0.30861510005548332 0.41270841669431951 0 -0.32144402632284941 0.43392707554011523 0 -0.29613393675613808 0.43830850701492052 0 -0.32144402632284941 0.43392707554011523 0 -0.31026439759793462 0.42033102996219007 0 -0.30564194206844197 0.4259577804383371 0 -0.29552298337919142 0.43325152068662509 0 -0.30861510005548332 0.41270841669431951 0 -0.29552298337919142 0.43325152068662509 0 -0.30861510005548332 0.41270841669431951 0 -0.30564194206844197 0.4259577804383371 0 -0.32144402632284941 0.43392707554011523 0 -0.30564194206844197 0.4259577804383371 0 -0.29613393675613808 0.43830850701492052 0 -0.29552298337919142 0.43325152068662509 0 -0.30564194206844197 0.4259577804383371 0 -0.29613393675613808 0.43830850701492052 0 -0.32144402632284941 0.43392707554011523 0 -0.31064098844761562 0.44681622647895403 0 -0.29613393675613808 0.43830850701492052 0 -0.31064098844761562 0.44681622647895403 0 -0.29769620624557491 0.45206872096128742 0 -0.29613393675613808 0.43830850701492052 0 -0.31064098844761562 0.44681622647895403 0 -0.29769620624557491 0.45206872096128742 0 -0.30233870406877178 0.46774309416070148 0 -0.31064098844761562 0.44681622647895403 0 -0.30233870406877178 0.46774309416070148 0 -0.32440401955676851 0.45648136041213883 0 -0.30233870406877178 0.46774309416070148 0 -0.28243086670289952 0.45379462467893089 0 -0.28099903354084349 0.47863447198388998 0 -0.30233870406877178 0.46774309416070148 0 -0.28243086670289952 0.45379462467893089 0 -0.29769620624557491 0.45206872096128742 0 -0.30233870406877178 0.46774309416070148 0 -0.28243086670289952 0.45379462467893089 0 -0.29552298337919142 0.43325152068662509 0 -0.28243086670289952 0.45379462467893089 0 -0.2828033379623488 0.43738903666030282 0 -0.29552298337919142 0.43325152068662509 0 -0.28243086670289952 0.45379462467893089 0 -0.29552298337919142 0.43325152068662509 0 -0.28243086670289952 0.45379462467893089 0 -0.29613393675613808 0.43830850701492052 0 -0.29769620624557491 0.45206872096128742 0 -0.28243086670289952 0.45379462467893089 0 -0.29613393675613808 0.43830850701492052 0 -0.25907570013663911 0.43743077650676698 0 -0.28243086670289952 0.45379462467893089 0 -0.27364351679327992 0.43763232373345112 0 -0.25907570013663911 0.43743077650676698 0 -0.28243086670289952 0.45379462467893089 0 -0.2621833250833735 0.45555156983522821 0 -0.2828033379623488 0.43738903666030282 0 -0.28243086670289952 0.45379462467893089 0 -0.27364351679327992 0.43763232373345112 0 -0.25907570013663911 0.43743077650676698 0 -0.28243086670289952 0.45379462467893089 0 -0.28243086670289952 0.45379462467893089 0 -0.2621833250833735 0.45555156983522821 0 -0.27104511485790678 0.47166023724300388 0 -0.28243086670289952 0.45379462467893089 0 -0.28099903354084349 0.47863447198388998 0 -0.27104511485790678 0.47166023724300388 0 -0.28243086670289952 0.45379462467893089 0 -0.27104511485790678 0.47166023724300388 0 -0.2621833250833735 0.45555156983522821 0 -0.25198464064083681 0.47520384361635343 0 -0.27104511485790678 0.47166023724300388 0 -0.2621833250833735 0.45555156983522821 0 -0.25198464064083681 0.47520384361635343 0 -0.24765625357791221 0.4589504801762021 0 -0.2621833250833735 0.45555156983522821 0 -0.25253061715126801 0.44818190212920039 0 -0.24765625357791221 0.4589504801762021 0 -0.25907570013663911 0.43743077650676698 0 -0.2621833250833735 0.45555156983522821 0 -0.25253061715126801 0.44818190212920039 0 -0.25907570013663911 0.43743077650676698 0 -0.25253061715126801 0.44818190212920039 0 -0.24950949748100201 0.43997557734791232 0 -0.25965936301291459 0.48952584980707708 0 -0.25298418887846569 0.49999999999999878 0 -0.28234997907311149 0.5 0 -0.25965936301291459 0.48952584980707708 0 -0.25298418887846569 0.49999999999999878 0 -0.25259763005996522 0.48732801685094579 0 -0.25965936301291459 0.48952584980707708 0 -0.25298418887846569 0.49999999999999878 0 -0.25965936301291459 0.48952584980707708 0 -0.25259763005996522 0.48732801685094579 0 -0.25198464064083681 0.47520384361635343 0 -0.25965936301291459 0.48952584980707708 0 -0.27104511485790678 0.47166023724300388 0 -0.25965936301291459 0.48952584980707708 0 -0.25198464064083681 0.47520384361635343 0 -0.27104511485790678 0.47166023724300388 0 -0.25965936301291459 0.48952584980707708 0 -0.28099903354084349 0.47863447198388998 0 -0.25965936301291459 0.48952584980707708 0 -0.28099903354084349 0.47863447198388998 0 -0.27104511485790678 0.47166023724300388 0 -0.25965936301291459 0.48952584980707708 0 -0.28099903354084349 0.47863447198388998 0 -0.28234997907311149 0.5 0 -0.28099903354084349 0.47863447198388998 0 -0.28234997907311149 0.5 0 -0.30071650889003071 0.48628195233196098 0 -0.30233870406877178 0.46774309416070148 0 -0.28099903354084349 0.47863447198388998 0 -0.30071650889003071 0.48628195233196098 0 -0.30233870406877178 0.46774309416070148 0 -0.28099903354084349 0.47863447198388998 0 -0.30233870406877178 0.46774309416070148 0 -0.30071650889003071 0.48628195233196098 0 -0.31850757226199528 0.47907184677220049 0 -0.30233870406877178 0.46774309416070148 0 -0.31850757226199528 0.47907184677220049 0 -0.28234997907311149 0.5 0 -0.30071650889003071 0.48628195233196098 0 -0.31171576926775729 0.5 0 -0.30071650889003071 0.48628195233196098 0 -0.31171576926775729 0.5 0 -0.32133957006748082 0.49115087969757237 0 -0.33467644045521761 0.49040059938370112 0 -0.31850757226199528 0.47907184677220049 0 -0.30071650889003071 0.48628195233196098 0 -0.32133957006748082 0.49115087969757237 0 -0.31850757226199528 0.47907184677220049 0 -0.31171576926775729 0.5 0 -0.32133957006748082 0.49115087969757237 0 -0.34108155946240298 0.5 0 -0.32133957006748082 0.49115087969757237 0 -0.33467644045521761 0.49040059938370112 0 -0.31850757226199528 0.47907184677220049 0 -0.33467644045521761 0.49040059938370112 0 -0.34108155946240298 0.5 0 -0.34875932141135568 0.48423580373931052 0 -0.32133957006748082 0.49115087969757237 0 -0.33467644045521761 0.49040059938370112 0 -0.34108155946240298 0.5 0 -0.33467644045521761 0.49040059938370112 0 -0.33415377417376252 0.47427505615044191 0 -0.31850757226199528 0.47907184677220049 0 -0.33467644045521761 0.49040059938370112 0 -0.33415377417376252 0.47427505615044191 0 -0.34875932141135568 0.48423580373931052 0 -0.33415377417376252 0.47427505615044191 0 -0.34875932141135568 0.48423580373931052 0 -0.3459950843939601 0.46904362589957899 0 -0.33415377417376252 0.47427505615044191 0 -0.31850757226199528 0.47907184677220049 0 -0.32440401955676851 0.45648136041213883 0 -0.30233870406877178 0.46774309416070148 0 -0.31850757226199528 0.47907184677220049 0 -0.32440401955676851 0.45648136041213883 0 -0.30233870406877178 0.46774309416070148 0 -0.32440401955676851 0.45648136041213883 0 -0.32144402632284941 0.43392707554011523 0 -0.31064098844761562 0.44681622647895403 0 -0.33142766990517958 0.44359749458483438 0 -0.31064098844761562 0.44681622647895403 0 -0.32440401955676851 0.45648136041213883 0 -0.33142766990517958 0.44359749458483438 0 -0.32440401955676851 0.45648136041213883 0 -0.33142766990517958 0.44359749458483438 0 -0.34646933504476463 0.4452196266635754 0 -0.32440401955676851 0.45648136041213883 0 -0.34646933504476463 0.4452196266635754 0 -0.34675411588956062 0.42954564406530987 0 -0.33142766990517958 0.44359749458483438 0 -0.34646933504476463 0.4452196266635754 0 -0.33415377417376252 0.47427505615044191 0 -0.32440401955676851 0.45648136041213883 0 -0.34118522711253157 0.46037000652509369 0 -0.32440401955676851 0.45648136041213883 0 -0.34118522711253157 0.46037000652509369 0 -0.34646933504476463 0.4452196266635754 0 -0.33415377417376252 0.47427505615044191 0 -0.34118522711253157 0.46037000652509369 0 -0.3459950843939601 0.46904362589957899 0 -0.34118522711253157 0.46037000652509369 0 -0.35490392239340202 0.45683036349973338 0 -0.3459950843939601 0.46904362589957899 0 -0.34118522711253157 0.46037000652509369 0 -0.35490392239340202 0.45683036349973338 0 -0.34646933504476463 0.4452196266635754 0 -0.35490392239340202 0.45683036349973338 0 -0.3459950843939601 0.46904362589957899 0 -0.35774361702694218 0.4688480115987434 0 -0.36853465053276069 0.43395789291501202 0 -0.34646933504476463 0.4452196266635754 0 -0.36853465053276069 0.43395789291501202 0 -0.34646933504476463 0.4452196266635754 0 -0.36062943463732572 0.44564811859507031 0 -0.35490392239340202 0.45683036349973338 0 -0.34646933504476463 0.4452196266635754 0 -0.36062943463732572 0.44564811859507031 0 -0.36853465053276069 0.43395789291501202 0 -0.36062943463732572 0.44564811859507031 0 -0.36921405837342719 0.44360890941763248 0 -0.36689647524649233 0.45191928119338221 0 -0.36062943463732572 0.44564811859507031 0 -0.36921405837342719 0.44360890941763248 0 -0.35490392239340202 0.45683036349973338 0 -0.36689647524649233 0.45191928119338221 0 -0.36062943463732572 0.44564811859507031 0 -0.36689647524649233 0.45191928119338221 0 -0.37481481235924752 0.4476546642360138 0 -0.36921405837342719 0.44360890941763248 0 -0.37626883962521179 0.45892663211557277 0 -0.36689647524649233 0.45191928119338221 0 -0.37481481235924752 0.4476546642360138 0 -0.37558425303023452 0.43976878428969562 0 -0.37481481235924752 0.4476546642360138 0 -0.36921405837342719 0.44360890941763248 0 -0.37558425303023452 0.43976878428969562 0 -0.36853465053276069 0.43395789291501202 0 -0.36921405837342719 0.44360890941763248 0 -0.36648218554375789 0.46101706523469832 0 -0.37333950992086351 0.47327722219825058 0 -0.35774361702694218 0.4688480115987434 0 -0.35490392239340202 0.45683036349973338 0 -0.36648218554375789 0.46101706523469832 0 -0.35774361702694218 0.4688480115987434 0 -0.35490392239340202 0.45683036349973338 0 -0.36689647524649233 0.45191928119338221 0 -0.36648218554375789 0.46101706523469832 0 -0.37626883962521179 0.45892663211557277 0 -0.36689647524649233 0.45191928119338221 0 -0.36648218554375789 0.46101706523469832 0 -0.37626883962521179 0.45892663211557277 0 -0.36648218554375789 0.46101706523469832 0 -0.37333950992086351 0.47327722219825058 0 -0.37333950992086351 0.47327722219825058 0 -0.363368118917266 0.4794488133702835 0 -0.35774361702694218 0.4688480115987434 0 -0.37333950992086351 0.47327722219825058 0 -0.363368118917266 0.4794488133702835 0 -0.36994570678819511 0.48733690223976572 0 -0.38204176093759867 0.48767303845213411 0 -0.36994570678819511 0.48733690223976572 0 -0.37044734965704867 0.5 0 -0.36994570678819511 0.48733690223976572 0 -0.37044734965704867 0.5 0 -0.35879286657769149 0.49044754920220351 0 -0.363368118917266 0.4794488133702835 0 -0.36994570678819511 0.48733690223976572 0 -0.35879286657769149 0.49044754920220351 0 -0.34108155946240298 0.5 0 -0.37044734965704867 0.5 0 -0.35879286657769149 0.49044754920220351 0 -0.363368118917266 0.4794488133702835 0 -0.35879286657769149 0.49044754920220351 0 -0.34875932141135568 0.48423580373931052 0 -0.34108155946240298 0.5 0 -0.35879286657769149 0.49044754920220351 0 -0.34875932141135568 0.48423580373931052 0 -0.34875932141135568 0.48423580373931052 0 -0.3459950843939601 0.46904362589957899 0 -0.35774361702694218 0.4688480115987434 0 -0.363368118917266 0.4794488133702835 0 -0.34875932141135568 0.48423580373931052 0 -0.35774361702694218 0.4688480115987434 0 -0.13427192322805959 0.47639302624934232 0 -0.15477328032414309 0.46665094998287848 0 -0.1604117123520987 0.48445360486279682 0 -0.1488478701325433 0.5 0 -0.13427192322805959 0.47639302624934232 0 -0.1604117123520987 0.48445360486279682 0 -0.12706975131072731 0.500000000000002 0 -0.13427192322805959 0.47639302624934232 0 -0.12706975131072731 0.500000000000002 0 -0.13427192322805959 0.47639302624934232 0 -0.1138616612205828 0.48107829569316701 0 -0.1488478701325433 0.5 0 -0.12706975131072731 0.500000000000002 0 -0.13427192322805959 0.47639302624934232 0 -0.13427192322805959 0.47639302624934232 0 -0.1414740951453915 0.45278605249868231 0 -0.1166238092426813 0.46215407445810708 0 -0.13427192322805959 0.47639302624934232 0 -0.1414740951453915 0.45278605249868231 0 -0.1414740951453915 0.45278605249868231 0 -0.1201918169322794 0.44443799824850971 0 -0.1166238092426813 0.46215407445810708 0 -0.1414740951453915 0.45278605249868231 0 -0.13212812499831089 0.43138243712523361 0 -0.1201918169322794 0.44443799824850971 0 -0.1414740951453915 0.45278605249868231 0 -0.14867626706272341 0.4291790787480223 0 -0.1414740951453915 0.45278605249868231 0 -0.14867626706272341 0.4291790787480223 0 -0.13212812499831089 0.43138243712523361 0 -0.1414740951453915 0.45278605249868231 0 -0.1639685221005471 0.45383429956500532 0 -0.16011962671551089 0.43745496671563522 0 -0.1414740951453915 0.45278605249868231 0 -0.16011962671551089 0.43745496671563522 0 -0.14867626706272341 0.4291790787480223 0 -0.1414740951453915 0.45278605249868231 0 -0.15477328032414309 0.46665094998287848 0 -0.1639685221005471 0.45383429956500532 0 -0.13427192322805959 0.47639302624934232 0 -0.1414740951453915 0.45278605249868231 0 -0.15477328032414309 0.46665094998287848 0 -0.15477328032414309 0.46665094998287848 0 -0.1639685221005471 0.45383429956500532 0 -0.1724361631082181 0.47391552010628968 0 -0.1639685221005471 0.45383429956500532 0 -0.17310578032346599 0.44196666659649292 0 -0.16011962671551089 0.43745496671563522 0 -0.17310578032346599 0.44196666659649292 0 -0.1793033291033872 0.45428852208808218 0 -0.18892182078301609 0.44241925027374779 0 -0.1639685221005471 0.45383429956500532 0 -0.17310578032346599 0.44196666659649292 0 -0.1793033291033872 0.45428852208808218 0 -0.1724361631082181 0.47391552010628968 0 -0.19462467619076751 0.46170278519843488 0 -0.1639685221005471 0.45383429956500532 0 -0.1793033291033872 0.45428852208808218 0 -0.1724361631082181 0.47391552010628968 0 -0.1793033291033872 0.45428852208808218 0 -0.1724361631082181 0.47391552010628968 0 -0.19462467619076751 0.46170278519843488 0 -0.1724361631082181 0.47391552010628968 0 -0.1935143919834712 0.48085139259921927 0 -0.19462467619076751 0.46170278519843488 0 -0.1724361631082181 0.47391552010628968 0 -0.18056841791691311 0.48926285406780817 0 -0.1935143919834712 0.48085139259921927 0 -0.1724361631082181 0.47391552010628968 0 -0.1604117123520987 0.48445360486279682 0 -0.18056841791691311 0.48926285406780817 0 -0.15477328032414309 0.46665094998287848 0 -0.1724361631082181 0.47391552010628968 0 -0.1604117123520987 0.48445360486279682 0 -0.1604117123520987 0.48445360486279682 0 -0.17062598895435921 0.5 0 -0.18056841791691311 0.48926285406780817 0 -0.1488478701325433 0.5 0 -0.1604117123520987 0.48445360486279682 0 -0.17062598895435921 0.5 0 -0.17062598895435921 0.5 0 -0.18056841791691311 0.48926285406780817 0 -0.1924041077761752 0.50000000000000377 0 -0.1924041077761752 0.50000000000000377 0 -0.1935143919834712 0.48085139259921927 0 -0.20551793484502409 0.48797211710356853 0 -0.1924041077761752 0.50000000000000377 0 -0.1935143919834712 0.48085139259921927 0 -0.18056841791691311 0.48926285406780817 0 -0.1924041077761752 0.50000000000000377 0 -0.1935143919834712 0.48085139259921927 0 -0.1935143919834712 0.48085139259921927 0 -0.2082705745540461 0.46578996418937318 0 -0.19462467619076751 0.46170278519843488 0 -0.1935143919834712 0.48085139259921927 0 -0.19462467619076751 0.46170278519843488 0 -0.1935143919834712 0.48085139259921927 0 -0.2154037205442679 0.47812016299260052 0 -0.20551793484502409 0.48797211710356853 0 -0.1935143919834712 0.48085139259921927 0 -0.2154037205442679 0.47812016299260052 0 -0.2082705745540461 0.46578996418937318 0 -0.2154037205442679 0.47812016299260052 0 -0.2225112956939751 0.46766217399626769 0 -0.2082705745540461 0.46578996418937318 0 -0.2154037205442679 0.47812016299260052 0 -0.21259746814360539 0.5 0 -0.20551793484502409 0.48797211710356853 0 -0.1924041077761752 0.50000000000000377 0 -0.21259746814360539 0.5 0 -0.20551793484502409 0.48797211710356853 0 -0.2154037205442679 0.47812016299260052 0 -0.21259746814360539 0.5 0 -0.22908055967340421 0.48348424614661872 0 -0.21259746814360539 0.5 0 -0.23279082851103561 0.5 0 -0.22908055967340421 0.48348424614661872 0 -0.22908055967340421 0.48348424614661872 0 -0.2366047132014448 0.47086389098740189 0 -0.2225112956939751 0.46766217399626769 0 -0.2154037205442679 0.47812016299260052 0 -0.22908055967340421 0.48348424614661872 0 -0.2225112956939751 0.46766217399626769 0 -0.22908055967340421 0.48348424614661872 0 -0.2366047132014448 0.47086389098740189 0 -0.24278479051092461 0.48731117119140688 0 -0.25198464064083681 0.47520384361635343 0 -0.2366047132014448 0.47086389098740189 0 -0.24278479051092461 0.48731117119140688 0 -0.25259763005996522 0.48732801685094579 0 -0.25198464064083681 0.47520384361635343 0 -0.24278479051092461 0.48731117119140688 0 -0.25298418887846569 0.49999999999999878 0 -0.23279082851103561 0.5 0 -0.24278479051092461 0.48731117119140688 0 -0.25298418887846569 0.49999999999999878 0 -0.25259763005996522 0.48732801685094579 0 -0.24278479051092461 0.48731117119140688 0 -0.23279082851103561 0.5 0 -0.22908055967340421 0.48348424614661872 0 -0.24278479051092461 0.48731117119140688 0 -0.25004256813668041 0.43120033462999913 0 -0.24950949748100201 0.43997557734791232 0 -0.2315699374880428 0.44136781815281112 0 -0.24950949748100201 0.43997557734791232 0 -0.24422830947741331 0.44900110677989291 0 -0.2315699374880428 0.44136781815281112 0 -0.24422830947741331 0.44900110677989291 0 -0.23261089935128271 0.45617947798598912 0 -0.2315699374880428 0.44136781815281112 0 -0.25253061715126801 0.44818190212920039 0 -0.24950949748100201 0.43997557734791232 0 -0.24422830947741331 0.44900110677989291 0 -0.25253061715126801 0.44818190212920039 0 -0.24422830947741331 0.44900110677989291 0 -0.24765625357791221 0.4589504801762021 0 -0.25198464064083681 0.47520384361635343 0 -0.2366047132014448 0.47086389098740189 0 -0.24765625357791221 0.4589504801762021 0 -0.2366047132014448 0.47086389098740189 0 -0.24765625357791221 0.4589504801762021 0 -0.23261089935128271 0.45617947798598912 0 -0.24422830947741331 0.44900110677989291 0 -0.24765625357791221 0.4589504801762021 0 -0.23261089935128271 0.45617947798598912 0 -0.23261089935128271 0.45617947798598912 0 -0.2225112956939751 0.46766217399626769 0 -0.2130973068394052 0.45153530167562311 0 -0.2366047132014448 0.47086389098740189 0 -0.23261089935128271 0.45617947798598912 0 -0.2225112956939751 0.46766217399626769 0 -0.23261089935128271 0.45617947798598912 0 -0.2315699374880428 0.44136781815281112 0 -0.2130973068394052 0.45153530167562311 0 -0.2315699374880428 0.44136781815281112 0 -0.2130973068394052 0.45153530167562311 0 -0.21576368557645009 0.42668935284907328 0 -0.2315699374880428 0.44136781815281112 0 -0.2130973068394052 0.45153530167562311 0 -0.2130973068394052 0.45153530167562311 0 -0.19597528131132069 0.43840946350924059 0 -0.21576368557645009 0.42668935284907328 0 -0.2130973068394052 0.45153530167562311 0 -0.2082705745540461 0.46578996418937318 0 -0.19462467619076751 0.46170278519843488 0 -0.2130973068394052 0.45153530167562311 0 -0.19462467619076751 0.46170278519843488 0 -0.2225112956939751 0.46766217399626769 0 -0.2130973068394052 0.45153530167562311 0 -0.2082705745540461 0.46578996418937318 0 -0.2130973068394052 0.45153530167562311 0 -0.19462467619076751 0.46170278519843488 0 -0.19597528131132069 0.43840946350924059 0 -0.19462467619076751 0.46170278519843488 0 -0.18892182078301609 0.44241925027374779 0 -0.19597528131132069 0.43840946350924059 0 -0.19462467619076751 0.46170278519843488 0 -0.19597528131132069 0.43840946350924059 0 -0.1793033291033872 0.45428852208808218 0 -0.19462467619076751 0.46170278519843488 0 -0.18892182078301609 0.44241925027374779 0 -0.19597528131132069 0.43840946350924059 0 -0.1973258864318744 0.41511614182004652 0 -0.19597528131132069 0.43840946350924059 0 -0.1973258864318744 0.41511614182004652 0 -0.21576368557645009 0.42668935284907328 0 -0.19597528131132069 0.43840946350924059 0 -0.1973258864318744 0.41511614182004652 0 -0.18743143511948979 0.42622825333424402 0 -0.18892182078301609 0.44241925027374779 0 -0.19597528131132069 0.43840946350924059 0 -0.18743143511948979 0.42622825333424402 0 -0.1973258864318744 0.41511614182004652 0 -0.18150578678724719 0.4037008311144315 0 -0.18743143511948979 0.42622825333424402 0 -0.1973258864318744 0.41511614182004652 0 -0.211702664334769 0.40670194627138168 0 -0.21576368557645009 0.42668935284907328 0 -0.2315699374880428 0.44136781815281112 0 -0.21576368557645009 0.42668935284907328 0 -0.23130239775558381 0.42745505016864199 0 -0.211702664334769 0.40670194627138168 0 -0.21576368557645009 0.42668935284907328 0 -0.23115580651773371 0.41041111155740501 0 -0.21576368557645009 0.42668935284907328 0 -0.23130239775558381 0.42745505016864199 0 -0.23115580651773371 0.41041111155740501 0 -0.23115580651773371 0.41041111155740501 0 -0.24672016144010869 0.43135191811527862 0 -0.23115580651773371 0.41041111155740501 0 -0.24761294086593569 0.41443381151829423 0 -0.24672016144010869 0.43135191811527862 0 -0.2521198901848119 0.4223400115759261 0 -0.24761294086593569 0.41443381151829423 0 -0.24672016144010869 0.43135191811527862 0 -0.25004256813668041 0.43120033462999913 0 -0.2315699374880428 0.44136781815281112 0 -0.24672016144010869 0.43135191811527862 0 -0.25004256813668041 0.43120033462999913 0 -0.2315699374880428 0.44136781815281112 0 -0.23130239775558381 0.42745505016864199 0 -0.23115580651773371 0.41041111155740501 0 -0.24672016144010869 0.43135191811527862 0 -0.25004256813668041 0.43120033462999913 0 -0.2521198901848119 0.4223400115759261 0 -0.24672016144010869 0.43135191811527862 0 -0.2315699374880428 0.44136781815281112 0 -0.23130239775558381 0.42745505016864199 0 -0.24672016144010869 0.43135191811527862 0 -0.25207500354250989 0.39285229113824099 0 -0.23340047209497061 0.38504431229589958 0 -0.24793647807619529 0.36272983982548312 0 -0.25207500354250989 0.39285229113824099 0 -0.23115580651773371 0.41041111155740501 0 -0.24761294086593569 0.41443381151829423 0 -0.25207500354250989 0.39285229113824099 0 -0.23115580651773371 0.41041111155740501 0 -0.23340047209497061 0.38504431229589958 0 -0.211702664334769 0.40670194627138168 0 -0.23115580651773371 0.41041111155740501 0 -0.21559145159535861 0.38947030499953128 0 -0.23115580651773371 0.41041111155740501 0 -0.21559145159535861 0.38947030499953128 0 -0.23115580651773371 0.41041111155740501 0 -0.23340047209497061 0.38504431229589958 0 -0.21559145159535861 0.38947030499953128 0 -0.23340047209497061 0.38504431229589958 0 -0.21559145159535861 0.38947030499953128 0 -0.22024362074305559 0.36975801395883739 0 -0.21559145159535861 0.38947030499953128 0 -0.1986764915524282 0.39182282013085218 0 -0.20002709667298299 0.36852949844165822 0 -0.21559145159535861 0.38947030499953128 0 -0.20002709667298299 0.36852949844165822 0 -0.22024362074305559 0.36975801395883739 0 -0.21559145159535861 0.38947030499953128 0 -0.20002709667298299 0.36852949844165822 0 -0.211702664334769 0.40670194627138168 0 -0.21559145159535861 0.38947030499953128 0 -0.1986764915524282 0.39182282013085218 0 -0.1973258864318744 0.41511614182004652 0 -0.1986764915524282 0.39182282013085218 0 -0.18150578678724719 0.4037008311144315 0 -0.1973258864318744 0.41511614182004652 0 -0.1986764915524282 0.39182282013085218 0 -0.1973258864318744 0.41511614182004652 0 -0.211702664334769 0.40670194627138168 0 -0.1986764915524282 0.39182282013085218 0 -0.1986764915524282 0.39182282013085218 0 -0.18235670781421481 0.3743657705644442 0 -0.20002709667298299 0.36852949844165822 0 -0.1986764915524282 0.39182282013085218 0 -0.20002709667298299 0.36852949844165822 0 -0.1662988083540419 0.37539478395147691 0 -0.16815728555877549 0.38705773540129351 0 -0.18235670781421481 0.3743657705644442 0 -0.18016301718315211 0.39009840998192691 0 -0.16815728555877549 0.38705773540129351 0 -0.18235670781421481 0.3743657705644442 0 -0.1986764915524282 0.39182282013085218 0 -0.18016301718315211 0.39009840998192691 0 -0.18235670781421481 0.3743657705644442 0 -0.1662988083540419 0.37539478395147691 0 -0.15882889901863481 0.39737131762923639 0 -0.1662988083540419 0.37539478395147691 0 -0.15882889901863481 0.39737131762923639 0 -0.15539321601027811 0.39848010462130418 0 -0.1662988083540419 0.37539478395147691 0 -0.16815728555877549 0.38705773540129351 0 -0.15882889901863481 0.39737131762923639 0 -0.16321409299502571 0.39978351448649718 0 -0.15750938504671669 0.40125333840624389 0 -0.16859648333140451 0.40495447501341292 0 -0.15750938504671669 0.40125333840624389 0 -0.1560524219351804 0.40553973566355739 0 -0.16321409299502571 0.39978351448649718 0 -0.15750938504671669 0.40125333840624389 0 -0.15882889901863481 0.39737131762923639 0 -0.15750938504671669 0.40125333840624389 0 -0.15539321601027811 0.39848010462130418 0 -0.1560524219351804 0.40553973566355739 0 -0.15750938504671669 0.40125333840624389 0 -0.15539321601027811 0.39848010462130418 0 -0.15750938504671669 0.40125333840624389 0 -0.15882889901863481 0.39737131762923639 0 -0.15750938504671669 0.40125333840624389 0 -0.15882889901863481 0.39737131762923639 0 -0.15539321601027811 0.39848010462130418 0 -0.16815728555877549 0.38705773540129351 0 -0.15882889901863481 0.39737131762923639 0 -0.16120481812895621 0.39660454485150348 0 -0.15882889901863481 0.39737131762923639 0 -0.15539321601027811 0.39848010462130418 0 -0.15882889901863481 0.39737131762923639 0 -0.16120481812895621 0.39660454485150348 0 -0.16321409299502571 0.39978351448649718 0 -0.15882889901863481 0.39737131762923639 0 -0.16120481812895621 0.39660454485150348 0 -0.16321409299502571 0.39978351448649718 0 -0.16120481812895621 0.39660454485150348 0 -0.17042919251308891 0.39685722919504118 0 -0.16815728555877549 0.38705773540129351 0 -0.16120481812895621 0.39660454485150348 0 -0.17042919251308891 0.39685722919504118 0 -0.16321409299502571 0.39978351448649718 0 -0.17042919251308891 0.39685722919504118 0 -0.16859648333140451 0.40495447501341292 0 -0.17042919251308891 0.39685722919504118 0 -0.16859648333140451 0.40495447501341292 0 -0.18150578678724719 0.4037008311144315 0 -0.1986764915524282 0.39182282013085218 0 -0.18016301718315211 0.39009840998192691 0 -0.18150578678724719 0.4037008311144315 0 -0.18016301718315211 0.39009840998192691 0 -0.16815728555877549 0.38705773540129351 0 -0.17042919251308891 0.39685722919504118 0 -0.18016301718315211 0.39009840998192691 0 -0.17042919251308891 0.39685722919504118 0 -0.18150578678724719 0.4037008311144315 0 -0.18150578678724719 0.4037008311144315 0 -0.1732156029148689 0.42183629433999398 0 -0.18743143511948979 0.42622825333424402 0 -0.16859648333140451 0.40495447501341292 0 -0.18150578678724719 0.4037008311144315 0 -0.1732156029148689 0.42183629433999398 0 -0.18892182078301609 0.44241925027374779 0 -0.1732156029148689 0.42183629433999398 0 -0.18892182078301609 0.44241925027374779 0 -0.1732156029148689 0.42183629433999398 0 -0.18743143511948979 0.42622825333424402 0 -0.17310578032346599 0.44196666659649292 0 -0.18892182078301609 0.44241925027374779 0 -0.1732156029148689 0.42183629433999398 0 -0.1732156029148689 0.42183629433999398 0 -0.16011962671551089 0.43745496671563522 0 -0.15695275005955839 0.42102631930853612 0 -0.17310578032346599 0.44196666659649292 0 -0.1732156029148689 0.42183629433999398 0 -0.16011962671551089 0.43745496671563522 0 -0.15750938504671669 0.40125333840624389 0 -0.1732156029148689 0.42183629433999398 0 -0.1732156029148689 0.42183629433999398 0 -0.15695275005955839 0.42102631930853612 0 -0.1560524219351804 0.40553973566355739 0 -0.15750938504671669 0.40125333840624389 0 -0.1732156029148689 0.42183629433999398 0 -0.1560524219351804 0.40553973566355739 0 -0.15750938504671669 0.40125333840624389 0 -0.16859648333140451 0.40495447501341292 0 -0.1732156029148689 0.42183629433999398 0 -0.1423244780615425 0.41422668014664488 0 -0.1275529580078951 0.40746490207023051 0 -0.15539321601027811 0.39848010462130418 0 -0.15695275005955839 0.42102631930853612 0 -0.1423244780615425 0.41422668014664488 0 -0.1560524219351804 0.40553973566355739 0 -0.15695275005955839 0.42102631930853612 0 -0.1423244780615425 0.41422668014664488 0 -0.14867626706272341 0.4291790787480223 0 -0.16011962671551089 0.43745496671563522 0 -0.15695275005955839 0.42102631930853612 0 -0.14867626706272341 0.4291790787480223 0 -0.1423244780615425 0.41422668014664488 0 -0.14867626706272341 0.4291790787480223 0 -0.13212812499831089 0.43138243712523361 0 -0.13212812499831089 0.43138243712523361 0 -0.1275529580078951 0.40746490207023051 0 -0.11576362909944179 0.42707853232459431 0 -0.1423244780615425 0.41422668014664488 0 -0.13212812499831089 0.43138243712523361 0 -0.1275529580078951 0.40746490207023051 0 -0.1275529580078951 0.40746490207023051 0 -0.13767619579953419 0.37526199766923429 0 -0.1172731310204301 0.37997009596775111 0 -0.1275529580078951 0.40746490207023051 0 -0.13767619579953419 0.37526199766923429 0 -0.15539321601027811 0.39848010462130418 0 -0.13767619579953419 0.37526199766923429 0 -0.15539321601027811 0.39848010462130418 0 -0.1662988083540419 0.37539478395147691 0 -0.13767619579953419 0.37526199766923429 0 -0.15539321601027811 0.39848010462130418 0 -0.1275529580078951 0.40746490207023051 0 -0.15539321601027811 0.39848010462130418 0 -0.1423244780615425 0.41422668014664488 0 -0.15539321601027811 0.39848010462130418 0 -0.1560524219351804 0.40553973566355739 0 -0.14304471827390031 0.35357519045164831 0 -0.1583412379941054 0.34067777797127652 0 -0.1571074301458609 0.36005789747204731 0 -0.14304471827390031 0.35357519045164831 0 -0.14162963659725511 0.33830633309548119 0 -0.1583412379941054 0.34067777797127652 0 -0.1662988083540419 0.37539478395147691 0 -0.13767619579953419 0.37526199766923429 0 -0.1571074301458609 0.36005789747204731 0 -0.13767619579953419 0.37526199766923429 0 -0.14304471827390031 0.35357519045164831 0 -0.1571074301458609 0.36005789747204731 0 -0.13767619579953419 0.37526199766923429 0 -0.14304471827390031 0.35357519045164831 0 -0.1199591755887908 0.35204389071716408 0 -0.13767619579953419 0.37526199766923429 0 -0.1199591755887908 0.35204389071716408 0 -0.14304471827390031 0.35357519045164831 0 -0.1226434368259746 0.34120048710837031 0 -0.1199591755887908 0.35204389071716408 0 -0.14304471827390031 0.35357519045164831 0 -0.14162963659725511 0.33830633309548119 0 -0.1226434368259746 0.34120048710837031 0 -0.14304471827390031 0.35357519045164831 0 -0.1226434368259746 0.34120048710837031 0 -0.13245514128645941 0.32992620577102161 0 -0.14162963659725511 0.33830633309548119 0 -0.1226434368259746 0.34120048710837031 0 -0.13245514128645941 0.32992620577102161 0 -0.1468486342375942 0.32429953560112862 0 -0.14162963659725511 0.33830633309548119 0 -0.13245514128645941 0.32992620577102161 0 -0.1278360377772465 0.31560376677006419 0 -0.1468486342375942 0.32429953560112862 0 -0.1278360377772465 0.31560376677006419 0 -0.1468486342375942 0.32429953560112862 0 -0.14665957854107939 0.3073778773056014 0 -0.13245514128645941 0.32992620577102161 0 -0.1278360377772465 0.31560376677006419 0 -0.118762066897334 0.32593186160389498 0 -0.1468486342375942 0.32429953560112862 0 -0.1637952159011177 0.31596552193540928 0 -0.14665957854107939 0.3073778773056014 0 -0.1468486342375942 0.32429953560112862 0 -0.14162963659725511 0.33830633309548119 0 -0.1583412379941054 0.34067777797127652 0 -0.1583412379941054 0.34067777797127652 0 -0.1637952159011177 0.31596552193540928 0 -0.18123862702485499 0.33144171659595739 0 -0.1583412379941054 0.34067777797127652 0 -0.18123862702485499 0.33144171659595739 0 -0.17376871768944849 0.35341825027371709 0 -0.1468486342375942 0.32429953560112862 0 -0.1583412379941054 0.34067777797127652 0 -0.1637952159011177 0.31596552193540928 0 -0.18123862702485499 0.33144171659595739 0 -0.1939358966342879 0.3099555774219796 0 -0.18052202139302909 0.3106363917488133 0 -0.1637952159011177 0.31596552193540928 0 -0.18123862702485499 0.33144171659595739 0 -0.18052202139302909 0.3106363917488133 0 -0.18123862702485499 0.33144171659595739 0 -0.17376871768944849 0.35341825027371709 0 -0.18123862702485499 0.33144171659595739 0 -0.17376871768944849 0.35341825027371709 0 -0.18934618547625251 0.34139870279750822 0 -0.17376871768944849 0.35341825027371709 0 -0.18940553768867541 0.35423889577018491 0 -0.18934618547625251 0.34139870279750822 0 -0.1583412379941054 0.34067777797127652 0 -0.17376871768944849 0.35341825027371709 0 -0.1571074301458609 0.36005789747204731 0 -0.1662988083540419 0.37539478395147691 0 -0.17376871768944849 0.35341825027371709 0 -0.1571074301458609 0.36005789747204731 0 -0.1662988083540419 0.37539478395147691 0 -0.17376871768944849 0.35341825027371709 0 -0.17376871768944849 0.35341825027371709 0 -0.18235670781421481 0.3743657705644442 0 -0.18940553768867541 0.35423889577018491 0 -0.1662988083540419 0.37539478395147691 0 -0.17376871768944849 0.35341825027371709 0 -0.18235670781421481 0.3743657705644442 0 -0.18235670781421481 0.3743657705644442 0 -0.20002709667298299 0.36852949844165822 0 -0.18940553768867541 0.35423889577018491 0 -0.20002709667298299 0.36852949844165822 0 -0.18940553768867541 0.35423889577018491 0 -0.20002709667298299 0.36852949844165822 0 -0.20133335026742991 0.34600108897533632 0 -0.20002709667298299 0.36852949844165822 0 -0.18940553768867541 0.35423889577018491 0 -0.20133335026742991 0.34600108897533632 0 -0.18940553768867541 0.35423889577018491 0 -0.20133335026742991 0.34600108897533632 0 -0.18934618547625251 0.34139870279750822 0 -0.20133335026742991 0.34600108897533632 0 -0.22024362074305559 0.36975801395883739 0 -0.2249658949352403 0.3497328895089386 0 -0.20002709667298299 0.36852949844165822 0 -0.20133335026742991 0.34600108897533632 0 -0.22024362074305559 0.36975801395883739 0 -0.23340047209497061 0.38504431229589958 0 -0.22024362074305559 0.36975801395883739 0 -0.24793647807619529 0.36272983982548312 0 -0.22024362074305559 0.36975801395883739 0 -0.2249658949352403 0.3497328895089386 0 -0.24793647807619529 0.36272983982548312 0 -0.2249658949352403 0.3497328895089386 0 -0.24793647807619529 0.36272983982548312 0 -0.24443552246153269 0.33896729888257182 0 -0.2249658949352403 0.3497328895089386 0 -0.24793647807619529 0.36272983982548312 0 -0.25190859989712849 0.32267914652403529 0 -0.23485087614604711 0.31544414318655078 0 -0.24443552246153269 0.33896729888257182 0 -0.25190859989712849 0.32267914652403529 0 -0.23485087614604711 0.31544414318655078 0 -0.24955002262375489 0.29959517145917181 0 -0.23485087614604711 0.31544414318655078 0 -0.24443552246153269 0.33896729888257182 0 -0.2204133347270216 0.33127041252609352 0 -0.2249658949352403 0.3497328895089386 0 -0.24443552246153269 0.33896729888257182 0 -0.2204133347270216 0.33127041252609352 0 -0.23485087614604711 0.31544414318655078 0 -0.2204133347270216 0.33127041252609352 0 -0.2173584178857817 0.31302403854327099 0 -0.2204133347270216 0.33127041252609352 0 -0.2173584178857817 0.31302403854327099 0 -0.20263960386187799 0.32347267950901448 0 -0.20133335026742991 0.34600108897533632 0 -0.2204133347270216 0.33127041252609352 0 -0.20263960386187799 0.32347267950901448 0 -0.20133335026742991 0.34600108897533632 0 -0.2249658949352403 0.3497328895089386 0 -0.2204133347270216 0.33127041252609352 0 -0.18123862702485499 0.33144171659595739 0 -0.18934618547625251 0.34139870279750822 0 -0.20263960386187799 0.32347267950901448 0 -0.20133335026742991 0.34600108897533632 0 -0.18934618547625251 0.34139870279750822 0 -0.20263960386187799 0.32347267950901448 0 -0.20133335026742991 0.34600108897533632 0 -0.20263960386187799 0.32347267950901448 0 -0.18123862702485499 0.33144171659595739 0 -0.20263960386187799 0.32347267950901448 0 -0.1939358966342879 0.3099555774219796 0 -0.20263960386187799 0.32347267950901448 0 -0.1939358966342879 0.3099555774219796 0 -0.20394585745632771 0.30094427004269297 0 -0.1939358966342879 0.3099555774219796 0 -0.18900670575295 0.29637100675225958 0 -0.18052202139302909 0.3106363917488133 0 -0.1939358966342879 0.3099555774219796 0 -0.19603941430502239 0.30125743115627529 0 -0.18900670575295 0.29637100675225958 0 -0.19795374151449471 0.29738090008356 0 -0.19603941430502239 0.30125743115627529 0 -0.18900670575295 0.29637100675225958 0 -0.19795374151449471 0.29738090008356 0 -0.19603941430502239 0.30125743115627529 0 -0.20394585745632771 0.30094427004269297 0 -0.1939358966342879 0.3099555774219796 0 -0.19603941430502239 0.30125743115627529 0 -0.20394585745632771 0.30094427004269297 0 -0.19734423019548331 0.28700019963902879 0 -0.20394585745632771 0.30094427004269297 0 -0.20567880092494481 0.2710569187588065 0 -0.1896247381081913 0.28174231935058719 0 -0.18900670575295 0.29637100675225958 0 -0.19734423019548331 0.28700019963902879 0 -0.1896247381081913 0.28174231935058719 0 -0.19734423019548331 0.28700019963902879 0 -0.1969203713000309 0.27664541708541129 0 -0.19795374151449471 0.29738090008356 0 -0.18900670575295 0.29637100675225958 0 -0.19734423019548331 0.28700019963902879 0 -0.19795374151449471 0.29738090008356 0 -0.19734423019548331 0.28700019963902879 0 -0.20394585745632771 0.30094427004269297 0 -0.20394585745632771 0.30094427004269297 0 -0.2287918215254035 0.28722559715734841 0 -0.20567880092494481 0.2710569187588065 0 -0.20394585745632771 0.30094427004269297 0 -0.20567880092494481 0.2710569187588065 0 -0.20394585745632771 0.30094427004269297 0 -0.2287918215254035 0.28722559715734841 0 -0.2173584178857817 0.31302403854327099 0 -0.20394585745632771 0.30094427004269297 0 -0.2287918215254035 0.28722559715734841 0 -0.2173584178857817 0.31302403854327099 0 -0.20263960386187799 0.32347267950901448 0 -0.20394585745632771 0.30094427004269297 0 -0.20263960386187799 0.32347267950901448 0 -0.20394585745632771 0.30094427004269297 0 -0.23485087614604711 0.31544414318655078 0 -0.2173584178857817 0.31302403854327099 0 -0.2287918215254035 0.28722559715734841 0 -0.25363778559447842 0.27350692427200241 0 -0.2287918215254035 0.28722559715734841 0 -0.24955002262375489 0.29959517145917181 0 -0.23485087614604711 0.31544414318655078 0 -0.2287918215254035 0.28722559715734841 0 -0.24955002262375489 0.29959517145917181 0 -0.24800282081558991 0.25311300777040008 0 -0.2337849049445343 0.26150574820020728 0 -0.24184004484167479 0.2397688574378101 0 -0.24800282081558991 0.25311300777040008 0 -0.2444451896747076 0.26404729237941471 0 -0.2337849049445343 0.26150574820020728 0 -0.25714214375922329 0.25982886013905893 0 -0.24800282081558991 0.25311300777040008 0 -0.2444451896747076 0.26404729237941471 0 -0.25363778559447842 0.27350692427200241 0 -0.22965829325971171 0.27228192151540398 0 -0.25363778559447842 0.27350692427200241 0 -0.2444451896747076 0.26404729237941471 0 -0.22965829325971171 0.27228192151540398 0 -0.25363778559447842 0.27350692427200241 0 -0.2287918215254035 0.28722559715734841 0 -0.25363778559447842 0.27350692427200241 0 -0.2287918215254035 0.28722559715734841 0 -0.22965829325971171 0.27228192151540398 0 -0.2444451896747076 0.26404729237941471 0 -0.22965829325971171 0.27228192151540398 0 -0.2337849049445343 0.26150574820020728 0 -0.2287918215254035 0.28722559715734841 0 -0.22965829325971171 0.27228192151540398 0 -0.20567880092494481 0.2710569187588065 0 -0.21876605819550171 0.26070399828302399 0 -0.2337849049445343 0.26150574820020728 0 -0.2259041914856694 0.23902676701485259 0 -0.2337849049445343 0.26150574820020728 0 -0.2259041914856694 0.23902676701485259 0 -0.22965829325971171 0.27228192151540398 0 -0.21876605819550171 0.26070399828302399 0 -0.2337849049445343 0.26150574820020728 0 -0.20567880092494481 0.2710569187588065 0 -0.207166788805945 0.24539421405391901 0 -0.21876605819550171 0.26070399828302399 0 -0.20567880092494481 0.2710569187588065 0 -0.207166788805945 0.24539421405391901 0 -0.22965829325971171 0.27228192151540398 0 -0.21876605819550171 0.26070399828302399 0 -0.20567880092494481 0.2710569187588065 0 -0.22965829325971171 0.27228192151540398 0 -0.20567880092494481 0.2710569187588065 0 -0.20567880092494481 0.2710569187588065 0 -0.20423548904753211 0.27098318654614012 0 -0.19734423019548331 0.28700019963902879 0 -0.20567880092494481 0.2710569187588065 0 -0.1969203713000309 0.27664541708541129 0 -0.20567880092494481 0.2710569187588065 0 -0.20423548904753211 0.27098318654614012 0 -0.19628042656794009 0.25891871677109879 0 -0.20567880092494481 0.2710569187588065 0 -0.20423548904753211 0.27098318654614012 0 -0.1969203713000309 0.27664541708541129 0 -0.20423548904753211 0.27098318654614012 0 -0.1969203713000309 0.27664541708541129 0 -0.19427523885630271 0.26835085841611928 0 -0.20423548904753211 0.27098318654614012 0 -0.19427523885630271 0.26835085841611928 0 -0.19628042656794009 0.25891871677109879 0 -0.19427523885630271 0.26835085841611928 0 -0.18361590411376719 0.26220936795776728 0 -0.18675575857947871 0.27404490781965513 0 -0.1969203713000309 0.27664541708541129 0 -0.19427523885630271 0.26835085841611928 0 -0.18675575857947871 0.27404490781965513 0 -0.1896247381081913 0.28174231935058719 0 -0.1969203713000309 0.27664541708541129 0 -0.18675575857947871 0.27404490781965513 0 -0.20567880092494481 0.2710569187588065 0 -0.19628042656794009 0.25891871677109879 0 -0.207166788805945 0.24539421405391901 0 -0.19427523885630271 0.26835085841611928 0 -0.19628042656794009 0.25891871677109879 0 -0.18361590411376719 0.26220936795776728 0 -0.19628042656794009 0.25891871677109879 0 -0.19354405793523019 0.24535322686402061 0 -0.18323044690438359 0.24992529319367501 0 -0.19628042656794009 0.25891871677109879 0 -0.18361590411376719 0.26220936795776728 0 -0.18323044690438359 0.24992529319367501 0 -0.18361590411376719 0.26220936795776728 0 -0.17221168326327271 0.25819498994622198 0 -0.17070736460313751 0.27119982073985899 0 -0.18361590411376719 0.26220936795776728 0 -0.17221168326327271 0.25819498994622198 0 -0.18323044690438359 0.24992529319367501 0 -0.17221168326327271 0.25819498994622198 0 -0.1604121232400475 0.24882297611887791 0 -0.16714373723180939 0.24389921076693449 0 -0.17221168326327271 0.25819498994622198 0 -0.15733785840470951 0.26043670846148442 0 -0.17070736460313751 0.27119982073985899 0 -0.17221168326327271 0.25819498994622198 0 -0.15733785840470951 0.26043670846148442 0 -0.1604121232400475 0.24882297611887791 0 -0.17070736460313751 0.27119982073985899 0 -0.16381817432103801 0.28606608003159428 0 -0.15165669416691829 0.27475714607895191 0 -0.15733785840470951 0.26043670846148442 0 -0.17070736460313751 0.27119982073985899 0 -0.15165669416691829 0.27475714607895191 0 -0.17070736460313751 0.27119982073985899 0 -0.1800562830753118 0.28450557870871451 0 -0.16381817432103801 0.28606608003159428 0 -0.18361590411376719 0.26220936795776728 0 -0.17070736460313751 0.27119982073985899 0 -0.18675575857947871 0.27404490781965513 0 -0.17070736460313751 0.27119982073985899 0 -0.18675575857947871 0.27404490781965513 0 -0.1800562830753118 0.28450557870871451 0 -0.1896247381081913 0.28174231935058719 0 -0.18675575857947871 0.27404490781965513 0 -0.1800562830753118 0.28450557870871451 0 -0.18900670575295 0.29637100675225958 0 -0.1800562830753118 0.28450557870871451 0 -0.17276905974355281 0.29877747763716078 0 -0.1800562830753118 0.28450557870871451 0 -0.17276905974355281 0.29877747763716078 0 -0.16381817432103801 0.28606608003159428 0 -0.1896247381081913 0.28174231935058719 0 -0.18900670575295 0.29637100675225958 0 -0.1800562830753118 0.28450557870871451 0 -0.1637952159011177 0.31596552193540928 0 -0.18052202139302909 0.3106363917488133 0 -0.17276905974355281 0.29877747763716078 0 -0.18900670575295 0.29637100675225958 0 -0.18052202139302909 0.3106363917488133 0 -0.17276905974355281 0.29877747763716078 0 -0.1637952159011177 0.31596552193540928 0 -0.17276905974355281 0.29877747763716078 0 -0.15941595801787051 0.29912028664617452 0 -0.1637952159011177 0.31596552193540928 0 -0.15941595801787051 0.29912028664617452 0 -0.14665957854107939 0.3073778773056014 0 -0.15941595801787051 0.29912028664617452 0 -0.16381817432103801 0.28606608003159428 0 -0.14720347338207021 0.29013710411651589 0 -0.17276905974355281 0.29877747763716078 0 -0.15941595801787051 0.29912028664617452 0 -0.16381817432103801 0.28606608003159428 0 -0.16381817432103801 0.28606608003159428 0 -0.14720347338207021 0.29013710411651589 0 -0.15165669416691829 0.27475714607895191 0 -0.14720347338207021 0.29013710411651589 0 -0.14665957854107939 0.3073778773056014 0 -0.13338495156930799 0.29774094916589777 0 -0.15941595801787051 0.29912028664617452 0 -0.14720347338207021 0.29013710411651589 0 -0.14665957854107939 0.3073778773056014 0 -0.1278360377772465 0.31560376677006419 0 -0.13338495156930799 0.29774094916589777 0 -0.11504710197413701 0.29860534987934628 0 -0.1278360377772465 0.31560376677006419 0 -0.14665957854107939 0.3073778773056014 0 -0.13338495156930799 0.29774094916589777 0 -0.13338495156930799 0.29774094916589777 0 -0.12828548367620701 0.27576028547087622 0 -0.11504710197413701 0.29860534987934628 0 -0.14720347338207021 0.29013710411651589 0 -0.13338495156930799 0.29774094916589777 0 -0.12828548367620701 0.27576028547087622 0 -0.12828548367620701 0.27576028547087622 0 -0.14057597760833451 0.2595852381562147 0 -0.15165669416691829 0.27475714607895191 0 -0.14057597760833451 0.2595852381562147 0 -0.1230919246696725 0.25268263208805719 0 -0.13603747276117739 0.23906220223414301 0 -0.12828548367620701 0.27576028547087622 0 -0.14057597760833451 0.2595852381562147 0 -0.1230919246696725 0.25268263208805719 0 -0.15733785840470951 0.26043670846148442 0 -0.14057597760833451 0.2595852381562147 0 -0.14947536152884949 0.24666552624664281 0 -0.15733785840470951 0.26043670846148442 0 -0.14057597760833451 0.2595852381562147 0 -0.15165669416691829 0.27475714607895191 0 -0.15733785840470951 0.26043670846148442 0 -0.1604121232400475 0.24882297611887791 0 -0.14947536152884949 0.24666552624664281 0 -0.14720347338207021 0.29013710411651589 0 -0.12828548367620701 0.27576028547087622 0 -0.15165669416691829 0.27475714607895191 0 -0.1062614378512178 0.28103931874055049 0 -0.10494843545882129 0.26132747574465243 0 -0.086649351274337871 0.27419118569370637 0 -0.10494843545882129 0.26132747574465243 0 -0.088750902751745797 0.25373427230794993 0 -0.10606753491286119 0.24419388851310331 0 -0.10494843545882129 0.26132747574465243 0 -0.1230919246696725 0.25268263208805719 0 -0.10606753491286119 0.24419388851310331 0 -0.12828548367620701 0.27576028547087622 0 -0.10494843545882129 0.26132747574465243 0 -0.1230919246696725 0.25268263208805719 0 -0.12828548367620701 0.27576028547087622 0 -0.1062614378512178 0.28103931874055049 0 -0.10494843545882129 0.26132747574465243 0 -0.12828548367620701 0.27576028547087622 0 -0.1062614378512178 0.28103931874055049 0 -0.11504710197413701 0.29860534987934628 0 -0.1278360377772465 0.31560376677006419 0 -0.11504710197413701 0.29860534987934628 0 -0.1099536999557332 0.31527029530843292 0 -0.11504710197413701 0.29860534987934628 0 -0.085881137751900954 0.30738471452376481 0 -0.1099536999557332 0.31527029530843292 0 -0.1062614378512178 0.28103931874055049 0 -0.11504710197413701 0.29860534987934628 0 -0.085881137751900954 0.30738471452376481 0 -0.085881137751900954 0.30738471452376481 0 -0.069520120125754412 0.28594364528243571 0 -0.086649351274337871 0.27419118569370637 0 -0.1062614378512178 0.28103931874055049 0 -0.085881137751900954 0.30738471452376481 0 -0.086649351274337871 0.27419118569370637 0 -0.085881137751900954 0.30738471452376481 0 -0.066879086570641941 0.30737578382677561 0 -0.084560620974345441 0.31810078379593398 0 -0.085881137751900954 0.30738471452376481 0 -0.066879086570641941 0.30737578382677561 0 -0.069520120125754412 0.28594364528243571 0 -0.085881137751900954 0.30738471452376481 0 -0.069520120125754412 0.28594364528243571 0 -0.069520120125754412 0.28594364528243571 0 -0.086649351274337871 0.27419118569370637 0 -0.071501712983172483 0.26190280120660397 0 -0.069520120125754412 0.28594364528243571 0 -0.071501712983172483 0.26190280120660397 0 -0.053159102499607903 0.26450257604110661 0 -0.086649351274337871 0.27419118569370637 0 -0.088750902751745797 0.25373427230794993 0 -0.071501712983172483 0.26190280120660397 0 -0.10494843545882129 0.26132747574465243 0 -0.086649351274337871 0.27419118569370637 0 -0.088750902751745797 0.25373427230794993 0 -0.071501712983172483 0.26190280120660397 0 -0.072402403370984733 0.24307516658186251 0 -0.058133126017242333 0.24942309207664951 0 -0.088750902751745797 0.25373427230794993 0 -0.071501712983172483 0.26190280120660397 0 -0.072402403370984733 0.24307516658186251 0 -0.053159102499607903 0.26450257604110661 0 -0.036798084873461312 0.24306150679977731 0 -0.058133126017242333 0.24942309207664951 0 -0.071501712983172483 0.26190280120660397 0 -0.053159102499607903 0.26450257604110661 0 -0.058133126017242333 0.24942309207664951 0 -0.069520120125754412 0.28594364528243571 0 -0.053159102499607903 0.26450257604110661 0 -0.053159102499607903 0.26450257604110661 0 -0.03679645826924044 0.27679908373578882 0 -0.022882560889335081 0.26280583991096162 0 -0.053159102499607903 0.26450257604110661 0 -0.03679645826924044 0.27679908373578882 0 -0.046415103691227408 0.29397526034317129 0 -0.053159102499607903 0.26450257604110661 0 -0.036798084873461312 0.24306150679977731 0 -0.053159102499607903 0.26450257604110661 0 -0.022882560889335081 0.26280583991096162 0 -0.036798084873461312 0.24306150679977731 0 -0.03679645826924044 0.27679908373578882 0 -0.022882560889335081 0.26280583991096162 0 -0.02223542200319013 0.28619439559009519 0 -0.022882560889335081 0.26280583991096162 0 -0.001578176680146459 0.27507181497635702 0 -0.02223542200319013 0.28619439559009519 0 -0.022882560889335081 0.26280583991096162 0 -0.010663072791586219 0.24029389619086081 0 0.00052355941179598429 0.25579479798048171 0 -0.022882560889335081 0.26280583991096162 0 -0.001578176680146459 0.27507181497635702 0 0.00052355941179598429 0.25579479798048171 0 -0.0056734005591082184 0.29844779389953791 0 -0.0074649973427216437 0.32553759514413338 0 0.0099458108876561181 0.30752992596193612 0 -0.0056734005591082184 0.29844779389953791 0 -0.021982776728677069 0.30782204483811959 0 -0.0074649973427216437 0.32553759514413338 0 -0.001578176680146459 0.27507181497635702 0 -0.0056734005591082184 0.29844779389953791 0 -0.02223542200319013 0.28619439559009519 0 -0.02223542200319013 0.28619439559009519 0 -0.021982776728677069 0.30782204483811959 0 -0.046415103691227408 0.29397526034317129 0 -0.0056734005591082184 0.29844779389953791 0 -0.02223542200319013 0.28619439559009519 0 -0.021982776728677069 0.30782204483811959 0 -0.046415103691227408 0.29397526034317129 0 -0.052219224461103511 0.30984454005180639 0 -0.039958988653569567 0.31642450729501942 0 -0.021982776728677069 0.30782204483811959 0 -0.046415103691227408 0.29397526034317129 0 -0.039958988653569567 0.31642450729501942 0 -0.03679645826924044 0.27679908373578882 0 -0.02223542200319013 0.28619439559009519 0 -0.046415103691227408 0.29397526034317129 0 -0.066879086570641941 0.30737578382677561 0 -0.069520120125754412 0.28594364528243571 0 -0.046415103691227408 0.29397526034317129 0 -0.069520120125754412 0.28594364528243571 0 -0.053159102499607903 0.26450257604110661 0 -0.046415103691227408 0.29397526034317129 0 -0.066879086570641941 0.30737578382677561 0 -0.046415103691227408 0.29397526034317129 0 -0.052219224461103511 0.30984454005180639 0 -0.055623718928975108 0.32160260874225921 0 -0.061845397890605149 0.33750194797183708 0 -0.069701264825157844 0.32271656777136809 0 -0.052219224461103511 0.30984454005180639 0 -0.055623718928975108 0.32160260874225921 0 -0.039958988653569567 0.31642450729501942 0 -0.066879086570641941 0.30737578382677561 0 -0.052219224461103511 0.30984454005180639 0 -0.055623718928975108 0.32160260874225921 0 -0.061845397890605149 0.33750194797183708 0 -0.043251526853985672 0.3379866768910002 0 -0.05608517096511198 0.352250194069472 0 -0.055623718928975108 0.32160260874225921 0 -0.061845397890605149 0.33750194797183708 0 -0.043251526853985672 0.3379866768910002 0 -0.043251526853985672 0.3379866768910002 0 -0.027506819030410669 0.32626321769892058 0 -0.024875805573099381 0.34354526432633081 0 -0.043251526853985672 0.3379866768910002 0 -0.039958988653569567 0.31642450729501942 0 -0.027506819030410669 0.32626321769892058 0 -0.055623718928975108 0.32160260874225921 0 -0.043251526853985672 0.3379866768910002 0 -0.039958988653569567 0.31642450729501942 0 -0.021982776728677069 0.30782204483811959 0 -0.027506819030410669 0.32626321769892058 0 -0.0074649973427216437 0.32553759514413338 0 -0.021982776728677069 0.30782204483811959 0 -0.039958988653569567 0.31642450729501942 0 -0.027506819030410669 0.32626321769892058 0 -0.024875805573099381 0.34354526432633081 0 -0.0074649973427216437 0.32553759514413338 0 -0.01924571403845805 0.34496305818094042 0 -0.027506819030410669 0.32626321769892058 0 -0.024875805573099381 0.34354526432633081 0 -0.0074649973427216437 0.32553759514413338 0 -0.024875805573099381 0.34354526432633081 0 -0.0074649973427216437 0.32553759514413338 0 -0.0027275111302669762 0.33917893461267751 0 -0.0074649973427216437 0.32553759514413338 0 -0.01924571403845805 0.34496305818094042 0 -0.01062872298156819 0.37022538710606068 0 -0.0031907760215338348 0.38094285235515429 0 0.013550997673091951 0.36700894749171747 0 -0.01062872298156819 0.37022538710606068 0 -0.018270474300810299 0.35525003435254199 0 -0.01604549236614955 0.37871948013141421 0 -0.008160548181576105 0.35967708751988442 0 -0.01062872298156819 0.37022538710606068 0 -0.018270474300810299 0.35525003435254199 0 -0.008160548181576105 0.35967708751988442 0 -0.01062872298156819 0.37022538710606068 0 0.0017598356757351249 0.35970487886607511 0 -0.008160548181576105 0.35967708751988442 0 -0.002301468281773961 0.35105905958958589 0 -0.018270474300810299 0.35525003435254199 0 -0.002301468281773961 0.35105905958958589 0 -0.018270474300810299 0.35525003435254199 0 -0.01924571403845805 0.34496305818094042 0 -0.0027275111302669762 0.33917893461267751 0 -0.002301468281773961 0.35105905958958589 0 -0.01924571403845805 0.34496305818094042 0 -0.002301468281773961 0.35105905958958589 0 -0.018270474300810299 0.35525003435254199 0 -0.008160548181576105 0.35967708751988442 0 -0.002301468281773961 0.35105905958958589 0 0.0017598356757351249 0.35970487886607511 0 -0.018270474300810299 0.35525003435254199 0 -0.042286613803477272 0.36155293350852802 0 -0.024875805573099381 0.34354526432633081 0 -0.018270474300810299 0.35525003435254199 0 -0.042286613803477272 0.36155293350852802 0 -0.024875805573099381 0.34354526432633081 0 -0.018270474300810299 0.35525003435254199 0 -0.01924571403845805 0.34496305818094042 0 -0.018270474300810299 0.35525003435254199 0 -0.01924571403845805 0.34496305818094042 0 -0.018270474300810299 0.35525003435254199 0 -0.0277620766285024 0.36799006074327018 0 -0.01604549236614955 0.37871948013141421 0 -0.018270474300810299 0.35525003435254199 0 -0.01604549236614955 0.37871948013141421 0 -0.018270474300810299 0.35525003435254199 0 -0.0277620766285024 0.36799006074327018 0 -0.042286613803477272 0.36155293350852802 0 -0.042286613803477272 0.36155293350852802 0 -0.057005834630637103 0.37677674481975382 0 -0.038834021818545242 0.38141551184696021 0 -0.0277620766285024 0.36799006074327018 0 -0.042286613803477272 0.36155293350852802 0 -0.038834021818545242 0.38141551184696021 0 -0.024875805573099381 0.34354526432633081 0 -0.042286613803477272 0.36155293350852802 0 -0.043251526853985672 0.3379866768910002 0 -0.024875805573099381 0.34354526432633081 0 -0.042286613803477272 0.36155293350852802 0 -0.043251526853985672 0.3379866768910002 0 -0.042286613803477272 0.36155293350852802 0 -0.05608517096511198 0.352250194069472 0 -0.042286613803477272 0.36155293350852802 0 -0.05608517096511198 0.352250194069472 0 -0.063875325828084584 0.3672187681354297 0 -0.042286613803477272 0.36155293350852802 0 -0.063875325828084584 0.3672187681354297 0 -0.042286613803477272 0.36155293350852802 0 -0.063875325828084584 0.3672187681354297 0 -0.057005834630637103 0.37677674481975382 0 -0.042286613803477272 0.36155293350852802 0 -0.057005834630637103 0.37677674481975382 0 -0.063875325828084584 0.3672187681354297 0 -0.070249048424013347 0.37585332165042168 0 -0.057005834630637103 0.37677674481975382 0 -0.063875325828084584 0.3672187681354297 0 -0.078875066177914122 0.36511765988308542 0 -0.069878272846954165 0.35224087942530841 0 -0.063875325828084584 0.3672187681354297 0 -0.078875066177914122 0.36511765988308542 0 -0.070249048424013347 0.37585332165042168 0 -0.078875066177914122 0.36511765988308542 0 -0.0830487327496406 0.37814083421040579 0 -0.070249048424013347 0.37585332165042168 0 -0.078875066177914122 0.36511765988308542 0 -0.085711382744759812 0.34979998096900722 0 -0.10048763447403231 0.3674521749079398 0 -0.078875066177914122 0.36511765988308542 0 -0.10048763447403231 0.3674521749079398 0 -0.0830487327496406 0.37814083421040579 0 -0.078875066177914122 0.36511765988308542 0 -0.085711382744759812 0.34979998096900722 0 -0.069878272846954165 0.35224087942530841 0 -0.085711382744759812 0.34979998096900722 0 -0.089983008597934622 0.33572965188636877 0 -0.10042789303650621 0.34671714457043451 0 -0.085711382744759812 0.34979998096900722 0 -0.069878272846954165 0.35224087942530841 0 -0.076972990856014098 0.33520456633137458 0 -0.05608517096511198 0.352250194069472 0 -0.063875325828084584 0.3672187681354297 0 -0.069878272846954165 0.35224087942530841 0 -0.061845397890605149 0.33750194797183708 0 -0.05608517096511198 0.352250194069472 0 -0.069878272846954165 0.35224087942530841 0 -0.061845397890605149 0.33750194797183708 0 -0.069878272846954165 0.35224087942530841 0 -0.076972990856014098 0.33520456633137458 0 -0.061845397890605149 0.33750194797183708 0 -0.076972990856014098 0.33520456633137458 0 -0.069701264825157844 0.32271656777136809 0 -0.066879086570641941 0.30737578382677561 0 -0.069701264825157844 0.32271656777136809 0 -0.084560620974345441 0.31810078379593398 0 -0.076972990856014098 0.33520456633137458 0 -0.069701264825157844 0.32271656777136809 0 -0.084560620974345441 0.31810078379593398 0 -0.066879086570641941 0.30737578382677561 0 -0.084560620974345441 0.31810078379593398 0 -0.066879086570641941 0.30737578382677561 0 -0.055623718928975108 0.32160260874225921 0 -0.069701264825157844 0.32271656777136809 0 -0.084560620974345441 0.31810078379593398 0 -0.089983008597934622 0.33572965188636877 0 -0.1022421553780483 0.3288257837650933 0 -0.084560620974345441 0.31810078379593398 0 -0.1022421553780483 0.3288257837650933 0 -0.085881137751900954 0.30738471452376481 0 -0.084560620974345441 0.31810078379593398 0 -0.1022421553780483 0.3288257837650933 0 -0.076972990856014098 0.33520456633137458 0 -0.084560620974345441 0.31810078379593398 0 -0.089983008597934622 0.33572965188636877 0 -0.085711382744759812 0.34979998096900722 0 -0.076972990856014098 0.33520456633137458 0 -0.089983008597934622 0.33572965188636877 0 -0.1022421553780483 0.3288257837650933 0 -0.1199591755887908 0.35204389071716408 0 -0.10042789303650621 0.34671714457043451 0 -0.089983008597934622 0.33572965188636877 0 -0.1022421553780483 0.3288257837650933 0 -0.10042789303650621 0.34671714457043451 0 -0.085881137751900954 0.30738471452376481 0 -0.1022421553780483 0.3288257837650933 0 -0.1099536999557332 0.31527029530843292 0 -0.085881137751900954 0.30738471452376481 0 -0.1022421553780483 0.3288257837650933 0 -0.1022421553780483 0.3288257837650933 0 -0.1099536999557332 0.31527029530843292 0 -0.118762066897334 0.32593186160389498 0 -0.1278360377772465 0.31560376677006419 0 -0.1099536999557332 0.31527029530843292 0 -0.118762066897334 0.32593186160389498 0 -0.1022421553780483 0.3288257837650933 0 -0.1226434368259746 0.34120048710837031 0 -0.1022421553780483 0.3288257837650933 0 -0.118762066897334 0.32593186160389498 0 -0.1226434368259746 0.34120048710837031 0 -0.1022421553780483 0.3288257837650933 0 -0.1226434368259746 0.34120048710837031 0 -0.1199591755887908 0.35204389071716408 0 -0.1022421553780483 0.3288257837650933 0 -0.1199591755887908 0.35204389071716408 0 -0.13245514128645941 0.32992620577102161 0 -0.118762066897334 0.32593186160389498 0 -0.1226434368259746 0.34120048710837031 0 -0.13767619579953419 0.37526199766923429 0 -0.1199591755887908 0.35204389071716408 0 -0.1172731310204301 0.37997009596775111 0 -0.1199591755887908 0.35204389071716408 0 -0.10048763447403231 0.3674521749079398 0 -0.1172731310204301 0.37997009596775111 0 -0.085711382744759812 0.34979998096900722 0 -0.10048763447403231 0.3674521749079398 0 -0.10042789303650621 0.34671714457043451 0 -0.1199591755887908 0.35204389071716408 0 -0.10048763447403231 0.3674521749079398 0 -0.10042789303650621 0.34671714457043451 0 -0.10010016723977171 0.39195093721354879 0 -0.099712700005512495 0.416449699519158 0 -0.1275529580078951 0.40746490207023051 0 -0.10010016723977171 0.39195093721354879 0 -0.099712700005512495 0.416449699519158 0 -0.10010016723977171 0.39195093721354879 0 -0.099712700005512495 0.416449699519158 0 -0.087353620443009955 0.40543611054325762 0 -0.10048763447403231 0.3674521749079398 0 -0.10010016723977171 0.39195093721354879 0 -0.10048763447403231 0.3674521749079398 0 -0.10010016723977171 0.39195093721354879 0 -0.0830487327496406 0.37814083421040579 0 -0.10048763447403231 0.3674521749079398 0 -0.10010016723977171 0.39195093721354879 0 -0.1172731310204301 0.37997009596775111 0 -0.1275529580078951 0.40746490207023051 0 -0.10010016723977171 0.39195093721354879 0 -0.1172731310204301 0.37997009596775111 0 -0.1275529580078951 0.40746490207023051 0 -0.099712700005512495 0.416449699519158 0 -0.1275529580078951 0.40746490207023051 0 -0.11576362909944179 0.42707853232459431 0 -0.099712700005512495 0.416449699519158 0 -0.11576362909944179 0.42707853232459431 0 -0.099421083367553148 0.43488802427538892 0 -0.1201918169322794 0.44443799824850971 0 -0.13212812499831089 0.43138243712523361 0 -0.11576362909944179 0.42707853232459431 0 -0.1201918169322794 0.44443799824850971 0 -0.11576362909944179 0.42707853232459431 0 -0.099421083367553148 0.43488802427538892 0 -0.099712700005512495 0.416449699519158 0 -0.099421083367553148 0.43488802427538892 0 -0.096398093368643162 0.41751941192097991 0 -0.08957318630845558 0.42775585234421493 0 -0.099421083367553148 0.43488802427538892 0 -0.099712700005512495 0.416449699519158 0 -0.096398093368643162 0.41751941192097991 0 -0.099421083367553148 0.43488802427538892 0 -0.099712700005512495 0.416449699519158 0 -0.099712700005512495 0.416449699519158 0 -0.096398093368643162 0.41751941192097991 0 -0.099712700005512495 0.416449699519158 0 -0.096398093368643162 0.41751941192097991 0 -0.087353620443009955 0.40543611054325762 0 -0.096398093368643162 0.41751941192097991 0 -0.086444276284957822 0.40722436744220403 0 -0.078227131484671003 0.4233836683501343 0 -0.096398093368643162 0.41751941192097991 0 -0.086444276284957822 0.40722436744220403 0 -0.087353620443009955 0.40543611054325762 0 -0.096398093368643162 0.41751941192097991 0 -0.086444276284957822 0.40722436744220403 0 -0.096398093368643162 0.41751941192097991 0 -0.078227131484671003 0.4233836683501343 0 -0.086444276284957822 0.40722436744220403 0 -0.078227131484671003 0.4233836683501343 0 -0.086444276284957822 0.40722436744220403 0 -0.087353620443009955 0.40543611054325762 0 -0.096398093368643162 0.41751941192097991 0 -0.08957318630845558 0.42775585234421493 0 -0.078227131484671003 0.4233836683501343 0 -0.099421083367553148 0.43488802427538892 0 -0.08957318630845558 0.42775585234421493 0 -0.090475946192242251 0.44396801833255889 0 -0.08957318630845558 0.42775585234421493 0 -0.078227131484671003 0.4233836683501343 0 -0.077769653089370547 0.44497394414856017 0 -0.078227131484671003 0.4233836683501343 0 -0.064504317643521616 0.45037005882421222 0 -0.078227131484671003 0.4233836683501343 0 -0.063756609306514667 0.42805369370477753 0 -0.064504317643521616 0.45037005882421222 0 -0.078227131484671003 0.4233836683501343 0 -0.063756609306514667 0.42805369370477753 0 -0.078227131484671003 0.4233836683501343 0 -0.063756609306514667 0.42805369370477753 0 -0.063749441227582887 0.40879497138454568 0 -0.086444276284957822 0.40722436744220403 0 -0.078227131484671003 0.4233836683501343 0 -0.063749441227582887 0.40879497138454568 0 -0.086444276284957822 0.40722436744220403 0 -0.063749441227582887 0.40879497138454568 0 -0.071725055457797005 0.39200055613097928 0 -0.063749441227582887 0.40879497138454568 0 -0.071725055457797005 0.39200055613097928 0 -0.054987682020503241 0.3924848305009534 0 -0.071725055457797005 0.39200055613097928 0 -0.085556893972554823 0.39188210952454777 0 -0.087353620443009955 0.40543611054325762 0 -0.086444276284957822 0.40722436744220403 0 -0.071725055457797005 0.39200055613097928 0 -0.086444276284957822 0.40722436744220403 0 -0.071725055457797005 0.39200055613097928 0 -0.087353620443009955 0.40543611054325762 0 -0.10010016723977171 0.39195093721354879 0 -0.085556893972554823 0.39188210952454777 0 -0.087353620443009955 0.40543611054325762 0 -0.10010016723977171 0.39195093721354879 0 -0.085556893972554823 0.39188210952454777 0 -0.0830487327496406 0.37814083421040579 0 -0.071725055457797005 0.39200055613097928 0 -0.085556893972554823 0.39188210952454777 0 -0.0830487327496406 0.37814083421040579 0 -0.071725055457797005 0.39200055613097928 0 -0.0830487327496406 0.37814083421040579 0 -0.070249048424013347 0.37585332165042168 0 -0.071725055457797005 0.39200055613097928 0 -0.070249048424013347 0.37585332165042168 0 -0.057005834630637103 0.37677674481975382 0 -0.071725055457797005 0.39200055613097928 0 -0.057005834630637103 0.37677674481975382 0 -0.071725055457797005 0.39200055613097928 0 -0.057005834630637103 0.37677674481975382 0 -0.054987682020503241 0.3924848305009534 0 -0.057005834630637103 0.37677674481975382 0 -0.054987682020503241 0.3924848305009534 0 -0.038834021818545242 0.38141551184696021 0 -0.063749441227582887 0.40879497138454568 0 -0.054987682020503241 0.3924848305009534 0 -0.04362405696795392 0.40343636832252788 0 -0.04362405696795392 0.40343636832252788 0 -0.025531428093057099 0.39147860944481039 0 -0.026094894258113319 0.40880749566774061 0 -0.04362405696795392 0.40343636832252788 0 -0.038834021818545242 0.38141551184696021 0 -0.025531428093057099 0.39147860944481039 0 -0.054987682020503241 0.3924848305009534 0 -0.04362405696795392 0.40343636832252788 0 -0.038834021818545242 0.38141551184696021 0 -0.0277620766285024 0.36799006074327018 0 -0.027043254726563569 0.3799009155416137 0 -0.01604549236614955 0.37871948013141421 0 -0.0277620766285024 0.36799006074327018 0 -0.038834021818545242 0.38141551184696021 0 -0.027043254726563569 0.3799009155416137 0 -0.027043254726563569 0.3799009155416137 0 -0.01604549236614955 0.37871948013141421 0 -0.025531428093057099 0.39147860944481039 0 -0.038834021818545242 0.38141551184696021 0 -0.027043254726563569 0.3799009155416137 0 -0.025531428093057099 0.39147860944481039 0 -0.025531428093057099 0.39147860944481039 0 -0.01382051043148803 0.4021889259102861 0 -0.026094894258113319 0.40880749566774061 0 -0.01604549236614955 0.37871948013141421 0 -0.025531428093057099 0.39147860944481039 0 -0.01382051043148803 0.4021889259102861 0 -0.01382051043148803 0.4021889259102861 0 -0.0033560911855174251 0.4100707043998737 0 0.003049774445861032 0.39239897064232809 0 -0.01382051043148803 0.4021889259102861 0 -0.0031907760215338348 0.38094285235515429 0 0.003049774445861032 0.39239897064232809 0 -0.01604549236614955 0.37871948013141421 0 -0.01382051043148803 0.4021889259102861 0 -0.01604549236614955 0.37871948013141421 0 -0.01382051043148803 0.4021889259102861 0 -0.0031907760215338348 0.38094285235515429 0 -0.01062872298156819 0.37022538710606068 0 -0.01604549236614955 0.37871948013141421 0 -0.0031907760215338348 0.38094285235515429 0 -0.01159552849682652 0.42565837168915799 0 0.0089418997403838164 0.42003654935772261 0 0.00070246242907472112 0.4356242166470069 0 -0.01159552849682652 0.42565837168915799 0 -0.0093705465621650112 0.44912781746802999 0 0.00070246242907472112 0.4356242166470069 0 -0.01159552849682652 0.42565837168915799 0 -0.0093705465621650112 0.44912781746802999 0 -0.01382051043148803 0.4021889259102861 0 -0.01159552849682652 0.42565837168915799 0 -0.01382051043148803 0.4021889259102861 0 -0.01159552849682652 0.42565837168915799 0 -0.0033560911855174251 0.4100707043998737 0 -0.01159552849682652 0.42565837168915799 0 -0.0033560911855174251 0.4100707043998737 0 0.0089418997403838164 0.42003654935772261 0 -0.01382051043148803 0.4021889259102861 0 -0.01159552849682652 0.42565837168915799 0 -0.026094894258113319 0.40880749566774061 0 -0.01159552849682652 0.42565837168915799 0 -0.026094894258113319 0.40880749566774061 0 -0.035902947301240988 0.42127520297192028 0 -0.01159552849682652 0.42565837168915799 0 -0.035902947301240988 0.42127520297192028 0 -0.029970511433193611 0.44248839874102891 0 -0.035902947301240988 0.42127520297192028 0 -0.049286087128358518 0.43272371905942142 0 -0.029970511433193611 0.44248839874102891 0 -0.035902947301240988 0.42127520297192028 0 -0.051263828386330187 0.4188567910886386 0 -0.049286087128358518 0.43272371905942142 0 -0.04362405696795392 0.40343636832252788 0 -0.026094894258113319 0.40880749566774061 0 -0.035902947301240988 0.42127520297192028 0 -0.04362405696795392 0.40343636832252788 0 -0.035902947301240988 0.42127520297192028 0 -0.051263828386330187 0.4188567910886386 0 -0.063756609306514667 0.42805369370477753 0 -0.063749441227582887 0.40879497138454568 0 -0.051263828386330187 0.4188567910886386 0 -0.063749441227582887 0.40879497138454568 0 -0.04362405696795392 0.40343636832252788 0 -0.051263828386330187 0.4188567910886386 0 -0.063756609306514667 0.42805369370477753 0 -0.049286087128358518 0.43272371905942142 0 -0.064504317643521616 0.45037005882421222 0 -0.063756609306514667 0.42805369370477753 0 -0.051263828386330187 0.4188567910886386 0 -0.049286087128358518 0.43272371905942142 0 -0.063756609306514667 0.42805369370477753 0 -0.049286087128358518 0.43272371905942142 0 -0.049286087128358518 0.43272371905942142 0 -0.047076478351341537 0.4460178375737987 0 -0.064504317643521616 0.45037005882421222 0 -0.047076478351341537 0.4460178375737987 0 -0.044544997200293937 0.45848917367053299 0 -0.064504317643521616 0.45037005882421222 0 -0.051885689665895421 0.47518502941210389 0 -0.064504317643521616 0.45037005882421222 0 -0.044544997200293937 0.45848917367053299 0 -0.064504317643521616 0.45037005882421222 0 -0.044544997200293937 0.45848917367053299 0 -0.051885689665895421 0.47518502941210389 0 -0.064504317643521616 0.45037005882421222 0 -0.044544997200293937 0.45848917367053299 0 -0.029970511433193611 0.44248839874102891 0 -0.024585676757065411 0.46660828851685199 0 -0.044544997200293937 0.45848917367053299 0 -0.024585676757065411 0.46660828851685199 0 -0.044544997200293937 0.45848917367053299 0 -0.024585676757065411 0.46660828851685199 0 -0.037267747307899619 0.47716478213706442 0 -0.049286087128358518 0.43272371905942142 0 -0.047076478351341537 0.4460178375737987 0 -0.029970511433193611 0.44248839874102891 0 -0.047076478351341537 0.4460178375737987 0 -0.044544997200293937 0.45848917367053299 0 -0.029970511433193611 0.44248839874102891 0 -0.01159552849682652 0.42565837168915799 0 -0.029970511433193611 0.44248839874102891 0 -0.0093705465621650112 0.44912781746802999 0 -0.029970511433193611 0.44248839874102891 0 -0.024585676757065411 0.46660828851685199 0 -0.0093705465621650112 0.44912781746802999 0 -0.0093705465621650112 0.44912781746802999 0 -0.0046263563138369129 0.47472740336317082 0 0.0070915896478249809 0.46407540904328187 0 -0.024585676757065411 0.46660828851685199 0 -0.0093705465621650112 0.44912781746802999 0 -0.0046263563138369129 0.47472740336317082 0 -0.01350573409862321 0.5 0 0.00047754122158997348 0.49529221912806559 0 0.01225559349102562 0.5 0 -0.01009796097326706 0.48700114416249618 0 -0.01350573409862321 0.5 0 0.00047754122158997348 0.49529221912806559 0 -0.01009796097326706 0.48700114416249618 0 -0.0015562876768971451 0.48331675208623398 0 0.00047754122158997348 0.49529221912806559 0 -0.024585676757065411 0.46660828851685199 0 -0.0046263563138369129 0.47472740336317082 0 -0.024585676757065411 0.46660828851685199 0 -0.01009796097326706 0.48700114416249618 0 -0.0046263563138369129 0.47472740336317082 0 -0.01009796097326706 0.48700114416249618 0 -0.0015562876768971451 0.48331675208623398 0 -0.0046263563138369129 0.47472740336317082 0 -0.024585676757065411 0.46660828851685199 0 -0.026055311227972531 0.48554141908583681 0 -0.037267747307899619 0.47716478213706442 0 -0.024585676757065411 0.46660828851685199 0 -0.01009796097326706 0.48700114416249618 0 -0.026055311227972531 0.48554141908583681 0 -0.01350573409862321 0.5 0 -0.026055311227972531 0.48554141908583681 0 -0.039267061688272098 0.49999999999999678 0 -0.01009796097326706 0.48700114416249618 0 -0.01350573409862321 0.5 0 -0.026055311227972531 0.48554141908583681 0 -0.026055311227972531 0.48554141908583681 0 -0.039267061688272098 0.49999999999999678 0 -0.037267747307899619 0.47716478213706442 0 -0.039267061688272098 0.49999999999999678 0 -0.051885689665895421 0.47518502941210389 0 -0.044544997200293937 0.45848917367053299 0 -0.037267747307899619 0.47716478213706442 0 -0.051885689665895421 0.47518502941210389 0 -0.039267061688272098 0.49999999999999678 0 -0.037267747307899619 0.47716478213706442 0 -0.051885689665895421 0.47518502941210389 0 -0.039267061688272098 0.49999999999999678 0 -0.051885689665895421 0.47518502941210389 0 -0.068534624895757124 0.5 0 -0.068534624895757124 0.5 0 -0.077220729602397439 0.47511960580051033 0 -0.097802188103242149 0.5 0 -0.077220729602397439 0.47511960580051033 0 -0.097802188103242149 0.5 0 -0.098291184186041172 0.47143493316397689 0 -0.051885689665895421 0.47518502941210389 0 -0.068534624895757124 0.5 0 -0.077220729602397439 0.47511960580051033 0 -0.077220729602397439 0.47511960580051033 0 -0.064504317643521616 0.45037005882421222 0 -0.085109250217748331 0.45693127400045769 0 -0.051885689665895421 0.47518502941210389 0 -0.077220729602397439 0.47511960580051033 0 -0.064504317643521616 0.45037005882421222 0 -0.064504317643521616 0.45037005882421222 0 -0.077769653089370547 0.44497394414856017 0 -0.085109250217748331 0.45693127400045769 0 -0.078227131484671003 0.4233836683501343 0 -0.064504317643521616 0.45037005882421222 0 -0.077769653089370547 0.44497394414856017 0 -0.064504317643521616 0.45037005882421222 0 -0.077769653089370547 0.44497394414856017 0 -0.08957318630845558 0.42775585234421493 0 -0.077769653089370547 0.44497394414856017 0 -0.090475946192242251 0.44396801833255889 0 -0.077769653089370547 0.44497394414856017 0 -0.090475946192242251 0.44396801833255889 0 -0.085109250217748331 0.45693127400045769 0 -0.090475946192242251 0.44396801833255889 0 -0.085109250217748331 0.45693127400045769 0 -0.09912946672959512 0.45332634903161972 0 -0.077220729602397439 0.47511960580051033 0 -0.085109250217748331 0.45693127400045769 0 -0.098291184186041172 0.47143493316397689 0 -0.09912946672959512 0.45332634903161972 0 -0.1166238092426813 0.46215407445810708 0 -0.098291184186041172 0.47143493316397689 0 -0.085109250217748331 0.45693127400045769 0 -0.09912946672959512 0.45332634903161972 0 -0.098291184186041172 0.47143493316397689 0 -0.099421083367553148 0.43488802427538892 0 -0.09912946672959512 0.45332634903161972 0 -0.1201918169322794 0.44443799824850971 0 -0.099421083367553148 0.43488802427538892 0 -0.090475946192242251 0.44396801833255889 0 -0.09912946672959512 0.45332634903161972 0 -0.099421083367553148 0.43488802427538892 0 -0.09912946672959512 0.45332634903161972 0 -0.09912946672959512 0.45332634903161972 0 -0.1201918169322794 0.44443799824850971 0 -0.1166238092426813 0.46215407445810708 0 -0.13427192322805959 0.47639302624934232 0 -0.1166238092426813 0.46215407445810708 0 -0.1138616612205828 0.48107829569316701 0 -0.1166238092426813 0.46215407445810708 0 -0.1138616612205828 0.48107829569316701 0 -0.098291184186041172 0.47143493316397689 0 -0.12706975131072731 0.500000000000002 0 -0.1138616612205828 0.48107829569316701 0 -0.097802188103242149 0.5 0 -0.1138616612205828 0.48107829569316701 0 -0.097802188103242149 0.5 0 -0.098291184186041172 0.47143493316397689 0 -0.17283812945989069 0.074649228893553354 0 -0.14064160935044259 0.075973430479098131 0 -0.15691265875611959 0.05681361801433419 0 -0.17283812945989069 0.074649228893553354 0 -0.16750824177749499 0.094329592018755404 0 -0.14064160935044259 0.075973430479098131 0 -0.17283812945989069 0.074649228893553354 0 -0.15691265875611959 0.05681361801433419 0 -0.1795503023827684 0.057266236033449318 0 -0.17283812945989069 0.074649228893553354 0 -0.1795503023827684 0.057266236033449318 0 -0.19007497771773621 0.072883278701425663 0 -0.17283812945989069 0.074649228893553354 0 -0.19291657563570491 0.091073476316207172 0 -0.19007497771773621 0.072883278701425663 0 -0.17283812945989069 0.074649228893553354 0 -0.16750824177749499 0.094329592018755404 0 -0.19291657563570491 0.091073476316207172 0 -0.1859777253151946 0.1070780892906999 0 -0.16750824177749499 0.094329592018755404 0 -0.19291657563570491 0.091073476316207172 0 -0.1859777253151946 0.1070780892906999 0 -0.17161704086758031 0.1194569527958555 0 -0.16750824177749499 0.094329592018755404 0 -0.1859777253151946 0.1070780892906999 0 -0.17161704086758031 0.1194569527958555 0 -0.19651578415892501 0.12390332723603351 0 -0.17161704086758031 0.1194569527958555 0 -0.1479646960116362 0.1001411507033555 0 -0.1552877826728298 0.12430887092761279 0 -0.17161704086758031 0.1194569527958555 0 -0.16750824177749499 0.094329592018755404 0 -0.1479646960116362 0.1001411507033555 0 -0.1479646960116362 0.1001411507033555 0 -0.1552877826728298 0.12430887092761279 0 -0.1297016798790894 0.1066375800531613 0 -0.1479646960116362 0.1001411507033555 0 -0.1552877826728298 0.12430887092761279 0 -0.1552877826728298 0.12430887092761279 0 -0.1297016798790894 0.1066375800531613 0 -0.13121897980857941 0.12587151947184211 0 -0.1479646960116362 0.1001411507033555 0 -0.1297016798790894 0.1066375800531613 0 -0.14064160935044259 0.075973430479098131 0 -0.1297016798790894 0.1066375800531613 0 -0.14064160935044259 0.075973430479098131 0 -0.1146061005291409 0.094477611441191531 0 -0.16750824177749499 0.094329592018755404 0 -0.1479646960116362 0.1001411507033555 0 -0.14064160935044259 0.075973430479098131 0 -0.1479646960116362 0.1001411507033555 0 -0.14064160935044259 0.075973430479098131 0 -0.14064160935044259 0.075973430479098131 0 -0.13331852268924901 0.051805710254840778 0 -0.11901684822623899 0.069332624134384499 0 -0.14064160935044259 0.075973430479098131 0 -0.13331852268924901 0.051805710254840778 0 -0.13331852268924901 0.051805710254840778 0 -0.12875972825011101 0.033202911982989122 0 -0.1477616223555055 0.038585030956722798 0 -0.13331852268924901 0.051805710254840778 0 -0.12875972825011101 0.033202911982989122 0 -0.1144352779592047 0.050024446948300168 0 -0.14064160935044259 0.075973430479098131 0 -0.13331852268924901 0.051805710254840778 0 -0.15691265875611959 0.05681361801433419 0 -0.13331852268924901 0.051805710254840778 0 -0.1477616223555055 0.038585030956722798 0 -0.15691265875611959 0.05681361801433419 0 -0.12749226590576249 0.01550433414524306 0 -0.14066513223612051 0.020893853292430851 0 -0.14089948435513211 0.0045028521199517741 0 -0.1222840736381321 -0.0043715844633764982 0 -0.12749226590576249 0.01550433414524306 0 -0.14089948435513211 0.0045028521199517741 0 -0.12875972825011101 0.033202911982989122 0 -0.12749226590576249 0.01550433414524306 0 -0.14066513223612051 0.020893853292430851 0 -0.12875972825011101 0.033202911982989122 0 -0.1477616223555055 0.038585030956722798 0 -0.14066513223612051 0.020893853292430851 0 -0.1477616223555055 0.038585030956722798 0 -0.14066513223612051 0.020893853292430851 0 -0.16934200089913659 0.015408876656124551 0 -0.14066513223612051 0.020893853292430851 0 -0.14089948435513211 0.0045028521199517741 0 -0.16934200089913659 0.015408876656124551 0 -0.15251229991028711 -0.0078691942855123181 0 -0.14089948435513211 0.0045028521199517741 0 -0.16934200089913659 0.015408876656124551 0 -0.15251229991028711 -0.0078691942855123181 0 -0.17782312591884469 -0.0047091890594081476 0 -0.16934200089913659 0.015408876656124551 0 -0.15251229991028711 -0.0078691942855123181 0 -0.16934200089913659 0.015408876656124551 0 -0.16934200089913659 0.015408876656124551 0 -0.18617170188798779 0.038686947597760223 0 -0.19614921834684179 0.01383979763140139 0 -0.16934200089913659 0.015408876656124551 0 -0.18617170188798779 0.038686947597760223 0 -0.17782312591884469 -0.0047091890594081476 0 -0.16934200089913659 0.015408876656124551 0 -0.19614921834684179 0.01383979763140139 0 -0.17782312591884469 -0.0047091890594081476 0 -0.19614921834684179 0.01383979763140139 0 -0.15691265875611959 0.05681361801433419 0 -0.1668403584618689 0.042988588343296871 0 -0.1795503023827684 0.057266236033449318 0 -0.1477616223555055 0.038585030956722798 0 -0.15691265875611959 0.05681361801433419 0 -0.1668403584618689 0.042988588343296871 0 -0.1477616223555055 0.038585030956722798 0 -0.16934200089913659 0.015408876656124551 0 -0.1668403584618689 0.042988588343296871 0 -0.16934200089913659 0.015408876656124551 0 -0.1668403584618689 0.042988588343296871 0 -0.18617170188798779 0.038686947597760223 0 -0.1668403584618689 0.042988588343296871 0 -0.18617170188798779 0.038686947597760223 0 -0.1795503023827684 0.057266236033449318 0 -0.1668403584618689 0.042988588343296871 0 -0.18617170188798779 0.038686947597760223 0 -0.18617170188798779 0.038686947597760223 0 -0.1795503023827684 0.057266236033449318 0 -0.20143763887193011 0.059802091850071508 0 -0.18617170188798779 0.038686947597760223 0 -0.20143763887193011 0.059802091850071508 0 -0.18617170188798779 0.038686947597760223 0 -0.20143763887193011 0.059802091850071508 0 -0.2078586498101366 0.045430069991844513 0 -0.18617170188798779 0.038686947597760223 0 -0.21447531077484011 0.032388784322209693 0 -0.18617170188798779 0.038686947597760223 0 -0.2078586498101366 0.045430069991844513 0 -0.21447531077484011 0.032388784322209693 0 -0.2078586498101366 0.045430069991844513 0 -0.21447531077484011 0.032388784322209693 0 -0.2192378730586704 0.037209272091992707 0 -0.21447531077484011 0.032388784322209693 0 -0.2195832818794459 0.031252150610506388 0 -0.2192378730586704 0.037209272091992707 0 -0.21447531077484011 0.032388784322209693 0 -0.2195832818794459 0.031252150610506388 0 -0.21447531077484011 0.032388784322209693 0 -0.2192378730586704 0.037209272091992707 0 -0.21797072445725191 0.059063254097192958 0 -0.2192378730586704 0.037209272091992707 0 -0.2078586498101366 0.045430069991844513 0 -0.21797072445725191 0.059063254097192958 0 -0.2192378730586704 0.037209272091992707 0 -0.20143763887193011 0.059802091850071508 0 -0.2078586498101366 0.045430069991844513 0 -0.21797072445725191 0.059063254097192958 0 -0.18617170188798779 0.038686947597760223 0 -0.21447531077484011 0.032388784322209693 0 -0.19614921834684179 0.01383979763140139 0 -0.21447531077484011 0.032388784322209693 0 -0.22093415874407599 0.0079541422647997212 0 -0.2195832818794459 0.031252150610506388 0 -0.21447531077484011 0.032388784322209693 0 -0.19614921834684179 0.01383979763140139 0 -0.21447531077484011 0.032388784322209693 0 -0.19614921834684179 0.01383979763140139 0 -0.22093415874407599 0.0079541422647997212 0 -0.19944529478696479 -0.012571765856828581 0 -0.19614921834684179 0.01383979763140139 0 -0.22093415874407599 0.0079541422647997212 0 -0.22093415874407599 0.0079541422647997212 0 -0.23112041458288279 0.017256095854311829 0 -0.23887829093550719 0.0026937934494007118 0 -0.22093415874407599 0.0079541422647997212 0 -0.2195832818794459 0.031252150610506388 0 -0.24652525723962471 0.025256980154944431 0 -0.2195832818794459 0.031252150610506388 0 -0.2345798097551996 0.035110261424597049 0 -0.24652525723962471 0.025256980154944431 0 -0.2195832818794459 0.031252150610506388 0 -0.23112041458288279 0.017256095854311829 0 -0.24652525723962471 0.025256980154944431 0 -0.2195832818794459 0.031252150610506388 0 -0.22093415874407599 0.0079541422647997212 0 -0.23112041458288279 0.017256095854311829 0 -0.2195832818794459 0.031252150610506388 0 -0.23112041458288279 0.017256095854311829 0 -0.24652525723962471 0.025256980154944431 0 -0.23887829093550719 0.0026937934494007118 0 -0.2559682256568111 0.0085224452031399753 0 -0.24652525723962471 0.025256980154944431 0 -0.23887829093550719 0.0026937934494007118 0 -0.25368046575302122 -0.0060765949484967302 0 -0.2559682256568111 0.0085224452031399753 0 -0.23887829093550719 0.0026937934494007118 0 -0.21797072445725191 0.059063254097192958 0 -0.23258754753329389 0.050721314286979569 0 -0.23013845701493321 0.067665304460687511 0 -0.21797072445725191 0.059063254097192958 0 -0.23258754753329389 0.050721314286979569 0 -0.2192378730586704 0.037209272091992707 0 -0.23258754753329389 0.050721314286979569 0 -0.2192378730586704 0.037209272091992707 0 -0.2195832818794459 0.031252150610506388 0 -0.2192378730586704 0.037209272091992707 0 -0.2345798097551996 0.035110261424597049 0 -0.2195832818794459 0.031252150610506388 0 -0.2192378730586704 0.037209272091992707 0 -0.23258754753329389 0.050721314286979569 0 -0.2192378730586704 0.037209272091992707 0 -0.2345798097551996 0.035110261424597049 0 -0.23258754753329389 0.050721314286979569 0 -0.2345798097551996 0.035110261424597049 0 -0.24215536103181359 0.050121451860559801 0 -0.2345798097551996 0.035110261424597049 0 -0.24863621078836329 0.04311354441041032 0 -0.24215536103181359 0.050121451860559801 0 -0.24652525723962471 0.025256980154944431 0 -0.2345798097551996 0.035110261424597049 0 -0.24863621078836329 0.04311354441041032 0 -0.23258754753329389 0.050721314286979569 0 -0.24593722200791471 0.064233356481969039 0 -0.23013845701493321 0.067665304460687511 0 -0.24863621078836329 0.04311354441041032 0 -0.24801373987997199 0.054302097415669472 0 -0.24215536103181359 0.050121451860559801 0 -0.23258754753329389 0.050721314286979569 0 -0.24215536103181359 0.050121451860559801 0 -0.24316618987360289 0.05965461057767419 0 -0.23258754753329389 0.050721314286979569 0 -0.24593722200791471 0.064233356481969039 0 -0.23258754753329389 0.050721314286979569 0 -0.24316618987360289 0.05965461057767419 0 -0.24593722200791471 0.064233356481969039 0 -0.24316618987360289 0.05965461057767419 0 -0.24593722200791471 0.064233356481969039 0 -0.24801373987997199 0.054302097415669472 0 -0.24215536103181359 0.050121451860559801 0 -0.24316618987360289 0.05965461057767419 0 -0.24801373987997199 0.054302097415669472 0 -0.24316618987360289 0.05965461057767419 0 -0.24593722200791471 0.064233356481969039 0 -0.24593722200791471 0.064233356481969039 0 -0.2374932152203659 0.083391361334902617 0 -0.23013845701493321 0.067665304460687511 0 -0.25883175697570282 0.08553978538998358 0 -0.24593722200791471 0.064233356481969039 0 -0.2374932152203659 0.083391361334902617 0 -0.25202467591831917 0.1031831303953244 0 -0.25883175697570282 0.08553978538998358 0 -0.2374932152203659 0.083391361334902617 0 -0.2167035758558564 0.080917236102394444 0 -0.2333261481791323 0.10390881616846009 0 -0.2374932152203659 0.083391361334902617 0 -0.2167035758558564 0.080917236102394444 0 -0.2333261481791323 0.10390881616846009 0 -0.21797072445725191 0.059063254097192958 0 -0.23013845701493321 0.067665304460687511 0 -0.2167035758558564 0.080917236102394444 0 -0.2374932152203659 0.083391361334902617 0 -0.23013845701493321 0.067665304460687511 0 -0.2167035758558564 0.080917236102394444 0 -0.20143763887193011 0.059802091850071508 0 -0.2167035758558564 0.080917236102394444 0 -0.21797072445725191 0.059063254097192958 0 -0.2167035758558564 0.080917236102394444 0 -0.20143763887193011 0.059802091850071508 0 -0.21797072445725191 0.059063254097192958 0 -0.2167035758558564 0.080917236102394444 0 -0.2167035758558564 0.080917236102394444 0 -0.21562280679612461 0.099556808096125687 0 -0.2167035758558564 0.080917236102394444 0 -0.19291657563570491 0.091073476316207172 0 -0.21562280679612461 0.099556808096125687 0 -0.2167035758558564 0.080917236102394444 0 -0.19291657563570491 0.091073476316207172 0 -0.19007497771773621 0.072883278701425663 0 -0.20143763887193011 0.059802091850071508 0 -0.2167035758558564 0.080917236102394444 0 -0.19007497771773621 0.072883278701425663 0 -0.1795503023827684 0.057266236033449318 0 -0.20143763887193011 0.059802091850071508 0 -0.19007497771773621 0.072883278701425663 0 -0.1859777253151946 0.1070780892906999 0 -0.19651578415892501 0.12390332723603351 0 -0.2011149859284718 0.1079616162057848 0 -0.1859777253151946 0.1070780892906999 0 -0.19291657563570491 0.091073476316207172 0 -0.2011149859284718 0.1079616162057848 0 -0.19291657563570491 0.091073476316207172 0 -0.2011149859284718 0.1079616162057848 0 -0.21562280679612461 0.099556808096125687 0 -0.2011149859284718 0.1079616162057848 0 -0.21562280679612461 0.099556808096125687 0 -0.21454203773640981 0.118196380089858 0 -0.21562280679612461 0.099556808096125687 0 -0.21454203773640981 0.118196380089858 0 -0.21562280679612461 0.099556808096125687 0 -0.21558632741173381 0.11543647568383759 0 -0.2197974094866382 0.1075062738490969 0 -0.19651578415892501 0.12390332723603351 0 -0.2011149859284718 0.1079616162057848 0 -0.21454203773640981 0.118196380089858 0 -0.21562280679612461 0.099556808096125687 0 -0.21558632741173381 0.11543647568383759 0 -0.21454203773640981 0.118196380089858 0 -0.21558632741173381 0.11543647568383759 0 -0.21454203773640981 0.118196380089858 0 -0.22306486740956391 0.11365998603405029 0 -0.21558632741173381 0.11543647568383759 0 -0.21454203773640981 0.118196380089858 0 -0.23207241423390529 0.12325198437899899 0 -0.22306486740956391 0.11365998603405029 0 -0.2333261481791323 0.10390881616846009 0 -0.21454203773640981 0.118196380089858 0 -0.23207241423390529 0.12325198437899899 0 -0.22306486740956391 0.11365998603405029 0 -0.21558632741173381 0.11543647568383759 0 -0.22306486740956391 0.11365998603405029 0 -0.2197974094866382 0.1075062738490969 0 -0.21562280679612461 0.099556808096125687 0 -0.2197974094866382 0.1075062738490969 0 -0.2333261481791323 0.10390881616846009 0 -0.2167035758558564 0.080917236102394444 0 -0.21562280679612461 0.099556808096125687 0 -0.2333261481791323 0.10390881616846009 0 -0.22306486740956391 0.11365998603405029 0 -0.2197974094866382 0.1075062738490969 0 -0.2333261481791323 0.10390881616846009 0 -0.25202467591831917 0.1031831303953244 0 -0.2374932152203659 0.083391361334902617 0 -0.2333261481791323 0.10390881616846009 0 -0.2333261481791323 0.10390881616846009 0 -0.2499487205023905 0.1269003962345385 0 -0.23207241423390529 0.12325198437899899 0 -0.2333261481791323 0.10390881616846009 0 -0.2499487205023905 0.1269003962345385 0 -0.25202467591831917 0.1031831303953244 0 -0.2333261481791323 0.10390881616846009 0 -0.2499487205023905 0.1269003962345385 0 -0.23207241423390529 0.12325198437899899 0 -0.2499487205023905 0.1269003962345385 0 -0.2334294419101717 0.14045715667949629 0 -0.2499487205023905 0.1269003962345385 0 -0.2334294419101717 0.14045715667949629 0 -0.24193288449945771 0.14909995823120001 0 -0.23207241423390529 0.12325198437899899 0 -0.2334294419101717 0.14045715667949629 0 -0.21307561334691941 0.14348718827461979 0 -0.21454203773640981 0.118196380089858 0 -0.23207241423390529 0.12325198437899899 0 -0.21307561334691941 0.14348718827461979 0 -0.2334294419101717 0.14045715667949629 0 -0.22779113194665809 0.15630605238408191 0 -0.21307561334691941 0.14348718827461979 0 -0.24193288449945771 0.14909995823120001 0 -0.23777061730354521 0.16319671061710761 0 -0.22779113194665809 0.15630605238408191 0 -0.25400879478249672 0.15070689988085861 0 -0.2499487205023905 0.1269003962345385 0 -0.24193288449945771 0.14909995823120001 0 -0.2334294419101717 0.14045715667949629 0 -0.24193288449945771 0.14909995823120001 0 -0.22779113194665809 0.15630605238408191 0 -0.25400879478249672 0.15070689988085861 0 -0.24193288449945771 0.14909995823120001 0 -0.24770739827517721 0.15884923907876289 0 -0.24770739827517721 0.15884923907876289 0 -0.2484577803484381 0.16911774492432341 0 -0.23777061730354521 0.16319671061710761 0 -0.24193288449945771 0.14909995823120001 0 -0.24770739827517721 0.15884923907876289 0 -0.23777061730354521 0.16319671061710761 0 -0.23777061730354521 0.16319671061710761 0 -0.23887201846984471 0.17355458884694819 0 -0.22892904566242611 0.17281730404268639 0 -0.2484577803484381 0.16911774492432341 0 -0.23777061730354521 0.16319671061710761 0 -0.23887201846984471 0.17355458884694819 0 -0.2484577803484381 0.16911774492432341 0 -0.24806601312553511 0.18384609063628959 0 -0.23887201846984471 0.17355458884694819 0 -0.23887201846984471 0.17355458884694819 0 -0.2378114324785629 0.18389871335692601 0 -0.22892904566242611 0.17281730404268639 0 -0.24806601312553511 0.18384609063628959 0 -0.23887201846984471 0.17355458884694819 0 -0.2378114324785629 0.18389871335692601 0 -0.22892904566242611 0.17281730404268639 0 -0.21160918895742889 0.16877799645938149 0 -0.22610751092901349 0.18921688877778209 0 -0.2378114324785629 0.18389871335692601 0 -0.22892904566242611 0.17281730404268639 0 -0.22610751092901349 0.18921688877778209 0 -0.22892904566242611 0.17281730404268639 0 -0.22779113194665809 0.15630605238408191 0 -0.21160918895742889 0.16877799645938149 0 -0.23777061730354521 0.16319671061710761 0 -0.22892904566242611 0.17281730404268639 0 -0.22779113194665809 0.15630605238408191 0 -0.21160918895742889 0.16877799645938149 0 -0.19845163097361909 0.16072096456926441 0 -0.21307561334691941 0.14348718827461979 0 -0.21160918895742889 0.16877799645938149 0 -0.20429719777077979 0.17739488460670361 0 -0.19845163097361909 0.16072096456926441 0 -0.20429719777077979 0.17739488460670361 0 -0.21014276456793901 0.19406880464414331 0 -0.21160918895742889 0.16877799645938149 0 -0.21014276456793901 0.19406880464414331 0 -0.21160918895742889 0.16877799645938149 0 -0.20429719777077979 0.17739488460670361 0 -0.21014276456793901 0.19406880464414331 0 -0.21160918895742889 0.16877799645938149 0 -0.22610751092901349 0.18921688877778209 0 -0.21014276456793901 0.19406880464414331 0 -0.20429719777077979 0.17739488460670361 0 -0.19078434836162 0.18098446765952661 0 -0.19845163097361909 0.16072096456926441 0 -0.20429719777077979 0.17739488460670361 0 -0.19078434836162 0.18098446765952661 0 -0.19577944577205381 0.19445682791110169 0 -0.19078434836162 0.18098446765952661 0 -0.19845163097361909 0.16072096456926441 0 -0.1863190198298087 0.16878571484748911 0 -0.20429719777077979 0.17739488460670361 0 -0.19845163097361909 0.16072096456926441 0 -0.19078434836162 0.18098446765952661 0 -0.19845163097361909 0.16072096456926441 0 -0.19845163097361909 0.16072096456926441 0 -0.19621829629563109 0.15435059106575311 0 -0.19845163097361909 0.16072096456926441 0 -0.18918124318418461 0.15864215931445511 0 -0.19621829629563109 0.15435059106575311 0 -0.19845163097361909 0.16072096456926441 0 -0.18918124318418461 0.15864215931445511 0 -0.1863190198298087 0.16878571484748911 0 -0.19845163097361909 0.16072096456926441 0 -0.20649683435501409 0.139458672329561 0 -0.19845163097361909 0.16072096456926441 0 -0.19621829629563109 0.15435059106575311 0 -0.20649683435501409 0.139458672329561 0 -0.18918124318418461 0.15864215931445511 0 -0.19621829629563109 0.15435059106575311 0 -0.1831114806155876 0.14829813367680389 0 -0.19621829629563109 0.15435059106575311 0 -0.19358688865029011 0.14089417912214261 0 -0.20649683435501409 0.139458672329561 0 -0.19621829629563109 0.15435059106575311 0 -0.19358688865029011 0.14089417912214261 0 -0.1831114806155876 0.14829813367680389 0 -0.19651578415892501 0.12390332723603351 0 -0.19358688865029011 0.14089417912214261 0 -0.20649683435501409 0.139458672329561 0 -0.19651578415892501 0.12390332723603351 0 -0.19358688865029011 0.14089417912214261 0 -0.18247999827373829 0.13387516283971179 0 -0.21454203773640981 0.118196380089858 0 -0.21307561334691941 0.14348718827461979 0 -0.19651578415892501 0.12390332723603351 0 -0.21454203773640981 0.118196380089858 0 -0.20649683435501409 0.139458672329561 0 -0.21454203773640981 0.118196380089858 0 -0.20649683435501409 0.139458672329561 0 -0.21307561334691941 0.14348718827461979 0 -0.21454203773640981 0.118196380089858 0 -0.20649683435501409 0.139458672329561 0 -0.21160918895742889 0.16877799645938149 0 -0.21307561334691941 0.14348718827461979 0 -0.19845163097361909 0.16072096456926441 0 -0.20649683435501409 0.139458672329561 0 -0.21307561334691941 0.14348718827461979 0 -0.22779113194665809 0.15630605238408191 0 -0.21160918895742889 0.16877799645938149 0 -0.21307561334691941 0.14348718827461979 0 -0.2337849049445343 0.26150574820020728 0 -0.2259041914856694 0.23902676701485259 0 -0.24184004484167479 0.2397688574378101 0 -0.2259041914856694 0.23902676701485259 0 -0.24184004484167479 0.2397688574378101 0 -0.23673235458058969 0.22945960196481119 0 -0.25380224261194823 0.2420236261065293 0 -0.24800282081558991 0.25311300777040008 0 -0.24184004484167479 0.2397688574378101 0 -0.25372238742754161 0.23132372007593241 0 -0.25380224261194823 0.2420236261065293 0 -0.24184004484167479 0.2397688574378101 0 -0.24184004484167479 0.2397688574378101 0 -0.23673235458058969 0.22945960196481119 0 -0.24559854804269679 0.2252658723909238 0 -0.25372238742754161 0.23132372007593241 0 -0.24184004484167479 0.2397688574378101 0 -0.24559854804269679 0.2252658723909238 0 -0.25483072364087211 0.2202441649145942 0 -0.24559854804269679 0.2252658723909238 0 -0.24722957445290369 0.21404590575577129 0 -0.23673235458058969 0.22945960196481119 0 -0.2305143728006408 0.2218320629556273 0 -0.23831553141832609 0.21670250140992861 0 -0.23673235458058969 0.22945960196481119 0 -0.24559854804269679 0.2252658723909238 0 -0.23831553141832609 0.21670250140992861 0 -0.2259041914856694 0.23902676701485259 0 -0.23673235458058969 0.22945960196481119 0 -0.2305143728006408 0.2218320629556273 0 -0.2259041914856694 0.23902676701485259 0 -0.21802347802680441 0.21654778582949791 0 -0.2259041914856694 0.23902676701485259 0 -0.2305143728006408 0.2218320629556273 0 -0.21802347802680441 0.21654778582949791 0 -0.2305143728006408 0.2218320629556273 0 -0.22838465546626679 0.212395393063219 0 -0.21802347802680441 0.21654778582949791 0 -0.22838465546626679 0.212395393063219 0 -0.2241935968774911 0.20241080203921141 0 -0.21802347802680441 0.21654778582949791 0 -0.22838465546626679 0.212395393063219 0 -0.23638400648292929 0.20731688174909721 0 -0.2241935968774911 0.20241080203921141 0 -0.22838465546626679 0.212395393063219 0 -0.23831553141832609 0.21670250140992861 0 -0.23638400648292929 0.20731688174909721 0 -0.2305143728006408 0.2218320629556273 0 -0.22838465546626679 0.212395393063219 0 -0.23831553141832609 0.21670250140992861 0 -0.23831553141832609 0.21670250140992861 0 -0.24722957445290369 0.21404590575577129 0 -0.23638400648292929 0.20731688174909721 0 -0.24559854804269679 0.2252658723909238 0 -0.23831553141832609 0.21670250140992861 0 -0.24722957445290369 0.21404590575577129 0 -0.24722957445290369 0.21404590575577129 0 -0.24666531613690271 0.20386508404673151 0 -0.23638400648292929 0.20731688174909721 0 -0.24666531613690271 0.20386508404673151 0 -0.23638400648292929 0.20731688174909721 0 -0.23849084814909549 0.19513543400691419 0 -0.25150433605041062 0.19473409522781959 0 -0.24666531613690271 0.20386508404673151 0 -0.23849084814909549 0.19513543400691419 0 -0.25150433605041062 0.19473409522781959 0 -0.24806601312553511 0.18384609063628959 0 -0.23849084814909549 0.19513543400691419 0 -0.24806601312553511 0.18384609063628959 0 -0.2378114324785629 0.18389871335692601 0 -0.23849084814909549 0.19513543400691419 0 -0.2241935968774911 0.20241080203921141 0 -0.22610751092901349 0.18921688877778209 0 -0.21014276456793901 0.19406880464414331 0 -0.2378114324785629 0.18389871335692601 0 -0.23849084814909549 0.19513543400691419 0 -0.22610751092901349 0.18921688877778209 0 -0.23849084814909549 0.19513543400691419 0 -0.2241935968774911 0.20241080203921141 0 -0.22610751092901349 0.18921688877778209 0 -0.23638400648292929 0.20731688174909721 0 -0.23849084814909549 0.19513543400691419 0 -0.2241935968774911 0.20241080203921141 0 -0.20429719777077979 0.17739488460670361 0 -0.21014276456793901 0.19406880464414331 0 -0.19577944577205381 0.19445682791110169 0 -0.21014276456793901 0.19406880464414331 0 -0.19577944577205381 0.19445682791110169 0 -0.2086547766869418 0.2197315093490311 0 -0.19078434836162 0.18098446765952661 0 -0.19577944577205381 0.19445682791110169 0 -0.18311706574962161 0.20124797074978909 0 -0.19577944577205381 0.19445682791110169 0 -0.1903024120836406 0.2163343812644852 0 -0.2086547766869418 0.2197315093490311 0 -0.19577944577205381 0.19445682791110169 0 -0.1903024120836406 0.2163343812644852 0 -0.18311706574962161 0.20124797074978909 0 -0.21014276456793901 0.19406880464414331 0 -0.21802347802680441 0.21654778582949791 0 -0.2086547766869418 0.2197315093490311 0 -0.2241935968774911 0.20241080203921141 0 -0.21014276456793901 0.19406880464414331 0 -0.21802347802680441 0.21654778582949791 0 -0.21014276456793901 0.19406880464414331 0 -0.2086547766869418 0.2197315093490311 0 -0.21014276456793901 0.19406880464414331 0 -0.21802347802680441 0.21654778582949791 0 -0.2259041914856694 0.23902676701485259 0 -0.21802347802680441 0.21654778582949791 0 -0.2086547766869418 0.2197315093490311 0 -0.2086547766869418 0.2197315093490311 0 -0.207166788805945 0.24539421405391901 0 -0.2086547766869418 0.2197315093490311 0 -0.19418368638125261 0.23297679107888219 0 -0.207166788805945 0.24539421405391901 0 -0.1903024120836406 0.2163343812644852 0 -0.19418368638125261 0.23297679107888219 0 -0.18341045209496451 0.23022550053385221 0 -0.1903024120836406 0.2163343812644852 0 -0.2086547766869418 0.2197315093490311 0 -0.19418368638125261 0.23297679107888219 0 -0.19418368638125261 0.23297679107888219 0 -0.19354405793523019 0.24535322686402061 0 -0.207166788805945 0.24539421405391901 0 -0.19418368638125261 0.23297679107888219 0 -0.19354405793523019 0.24535322686402061 0 -0.1845361620435966 0.24004079847925841 0 -0.19628042656794009 0.25891871677109879 0 -0.19354405793523019 0.24535322686402061 0 -0.207166788805945 0.24539421405391901 0 -0.21876605819550171 0.26070399828302399 0 -0.2259041914856694 0.23902676701485259 0 -0.207166788805945 0.24539421405391901 0 -0.2259041914856694 0.23902676701485259 0 -0.2086547766869418 0.2197315093490311 0 -0.207166788805945 0.24539421405391901 0 -0.17221168326327271 0.25819498994622198 0 -0.16714373723180939 0.24389921076693449 0 -0.1738307332004477 0.23985323189313679 0 -0.1604121232400475 0.24882297611887791 0 -0.15924660888784439 0.23675675394935769 0 -0.14947536152884949 0.24666552624664281 0 -0.1604121232400475 0.24882297611887791 0 -0.15924660888784439 0.23675675394935769 0 -0.16714373723180939 0.24389921076693449 0 -0.1700175375674344 0.23586810192707841 0 -0.16714373723180939 0.24389921076693449 0 -0.1738307332004477 0.23985323189313679 0 -0.15924660888784439 0.23675675394935769 0 -0.1700175375674344 0.23586810192707841 0 -0.16714373723180939 0.24389921076693449 0 -0.17221168326327271 0.25819498994622198 0 -0.1738307332004477 0.23985323189313679 0 -0.17221168326327271 0.25819498994622198 0 -0.18323044690438359 0.24992529319367501 0 -0.1738307332004477 0.23985323189313679 0 -0.19354405793523019 0.24535322686402061 0 -0.18323044690438359 0.24992529319367501 0 -0.1845361620435966 0.24004079847925841 0 -0.18323044690438359 0.24992529319367501 0 -0.1845361620435966 0.24004079847925841 0 -0.1738307332004477 0.23985323189313679 0 -0.1845361620435966 0.24004079847925841 0 -0.1738307332004477 0.23985323189313679 0 -0.18341045209496451 0.23022550053385221 0 -0.19418368638125261 0.23297679107888219 0 -0.1845361620435966 0.24004079847925841 0 -0.18341045209496451 0.23022550053385221 0 -0.1700175375674344 0.23586810192707841 0 -0.1738307332004477 0.23985323189313679 0 -0.17544978313762299 0.22151147384005171 0 -0.1738307332004477 0.23985323189313679 0 -0.18341045209496451 0.23022550053385221 0 -0.17544978313762299 0.22151147384005171 0 -0.1738307332004477 0.23985323189313679 0 -0.17544978313762299 0.22151147384005171 0 -0.1700175375674344 0.23586810192707841 0 -0.17544978313762299 0.22151147384005171 0 -0.1903024120836406 0.2163343812644852 0 -0.18341045209496451 0.23022550053385221 0 -0.17544978313762299 0.22151147384005171 0 -0.17544978313762299 0.22151147384005171 0 -0.16512337585071299 0.22610825804455451 0 -0.16269562634920209 0.21240424941451641 0 -0.15924660888784439 0.23675675394935769 0 -0.1700175375674344 0.23586810192707841 0 -0.16512337585071299 0.22610825804455451 0 -0.1700175375674344 0.23586810192707841 0 -0.17544978313762299 0.22151147384005171 0 -0.16512337585071299 0.22610825804455451 0 -0.15924660888784439 0.23675675394935769 0 -0.16512337585071299 0.22610825804455451 0 -0.154795120164582 0.2233056882485579 0 -0.16512337585071299 0.22610825804455451 0 -0.16269562634920209 0.21240424941451641 0 -0.154795120164582 0.2233056882485579 0 -0.17544978313762299 0.22151147384005171 0 -0.16269562634920209 0.21240424941451641 0 -0.17745268148896651 0.19882120584907939 0 -0.1903024120836406 0.2163343812644852 0 -0.17544978313762299 0.22151147384005171 0 -0.18311706574962161 0.20124797074978909 0 -0.17544978313762299 0.22151147384005171 0 -0.17745268148896651 0.19882120584907939 0 -0.17544978313762299 0.22151147384005171 0 -0.18311706574962161 0.20124797074978909 0 -0.17969863857726659 0.19950742689960829 0 -0.17544978313762299 0.22151147384005171 0 -0.18311706574962161 0.20124797074978909 0 -0.17544978313762299 0.22151147384005171 0 -0.17745268148896651 0.19882120584907939 0 -0.17969863857726659 0.19950742689960829 0 -0.19078434836162 0.18098446765952661 0 -0.18311706574962161 0.20124797074978909 0 -0.17969863857726659 0.19950742689960829 0 -0.17762715000671209 0.19684470143936769 0 -0.17969863857726659 0.19950742689960829 0 -0.1790600605220076 0.18061166416249719 0 -0.17762715000671209 0.19684470143936769 0 -0.1790600605220076 0.18061166416249719 0 -0.19078434836162 0.18098446765952661 0 -0.18311706574962161 0.20124797074978909 0 -0.17762715000671209 0.19684470143936769 0 -0.17745268148896651 0.19882120584907939 0 -0.17762715000671209 0.19684470143936769 0 -0.17745268148896651 0.19882120584907939 0 -0.17969863857726659 0.19950742689960829 0 -0.17745268148896651 0.19882120584907939 0 -0.17969863857726659 0.19950742689960829 0 -0.17762715000671209 0.19684470143936769 0 -0.17745268148896651 0.19882120584907939 0 -0.16727237805147441 0.1874993196379468 0 -0.17745268148896651 0.19882120584907939 0 -0.15391661753301741 0.19163008780976989 0 -0.16727237805147441 0.1874993196379468 0 -0.17745268148896651 0.19882120584907939 0 -0.15391661753301741 0.19163008780976989 0 -0.16269562634920209 0.21240424941451641 0 -0.17745268148896651 0.19882120584907939 0 -0.15391661753301741 0.19163008780976989 0 -0.15391661753301741 0.19163008780976989 0 -0.13651517619112011 0.20403110183309431 0 -0.1481479019978115 0.21222740759336919 0 -0.15391661753301741 0.19163008780976989 0 -0.1303805535770681 0.18443896977046129 0 -0.15391661753301741 0.19163008780976989 0 -0.13651517619112011 0.20403110183309431 0 -0.1303805535770681 0.18443896977046129 0 -0.13651517619112011 0.20403110183309431 0 -0.1303805535770681 0.18443896977046129 0 -0.11609935545667301 0.2018678873001811 0 -0.13651517619112011 0.20403110183309431 0 -0.1235089591793134 0.21730733450799211 0 -0.11609935545667301 0.2018678873001811 0 -0.13651517619112011 0.20403110183309431 0 -0.13875340818369131 0.2230332554938933 0 -0.1235089591793134 0.21730733450799211 0 -0.13651517619112011 0.20403110183309431 0 -0.1481479019978115 0.21222740759336919 0 -0.13875340818369131 0.2230332554938933 0 -0.16269562634920209 0.21240424941451641 0 -0.15391661753301741 0.19163008780976989 0 -0.1481479019978115 0.21222740759336919 0 -0.16269562634920209 0.21240424941451641 0 -0.1481479019978115 0.21222740759336919 0 -0.154795120164582 0.2233056882485579 0 -0.1476615943052289 0.23376468523451899 0 -0.13875340818369131 0.2230332554938933 0 -0.13603747276117739 0.23906220223414301 0 -0.154795120164582 0.2233056882485579 0 -0.1476615943052289 0.23376468523451899 0 -0.13875340818369131 0.2230332554938933 0 -0.1481479019978115 0.21222740759336919 0 -0.154795120164582 0.2233056882485579 0 -0.13875340818369131 0.2230332554938933 0 -0.15924660888784439 0.23675675394935769 0 -0.154795120164582 0.2233056882485579 0 -0.1476615943052289 0.23376468523451899 0 -0.13875340818369131 0.2230332554938933 0 -0.1223159266714744 0.23291985806603391 0 -0.1235089591793134 0.21730733450799211 0 -0.13875340818369131 0.2230332554938933 0 -0.13603747276117739 0.23906220223414301 0 -0.1223159266714744 0.23291985806603391 0 -0.1230919246696725 0.25268263208805719 0 -0.13603747276117739 0.23906220223414301 0 -0.1223159266714744 0.23291985806603391 0 -0.14057597760833451 0.2595852381562147 0 -0.13603747276117739 0.23906220223414301 0 -0.14947536152884949 0.24666552624664281 0 -0.1476615943052289 0.23376468523451899 0 -0.13603747276117739 0.23906220223414301 0 -0.14947536152884949 0.24666552624664281 0 -0.15924660888784439 0.23675675394935769 0 -0.1476615943052289 0.23376468523451899 0 -0.14947536152884949 0.24666552624664281 0 -0.17161704086758031 0.1194569527958555 0 -0.1552877826728298 0.12430887092761279 0 -0.16261086933402341 0.14847659115187009 0 -0.1552877826728298 0.12430887092761279 0 -0.16261086933402341 0.14847659115187009 0 -0.17161704086758031 0.1194569527958555 0 -0.16261086933402341 0.14847659115187009 0 -0.18247999827373829 0.13387516283971179 0 -0.17161704086758031 0.1194569527958555 0 -0.19651578415892501 0.12390332723603351 0 -0.18247999827373829 0.13387516283971179 0 -0.19358688865029011 0.14089417912214261 0 -0.18247999827373829 0.13387516283971179 0 -0.1831114806155876 0.14829813367680389 0 -0.16261086933402341 0.14847659115187009 0 -0.1831114806155876 0.14829813367680389 0 -0.17447275958903169 0.15833579497357389 0 -0.16261086933402341 0.14847659115187009 0 -0.18247999827373829 0.13387516283971179 0 -0.1831114806155876 0.14829813367680389 0 -0.1831114806155876 0.14829813367680389 0 -0.18180578820627749 0.16105539241296549 0 -0.17447275958903169 0.15833579497357389 0 -0.18918124318418461 0.15864215931445511 0 -0.1831114806155876 0.14829813367680389 0 -0.18180578820627749 0.16105539241296549 0 -0.18918124318418461 0.15864215931445511 0 -0.18180578820627749 0.16105539241296549 0 -0.1863190198298087 0.16878571484748911 0 -0.18180578820627749 0.16105539241296549 0 -0.1863190198298087 0.16878571484748911 0 -0.17800771564352161 0.16764275470867351 0 -0.17800771564352161 0.16764275470867351 0 -0.17447275958903169 0.15833579497357389 0 -0.16993395599521699 0.17264431137612751 0 -0.18180578820627749 0.16105539241296549 0 -0.17800771564352161 0.16764275470867351 0 -0.17447275958903169 0.15833579497357389 0 -0.17762715000671209 0.19684470143936769 0 -0.16993395599521699 0.17264431137612751 0 -0.19078434836162 0.18098446765952661 0 -0.17969863857726659 0.19950742689960829 0 -0.1790600605220076 0.18061166416249719 0 -0.17762715000671209 0.19684470143936769 0 -0.1790600605220076 0.18061166416249719 0 -0.16993395599521699 0.17264431137612751 0 -0.19078434836162 0.18098446765952661 0 -0.1863190198298087 0.16878571484748911 0 -0.1790600605220076 0.18061166416249719 0 -0.1863190198298087 0.16878571484748911 0 -0.17800771564352161 0.16764275470867351 0 -0.1790600605220076 0.18061166416249719 0 -0.17800771564352161 0.16764275470867351 0 -0.1790600605220076 0.18061166416249719 0 -0.16993395599521699 0.17264431137612751 0 -0.17762715000671209 0.19684470143936769 0 -0.16727237805147441 0.1874993196379468 0 -0.16993395599521699 0.17264431137612751 0 -0.16727237805147441 0.1874993196379468 0 -0.16993395599521699 0.17264431137612751 0 -0.15891136562595171 0.17741486759956929 0 -0.15391661753301741 0.19163008780976989 0 -0.16727237805147441 0.1874993196379468 0 -0.15891136562595171 0.17741486759956929 0 -0.16261086933402341 0.14847659115187009 0 -0.16993395599521699 0.17264431137612751 0 -0.16261086933402341 0.14847659115187009 0 -0.17447275958903169 0.15833579497357389 0 -0.16993395599521699 0.17264431137612751 0 -0.16261086933402341 0.14847659115187009 0 -0.16993395599521699 0.17264431137612751 0 -0.15672267324220601 0.16467436123790899 0 -0.16993395599521699 0.17264431137612751 0 -0.15891136562595171 0.17741486759956929 0 -0.15672267324220601 0.16467436123790899 0 -0.1438376228782921 0.17066473232413559 0 -0.1319396817972357 0.15362407044259729 0 -0.14765074599521649 0.1551455574135146 0 -0.15672267324220601 0.16467436123790899 0 -0.1438376228782921 0.17066473232413559 0 -0.14765074599521649 0.1551455574135146 0 -0.15891136562595171 0.17741486759956929 0 -0.15672267324220601 0.16467436123790899 0 -0.1438376228782921 0.17066473232413559 0 -0.15391661753301741 0.19163008780976989 0 -0.1438376228782921 0.17066473232413559 0 -0.1303805535770681 0.18443896977046129 0 -0.15391661753301741 0.19163008780976989 0 -0.15891136562595171 0.17741486759956929 0 -0.1438376228782921 0.17066473232413559 0 -0.1438376228782921 0.17066473232413559 0 -0.1303805535770681 0.18443896977046129 0 -0.12490910860765971 0.16856384610403921 0 -0.1438376228782921 0.17066473232413559 0 -0.1319396817972357 0.15362407044259729 0 -0.12490910860765971 0.16856384610403921 0 -0.1319396817972357 0.15362407044259729 0 -0.14180526995966641 0.1402365392624049 0 -0.1213451890051471 0.1400443304662882 0 -0.1319396817972357 0.15362407044259729 0 -0.14765074599521649 0.1551455574135146 0 -0.14180526995966641 0.1402365392624049 0 -0.16261086933402341 0.14847659115187009 0 -0.15672267324220601 0.16467436123790899 0 -0.14765074599521649 0.1551455574135146 0 -0.16261086933402341 0.14847659115187009 0 -0.14765074599521649 0.1551455574135146 0 -0.14180526995966641 0.1402365392624049 0 -0.1552877826728298 0.12430887092761279 0 -0.16261086933402341 0.14847659115187009 0 -0.14180526995966641 0.1402365392624049 0 -0.1552877826728298 0.12430887092761279 0 -0.14180526995966641 0.1402365392624049 0 -0.13121897980857941 0.12587151947184211 0 -0.14180526995966641 0.1402365392624049 0 -0.13121897980857941 0.12587151947184211 0 -0.1213451890051471 0.1400443304662882 0 -0.13121897980857941 0.12587151947184211 0 -0.1213451890051471 0.1400443304662882 0 -0.1120273366060608 0.1196740423458376 0 -0.1213451890051471 0.1400443304662882 0 -0.10369152689770619 0.13939316573005051 0 -0.1120273366060608 0.1196740423458376 0 -0.10369152689770619 0.13939316573005051 0 -0.088536025093881712 0.1231465751782846 0 -0.1120273366060608 0.1196740423458376 0 -0.10369152689770619 0.13939316573005051 0 -0.088536025093881712 0.1231465751782846 0 -0.10369152689770619 0.13939316573005051 0 -0.1130908849026438 0.1563505359333584 0 -0.093281580995531549 0.1549713382514023 0 -0.1319396817972357 0.15362407044259729 0 -0.1213451890051471 0.1400443304662882 0 -0.1130908849026438 0.1563505359333584 0 -0.1213451890051471 0.1400443304662882 0 -0.10369152689770619 0.13939316573005051 0 -0.1130908849026438 0.1563505359333584 0 -0.1130908849026438 0.1563505359333584 0 -0.12490910860765971 0.16856384610403921 0 -0.1068444896211188 0.17724785173115271 0 -0.1319396817972357 0.15362407044259729 0 -0.1130908849026438 0.1563505359333584 0 -0.12490910860765971 0.16856384610403921 0 -0.1303805535770681 0.18443896977046129 0 -0.12490910860765971 0.16856384610403921 0 -0.1068444896211188 0.17724785173115271 0 -0.1303805535770681 0.18443896977046129 0 -0.1068444896211188 0.17724785173115271 0 -0.1068444896211188 0.17724785173115271 0 -0.083308425665169494 0.17005673369184399 0 -0.1130908849026438 0.1563505359333584 0 -0.1068444896211188 0.17724785173115271 0 -0.093281580995531549 0.1549713382514023 0 -0.1068444896211188 0.17724785173115271 0 -0.083308425665169494 0.17005673369184399 0 -0.093281580995531549 0.1549713382514023 0 -0.083308425665169494 0.17005673369184399 0 -0.070825302443715113 0.14909902974373879 0 -0.093281580995531549 0.1549713382514023 0 -0.1068444896211188 0.17724785173115271 0 -0.083308425665169494 0.17005673369184399 0 -0.076210886672391009 0.18658120972266901 0 -0.083308425665169494 0.17005673369184399 0 -0.076210886672391009 0.18658120972266901 0 -0.059007754678410039 0.1813385369839807 0 -0.083308425665169494 0.17005673369184399 0 -0.070825302443715113 0.14909902974373879 0 -0.059772361709220727 0.1628656156525336 0 -0.083308425665169494 0.17005673369184399 0 -0.059772361709220727 0.1628656156525336 0 -0.083308425665169494 0.17005673369184399 0 -0.059772361709220727 0.1628656156525336 0 -0.059007754678410039 0.1813385369839807 0 -0.070825302443715113 0.14909902974373879 0 -0.060947836547449827 0.13446611978253659 0 -0.059772361709220727 0.1628656156525336 0 -0.070825302443715113 0.14909902974373879 0 -0.068132667327297836 0.1371956617169855 0 -0.08296062401431728 0.1362763795947792 0 -0.069471102569403115 0.12631058973122339 0 -0.08296062401431728 0.1362763795947792 0 -0.057796906303709122 0.12894111774688749 0 -0.08296062401431728 0.1362763795947792 0 -0.057796906303709122 0.12894111774688749 0 -0.068132667327297836 0.1371956617169855 0 -0.08296062401431728 0.1362763795947792 0 -0.057796906303709122 0.12894111774688749 0 -0.070825302443715113 0.14909902974373879 0 -0.068132667327297836 0.1371956617169855 0 -0.060947836547449827 0.13446611978253659 0 -0.069471102569403115 0.12631058973122339 0 -0.08296062401431728 0.1362763795947792 0 -0.074501389404617119 0.1219926676580704 0 -0.10369152689770619 0.13939316573005051 0 -0.08296062401431728 0.1362763795947792 0 -0.088536025093881712 0.1231465751782846 0 -0.08296062401431728 0.1362763795947792 0 -0.074501389404617119 0.1219926676580704 0 -0.088536025093881712 0.1231465751782846 0 -0.070825302443715113 0.14909902974373879 0 -0.08296062401431728 0.1362763795947792 0 -0.093281580995531549 0.1549713382514023 0 -0.10369152689770619 0.13939316573005051 0 -0.08296062401431728 0.1362763795947792 0 -0.093281580995531549 0.1549713382514023 0 -0.10606753491286119 0.24419388851310331 0 -0.10386092939360821 0.2246845698467578 0 -0.09066870662966893 0.2380631811563117 0 -0.088750902751745797 0.25373427230794993 0 -0.10606753491286119 0.24419388851310331 0 -0.09066870662966893 0.2380631811563117 0 -0.1230919246696725 0.25268263208805719 0 -0.10606753491286119 0.24419388851310331 0 -0.1223159266714744 0.23291985806603391 0 -0.10606753491286119 0.24419388851310331 0 -0.1223159266714744 0.23291985806603391 0 -0.10386092939360821 0.2246845698467578 0 -0.1223159266714744 0.23291985806603391 0 -0.10386092939360821 0.2246845698467578 0 -0.1235089591793134 0.21730733450799211 0 -0.10386092939360821 0.2246845698467578 0 -0.11609935545667301 0.2018678873001811 0 -0.087171251552135898 0.20083967280780449 0 -0.10386092939360821 0.2246845698467578 0 -0.1235089591793134 0.21730733450799211 0 -0.11609935545667301 0.2018678873001811 0 -0.1303805535770681 0.18443896977046129 0 -0.1068444896211188 0.17724785173115271 0 -0.11609935545667301 0.2018678873001811 0 -0.11609935545667301 0.2018678873001811 0 -0.087171251552135898 0.20083967280780449 0 -0.1068444896211188 0.17724785173115271 0 -0.11609935545667301 0.2018678873001811 0 -0.087171251552135898 0.20083967280780449 0 -0.1068444896211188 0.17724785173115271 0 -0.076210886672391009 0.18658120972266901 0 -0.087171251552135898 0.20083967280780449 0 -0.076210886672391009 0.18658120972266901 0 -0.087171251552135898 0.20083967280780449 0 -0.058243147647598859 0.19981145831542779 0 -0.087171251552135898 0.20083967280780449 0 -0.058243147647598859 0.19981145831542779 0 -0.076210886672391009 0.18658120972266901 0 -0.058243147647598859 0.19981145831542779 0 -0.059007754678410039 0.1813385369839807 0 -0.087171251552135898 0.20083967280780449 0 -0.072376852112868456 0.2109928278409893 0 -0.058243147647598859 0.19981145831542779 0 -0.072376852112868456 0.2109928278409893 0 -0.079543787104951288 0.2268092354988179 0 -0.057523737003292059 0.21719243403466251 0 -0.072376852112868456 0.2109928278409893 0 -0.057523737003292059 0.21719243403466251 0 -0.058243147647598859 0.19981145831542779 0 -0.10386092939360821 0.2246845698467578 0 -0.087171251552135898 0.20083967280780449 0 -0.079543787104951288 0.2268092354988179 0 -0.087171251552135898 0.20083967280780449 0 -0.072376852112868456 0.2109928278409893 0 -0.079543787104951288 0.2268092354988179 0 -0.10386092939360821 0.2246845698467578 0 -0.079543787104951288 0.2268092354988179 0 -0.09066870662966893 0.2380631811563117 0 -0.079543787104951288 0.2268092354988179 0 -0.05680432635898526 0.23457340975389709 0 -0.057523737003292059 0.21719243403466251 0 -0.079543787104951288 0.2268092354988179 0 -0.072402403370984733 0.24307516658186251 0 -0.05680432635898526 0.23457340975389709 0 -0.088750902751745797 0.25373427230794993 0 -0.072402403370984733 0.24307516658186251 0 -0.09066870662966893 0.2380631811563117 0 -0.079543787104951288 0.2268092354988179 0 -0.072402403370984733 0.24307516658186251 0 -0.09066870662966893 0.2380631811563117 0 -0.036798084873461312 0.24306150679977731 0 -0.05680432635898526 0.23457340975389709 0 -0.043258256162018387 0.22565994012888521 0 -0.036798084873461312 0.24306150679977731 0 -0.058133126017242333 0.24942309207664951 0 -0.05680432635898526 0.23457340975389709 0 -0.072402403370984733 0.24307516658186251 0 -0.058133126017242333 0.24942309207664951 0 -0.05680432635898526 0.23457340975389709 0 -0.05680432635898526 0.23457340975389709 0 -0.043258256162018387 0.22565994012888521 0 -0.057523737003292059 0.21719243403466251 0 -0.05680432635898526 0.23457340975389709 0 -0.057523737003292059 0.21719243403466251 0 -0.036798084873461312 0.24306150679977731 0 -0.043258256162018387 0.22565994012888521 0 -0.020437067247314731 0.22162043755844821 0 -0.043258256162018387 0.22565994012888521 0 -0.043733099752248233 0.21268379592964121 0 -0.020437067247314731 0.22162043755844821 0 -0.043733099752248233 0.21268379592964121 0 -0.039203290701017093 0.19913470961078231 0 -0.020437067247314731 0.22162043755844821 0 -0.043733099752248233 0.21268379592964121 0 -0.058243147647598859 0.19981145831542779 0 -0.039203290701017093 0.19913470961078231 0 -0.043733099752248233 0.21268379592964121 0 -0.057523737003292059 0.21719243403466251 0 -0.058243147647598859 0.19981145831542779 0 -0.043258256162018387 0.22565994012888521 0 -0.043733099752248233 0.21268379592964121 0 -0.057523737003292059 0.21719243403466251 0 -0.057523737003292059 0.21719243403466251 0 -0.058243147647598859 0.19981145831542779 0 -0.058243147647598859 0.19981145831542779 0 -0.059007754678410039 0.1813385369839807 0 -0.058243147647598859 0.19981145831542779 0 -0.039203290701017093 0.19913470961078231 0 -0.049195923865489967 0.1901598225296644 0 -0.058243147647598859 0.19981145831542779 0 -0.039203290701017093 0.19913470961078231 0 -0.049195923865489967 0.1901598225296644 0 -0.058243147647598859 0.19981145831542779 0 -0.059007754678410039 0.1813385369839807 0 -0.039203290701017093 0.19913470961078231 0 -0.02153202838005128 0.19603752306850231 0 -0.040557264019018588 0.18032420370999261 0 -0.049195923865489967 0.1901598225296644 0 -0.039203290701017093 0.19913470961078231 0 -0.040557264019018588 0.18032420370999261 0 -0.02153202838005128 0.19603752306850231 0 -0.0040760496211680944 0.20017936831711891 0 -0.020998722927044321 0.17810482495059879 0 -0.0040760496211680944 0.20017936831711891 0 -0.020437067247314731 0.22162043755844821 0 -0.001542110983380432 0.22401166836485309 0 -0.0040760496211680944 0.20017936831711891 0 -0.020437067247314731 0.22162043755844821 0 -0.02153202838005128 0.19603752306850231 0 -0.0040760496211680944 0.20017936831711891 0 -0.020437067247314731 0.22162043755844821 0 -0.039203290701017093 0.19913470961078231 0 -0.02153202838005128 0.19603752306850231 0 -0.020437067247314731 0.22162043755844821 0 -0.036798084873461312 0.24306150679977731 0 -0.020437067247314731 0.22162043755844821 0 -0.020437067247314731 0.22162043755844821 0 -0.001542110983380432 0.22401166836485309 0 -0.010663072791586219 0.24029389619086081 0 -0.001542110983380432 0.22401166836485309 0 -0.010663072791586219 0.24029389619086081 0 0.0084792465519147632 0.23863263955916281 0 -0.010663072791586219 0.24029389619086081 0 0.0084792465519147632 0.23863263955916281 0 0.00052355941179598429 0.25579479798048171 0 -0.036798084873461312 0.24306150679977731 0 -0.020437067247314731 0.22162043755844821 0 -0.010663072791586219 0.24029389619086081 0 -0.022882560889335081 0.26280583991096162 0 -0.036798084873461312 0.24306150679977731 0 -0.010663072791586219 0.24029389619086081 0 -0.032589274837996618 0.14707247615162841 0 -0.048435938796672143 0.14442648045518211 0 -0.038257486294270587 0.1562920437503052 0 -0.032589274837996618 0.14707247615162841 0 -0.048435938796672143 0.14442648045518211 0 -0.032589274837996618 0.14707247615162841 0 -0.036976010324175232 0.1363129276738676 0 -0.048435938796672143 0.14442648045518211 0 -0.057796906303709122 0.12894111774688749 0 -0.032633188593100951 0.12160585589899579 0 -0.047357976113021449 0.13315050031149389 0 -0.057796906303709122 0.12894111774688749 0 -0.032633188593100951 0.12160585589899579 0 -0.036976010324175232 0.1363129276738676 0 -0.047357976113021449 0.13315050031149389 0 -0.032633188593100951 0.12160585589899579 0 -0.036976010324175232 0.1363129276738676 0 -0.047357976113021449 0.13315050031149389 0 -0.048435938796672143 0.14442648045518211 0 -0.047357976113021449 0.13315050031149389 0 -0.060947836547449827 0.13446611978253659 0 -0.048435938796672143 0.14442648045518211 0 -0.047357976113021449 0.13315050031149389 0 -0.057796906303709122 0.12894111774688749 0 -0.060947836547449827 0.13446611978253659 0 -0.068132667327297836 0.1371956617169855 0 -0.057796906303709122 0.12894111774688749 0 -0.060947836547449827 0.13446611978253659 0 -0.048435938796672143 0.14442648045518211 0 -0.059772361709220727 0.1628656156525336 0 -0.038257486294270587 0.1562920437503052 0 -0.060947836547449827 0.13446611978253659 0 -0.048435938796672143 0.14442648045518211 0 -0.059772361709220727 0.1628656156525336 0 -0.060947836547449827 0.13446611978253659 0 -0.059772361709220727 0.1628656156525336 0 -0.059772361709220727 0.1628656156525336 0 -0.038257486294270587 0.1562920437503052 0 -0.059772361709220727 0.1628656156525336 0 -0.059007754678410039 0.1813385369839807 0 -0.059772361709220727 0.1628656156525336 0 -0.059007754678410039 0.1813385369839807 0 -0.040557264019018588 0.18032420370999261 0 -0.049195923865489967 0.1901598225296644 0 -0.059007754678410039 0.1813385369839807 0 -0.040557264019018588 0.18032420370999261 0 -0.040557264019018588 0.18032420370999261 0 -0.038257486294270587 0.1562920437503052 0 -0.020998722927044321 0.17810482495059879 0 -0.059772361709220727 0.1628656156525336 0 -0.040557264019018588 0.18032420370999261 0 -0.038257486294270587 0.1562920437503052 0 -0.038257486294270587 0.1562920437503052 0 -0.020998722927044321 0.17810482495059879 0 -0.016742610879321111 0.14971847184807491 0 -0.0040760496211680944 0.20017936831711891 0 -0.020998722927044321 0.17810482495059879 0 0.012284968004978509 0.1787382990757897 0 -0.020998722927044321 0.17810482495059879 0 -0.0048761696063712393 0.16501736167893261 0 0.012284968004978509 0.1787382990757897 0 -0.02153202838005128 0.19603752306850231 0 -0.040557264019018588 0.18032420370999261 0 -0.020998722927044321 0.17810482495059879 0 -0.020998722927044321 0.17810482495059879 0 -0.0048761696063712393 0.16501736167893261 0 -0.016742610879321111 0.14971847184807491 0 -0.0048761696063712393 0.16501736167893261 0 -0.016742610879321111 0.14971847184807491 0 0.0059516873759019248 0.15350785084126731 0 -0.016742610879321111 0.14971847184807491 0 0.0059516873759019248 0.15350785084126731 0 -0.016742610879321111 0.14971847184807491 0 0.0059516873759019248 0.15350785084126731 0 0.010763234767585761 0.14131444204988469 0 -0.016742610879321111 0.14971847184807491 0 -0.0050733015910006882 0.13156669209468241 0 0.010763234767585761 0.14131444204988469 0 -0.016742610879321111 0.14971847184807491 0 0.010763234767585761 0.14131444204988469 0 -0.032589274837996618 0.14707247615162841 0 -0.038257486294270587 0.1562920437503052 0 -0.016742610879321111 0.14971847184807491 0 -0.032589274837996618 0.14707247615162841 0 -0.016742610879321111 0.14971847184807491 0 -0.02231592745415921 0.13432141316036281 0 -0.032589274837996618 0.14707247615162841 0 -0.016742610879321111 0.14971847184807491 0 -0.038257486294270587 0.1562920437503052 0 -0.016742610879321111 0.14971847184807491 0 -0.036976010324175232 0.1363129276738676 0 -0.02231592745415921 0.13432141316036281 0 -0.032633188593100951 0.12160585589899579 0 -0.032589274837996618 0.14707247615162841 0 -0.036976010324175232 0.1363129276738676 0 -0.02231592745415921 0.13432141316036281 0 -0.02231592745415921 0.13432141316036281 0 -0.0050733015910006882 0.13156669209468241 0 -0.0074694708824928138 0.1142705940511041 0 -0.016742610879321111 0.14971847184807491 0 -0.02231592745415921 0.13432141316036281 0 -0.0050733015910006882 0.13156669209468241 0 -0.0050733015910006882 0.13156669209468241 0 -0.0074694708824928138 0.1142705940511041 0 0.0087792745487023267 0.1228019865252658 0 -0.0074694708824928138 0.1142705940511041 0 -0.012715356561886571 0.097236530809795538 0 0.0015840102750627151 0.086596665437876572 0 -0.012715356561886571 0.097236530809795538 0 -0.028320505605585151 0.088625029756313631 0 -0.037011367382072058 0.1042609671291691 0 -0.0074694708824928138 0.1142705940511041 0 -0.012715356561886571 0.097236530809795538 0 -0.037011367382072058 0.1042609671291691 0 -0.02231592745415921 0.13432141316036281 0 -0.0074694708824928138 0.1142705940511041 0 -0.032633188593100951 0.12160585589899579 0 -0.0074694708824928138 0.1142705940511041 0 -0.032633188593100951 0.12160585589899579 0 -0.0074694708824928138 0.1142705940511041 0 -0.032633188593100951 0.12160585589899579 0 -0.037011367382072058 0.1042609671291691 0 -0.0129649850606203 0.068229016587511057 0 -0.003137787526490379 0.062521167176500969 0 -0.021817039290884022 0.057053576637570498 0 -0.0129649850606203 0.068229016587511057 0 -0.019293607398702731 0.071904817665022824 0 0.0015840102750627151 0.086596665437876572 0 -0.0129649850606203 0.068229016587511057 0 0.0015840102750627151 0.086596665437876572 0 0.0023564420774942361 0.076512728404814642 0 -0.0129649850606203 0.068229016587511057 0 0.0015840102750627151 0.086596665437876572 0 -0.0129649850606203 0.068229016587511057 0 -0.003137787526490379 0.062521167176500969 0 -0.0129649850606203 0.068229016587511057 0 -0.003137787526490379 0.062521167176500969 0 0.0023564420774942361 0.076512728404814642 0 -0.028320505605585151 0.088625029756313631 0 0.0015840102750627151 0.086596665437876572 0 -0.012715356561886571 0.097236530809795538 0 -0.028320505605585151 0.088625029756313631 0 0.0015840102750627151 0.086596665437876572 0 -0.022061719730323871 0.079939829219001307 0 -0.019293607398702731 0.071904817665022824 0 0.0015840102750627151 0.086596665437876572 0 -0.028320505605585151 0.088625029756313631 0 -0.022061719730323871 0.079939829219001307 0 0.0015840102750627151 0.086596665437876572 0 -0.028320505605585151 0.088625029756313631 0 -0.022061719730323871 0.079939829219001307 0 -0.031864682499231779 0.073355001272323903 0 -0.022061719730323871 0.079939829219001307 0 -0.019293607398702731 0.071904817665022824 0 -0.031864682499231779 0.073355001272323903 0 -0.023380363133597371 0.065442952699973064 0 -0.031864682499231779 0.073355001272323903 0 -0.03036675161832712 0.060789526161765688 0 -0.019293607398702731 0.071904817665022824 0 -0.023380363133597371 0.065442952699973064 0 -0.031864682499231779 0.073355001272323903 0 -0.0129649850606203 0.068229016587511057 0 -0.019293607398702731 0.071904817665022824 0 -0.023380363133597371 0.065442952699973064 0 -0.0129649850606203 0.068229016587511057 0 -0.023380363133597371 0.065442952699973064 0 -0.021817039290884022 0.057053576637570498 0 -0.0129649850606203 0.068229016587511057 0 -0.021817039290884022 0.057053576637570498 0 -0.0129649850606203 0.068229016587511057 0 -0.019293607398702731 0.071904817665022824 0 -0.044295886552279902 0.075721460118259365 0 -0.043668215999513947 0.062492916746221712 0 -0.03036675161832712 0.060789526161765688 0 -0.044295886552279902 0.075721460118259365 0 -0.03036675161832712 0.060789526161765688 0 -0.031864682499231779 0.073355001272323903 0 -0.044295886552279902 0.075721460118259365 0 -0.03036675161832712 0.060789526161765688 0 -0.028320505605585151 0.088625029756313631 0 -0.044295886552279902 0.075721460118259365 0 -0.058225021486232847 0.090653394074752883 0 -0.028320505605585151 0.088625029756313631 0 -0.031864682499231779 0.073355001272323903 0 -0.044295886552279902 0.075721460118259365 0 -0.028320505605585151 0.088625029756313631 0 -0.058225021486232847 0.090653394074752883 0 -0.044295886552279902 0.075721460118259365 0 -0.058225021486232847 0.090653394074752883 0 -0.064536897009078151 0.077564899286451647 0 -0.044295886552279902 0.075721460118259365 0 -0.058225021486232847 0.090653394074752883 0 -0.044295886552279902 0.075721460118259365 0 -0.056917329294472907 0.062634745154407367 0 -0.064536897009078151 0.077564899286451647 0 -0.044295886552279902 0.075721460118259365 0 -0.056917329294472907 0.062634745154407367 0 -0.043668215999513947 0.062492916746221712 0 -0.032633188593100951 0.12160585589899579 0 -0.037011367382072058 0.1042609671291691 0 -0.049359521656441127 0.1161632494042482 0 -0.057796906303709122 0.12894111774688749 0 -0.032633188593100951 0.12160585589899579 0 -0.049359521656441127 0.1161632494042482 0 -0.028320505605585151 0.088625029756313631 0 -0.058225021486232847 0.090653394074752883 0 -0.037011367382072058 0.1042609671291691 0 -0.058225021486232847 0.090653394074752883 0 -0.037011367382072058 0.1042609671291691 0 -0.056730655448354518 0.1079761123210321 0 -0.037011367382072058 0.1042609671291691 0 -0.056730655448354518 0.1079761123210321 0 -0.049359521656441127 0.1161632494042482 0 -0.056730655448354518 0.1079761123210321 0 -0.049359521656441127 0.1161632494042482 0 -0.062625490554968966 0.11803219392515669 0 -0.057796906303709122 0.12894111774688749 0 -0.049359521656441127 0.1161632494042482 0 -0.062625490554968966 0.11803219392515669 0 -0.056730655448354518 0.1079761123210321 0 -0.062625490554968966 0.11803219392515669 0 -0.07338052329005719 0.1068999846265188 0 -0.069471102569403115 0.12631058973122339 0 -0.062625490554968966 0.11803219392515669 0 -0.074501389404617119 0.1219926676580704 0 -0.069471102569403115 0.12631058973122339 0 -0.057796906303709122 0.12894111774688749 0 -0.062625490554968966 0.11803219392515669 0 -0.062625490554968966 0.11803219392515669 0 -0.074501389404617119 0.1219926676580704 0 -0.07338052329005719 0.1068999846265188 0 -0.088536025093881712 0.1231465751782846 0 -0.07338052329005719 0.1068999846265188 0 -0.096081880365861835 0.10725930060580199 0 -0.088536025093881712 0.1231465751782846 0 -0.07338052329005719 0.1068999846265188 0 -0.074501389404617119 0.1219926676580704 0 -0.088536025093881712 0.1231465751782846 0 -0.07338052329005719 0.1068999846265188 0 -0.07338052329005719 0.1068999846265188 0 -0.086415561007686811 0.092565502757972068 0 -0.096081880365861835 0.10725930060580199 0 -0.058225021486232847 0.090653394074752883 0 -0.07338052329005719 0.1068999846265188 0 -0.058225021486232847 0.090653394074752883 0 -0.056730655448354518 0.1079761123210321 0 -0.07338052329005719 0.1068999846265188 0 -0.058225021486232847 0.090653394074752883 0 -0.07338052329005719 0.1068999846265188 0 -0.086415561007686811 0.092565502757972068 0 -0.058225021486232847 0.090653394074752883 0 -0.064536897009078151 0.077564899286451647 0 -0.086415561007686811 0.092565502757972068 0 -0.058225021486232847 0.090653394074752883 0 -0.086415561007686811 0.092565502757972068 0 -0.064536897009078151 0.077564899286451647 0 -0.076830686704718265 0.066249394326866551 0 -0.086415561007686811 0.092565502757972068 0 -0.056917329294472907 0.062634745154407367 0 -0.064536897009078151 0.077564899286451647 0 -0.076830686704718265 0.066249394326866551 0 -0.076830686704718265 0.066249394326866551 0 -0.086415561007686811 0.092565502757972068 0 -0.098225255247852666 0.07141088989745191 0 -0.086415561007686811 0.092565502757972068 0 -0.098225255247852666 0.07141088989745191 0 -0.1146061005291409 0.094477611441191531 0 -0.086415561007686811 0.092565502757972068 0 -0.1146061005291409 0.094477611441191531 0 -0.098225255247852666 0.07141088989745191 0 -0.11901684822623899 0.069332624134384499 0 -0.1144352779592047 0.050024446948300168 0 -0.14064160935044259 0.075973430479098131 0 -0.11901684822623899 0.069332624134384499 0 -0.1146061005291409 0.094477611441191531 0 -0.098225255247852666 0.07141088989745191 0 -0.11901684822623899 0.069332624134384499 0 -0.1146061005291409 0.094477611441191531 0 -0.1297016798790894 0.1066375800531613 0 -0.1146061005291409 0.094477611441191531 0 -0.1120273366060608 0.1196740423458376 0 -0.1297016798790894 0.1066375800531613 0 -0.13121897980857941 0.12587151947184211 0 -0.1120273366060608 0.1196740423458376 0 -0.088536025093881712 0.1231465751782846 0 -0.1120273366060608 0.1196740423458376 0 -0.096081880365861835 0.10725930060580199 0 -0.1146061005291409 0.094477611441191531 0 -0.1120273366060608 0.1196740423458376 0 -0.096081880365861835 0.10725930060580199 0 -0.086415561007686811 0.092565502757972068 0 -0.1146061005291409 0.094477611441191531 0 -0.096081880365861835 0.10725930060580199 0 -0.108885548354824 0.022404096300397029 0 -0.081796898685300115 0.024418792807408791 0 -0.090749260952593599 0.0065063747977018227 0 -0.097804271532689085 -0.0045970153036278358 0 -0.109530651746324 0.00091513813098781371 0 -0.090749260952593599 0.0065063747977018227 0 -0.108885548354824 0.022404096300397029 0 -0.109530651746324 0.00091513813098781371 0 -0.090749260952593599 0.0065063747977018227 0 -0.1222840736381321 -0.0043715844633764982 0 -0.12749226590576249 0.01550433414524306 0 -0.108885548354824 0.022404096300397029 0 -0.1222840736381321 -0.0043715844633764982 0 -0.108885548354824 0.022404096300397029 0 -0.109530651746324 0.00091513813098781371 0 -0.1222840736381321 -0.0043715844633764982 0 -0.108885548354824 0.022404096300397029 0 -0.12875972825011101 0.033202911982989122 0 -0.12749226590576249 0.01550433414524306 0 -0.108885548354824 0.022404096300397029 0 -0.12875972825011101 0.033202911982989122 0 -0.108885548354824 0.022404096300397029 0 -0.1144352779592047 0.050024446948300168 0 -0.13331852268924901 0.051805710254840778 0 -0.11901684822623899 0.069332624134384499 0 -0.1144352779592047 0.050024446948300168 0 -0.098225255247852666 0.07141088989745191 0 -0.1144352779592047 0.050024446948300168 0 -0.095487023071516075 0.049179777064170323 0 -0.108885548354824 0.022404096300397029 0 -0.095487023071516075 0.049179777064170323 0 -0.081796898685300115 0.024418792807408791 0 -0.108885548354824 0.022404096300397029 0 -0.1144352779592047 0.050024446948300168 0 -0.095487023071516075 0.049179777064170323 0 -0.108885548354824 0.022404096300397029 0 -0.095487023071516075 0.049179777064170323 0 -0.095487023071516075 0.049179777064170323 0 -0.064368753775068038 0.044598294463339003 0 -0.081796898685300115 0.024418792807408791 0 -0.076830686704718265 0.066249394326866551 0 -0.095487023071516075 0.049179777064170323 0 -0.064368753775068038 0.044598294463339003 0 -0.076830686704718265 0.066249394326866551 0 -0.098225255247852666 0.07141088989745191 0 -0.095487023071516075 0.049179777064170323 0 -0.056917329294472907 0.062634745154407367 0 -0.076830686704718265 0.066249394326866551 0 -0.064368753775068038 0.044598294463339003 0 -0.064368753775068038 0.044598294463339003 0 -0.065567190003576969 0.02787042833550625 0 -0.081796898685300115 0.024418792807408791 0 -0.065567190003576969 0.02787042833550625 0 -0.081796898685300115 0.024418792807408791 0 -0.06429663775293179 0.0034244201320481082 0 -0.081796898685300115 0.024418792807408791 0 -0.090749260952593599 0.0065063747977018227 0 -0.06429663775293179 0.0034244201320481082 0 -0.06429663775293179 0.0034244201320481082 0 -0.050136771598916177 0.021300805633889169 0 -0.06429663775293179 0.0034244201320481082 0 -0.040669640705615413 0.0212410590638764 0 -0.042331935630484048 0.002039555730186072 0 -0.06429663775293179 0.0034244201320481082 0 -0.040669640705615413 0.0212410590638764 0 -0.06429663775293179 0.0034244201320481082 0 -0.050136771598916177 0.021300805633889169 0 -0.040669640705615413 0.0212410590638764 0 -0.065567190003576969 0.02787042833550625 0 -0.06429663775293179 0.0034244201320481082 0 -0.050136771598916177 0.021300805633889169 0 -0.050136771598916177 0.021300805633889169 0 -0.040669640705615413 0.0212410590638764 0 -0.035976905444900363 0.039177191135729997 0 -0.050136771598916177 0.021300805633889169 0 -0.035976905444900363 0.039177191135729997 0 -0.026366295026715381 -0.0080643654216814211 0 -0.042331935630484048 0.002039555730186072 0 -0.02841283365284639 0.0087375389049946864 0 -0.040669640705615413 0.0212410590638764 0 -0.042331935630484048 0.002039555730186072 0 -0.02841283365284639 0.0087375389049946864 0 -0.056917329294472907 0.062634745154407367 0 -0.064368753775068038 0.044598294463339003 0 -0.043092896532975877 0.050825935550454407 0 -0.064368753775068038 0.044598294463339003 0 -0.043092896532975877 0.050825935550454407 0 -0.056917329294472907 0.062634745154407367 0 -0.043092896532975877 0.050825935550454407 0 -0.043668215999513947 0.062492916746221712 0 -0.064368753775068038 0.044598294463339003 0 -0.050136771598916177 0.021300805633889169 0 -0.035976905444900363 0.039177191135729997 0 -0.064368753775068038 0.044598294463339003 0 -0.035976905444900363 0.039177191135729997 0 -0.043092896532975877 0.050825935550454407 0 -0.064368753775068038 0.044598294463339003 0 -0.065567190003576969 0.02787042833550625 0 -0.050136771598916177 0.021300805633889169 0 -0.035976905444900363 0.039177191135729997 0 -0.043092896532975877 0.050825935550454407 0 -0.021817039290884022 0.057053576637570498 0 -0.043092896532975877 0.050825935550454407 0 -0.021817039290884022 0.057053576637570498 0 -0.03036675161832712 0.060789526161765688 0 -0.043092896532975877 0.050825935550454407 0 -0.021817039290884022 0.057053576637570498 0 -0.043092896532975877 0.050825935550454407 0 -0.043668215999513947 0.062492916746221712 0 -0.03036675161832712 0.060789526161765688 0 -0.035976905444900363 0.039177191135729997 0 -0.021817039290884022 0.057053576637570498 0 -0.023380363133597371 0.065442952699973064 0 -0.021817039290884022 0.057053576637570498 0 -0.03036675161832712 0.060789526161765688 0 -0.040669640705615413 0.0212410590638764 0 -0.035976905444900363 0.039177191135729997 0 -0.01704264365829922 0.039057697995704937 0 -0.035976905444900363 0.039177191135729997 0 -0.021817039290884022 0.057053576637570498 0 -0.01704264365829922 0.039057697995704937 0 -0.01704264365829922 0.039057697995704937 0 -0.012816892631072571 0.025645468694267069 0 0.0013651773459444729 0.031880029734714342 0 -0.01704264365829922 0.039057697995704937 0 0.0065843533890169014 0.056874336927533638 0 0.0013651773459444729 0.031880029734714342 0 -0.003137787526490379 0.062521167176500969 0 -0.01704264365829922 0.039057697995704937 0 0.0065843533890169014 0.056874336927533638 0 -0.003137787526490379 0.062521167176500969 0 -0.021817039290884022 0.057053576637570498 0 -0.01704264365829922 0.039057697995704937 0 -0.01704264365829922 0.039057697995704937 0 0.0065843533890169014 0.056874336927533638 0 -0.003137787526490379 0.062521167176500969 0 -0.021817039290884022 0.057053576637570498 0 -0.026366295026715381 -0.0080643654216814211 0 -0.02841283365284639 0.0087375389049946864 0 -0.012500558840385451 0.01190783215651646 0 -0.02841283365284639 0.0087375389049946864 0 -0.023089545371550078 0.019736314890132538 0 -0.012500558840385451 0.01190783215651646 0 -0.026366295026715381 -0.0080643654216814211 0 -0.012500558840385451 0.01190783215651646 0 -0.040669640705615413 0.0212410590638764 0 -0.02841283365284639 0.0087375389049946864 0 -0.023089545371550078 0.019736314890132538 0 -0.040669640705615413 0.0212410590638764 0 -0.01704264365829922 0.039057697995704937 0 -0.023089545371550078 0.019736314890132538 0 -0.01704264365829922 0.039057697995704937 0 -0.023089545371550078 0.019736314890132538 0 -0.012816892631072571 0.025645468694267069 0 -0.040669640705615413 0.0212410590638764 0 -0.01704264365829922 0.039057697995704937 0 -0.023089545371550078 0.019736314890132538 0 -0.012816892631072571 0.025645468694267069 0 -0.012500558840385451 0.01190783215651646 0 -0.012500558840385451 0.01190783215651646 0 0.0082665737667670623 0.02373199143127953 0 0.0013651773459444729 0.031880029734714342 0 -0.012500558840385451 0.01190783215651646 0 0.0013651773459444729 0.031880029734714342 0 -0.012816892631072571 0.025645468694267069 0 -0.012500558840385451 0.01190783215651646 0 0.0013651773459444729 0.031880029734714342 0 -0.0060991833155395643 -8.9340787780604891e-05 0 -0.012500558840385451 0.01190783215651646 0 0.0082665737667670623 0.02373199143127953 0 -0.026366295026715381 -0.0080643654216814211 0 -0.0060991833155395643 -8.9340787780604891e-05 0 -0.012500558840385451 0.01190783215651646 0 -0.0060991833155395643 -8.9340787780604891e-05 0 0.0082665737667670623 0.02373199143127953 0 -0.0060991833155395643 -8.9340787780604891e-05 0 0.0082665737667670623 0.02373199143127953 0 0.017048673377461451 0.0079426142550743165 0 0.0082665737667670623 0.02373199143127953 0 0.03625653237627189 0.039640091989698159 0 0.033603450889287442 0.019387283149508529 0 0.0082665737667670623 0.02373199143127953 0 0.017048673377461451 0.0079426142550743165 0 0.033603450889287442 0.019387283149508529 0 0.017048673377461451 0.0079426142550743165 0 0.033603450889287442 0.019387283149508529 0 0.03105222981857109 -0.0008786088452242824 0 0.0065843533890169014 0.056874336927533638 0 0.015230913532274329 0.05185222731291228 0 0.02473194611532769 0.065537508598785446 0 -0.003137787526490379 0.062521167176500969 0 0.0065843533890169014 0.056874336927533638 0 0.01215692475392297 0.066998071562974507 0 -0.003137787526490379 0.062521167176500969 0 0.0065843533890169014 0.056874336927533638 0 0.0065843533890169014 0.056874336927533638 0 0.015230913532274329 0.05185222731291228 0 0.0082665737667670623 0.02373199143127953 0 0.0013651773459444729 0.031880029734714342 0 0.02263233084907269 0.047553323650340207 0 0.015230913532274329 0.05185222731291228 0 0.0013651773459444729 0.031880029734714342 0 0.02263233084907269 0.047553323650340207 0 0.0065843533890169014 0.056874336927533638 0 0.015230913532274329 0.05185222731291228 0 0.0013651773459444729 0.031880029734714342 0 0.0082665737667670623 0.02373199143127953 0 0.02263233084907269 0.047553323650340207 0 0.015230913532274329 0.05185222731291228 0 0.0013651773459444729 0.031880029734714342 0 0.0082665737667670623 0.02373199143127953 0 0.02263233084907269 0.047553323650340207 0 0.03625653237627189 0.039640091989698159 0 0.02263233084907269 0.047553323650340207 0 0.03625653237627189 0.039640091989698159 0 0.02263233084907269 0.047553323650340207 0 0.036745802469353328 0.070956315522245531 0 0.02263233084907269 0.047553323650340207 0 0.02473194611532769 0.065537508598785446 0 0.030860827439113281 0.068836381689233728 0 0.02263233084907269 0.047553323650340207 0 0.036745802469353328 0.070956315522245531 0 0.030860827439113281 0.068836381689233728 0 0.015230913532274329 0.05185222731291228 0 0.02263233084907269 0.047553323650340207 0 0.02473194611532769 0.065537508598785446 0 0.015230913532274329 0.05185222731291228 0 0.02263233084907269 0.047553323650340207 0 0.015230913532274329 0.05185222731291228 0 0.02473194611532769 0.065537508598785446 0 0.036981171178426579 0.05451407738129594 0 0.03625653237627189 0.039640091989698159 0 0.051894327175260428 0.051085307113240649 0 0.02263233084907269 0.047553323650340207 0 0.036981171178426579 0.05451407738129594 0 0.036745802469353328 0.070956315522245531 0 0.036981171178426579 0.05451407738129594 0 0.051894327175260428 0.051085307113240649 0 0.036745802469353328 0.070956315522245531 0 0.02263233084907269 0.047553323650340207 0 0.036981171178426579 0.05451407738129594 0 0.03625653237627189 0.039640091989698159 0 0.03625653237627189 0.039640091989698159 0 0.049880733903471093 0.031726860329056077 0 0.051894327175260428 0.051085307113240649 0 0.03625653237627189 0.039640091989698159 0 0.049880733903471093 0.031726860329056077 0 0.049880733903471093 0.031726860329056077 0 0.051894327175260428 0.051085307113240649 0 0.063953296952700994 0.038195409423808308 0 0.051894327175260428 0.051085307113240649 0 0.071843673561547028 0.051601535267580927 0 0.062226300778223588 0.063659228363162998 0 0.051894327175260428 0.051085307113240649 0 0.062226300778223588 0.063659228363162998 0 0.036745802469353328 0.070956315522245531 0 0.033603450889287442 0.019387283149508529 0 0.049637077477659317 0.01270165718965135 0 0.03105222981857109 -0.0008786088452242824 0 0.049637077477659317 0.01270165718965135 0 0.03105222981857109 -0.0008786088452242824 0 0.051489997258358969 -0.0070351701845739372 0 0.03625653237627189 0.039640091989698159 0 0.049880733903471093 0.031726860329056077 0 0.033603450889287442 0.019387283149508529 0 0.049880733903471093 0.031726860329056077 0 0.033603450889287442 0.019387283149508529 0 0.049637077477659317 0.01270165718965135 0 0.049880733903471093 0.031726860329056077 0 0.060449169125260722 0.023185786893228189 0 0.049637077477659317 0.01270165718965135 0 0.049880733903471093 0.031726860329056077 0 0.060449169125260722 0.023185786893228189 0 0.063953296952700994 0.038195409423808308 0 0.049637077477659317 0.01270165718965135 0 0.066317762399445576 0.0043892815254785167 0 0.051489997258358969 -0.0070351701845739372 0 0.060449169125260722 0.023185786893228189 0 0.049637077477659317 0.01270165718965135 0 0.066317762399445576 0.0043892815254785167 0 0.066317762399445576 0.0043892815254785167 0 0.086626109984082864 0.0087739812618877148 0 0.075661010549378321 0.023715469181392949 0 0.066317762399445576 0.0043892815254785167 0 0.086626109984082864 0.0087739812618877148 0 0.081532356514722987 -0.0108093011453232 0 0.086626109984082864 0.0087739812618877148 0 0.075661010549378321 0.023715469181392949 0 0.094821805463468689 0.025328515686624111 0 0.075661010549378321 0.023715469181392949 0 0.082092862665525138 0.039219240595167577 0 0.094821805463468689 0.025328515686624111 0 0.060449169125260722 0.023185786893228189 0 0.066317762399445576 0.0043892815254785167 0 0.075661010549378321 0.023715469181392949 0 0.060449169125260722 0.023185786893228189 0 0.075661010549378321 0.023715469181392949 0 0.063953296952700994 0.038195409423808308 0 0.063953296952700994 0.038195409423808308 0 0.071843673561547028 0.051601535267580927 0 0.082092862665525138 0.039219240595167577 0 0.075661010549378321 0.023715469181392949 0 0.063953296952700994 0.038195409423808308 0 0.082092862665525138 0.039219240595167577 0 0.051894327175260428 0.051085307113240649 0 0.063953296952700994 0.038195409423808308 0 0.071843673561547028 0.051601535267580927 0 0.071843673561547028 0.051601535267580927 0 0.080193698541872332 0.068438339119724273 0 0.062226300778223588 0.063659228363162998 0 0.071843673561547028 0.051601535267580927 0 0.086627117939808762 0.052690849200832918 0 0.080193698541872332 0.068438339119724273 0 0.086627117939808762 0.052690849200832918 0 0.099151617951542315 0.062530061618462029 0 0.080193698541872332 0.068438339119724273 0 0.071843673561547028 0.051601535267580927 0 0.086627117939808762 0.052690849200832918 0 0.082092862665525138 0.039219240595167577 0 0.082092862665525138 0.039219240595167577 0 0.099853736978557039 0.041665069403229747 0 0.094821805463468689 0.025328515686624111 0 0.086627117939808762 0.052690849200832918 0 0.082092862665525138 0.039219240595167577 0 0.099853736978557039 0.041665069403229747 0 0.099853736978557039 0.041665069403229747 0 0.1117731786429243 0.031222272408135909 0 0.094821805463468689 0.025328515686624111 0 0.099853736978557039 0.041665069403229747 0 0.099151617951542315 0.062530061618462029 0 0.099853736978557039 0.041665069403229747 0 0.12084946676276651 0.051920765802114653 0 0.099151617951542315 0.062530061618462029 0 0.086627117939808762 0.052690849200832918 0 0.099853736978557039 0.041665069403229747 0 0.099151617951542315 0.062530061618462029 0 0.12084946676276651 0.051920765802114653 0 0.1117731786429243 0.031222272408135909 0 0.12590570183597469 0.035936875787285161 0 0.099853736978557039 0.041665069403229747 0 0.12084946676276651 0.051920765802114653 0 0.1117731786429243 0.031222272408135909 0 0.1117731786429243 0.031222272408135909 0 0.12401493039047071 0.020319397639299529 0 0.10519343042630799 0.012163010130262299 0 0.1117731786429243 0.031222272408135909 0 0.12401493039047071 0.020319397639299529 0 0.12590570183597469 0.035936875787285161 0 0.12313387866373759 0.0035515711970952281 0 0.10519343042630799 0.012163010130262299 0 0.10448182883083849 -0.0074166645345203897 0 0.12401493039047071 0.020319397639299529 0 0.12313387866373759 0.0035515711970952281 0 0.10519343042630799 0.012163010130262299 0 0.086626109984082864 0.0087739812618877148 0 0.10519343042630799 0.012163010130262299 0 0.094821805463468689 0.025328515686624111 0 0.086626109984082864 0.0087739812618877148 0 0.10519343042630799 0.012163010130262299 0 0.10448182883083849 -0.0074166645345203897 0 0.1117731786429243 0.031222272408135909 0 0.10519343042630799 0.012163010130262299 0 0.094821805463468689 0.025328515686624111 0 0.097782068941230843 0.1032291857541798 0 0.124516223342394 0.102573694320021 0 0.09812404952953474 0.093066489632638694 0 0.097782068941230843 0.1032291857541798 0 0.097391140065000922 0.1148464865898018 0 0.12629269148191641 0.106016018243555 0 0.097782068941230843 0.1032291857541798 0 0.09812404952953474 0.093066489632638694 0 0.097782068941230843 0.1032291857541798 0 0.097391140065000922 0.1148464865898018 0 0.097391140065000922 0.1148464865898018 0 0.1136454455756077 0.1184987920293956 0 0.09686179101501495 0.13057724360127851 0 0.097391140065000922 0.1148464865898018 0 0.09686179101501495 0.13057724360127851 0 0.1136454455756077 0.1184987920293956 0 0.09686179101501495 0.13057724360127851 0 0.097391140065000922 0.1148464865898018 0 0.1136454455756077 0.1184987920293956 0 0.12629269148191641 0.106016018243555 0 0.1136454455756077 0.1184987920293956 0 0.12629269148191641 0.106016018243555 0 0.13042910013620129 0.10642034045751381 0 0.097391140065000922 0.1148464865898018 0 0.12629269148191641 0.106016018243555 0 0.1136454455756077 0.1184987920293956 0 0.13042910013620129 0.10642034045751381 0 0.097782068941230843 0.1032291857541798 0 0.12629269148191641 0.106016018243555 0 0.097782068941230843 0.1032291857541798 0 0.124516223342394 0.102573694320021 0 0.12629269148191641 0.106016018243555 0 0.124516223342394 0.102573694320021 0 0.1146001851029943 0.090900803095575786 0 0.09812404952953474 0.093066489632638694 0 0.124516223342394 0.102573694320021 0 0.09812404952953474 0.093066489632638694 0 0.124516223342394 0.102573694320021 0 0.1234856839472072 0.093079819220779875 0 0.1146001851029943 0.090900803095575786 0 0.1228453092766736 0.076283638144546695 0 0.09844949892452759 0.083395053833694249 0 0.1234856839472072 0.093079819220779875 0 0.1146001851029943 0.090900803095575786 0 0.1228453092766736 0.076283638144546695 0 0.1146001851029943 0.090900803095575786 0 0.1228453092766736 0.076283638144546695 0 0.1055414396037832 0.088474895408991422 0 0.12084946676276651 0.051920765802114653 0 0.1228453092766736 0.076283638144546695 0 0.099151617951542315 0.062530061618462029 0 0.1228453092766736 0.076283638144546695 0 0.099151617951542315 0.062530061618462029 0 0.09844949892452759 0.083395053833694249 0 0.099151617951542315 0.062530061618462029 0 0.09844949892452759 0.083395053833694249 0 0.099151617951542315 0.062530061618462029 0 0.09844949892452759 0.083395053833694249 0 0.088506272824586715 0.077236134328939068 0 0.1146001851029943 0.090900803095575786 0 0.1055414396037832 0.088474895408991422 0 0.09812404952953474 0.093066489632638694 0 0.1228453092766736 0.076283638144546695 0 0.1055414396037832 0.088474895408991422 0 0.09844949892452759 0.083395053833694249 0 0.09844949892452759 0.083395053833694249 0 0.09812404952953474 0.093066489632638694 0 0.1055414396037832 0.088474895408991422 0 0.09844949892452759 0.083395053833694249 0 0.09812404952953474 0.093066489632638694 0 0.09812404952953474 0.093066489632638694 0 0.083429971751463911 0.087773268766517837 0 0.09844949892452759 0.083395053833694249 0 0.09812404952953474 0.093066489632638694 0 0.083429971751463911 0.087773268766517837 0 0.09844949892452759 0.083395053833694249 0 0.083429971751463911 0.087773268766517837 0 0.088506272824586715 0.077236134328939068 0 0.09844949892452759 0.083395053833694249 0 0.083429971751463911 0.087773268766517837 0 0.083429971751463911 0.087773268766517837 0 0.080193698541872332 0.068438339119724273 0 0.088506272824586715 0.077236134328939068 0 0.099151617951542315 0.062530061618462029 0 0.080193698541872332 0.068438339119724273 0 0.088506272824586715 0.077236134328939068 0 0.080193698541872332 0.068438339119724273 0 0.062226300778223588 0.063659228363162998 0 0.060087887110408432 0.079364792144382079 0 0.083429971751463911 0.087773268766517837 0 0.065378478009223057 0.093035306549158314 0 0.060087887110408432 0.079364792144382079 0 0.083429971751463911 0.087773268766517837 0 0.060087887110408432 0.079364792144382079 0 0.083429971751463911 0.087773268766517837 0 0.065378478009223057 0.093035306549158314 0 0.083429971751463911 0.087773268766517837 0 0.080193698541872332 0.068438339119724273 0 0.060087887110408432 0.079364792144382079 0 0.083429971751463911 0.087773268766517837 0 0.065378478009223057 0.093035306549158314 0 0.072554526604106412 0.10076326504299279 0 0.097782068941230843 0.1032291857541798 0 0.072554526604106412 0.10076326504299279 0 0.083224369189592057 0.110888398146449 0 0.097782068941230843 0.1032291857541798 0 0.083429971751463911 0.087773268766517837 0 0.072554526604106412 0.10076326504299279 0 0.097782068941230843 0.1032291857541798 0 0.072554526604106412 0.10076326504299279 0 0.097782068941230843 0.1032291857541798 0 0.09812404952953474 0.093066489632638694 0 0.083429971751463911 0.087773268766517837 0 0.097391140065000922 0.1148464865898018 0 0.083224369189592057 0.110888398146449 0 0.073688932706138466 0.12208836744246809 0 0.097391140065000922 0.1148464865898018 0 0.073688932706138466 0.12208836744246809 0 0.097391140065000922 0.1148464865898018 0 0.073688932706138466 0.12208836744246809 0 0.083567606064033184 0.13009304620436929 0 0.097782068941230843 0.1032291857541798 0 0.097391140065000922 0.1148464865898018 0 0.083224369189592057 0.110888398146449 0 0.072554526604106412 0.10076326504299279 0 0.083224369189592057 0.110888398146449 0 0.073688932706138466 0.12208836744246809 0 0.072554526604106412 0.10076326504299279 0 0.073688932706138466 0.12208836744246809 0 0.060259787635175643 0.11516922602917409 0 0.073688932706138466 0.12208836744246809 0 0.060259787635175643 0.11516922602917409 0 0.052024026791648283 0.12666037027577559 0 0.050019384779381851 0.1169945047809985 0 0.060259787635175643 0.11516922602917409 0 0.052024026791648283 0.12666037027577559 0 0.050019384779381851 0.1169945047809985 0 0.043678864345366303 0.1230522574692401 0 0.052024026791648283 0.12666037027577559 0 0.050019384779381851 0.1169945047809985 0 0.05312934104925484 0.1085195720653928 0 0.042457241474105269 0.1116230922557807 0 0.050019384779381851 0.1169945047809985 0 0.060259787635175643 0.11516922602917409 0 0.05312934104925484 0.1085195720653928 0 0.072554526604106412 0.10076326504299279 0 0.047326984266982543 0.098297344331799874 0 0.065378478009223057 0.093035306549158314 0 0.072554526604106412 0.10076326504299279 0 0.047326984266982543 0.098297344331799874 0 0.072554526604106412 0.10076326504299279 0 0.060259787635175643 0.11516922602917409 0 0.05312934104925484 0.1085195720653928 0 0.072554526604106412 0.10076326504299279 0 0.047326984266982543 0.098297344331799874 0 0.05312934104925484 0.1085195720653928 0 0.065378478009223057 0.093035306549158314 0 0.047326984266982543 0.098297344331799874 0 0.047326984266982543 0.098297344331799874 0 0.05312934104925484 0.1085195720653928 0 0.042457241474105269 0.1116230922557807 0 0.047326984266982543 0.098297344331799874 0 0.032510615547548742 0.10261633826750551 0 0.042457241474105269 0.1116230922557807 0 0.047326984266982543 0.098297344331799874 0 0.032510615547548742 0.10261633826750551 0 0.047326984266982543 0.098297344331799874 0 0.031761238446880682 0.096775836826631101 0 0.047326984266982543 0.098297344331799874 0 0.031761238446880682 0.096775836826631101 0 0.039687759252118093 0.092500410801849786 0 0.047326984266982543 0.098297344331799874 0 0.031761238446880682 0.096775836826631101 0 0.032510615547548742 0.10261633826750551 0 0.043678864345366303 0.1230522574692401 0 0.042457241474105269 0.1116230922557807 0 0.027981663621304029 0.1199228722274485 0 0.032510615547548742 0.10261633826750551 0 0.042457241474105269 0.1116230922557807 0 0.027981663621304029 0.1199228722274485 0 0.050019384779381851 0.1169945047809985 0 0.043678864345366303 0.1230522574692401 0 0.042457241474105269 0.1116230922557807 0 0.062226300778223588 0.063659228363162998 0 0.060087887110408432 0.079364792144382079 0 0.036745802469353328 0.070956315522245531 0 0.060087887110408432 0.079364792144382079 0 0.036745802469353328 0.070956315522245531 0 0.065378478009223057 0.093035306549158314 0 0.047326984266982543 0.098297344331799874 0 0.04991477884955095 0.089548931318297845 0 0.060087887110408432 0.079364792144382079 0 0.04991477884955095 0.089548931318297845 0 0.037984520236608643 0.073010360240553213 0 0.065378478009223057 0.093035306549158314 0 0.060087887110408432 0.079364792144382079 0 0.04991477884955095 0.089548931318297845 0 0.04991477884955095 0.089548931318297845 0 0.032287463663017053 0.081497162895216482 0 0.02824956611928401 0.073211634122915689 0 0.04991477884955095 0.089548931318297845 0 0.037984520236608643 0.073010360240553213 0 0.02824956611928401 0.073211634122915689 0 0.04991477884955095 0.089548931318297845 0 0.037101031083907443 0.087723980002023499 0 0.032287463663017053 0.081497162895216482 0 0.04991477884955095 0.089548931318297845 0 0.02824956611928401 0.073211634122915689 0 0.047326984266982543 0.098297344331799874 0 0.04991477884955095 0.089548931318297845 0 0.039687759252118093 0.092500410801849786 0 0.04991477884955095 0.089548931318297845 0 0.039687759252118093 0.092500410801849786 0 0.037101031083907443 0.087723980002023499 0 0.039687759252118093 0.092500410801849786 0 0.032479317165600499 0.089964484240120657 0 0.037101031083907443 0.087723980002023499 0 0.031761238446880682 0.096775836826631101 0 0.039687759252118093 0.092500410801849786 0 0.032479317165600499 0.089964484240120657 0 0.032479317165600499 0.089964484240120657 0 0.037101031083907443 0.087723980002023499 0 0.031135836489250571 0.085108910754632727 0 0.037101031083907443 0.087723980002023499 0 0.032287463663017053 0.081497162895216482 0 0.031135836489250571 0.085108910754632727 0 0.060087887110408432 0.079364792144382079 0 0.036745802469353328 0.070956315522245531 0 0.037984520236608643 0.073010360240553213 0 0.036745802469353328 0.070956315522245531 0 0.037984520236608643 0.073010360240553213 0 0.02824956611928401 0.073211634122915689 0 0.036745802469353328 0.070956315522245531 0 0.030860827439113281 0.068836381689233728 0 0.02824956611928401 0.073211634122915689 0 0.036745802469353328 0.070956315522245531 0 0.037984520236608643 0.073010360240553213 0 0.036745802469353328 0.070956315522245531 0 0.030860827439113281 0.068836381689233728 0 0.0065843533890169014 0.056874336927533638 0 0.02824956611928401 0.073211634122915689 0 0.01215692475392297 0.066998071562974507 0 0.0065843533890169014 0.056874336927533638 0 0.02824956611928401 0.073211634122915689 0 0.02824956611928401 0.073211634122915689 0 0.018450153716404929 0.073992148640110805 0 0.01215692475392297 0.066998071562974507 0 0.0065843533890169014 0.056874336927533638 0 0.02473194611532769 0.065537508598785446 0 0.02824956611928401 0.073211634122915689 0 0.02473194611532769 0.065537508598785446 0 0.030860827439113281 0.068836381689233728 0 0.02824956611928401 0.073211634122915689 0 0.032287463663017053 0.081497162895216482 0 0.02824956611928401 0.073211634122915689 0 0.02587794872381053 0.078913771211261349 0 0.02824956611928401 0.073211634122915689 0 0.020957157652685139 0.077868279321067796 0 0.02587794872381053 0.078913771211261349 0 0.018450153716404929 0.073992148640110805 0 0.020957157652685139 0.077868279321067796 0 0.012436966339727599 0.077890609553485257 0 0.02824956611928401 0.073211634122915689 0 0.018450153716404929 0.073992148640110805 0 0.020957157652685139 0.077868279321067796 0 0.020957157652685139 0.077868279321067796 0 0.016781701370984541 0.082161566358806865 0 0.012436966339727599 0.077890609553485257 0 0.016781701370984541 0.082161566358806865 0 0.020067284861418989 0.086474770601523476 0 0.016181299025372069 0.086097661834652728 0 0.016781701370984541 0.082161566358806865 0 0.0225035917280107 0.082541145937402111 0 0.020067284861418989 0.086474770601523476 0 0.0225035917280107 0.082541145937402111 0 0.024433012300969881 0.086926167336376731 0 0.020067284861418989 0.086474770601523476 0 0.020957157652685139 0.077868279321067796 0 0.0225035917280107 0.082541145937402111 0 0.02587794872381053 0.078913771211261349 0 0.020957157652685139 0.077868279321067796 0 0.016781701370984541 0.082161566358806865 0 0.0225035917280107 0.082541145937402111 0 0.0225035917280107 0.082541145937402111 0 0.02587794872381053 0.078913771211261349 0 0.026904445458195151 0.082902320795376599 0 0.032287463663017053 0.081497162895216482 0 0.02587794872381053 0.078913771211261349 0 0.026904445458195151 0.082902320795376599 0 0.032287463663017053 0.081497162895216482 0 0.031135836489250571 0.085108910754632727 0 0.026904445458195151 0.082902320795376599 0 0.031135836489250571 0.085108910754632727 0 0.026904445458195151 0.082902320795376599 0 0.028436753644750831 0.08725567045504147 0 0.0225035917280107 0.082541145937402111 0 0.026904445458195151 0.082902320795376599 0 0.024433012300969881 0.086926167336376731 0 0.026904445458195151 0.082902320795376599 0 0.024433012300969881 0.086926167336376731 0 0.028436753644750831 0.08725567045504147 0 0.024433012300969881 0.086926167336376731 0 0.028436753644750831 0.08725567045504147 0 0.027231156809738071 0.091376469148700651 0 0.032479317165600499 0.089964484240120657 0 0.031135836489250571 0.085108910754632727 0 0.028436753644750831 0.08725567045504147 0 0.032479317165600499 0.089964484240120657 0 0.028436753644750831 0.08725567045504147 0 0.027231156809738071 0.091376469148700651 0 0.031761238446880682 0.096775836826631101 0 0.032479317165600499 0.089964484240120657 0 0.027231156809738071 0.091376469148700651 0 0.024433012300969881 0.086926167336376731 0 0.027231156809738071 0.091376469148700651 0 0.021910100357956021 0.091553401807323326 0 0.027231156809738071 0.091376469148700651 0 0.021910100357956021 0.091553401807323326 0 0.02492327956745154 0.097651736392399824 0 0.024433012300969881 0.086926167336376731 0 0.021910100357956021 0.091553401807323326 0 0.020067284861418989 0.086474770601523476 0 0.020067284861418989 0.086474770601523476 0 0.016181299025372069 0.086097661834652728 0 0.01593063560634456 0.091030737842585543 0 0.021910100357956021 0.091553401807323326 0 0.020067284861418989 0.086474770601523476 0 0.01593063560634456 0.091030737842585543 0 0.021910100357956021 0.091553401807323326 0 0.01593063560634456 0.091030737842585543 0 0.018432319414470429 0.096653040101029153 0 0.0015840102750627151 0.086596665437876572 0 0.0044834815646254481 0.086400000020197945 0 0.017694246828114591 0.1069353322032099 0 0.01593063560634456 0.091030737842585543 0 0.0044834815646254481 0.086400000020197945 0 0.018432319414470429 0.096653040101029153 0 0.01593063560634456 0.091030737842585543 0 0.0044834815646254481 0.086400000020197945 0 0.0095738794316568773 0.085800779423167051 0 0.01593063560634456 0.091030737842585543 0 0.01315030996073854 0.086341648670523505 0 0.0095738794316568773 0.085800779423167051 0 0.016181299025372069 0.086097661834652728 0 0.01593063560634456 0.091030737842585543 0 0.01315030996073854 0.086341648670523505 0 0.0015840102750627151 0.086596665437876572 0 0.0044834815646254481 0.086400000020197945 0 0.0015840102750627151 0.086596665437876572 0 0.0044834815646254481 0.086400000020197945 0 0.0023564420774942361 0.076512728404814642 0 0.0044834815646254481 0.086400000020197945 0 0.0079532390386169612 0.081808306596670724 0 0.0095738794316568773 0.085800779423167051 0 0.0079532390386169612 0.081808306596670724 0 0.012436966339727599 0.077890609553485257 0 0.0023564420774942361 0.076512728404814642 0 0.0044834815646254481 0.086400000020197945 0 0.0079532390386169612 0.081808306596670724 0 0.0023564420774942361 0.076512728404814642 0 0.0079532390386169612 0.081808306596670724 0 0.012679565861182761 0.083350095406217697 0 0.012436966339727599 0.077890609553485257 0 0.0079532390386169612 0.081808306596670724 0 0.0095738794316568773 0.085800779423167051 0 0.012679565861182761 0.083350095406217697 0 0.016781701370984541 0.082161566358806865 0 0.016181299025372069 0.086097661834652728 0 0.012679565861182761 0.083350095406217697 0 0.01315030996073854 0.086341648670523505 0 0.0095738794316568773 0.085800779423167051 0 0.012679565861182761 0.083350095406217697 0 0.016181299025372069 0.086097661834652728 0 0.01315030996073854 0.086341648670523505 0 0.012679565861182761 0.083350095406217697 0 0.016781701370984541 0.082161566358806865 0 0.012679565861182761 0.083350095406217697 0 0.012436966339727599 0.077890609553485257 0 0.018450153716404929 0.073992148640110805 0 0.012436966339727599 0.077890609553485257 0 0.01215692475392297 0.066998071562974507 0 0.012436966339727599 0.077890609553485257 0 0.0023564420774942361 0.076512728404814642 0 0.01215692475392297 0.066998071562974507 0 -0.003137787526490379 0.062521167176500969 0 0.0023564420774942361 0.076512728404814642 0 0.01215692475392297 0.066998071562974507 0 -0.003137787526490379 0.062521167176500969 0 0.01215692475392297 0.066998071562974507 0 0.032510615547548742 0.10261633826750551 0 0.027981663621304029 0.1199228722274485 0 0.017694246828114591 0.1069353322032099 0 0.027981663621304029 0.1199228722274485 0 0.017694246828114591 0.1069353322032099 0 0.0087792745487023267 0.1228019865252658 0 0.027981663621304029 0.1199228722274485 0 0.017694246828114591 0.1069353322032099 0 0.032510615547548742 0.10261633826750551 0 0.017694246828114591 0.1069353322032099 0 0.032510615547548742 0.10261633826750551 0 0.02492327956745154 0.097651736392399824 0 0.017694246828114591 0.1069353322032099 0 0.031761238446880682 0.096775836826631101 0 0.027231156809738071 0.091376469148700651 0 0.02492327956745154 0.097651736392399824 0 0.031761238446880682 0.096775836826631101 0 0.032510615547548742 0.10261633826750551 0 0.02492327956745154 0.097651736392399824 0 0.02492327956745154 0.097651736392399824 0 0.018432319414470429 0.096653040101029153 0 0.017694246828114591 0.1069353322032099 0 0.021910100357956021 0.091553401807323326 0 0.02492327956745154 0.097651736392399824 0 0.018432319414470429 0.096653040101029153 0 -0.0074694708824928138 0.1142705940511041 0 0.0015840102750627151 0.086596665437876572 0 0.017694246828114591 0.1069353322032099 0 0.0015840102750627151 0.086596665437876572 0 0.017694246828114591 0.1069353322032099 0 0.0044834815646254481 0.086400000020197945 0 0.018432319414470429 0.096653040101029153 0 0.017694246828114591 0.1069353322032099 0 -0.0074694708824928138 0.1142705940511041 0 0.017694246828114591 0.1069353322032099 0 0.0087792745487023267 0.1228019865252658 0 -0.0074694708824928138 0.1142705940511041 0 0.017694246828114591 0.1069353322032099 0 -0.0050733015910006882 0.13156669209468241 0 0.0087792745487023267 0.1228019865252658 0 0.010763234767585761 0.14131444204988469 0 0.027981663621304029 0.1199228722274485 0 0.010763234767585761 0.14131444204988469 0 0.038269080414491119 0.13291041225168909 0 0.027981663621304029 0.1199228722274485 0 0.0087792745487023267 0.1228019865252658 0 0.010763234767585761 0.14131444204988469 0 0.010763234767585761 0.14131444204988469 0 0.038269080414491119 0.13291041225168909 0 0.0059516873759019248 0.15350785084126731 0 0.028645985631124801 0.15729722983446021 0 0.010763234767585761 0.14131444204988469 0 0.028645985631124801 0.15729722983446021 0 0.038269080414491119 0.13291041225168909 0 0.0059516873759019248 0.15350785084126731 0 0.010763234767585761 0.14131444204988469 0 0.028645985631124801 0.15729722983446021 0 -0.0048761696063712393 0.16501736167893261 0 0.0059516873759019248 0.15350785084126731 0 0.012284968004978509 0.1787382990757897 0 0.012284968004978509 0.1787382990757897 0 0.02375080669594155 0.18046424795594759 0 0.028030486495620299 0.16898305017007589 0 0.012284968004978509 0.1787382990757897 0 0.02375080669594155 0.18046424795594759 0 0.016970666978359729 0.1922037977163778 0 0.02375080669594155 0.18046424795594759 0 0.028030486495620299 0.16898305017007589 0 0.033315378002350772 0.1805593221233118 0 0.0059516873759019248 0.15350785084126731 0 0.012284968004978509 0.1787382990757897 0 0.028645985631124801 0.15729722983446021 0 0.012284968004978509 0.1787382990757897 0 0.028030486495620299 0.16898305017007589 0 0.028645985631124801 0.15729722983446021 0 0.012284968004978509 0.1787382990757897 0 0.028645985631124801 0.15729722983446021 0 0.028030486495620299 0.16898305017007589 0 0.030888895986625309 0.16227042358617369 0 0.028645985631124801 0.15729722983446021 0 0.030888895986625309 0.16227042358617369 0 0.028645985631124801 0.15729722983446021 0 0.031245003311546959 0.15773120064467711 0 0.028645985631124801 0.15729722983446021 0 0.031245003311546959 0.15773120064467711 0 0.043712165639839658 0.16129220593872531 0 0.03905479223956982 0.17290757803543921 0 0.054168737940629617 0.18083751366900649 0 0.031245003311546959 0.15773120064467711 0 0.035634108508208868 0.16507021369548139 0 0.043712165639839658 0.16129220593872531 0 0.030888895986625309 0.16227042358617369 0 0.031245003311546959 0.15773120064467711 0 0.035634108508208868 0.16507021369548139 0 0.028030486495620299 0.16898305017007589 0 0.035634108508208868 0.16507021369548139 0 0.03905479223956982 0.17290757803543921 0 0.028030486495620299 0.16898305017007589 0 0.030888895986625309 0.16227042358617369 0 0.035634108508208868 0.16507021369548139 0 0.035634108508208868 0.16507021369548139 0 0.043712165639839658 0.16129220593872531 0 0.03905479223956982 0.17290757803543921 0 0.033315378002350772 0.1805593221233118 0 0.03905479223956982 0.17290757803543921 0 0.03755020641952115 0.18913581859039069 0 0.03905479223956982 0.17290757803543921 0 0.054168737940629617 0.18083751366900649 0 0.03755020641952115 0.18913581859039069 0 0.02375080669594155 0.18046424795594759 0 0.033315378002350772 0.1805593221233118 0 0.03755020641952115 0.18913581859039069 0 0.028030486495620299 0.16898305017007589 0 0.033315378002350772 0.1805593221233118 0 0.03905479223956982 0.17290757803543921 0 0.054168737940629617 0.18083751366900649 0 0.060921598231813243 0.18365413076343179 0 0.056695662568592813 0.15541290321517151 0 0.060921598231813243 0.18365413076343179 0 0.056695662568592813 0.15541290321517151 0 0.066999435800068716 0.16918158197116909 0 0.060921598231813243 0.18365413076343179 0 0.056695662568592813 0.15541290321517151 0 0.054168737940629617 0.18083751366900649 0 0.056695662568592813 0.15541290321517151 0 0.043712165639839658 0.16129220593872531 0 0.054168737940629617 0.18083751366900649 0 0.056695662568592813 0.15541290321517151 0 0.056695662568592813 0.15541290321517151 0 0.066999435800068716 0.16918158197116909 0 0.056695662568592813 0.15541290321517151 0 0.063463456826712991 0.15520105448139099 0 0.066999435800068716 0.16918158197116909 0 0.060699941098876831 0.1489915042349329 0 0.056695662568592813 0.15541290321517151 0 0.058782884849915271 0.13441235066763249 0 0.056695662568592813 0.15541290321517151 0 0.058782884849915271 0.13441235066763249 0 0.059423756316153889 0.15398899537628891 0 0.056695662568592813 0.15541290321517151 0 0.063463456826712991 0.15520105448139099 0 0.059423756316153889 0.15398899537628891 0 0.060699941098876831 0.1489915042349329 0 0.063463456826712991 0.15520105448139099 0 0.056695662568592813 0.15541290321517151 0 0.042845813553675942 0.13868839384031359 0 0.056695662568592813 0.15541290321517151 0 0.053712347178484207 0.13547590097597931 0 0.042845813553675942 0.13868839384031359 0 0.056695662568592813 0.15541290321517151 0 0.058782884849915271 0.13441235066763249 0 0.053712347178484207 0.13547590097597931 0 0.043712165639839658 0.16129220593872531 0 0.056695662568592813 0.15541290321517151 0 0.042845813553675942 0.13868839384031359 0 0.059423756316153889 0.15398899537628891 0 0.060699941098876831 0.1489915042349329 0 0.056695662568592813 0.15541290321517151 0 0.056695662568592813 0.15541290321517151 0 0.053712347178484207 0.13547590097597931 0 0.060699941098876831 0.1489915042349329 0 0.058782884849915271 0.13441235066763249 0 0.064854555245333331 0.14608477038392681 0 0.073688932706138466 0.12208836744246809 0 0.052024026791648283 0.12666037027577559 0 0.04998672534727519 0.12933024829513179 0 0.073688932706138466 0.12208836744246809 0 0.04998672534727519 0.12933024829513179 0 0.073688932706138466 0.12208836744246809 0 0.058782884849915271 0.13441235066763249 0 0.04998672534727519 0.12933024829513179 0 0.043678864345366303 0.1230522574692401 0 0.052024026791648283 0.12666037027577559 0 0.04998672534727519 0.12933024829513179 0 0.052024026791648283 0.12666037027577559 0 0.04998672534727519 0.12933024829513179 0 0.058782884849915271 0.13441235066763249 0 0.04998672534727519 0.12933024829513179 0 0.053712347178484207 0.13547590097597931 0 0.04998672534727519 0.12933024829513179 0 0.053712347178484207 0.13547590097597931 0 0.042845813553675942 0.13868839384031359 0 0.04998672534727519 0.12933024829513179 0 0.042845813553675942 0.13868839384031359 0 0.04998672534727519 0.12933024829513179 0 0.042845813553675942 0.13868839384031359 0 0.038269080414491119 0.13291041225168909 0 0.043678864345366303 0.1230522574692401 0 0.027981663621304029 0.1199228722274485 0 0.038269080414491119 0.13291041225168909 0 0.042845813553675942 0.13868839384031359 0 0.038269080414491119 0.13291041225168909 0 0.04998672534727519 0.12933024829513179 0 0.038269080414491119 0.13291041225168909 0 0.043678864345366303 0.1230522574692401 0 0.04998672534727519 0.12933024829513179 0 0.038269080414491119 0.13291041225168909 0 0.027981663621304029 0.1199228722274485 0 0.038269080414491119 0.13291041225168909 0 0.028645985631124801 0.15729722983446021 0 0.042845813553675942 0.13868839384031359 0 0.038269080414491119 0.13291041225168909 0 0.028645985631124801 0.15729722983446021 0 0.031245003311546959 0.15773120064467711 0 0.042845813553675942 0.13868839384031359 0 0.031245003311546959 0.15773120064467711 0 0.043712165639839658 0.16129220593872531 0 0.042845813553675942 0.13868839384031359 0 0.028645985631124801 0.15729722983446021 0 0.042845813553675942 0.13868839384031359 0 0.02310550339109262 0.2411255218466857 0 0.033266235374096252 0.23340162587348251 0 0.035598449415234837 0.2495524571064667 0 0.02310550339109262 0.2411255218466857 0 0.035598449415234837 0.2495524571064667 0 0.027206279367625669 0.25373786143723448 0 0.02310550339109262 0.2411255218466857 0 0.015096421446432079 0.25209654690509331 0 0.027206279367625669 0.25373786143723448 0 0.02310550339109262 0.2411255218466857 0 0.0084792465519147632 0.23863263955916281 0 0.015096421446432079 0.25209654690509331 0 0.0084792465519147632 0.23863263955916281 0 0.015096421446432079 0.25209654690509331 0 0.00052355941179598429 0.25579479798048171 0 -0.001542110983380432 0.22401166836485309 0 0.0084792465519147632 0.23863263955916281 0 0.018986388191252122 0.2193320001986748 0 0.02310550339109262 0.2411255218466857 0 0.018986388191252122 0.2193320001986748 0 0.033266235374096252 0.23340162587348251 0 0.02310550339109262 0.2411255218466857 0 0.0084792465519147632 0.23863263955916281 0 0.018986388191252122 0.2193320001986748 0 0.018986388191252122 0.2193320001986748 0 0.034500458171956461 0.22211718429766469 0 0.033266235374096252 0.23340162587348251 0 0.018986388191252122 0.2193320001986748 0 0.033266235374096252 0.23340162587348251 0 0.018986388191252122 0.2193320001986748 0 0.036500005272805711 0.20539978635814979 0 0.034500458171956461 0.22211718429766469 0 0.018986388191252122 0.2193320001986748 0 0.017017291797971099 0.20338524356172499 0 0.036500005272805711 0.20539978635814979 0 -0.0040760496211680944 0.20017936831711891 0 0.018986388191252122 0.2193320001986748 0 0.017017291797971099 0.20338524356172499 0 -0.0040760496211680944 0.20017936831711891 0 -0.001542110983380432 0.22401166836485309 0 0.018986388191252122 0.2193320001986748 0 -0.0040760496211680944 0.20017936831711891 0 0.012284968004978509 0.1787382990757897 0 0.016970666978359729 0.1922037977163778 0 -0.0040760496211680944 0.20017936831711891 0 0.012284968004978509 0.1787382990757897 0 -0.0040760496211680944 0.20017936831711891 0 0.017017291797971099 0.20338524356172499 0 0.016970666978359729 0.1922037977163778 0 0.02375080669594155 0.18046424795594759 0 0.016970666978359729 0.1922037977163778 0 0.036500005272805711 0.20539978635814979 0 0.02375080669594155 0.18046424795594759 0 0.036500005272805711 0.20539978635814979 0 0.017017291797971099 0.20338524356172499 0 0.016970666978359729 0.1922037977163778 0 0.036500005272805711 0.20539978635814979 0 0.03755020641952115 0.18913581859039069 0 0.04498198013202679 0.19523988445805651 0 0.036500005272805711 0.20539978635814979 0 0.054168737940629617 0.18083751366900649 0 0.03755020641952115 0.18913581859039069 0 0.04498198013202679 0.19523988445805651 0 0.02375080669594155 0.18046424795594759 0 0.03755020641952115 0.18913581859039069 0 0.036500005272805711 0.20539978635814979 0 0.04498198013202679 0.19523988445805651 0 0.051708970895150683 0.2055864192146791 0 0.036500005272805711 0.20539978635814979 0 0.054168737940629617 0.18083751366900649 0 0.060921598231813243 0.18365413076343179 0 0.051708970895150683 0.2055864192146791 0 0.054168737940629617 0.18083751366900649 0 0.051708970895150683 0.2055864192146791 0 0.060921598231813243 0.18365413076343179 0 0.051708970895150683 0.2055864192146791 0 0.065007231693190837 0.21095774195320441 0 0.054168737940629617 0.18083751366900649 0 0.04498198013202679 0.19523988445805651 0 0.051708970895150683 0.2055864192146791 0 0.051708970895150683 0.2055864192146791 0 0.06158757816472793 0.22183335530028911 0 0.065007231693190837 0.21095774195320441 0 0.051708970895150683 0.2055864192146791 0 0.049249203849670853 0.23033532476035151 0 0.036500005272805711 0.20539978635814979 0 0.049249203849670853 0.23033532476035151 0 0.051708970895150683 0.2055864192146791 0 0.036500005272805711 0.20539978635814979 0 0.049249203849670853 0.23033532476035151 0 0.034500458171956461 0.22211718429766469 0 0.033266235374096252 0.23340162587348251 0 0.049249203849670853 0.23033532476035151 0 0.036500005272805711 0.20539978635814979 0 0.034500458171956461 0.22211718429766469 0 0.049249203849670853 0.23033532476035151 0 0.049249203849670853 0.23033532476035151 0 0.06158757816472793 0.22183335530028911 0 0.070416207555479435 0.23167157756297771 0 0.051708970895150683 0.2055864192146791 0 0.049249203849670853 0.23033532476035151 0 0.06158757816472793 0.22183335530028911 0 0.049249203849670853 0.23033532476035151 0 0.047546082556938617 0.24747125154829211 0 0.049249203849670853 0.23033532476035151 0 0.070610784923539879 0.2441657739946789 0 0.061072009066903667 0.25345897537562068 0 0.049249203849670853 0.23033532476035151 0 0.061072009066903667 0.25345897537562068 0 0.049249203849670853 0.23033532476035151 0 0.047546082556938617 0.24747125154829211 0 0.061072009066903667 0.25345897537562068 0 0.033266235374096252 0.23340162587348251 0 0.047546082556938617 0.24747125154829211 0 0.035598449415234837 0.2495524571064667 0 0.033266235374096252 0.23340162587348251 0 0.049249203849670853 0.23033532476035151 0 0.047546082556938617 0.24747125154829211 0 0.033266235374096252 0.23340162587348251 0 0.047546082556938617 0.24747125154829211 0 0.084435907882457292 0.23900008921134 0 0.096639130049948313 0.24797278035889231 0 0.084825475029785158 0.25213258584012982 0 0.084435907882457292 0.23900008921134 0 0.09845639102600906 0.23360986253631411 0 0.096639130049948313 0.24797278035889231 0 0.084435907882457292 0.23900008921134 0 0.070610784923539879 0.2441657739946789 0 0.084825475029785158 0.25213258584012982 0 0.049249203849670853 0.23033532476035151 0 0.070610784923539879 0.2441657739946789 0 0.070416207555479435 0.23167157756297771 0 0.084435907882457292 0.23900008921134 0 0.070610784923539879 0.2441657739946789 0 0.070416207555479435 0.23167157756297771 0 0.070416207555479435 0.23167157756297771 0 0.072164845214347365 0.2193266861242936 0 0.086329511913765561 0.2222609297038444 0 0.06158757816472793 0.22183335530028911 0 0.070416207555479435 0.23167157756297771 0 0.072164845214347365 0.2193266861242936 0 0.084435907882457292 0.23900008921134 0 0.070416207555479435 0.23167157756297771 0 0.086329511913765561 0.2222609297038444 0 0.084435907882457292 0.23900008921134 0 0.086329511913765561 0.2222609297038444 0 0.09845639102600906 0.23360986253631411 0 0.086329511913765561 0.2222609297038444 0 0.077483696744573061 0.20990982610115241 0 0.087739252688294272 0.20091529521787119 0 0.086329511913765561 0.2222609297038444 0 0.087739252688294272 0.20091529521787119 0 0.1031458700614233 0.20499216946464449 0 0.072164845214347365 0.2193266861242936 0 0.086329511913765561 0.2222609297038444 0 0.077483696744573061 0.20990982610115241 0 0.072164845214347365 0.2193266861242936 0 0.065007231693190837 0.21095774195320441 0 0.077483696744573061 0.20990982610115241 0 0.065007231693190837 0.21095774195320441 0 0.077483696744573061 0.20990982610115241 0 0.074763470134491333 0.19486447927898731 0 0.06158757816472793 0.22183335530028911 0 0.072164845214347365 0.2193266861242936 0 0.065007231693190837 0.21095774195320441 0 0.060921598231813243 0.18365413076343179 0 0.065007231693190837 0.21095774195320441 0 0.060921598231813243 0.18365413076343179 0 0.065007231693190837 0.21095774195320441 0 0.074763470134491333 0.19486447927898731 0 0.074763470134491333 0.19486447927898731 0 0.087739252688294272 0.20091529521787119 0 0.085664481939038195 0.18630533217141851 0 0.074763470134491333 0.19486447927898731 0 0.074386953328845803 0.1817008718770618 0 0.085664481939038195 0.18630533217141851 0 0.077483696744573061 0.20990982610115241 0 0.074763470134491333 0.19486447927898731 0 0.087739252688294272 0.20091529521787119 0 0.087739252688294272 0.20091529521787119 0 0.09993471853520533 0.18973909221545601 0 0.085664481939038195 0.18630533217141851 0 0.087739252688294272 0.20091529521787119 0 0.09993471853520533 0.18973909221545601 0 0.1031458700614233 0.20499216946464449 0 0.09993471853520533 0.18973909221545601 0 0.1146745714123306 0.19255259202266689 0 0.1031458700614233 0.20499216946464449 0 0.1146745714123306 0.19255259202266689 0 0.1217121076741302 0.20464914832351649 0 0.1031458700614233 0.20499216946464449 0 0.1146745714123306 0.19255259202266689 0 0.1247629011716563 0.18252623740547949 0 0.12728455581207029 0.1941324991983357 0 0.1146745714123306 0.19255259202266689 0 0.1217121076741302 0.20464914832351649 0 0.12728455581207029 0.1941324991983357 0 0.1217121076741302 0.20464914832351649 0 0.1150430269998147 0.22078887204207451 0 0.1356718933844854 0.2087472974103857 0 0.1217121076741302 0.20464914832351649 0 0.1031458700614233 0.20499216946464449 0 0.1150430269998147 0.22078887204207451 0 0.086329511913765561 0.2222609297038444 0 0.1031458700614233 0.20499216946464449 0 0.1150430269998147 0.22078887204207451 0 0.086329511913765561 0.2222609297038444 0 0.09845639102600906 0.23360986253631411 0 0.1150430269998147 0.22078887204207451 0 0.09845639102600906 0.23360986253631411 0 0.1150430269998147 0.22078887204207451 0 0.1098343782840594 0.23802664136541901 0 0.086329511913765561 0.2222609297038444 0 0.1150430269998147 0.22078887204207451 0 0.1150430269998147 0.22078887204207451 0 0.1098343782840594 0.23802664136541901 0 0.1246815833938911 0.242072742896983 0 0.1150430269998147 0.22078887204207451 0 0.1246815833938911 0.242072742896983 0 0.13403997968651671 0.23209776897886311 0 0.1098343782840594 0.23802664136541901 0 0.1246815833938911 0.242072742896983 0 0.1108366062957163 0.25664873547543587 0 0.1098343782840594 0.23802664136541901 0 0.096639130049948313 0.24797278035889231 0 0.1108366062957163 0.25664873547543587 0 0.09845639102600906 0.23360986253631411 0 0.1098343782840594 0.23802664136541901 0 0.096639130049948313 0.24797278035889231 0 0.086158375875735618 0.15430960725411619 0 0.095790685194319769 0.16240748000082539 0 0.09632623810466745 0.14649236180105199 0 0.086158375875735618 0.15430960725411619 0 0.077261041054400001 0.1446830337506857 0 0.09632623810466745 0.14649236180105199 0 0.086158375875735618 0.15430960725411619 0 0.077261041054400001 0.1446830337506857 0 0.072929514522698247 0.1552786878655403 0 0.077261041054400001 0.1446830337506857 0 0.09686179101501495 0.13057724360127851 0 0.083567606064033184 0.13009304620436929 0 0.077261041054400001 0.1446830337506857 0 0.09686179101501495 0.13057724360127851 0 0.077261041054400001 0.1446830337506857 0 0.09632623810466745 0.14649236180105199 0 0.09686179101501495 0.13057724360127851 0 0.097391140065000922 0.1148464865898018 0 0.083567606064033184 0.13009304620436929 0 0.09686179101501495 0.13057724360127851 0 0.071291842960313379 0.13407523897076901 0 0.068047581027490492 0.13981384844325351 0 0.077261041054400001 0.1446830337506857 0 0.083567606064033184 0.13009304620436929 0 0.071291842960313379 0.13407523897076901 0 0.077261041054400001 0.1446830337506857 0 0.073688932706138466 0.12208836744246809 0 0.083567606064033184 0.13009304620436929 0 0.071291842960313379 0.13407523897076901 0 0.073688932706138466 0.12208836744246809 0 0.058782884849915271 0.13441235066763249 0 0.071291842960313379 0.13407523897076901 0 0.058782884849915271 0.13441235066763249 0 0.068047581027490492 0.13981384844325351 0 0.064854555245333331 0.14608477038392681 0 0.058782884849915271 0.13441235066763249 0 0.071291842960313379 0.13407523897076901 0 0.068047581027490492 0.13981384844325351 0 0.068047581027490492 0.13981384844325351 0 0.064854555245333331 0.14608477038392681 0 0.077261041054400001 0.1446830337506857 0 0.064854555245333331 0.14608477038392681 0 0.077261041054400001 0.1446830337506857 0 0.072929514522698247 0.1552786878655403 0 0.060699941098876831 0.1489915042349329 0 0.064854555245333331 0.14608477038392681 0 0.063463456826712991 0.15520105448139099 0 0.064854555245333331 0.14608477038392681 0 0.072929514522698247 0.1552786878655403 0 0.063463456826712991 0.15520105448139099 0 0.072929514522698247 0.1552786878655403 0 0.063463456826712991 0.15520105448139099 0 0.066999435800068716 0.16918158197116909 0 0.066999435800068716 0.16918158197116909 0 0.083585780538817461 0.17449883520030221 0 0.080820885314450655 0.16335417491301041 0 0.072929514522698247 0.1552786878655403 0 0.066999435800068716 0.16918158197116909 0 0.080820885314450655 0.16335417491301041 0 0.066999435800068716 0.16918158197116909 0 0.074386953328845803 0.1817008718770618 0 0.083585780538817461 0.17449883520030221 0 0.060921598231813243 0.18365413076343179 0 0.074763470134491333 0.19486447927898731 0 0.074386953328845803 0.1817008718770618 0 0.060921598231813243 0.18365413076343179 0 0.066999435800068716 0.16918158197116909 0 0.074386953328845803 0.1817008718770618 0 0.074386953328845803 0.1817008718770618 0 0.085664481939038195 0.18630533217141851 0 0.083585780538817461 0.17449883520030221 0 0.085664481939038195 0.18630533217141851 0 0.083585780538817461 0.17449883520030221 0 0.097541396791599996 0.17657195984690541 0 0.086158375875735618 0.15430960725411619 0 0.072929514522698247 0.1552786878655403 0 0.080820885314450655 0.16335417491301041 0 0.083585780538817461 0.17449883520030221 0 0.080820885314450655 0.16335417491301041 0 0.095790685194319769 0.16240748000082539 0 0.083585780538817461 0.17449883520030221 0 0.095790685194319769 0.16240748000082539 0 0.097541396791599996 0.17657195984690541 0 0.086158375875735618 0.15430960725411619 0 0.080820885314450655 0.16335417491301041 0 0.095790685194319769 0.16240748000082539 0 0.095790685194319769 0.16240748000082539 0 0.097541396791599996 0.17657195984690541 0 0.1094959644040419 0.16497881237272891 0 0.095790685194319769 0.16240748000082539 0 0.1094959644040419 0.16497881237272891 0 0.107104664515052 0.1537240233176328 0 0.09993471853520533 0.18973909221545601 0 0.085664481939038195 0.18630533217141851 0 0.097541396791599996 0.17657195984690541 0 0.097541396791599996 0.17657195984690541 0 0.1113768628329108 0.17963593739628861 0 0.1094959644040419 0.16497881237272891 0 0.09993471853520533 0.18973909221545601 0 0.097541396791599996 0.17657195984690541 0 0.1113768628329108 0.17963593739628861 0 0.09993471853520533 0.18973909221545601 0 0.1146745714123306 0.19255259202266689 0 0.1113768628329108 0.17963593739628861 0 0.1146745714123306 0.19255259202266689 0 0.1113768628329108 0.17963593739628861 0 0.1247629011716563 0.18252623740547949 0 0.1113768628329108 0.17963593739628861 0 0.1247629011716563 0.18252623740547949 0 0.12278637866743509 0.16954306406122929 0 0.1094959644040419 0.16497881237272891 0 0.1205664309923916 0.15539833251043059 0 0.107104664515052 0.1537240233176328 0 0.1113768628329108 0.17963593739628861 0 0.1094959644040419 0.16497881237272891 0 0.12278637866743509 0.16954306406122929 0 0.1094959644040419 0.16497881237272891 0 0.12278637866743509 0.16954306406122929 0 0.1205664309923916 0.15539833251043059 0 0.1205664309923916 0.15539833251043059 0 0.1133440038798393 0.13934312990312711 0 0.1316364341413572 0.1470981432857284 0 0.1205664309923916 0.15539833251043059 0 0.107104664515052 0.1537240233176328 0 0.1133440038798393 0.13934312990312711 0 0.095790685194319769 0.16240748000082539 0 0.107104664515052 0.1537240233176328 0 0.09632623810466745 0.14649236180105199 0 0.107104664515052 0.1537240233176328 0 0.09632623810466745 0.14649236180105199 0 0.1133440038798393 0.13934312990312711 0 0.095790685194319769 0.16240748000082539 0 0.09632623810466745 0.14649236180105199 0 0.1136454455756077 0.1184987920293956 0 0.09686179101501495 0.13057724360127851 0 0.1133440038798393 0.13934312990312711 0 0.09632623810466745 0.14649236180105199 0 0.09686179101501495 0.13057724360127851 0 0.09632623810466745 0.14649236180105199 0 0.09686179101501495 0.13057724360127851 0 0.1133440038798393 0.13934312990312711 0 0.1136454455756077 0.1184987920293956 0 0.1133440038798393 0.13934312990312711 0 0.1311219964085299 0.13107921951882709 0 0.1133440038798393 0.13934312990312711 0 0.1311219964085299 0.13107921951882709 0 0.1316364341413572 0.1470981432857284 0 0.1311219964085299 0.13107921951882709 0 0.14985725038834341 0.1450419626290915 0 0.14610784646156841 0.1232675220587309 0 0.14985725038834341 0.1450419626290915 0 0.16087236332234431 0.1292463525528601 0 0.14610784646156841 0.1232675220587309 0 0.14985725038834341 0.1450419626290915 0 0.13639393954907489 0.16150891682688809 0 0.1515298598489476 0.16111589230701151 0 0.14985725038834341 0.1450419626290915 0 0.1515298598489476 0.16111589230701151 0 0.16699213679669661 0.15217923310974371 0 0.1311219964085299 0.13107921951882709 0 0.14985725038834341 0.1450419626290915 0 0.1316364341413572 0.1470981432857284 0 0.14985725038834341 0.1450419626290915 0 0.1316364341413572 0.1470981432857284 0 0.13639393954907489 0.16150891682688809 0 0.1205664309923916 0.15539833251043059 0 0.1316364341413572 0.1470981432857284 0 0.13639393954907489 0.16150891682688809 0 0.12278637866743509 0.16954306406122929 0 0.1205664309923916 0.15539833251043059 0 0.13639393954907489 0.16150891682688809 0 0.12278637866743509 0.16954306406122929 0 0.13639393954907489 0.16150891682688809 0 0.13398509158050559 0.17539179753736631 0 0.13639393954907489 0.16150891682688809 0 0.13398509158050559 0.17539179753736631 0 0.1452374968360966 0.1738755765172324 0 0.1247629011716563 0.18252623740547949 0 0.12278637866743509 0.16954306406122929 0 0.13398509158050559 0.17539179753736631 0 0.13398509158050559 0.17539179753736631 0 0.1452374968360966 0.1738755765172324 0 0.14024451151143261 0.18766367568080439 0 0.1247629011716563 0.18252623740547949 0 0.13398509158050559 0.17539179753736631 0 0.14024451151143261 0.18766367568080439 0 0.1452374968360966 0.1738755765172324 0 0.1538993677142321 0.18287297859118321 0 0.14024451151143261 0.18766367568080439 0 0.1452374968360966 0.1738755765172324 0 0.1538993677142321 0.18287297859118321 0 0.1556128515444338 0.17146869793205741 0 0.13639393954907489 0.16150891682688809 0 0.1452374968360966 0.1738755765172324 0 0.1515298598489476 0.16111589230701151 0 0.1452374968360966 0.1738755765172324 0 0.1556128515444338 0.17146869793205741 0 0.1515298598489476 0.16111589230701151 0 0.16379591623538181 0.16535953132205361 0 0.17645881225596349 0.1678221639566683 0 0.16699213679669661 0.15217923310974371 0 0.1515298598489476 0.16111589230701151 0 0.16379591623538181 0.16535953132205361 0 0.16699213679669661 0.15217923310974371 0 0.1556128515444338 0.17146869793205741 0 0.1515298598489476 0.16111589230701151 0 0.16379591623538181 0.16535953132205361 0 0.1556128515444338 0.17146869793205741 0 0.16379591623538181 0.16535953132205361 0 0.16751851321947511 0.17812140202757679 0 0.16379591623538181 0.16535953132205361 0 0.16751851321947511 0.17812140202757679 0 0.17645881225596349 0.1678221639566683 0 0.1538993677142321 0.18287297859118321 0 0.16751851321947511 0.17812140202757679 0 0.1618867028730088 0.19110925875369281 0 0.1538993677142321 0.18287297859118321 0 0.1556128515444338 0.17146869793205741 0 0.16751851321947511 0.17812140202757679 0 0.16751851321947511 0.17812140202757679 0 0.1618867028730088 0.19110925875369281 0 0.17299158257718469 0.1897459835461171 0 0.16751851321947511 0.17812140202757679 0 0.1854140593691733 0.18261438002969979 0 0.17645881225596349 0.1678221639566683 0 0.16751851321947511 0.17812140202757679 0 0.1854140593691733 0.18261438002969979 0 0.17299158257718469 0.1897459835461171 0 0.17645881225596349 0.1678221639566683 0 0.18335134468828149 0.1493948982179332 0 0.1911360549195264 0.1625946941467557 0 0.1854140593691733 0.18261438002969979 0 0.17645881225596349 0.1678221639566683 0 0.1911360549195264 0.1625946941467557 0 0.17645881225596349 0.1678221639566683 0 0.18164170809707911 0.1398775024788185 0 0.17645881225596349 0.1678221639566683 0 0.18164170809707911 0.1398775024788185 0 0.16699213679669661 0.15217923310974371 0 0.17645881225596349 0.1678221639566683 0 0.18335134468828149 0.1493948982179332 0 0.18164170809707911 0.1398775024788185 0 0.18164170809707911 0.1398775024788185 0 0.16870940060688441 0.1396081281139516 0 0.16699213679669661 0.15217923310974371 0 0.18164170809707911 0.1398775024788185 0 0.1929676199926546 0.13143408262577039 0 0.18682460393819469 0.1119328410009689 0 0.18164170809707911 0.1398775024788185 0 0.1730945517163176 0.12565831839266209 0 0.18682460393819469 0.1119328410009689 0 0.18335134468828149 0.1493948982179332 0 0.18164170809707911 0.1398775024788185 0 0.1929676199926546 0.13143408262577039 0 0.18164170809707911 0.1398775024788185 0 0.18682460393819469 0.1119328410009689 0 0.18164170809707911 0.1398775024788185 0 0.1730945517163176 0.12565831839266209 0 0.16870940060688441 0.1396081281139516 0 0.14985725038834341 0.1450419626290915 0 0.16870940060688441 0.1396081281139516 0 0.16087236332234431 0.1292463525528601 0 0.1730945517163176 0.12565831839266209 0 0.16870940060688441 0.1396081281139516 0 0.16087236332234431 0.1292463525528601 0 0.14985725038834341 0.1450419626290915 0 0.16870940060688441 0.1396081281139516 0 0.16699213679669661 0.15217923310974371 0 0.15361580262973931 0.24023224597704529 0 0.14027572627916499 0.24411909677404031 0 0.1520623545728659 0.25113852338775589 0 0.15361580262973931 0.24023224597704529 0 0.14724261383378101 0.23449265740476541 0 0.1577302448249974 0.2315391611674292 0 0.15361580262973931 0.24023224597704529 0 0.14724261383378101 0.23449265740476541 0 0.14027572627916499 0.24411909677404031 0 0.1246815833938911 0.242072742896983 0 0.14027572627916499 0.24411909677404031 0 0.1336233243165916 0.26342578592320198 0 0.1246815833938911 0.242072742896983 0 0.14027572627916499 0.24411909677404031 0 0.13403997968651671 0.23209776897886311 0 0.14724261383378101 0.23449265740476541 0 0.14027572627916499 0.24411909677404031 0 0.13403997968651671 0.23209776897886311 0 0.1150430269998147 0.22078887204207451 0 0.13863161805749841 0.22169601508083939 0 0.143756542085864 0.21931681438030509 0 0.13403997968651671 0.23209776897886311 0 0.13863161805749841 0.22169601508083939 0 0.14397397701739381 0.22681954311602731 0 0.1150430269998147 0.22078887204207451 0 0.13403997968651671 0.23209776897886311 0 0.13863161805749841 0.22169601508083939 0 0.1150430269998147 0.22078887204207451 0 0.143756542085864 0.21931681438030509 0 0.13863161805749841 0.22169601508083939 0 0.143756542085864 0.21931681438030509 0 0.143756542085864 0.21931681438030509 0 0.15032145436668001 0.22331237755152941 0 0.16526741924007241 0.21821401482994149 0 0.13863161805749841 0.22169601508083939 0 0.143756542085864 0.21931681438030509 0 0.14397397701739381 0.22681954311602731 0 0.143756542085864 0.21931681438030509 0 0.16526741924007241 0.21821401482994149 0 0.14397397701739381 0.22681954311602731 0 0.15095692234204439 0.22819847814453331 0 0.15032145436668001 0.22331237755152941 0 0.143756542085864 0.21931681438030509 0 0.14397397701739381 0.22681954311602731 0 0.15032145436668001 0.22331237755152941 0 0.14724261383378101 0.23449265740476541 0 0.13403997968651671 0.23209776897886311 0 0.14397397701739381 0.22681954311602731 0 0.14724261383378101 0.23449265740476541 0 0.14397397701739381 0.22681954311602731 0 0.15095692234204439 0.22819847814453331 0 0.14724261383378101 0.23449265740476541 0 0.15095692234204439 0.22819847814453331 0 0.1577302448249974 0.2315391611674292 0 0.15095692234204439 0.22819847814453331 0 0.15551632166736989 0.22482865148291539 0 0.1577302448249974 0.2315391611674292 0 0.15095692234204439 0.22819847814453331 0 0.15551632166736989 0.22482865148291539 0 0.15032145436668001 0.22331237755152941 0 0.143756542085864 0.21931681438030509 0 0.14973941532143639 0.20868179918330479 0 0.1617243029523418 0.21097544014647421 0 0.143756542085864 0.21931681438030509 0 0.1617243029523418 0.21097544014647421 0 0.14973941532143639 0.20868179918330479 0 0.14995646517949721 0.20135219700923271 0 0.1574546439178626 0.20133113236492811 0 0.14973941532143639 0.20868179918330479 0 0.14317910063925071 0.20440219304263049 0 0.14314361010917009 0.2107912880315958 0 0.14973941532143639 0.20868179918330479 0 0.14317910063925071 0.20440219304263049 0 0.14995646517949721 0.20135219700923271 0 0.14317910063925071 0.20440219304263049 0 0.14314361010917009 0.2107912880315958 0 0.1356718933844854 0.2087472974103857 0 0.143756542085864 0.21931681438030509 0 0.14314361010917009 0.2107912880315958 0 0.1356718933844854 0.2087472974103857 0 0.143756542085864 0.21931681438030509 0 0.14973941532143639 0.20868179918330479 0 0.14314361010917009 0.2107912880315958 0 0.1150430269998147 0.22078887204207451 0 0.143756542085864 0.21931681438030509 0 0.1356718933844854 0.2087472974103857 0 0.1217121076741302 0.20464914832351649 0 0.1356718933844854 0.2087472974103857 0 0.135453295114804 0.1989605539776455 0 0.14317910063925071 0.20440219304263049 0 0.1356718933844854 0.2087472974103857 0 0.135453295114804 0.1989605539776455 0 0.1217121076741302 0.20464914832351649 0 0.135453295114804 0.1989605539776455 0 0.12728455581207029 0.1941324991983357 0 0.1247629011716563 0.18252623740547949 0 0.12728455581207029 0.1941324991983357 0 0.14024451151143261 0.18766367568080439 0 0.135453295114804 0.1989605539776455 0 0.12728455581207029 0.1941324991983357 0 0.14024451151143261 0.18766367568080439 0 0.135453295114804 0.1989605539776455 0 0.14024451151143261 0.18766367568080439 0 0.1446012565823889 0.19761393375379629 0 0.14024451151143261 0.18766367568080439 0 0.1446012565823889 0.19761393375379629 0 0.15236630234668139 0.19345470003035661 0 0.14317910063925071 0.20440219304263049 0 0.135453295114804 0.1989605539776455 0 0.1446012565823889 0.19761393375379629 0 0.14317910063925071 0.20440219304263049 0 0.1446012565823889 0.19761393375379629 0 0.14995646517949721 0.20135219700923271 0 0.14995646517949721 0.20135219700923271 0 0.15236630234668139 0.19345470003035661 0 0.1574546439178626 0.20133113236492811 0 0.1446012565823889 0.19761393375379629 0 0.14995646517949721 0.20135219700923271 0 0.15236630234668139 0.19345470003035661 0 0.1538993677142321 0.18287297859118321 0 0.14024451151143261 0.18766367568080439 0 0.15236630234668139 0.19345470003035661 0 0.1538993677142321 0.18287297859118321 0 0.15236630234668139 0.19345470003035661 0 0.1618867028730088 0.19110925875369281 0 0.15236630234668139 0.19345470003035661 0 0.1618867028730088 0.19110925875369281 0 0.1574546439178626 0.20133113236492811 0 0.1618867028730088 0.19110925875369281 0 0.1574546439178626 0.20133113236492811 0 0.167085924171262 0.19871296113224399 0 0.1618867028730088 0.19110925875369281 0 0.167085924171262 0.19871296113224399 0 0.17299158257718469 0.1897459835461171 0 0.1854140593691733 0.18261438002969979 0 0.17969206381881969 0.20263406591264371 0 0.1949305726652186 0.19555972281569589 0 0.1854140593691733 0.18261438002969979 0 0.17299158257718469 0.1897459835461171 0 0.17969206381881969 0.20263406591264371 0 0.1854140593691733 0.18261438002969979 0 0.17969206381881969 0.20263406591264371 0 0.17969206381881969 0.20263406591264371 0 0.1949305726652186 0.19555972281569589 0 0.167085924171262 0.19871296113224399 0 0.17299158257718469 0.1897459835461171 0 0.17969206381881969 0.20263406591264371 0 0.17969206381881969 0.20263406591264371 0 0.1617243029523418 0.21097544014647421 0 0.17468688902613999 0.22014579346589291 0 0.17969206381881969 0.20263406591264371 0 0.17468688902613999 0.22014579346589291 0 0.17969206381881969 0.20263406591264371 0 0.17468688902613999 0.22014579346589291 0 0.1941192311305176 0.21308704591579511 0 0.17969206381881969 0.20263406591264371 0 0.1617243029523418 0.21097544014647421 0 0.167085924171262 0.19871296113224399 0 0.17969206381881969 0.20263406591264371 0 0.1617243029523418 0.21097544014647421 0 0.143756542085864 0.21931681438030509 0 0.16526741924007241 0.21821401482994149 0 0.1617243029523418 0.21097544014647421 0 0.16526741924007241 0.21821401482994149 0 0.1617243029523418 0.21097544014647421 0 0.17468688902613999 0.22014579346589291 0 0.1574546439178626 0.20133113236492811 0 0.167085924171262 0.19871296113224399 0 0.1617243029523418 0.21097544014647421 0 0.14973941532143639 0.20868179918330479 0 0.1574546439178626 0.20133113236492811 0 0.1617243029523418 0.21097544014647421 0 0.1673983105436963 0.22584846041184589 0 0.17468688902613999 0.22014579346589291 0 0.16968171423345929 0.23765752101914181 0 0.15551632166736989 0.22482865148291539 0 0.16526741924007241 0.21821401482994149 0 0.16195215186254849 0.2246721166961316 0 0.15551632166736989 0.22482865148291539 0 0.15032145436668001 0.22331237755152941 0 0.16526741924007241 0.21821401482994149 0 0.15551632166736989 0.22482865148291539 0 0.16195215186254849 0.2246721166961316 0 0.1577302448249974 0.2315391611674292 0 0.1577302448249974 0.2315391611674292 0 0.16505116488072191 0.23237246403359041 0 0.1632916252549198 0.23843431390121811 0 0.1577302448249974 0.2315391611674292 0 0.16358973946541591 0.22814259070409301 0 0.16505116488072191 0.23237246403359041 0 0.16195215186254849 0.2246721166961316 0 0.1577302448249974 0.2315391611674292 0 0.16358973946541591 0.22814259070409301 0 0.16505116488072191 0.23237246403359041 0 0.1673983105436963 0.22584846041184589 0 0.16968171423345929 0.23765752101914181 0 0.16358973946541591 0.22814259070409301 0 0.16505116488072191 0.23237246403359041 0 0.1673983105436963 0.22584846041184589 0 0.16526741924007241 0.21821401482994149 0 0.1673983105436963 0.22584846041184589 0 0.17468688902613999 0.22014579346589291 0 0.16526741924007241 0.21821401482994149 0 0.16195215186254849 0.2246721166961316 0 0.1673983105436963 0.22584846041184589 0 0.16195215186254849 0.2246721166961316 0 0.16358973946541591 0.22814259070409301 0 0.1673983105436963 0.22584846041184589 0 0.17468688902613999 0.22014579346589291 0 0.16968171423345929 0.23765752101914181 0 0.19768351339787121 0.23425356242806411 0 0.17468688902613999 0.22014579346589291 0 0.16968171423345929 0.23765752101914181 0 0.16968171423345929 0.23765752101914181 0 0.19768351339787121 0.23425356242806411 0 0.18276014028142329 0.25616471926899897 0 0.16968171423345929 0.23765752101914181 0 0.19768351339787121 0.23425356242806411 0 0.16968171423345929 0.23765752101914181 0 0.1632916252549198 0.23843431390121811 0 0.1618767332304652 0.26496499908816251 0 0.16968171423345929 0.23765752101914181 0 0.1632916252549198 0.23843431390121811 0 0.16505116488072191 0.23237246403359041 0 0.16968171423345929 0.23765752101914181 0 0.1632916252549198 0.23843431390121811 0 0.15361580262973931 0.24023224597704529 0 0.1577302448249974 0.2315391611674292 0 0.1632916252549198 0.23843431390121811 0 0.15361580262973931 0.24023224597704529 0 0.1632916252549198 0.23843431390121811 0 0.1520623545728659 0.25113852338775589 0 0.21269313292684 0.24545189561992939 0 0.19768351339787121 0.23425356242806411 0 0.20060002443300079 0.25362908350645108 0 0.21269313292684 0.24545189561992939 0 0.19768351339787121 0.23425356242806411 0 0.22568531256228311 0.23084960383698649 0 0.19768351339787121 0.23425356242806411 0 0.18276014028142329 0.25616471926899897 0 0.20060002443300079 0.25362908350645108 0 0.19768351339787121 0.23425356242806411 0 0.21170975540280859 0.21974512032920321 0 0.1941192311305176 0.21308704591579511 0 0.17468688902613999 0.22014579346589291 0 0.19768351339787121 0.23425356242806411 0 0.1941192311305176 0.21308704591579511 0 0.19768351339787121 0.23425356242806411 0 0.22568531256228311 0.23084960383698649 0 0.19768351339787121 0.23425356242806411 0 0.21170975540280859 0.21974512032920321 0 0.22568531256228311 0.23084960383698649 0 0.21170975540280859 0.21974512032920321 0 0.20808481385876809 0.20404570290421731 0 0.1941192311305176 0.21308704591579511 0 0.21170975540280859 0.21974512032920321 0 0.20808481385876809 0.20404570290421731 0 0.21921932990660331 0.209866240906732 0 0.20808481385876809 0.20404570290421731 0 0.21969629415881939 0.1977996135282751 0 0.21921932990660331 0.209866240906732 0 0.17969206381881969 0.20263406591264371 0 0.1941192311305176 0.21308704591579511 0 0.1949305726652186 0.19555972281569589 0 0.20808481385876809 0.20404570290421731 0 0.1941192311305176 0.21308704591579511 0 0.1949305726652186 0.19555972281569589 0 0.1854140593691733 0.18261438002969979 0 0.1949305726652186 0.19555972281569589 0 0.198184433870156 0.18516682505180049 0 0.1949305726652186 0.19555972281569589 0 0.21016908151161781 0.1884853797187489 0 0.198184433870156 0.18516682505180049 0 0.1949305726652186 0.19555972281569589 0 0.21016908151161781 0.1884853797187489 0 0.20808481385876809 0.20404570290421731 0 0.1949305726652186 0.19555972281569589 0 0.21016908151161781 0.1884853797187489 0 0.20808481385876809 0.20404570290421731 0 0.21016908151161781 0.1884853797187489 0 0.21969629415881939 0.1977996135282751 0 0.21016908151161781 0.1884853797187489 0 0.21969629415881939 0.1977996135282751 0 0.2240751778714983 0.18511240687216859 0 0.21969629415881939 0.1977996135282751 0 0.230130432770665 0.19437574399779239 0 0.2240751778714983 0.18511240687216859 0 0.21969629415881939 0.1977996135282751 0 0.230130432770665 0.19437574399779239 0 0.22970384492890719 0.20555758066394189 0 0.230130432770665 0.19437574399779239 0 0.24013346252851719 0.19854860089564089 0 0.22970384492890719 0.20555758066394189 0 0.230130432770665 0.19437574399779239 0 0.2240751778714983 0.18511240687216859 0 0.23721006323004001 0.18395832323446321 0 0.24876004431712601 0.19146109645531589 0 0.24013346252851719 0.19854860089564089 0 0.23721006323004001 0.18395832323446321 0 0.230130432770665 0.19437574399779239 0 0.24013346252851719 0.19854860089564089 0 0.23721006323004001 0.18395832323446321 0 0.24876004431712601 0.19146109645531589 0 0.24013346252851719 0.19854860089564089 0 0.25014587321706061 0.20332338773671221 0 0.24013346252851719 0.19854860089564089 0 0.24086429282351021 0.21100335730596731 0 0.22970384492890719 0.20555758066394189 0 0.24013346252851719 0.19854860089564089 0 0.24086429282351021 0.21100335730596731 0 0.25014587321706061 0.20332338773671221 0 0.24086429282351021 0.21100335730596731 0 0.25211219122479772 0.21539887619163911 0 0.25014587321706061 0.20332338773671221 0 0.24086429282351021 0.21100335730596731 0 0.24052004511954039 0.22067850476574419 0 0.25211219122479772 0.21539887619163911 0 0.24086429282351021 0.21100335730596731 0 0.22899394789752359 0.21798178444318991 0 0.24052004511954039 0.22067850476574419 0 0.24086429282351021 0.21100335730596731 0 0.22899394789752359 0.21798178444318991 0 0.22970384492890719 0.20555758066394189 0 0.21170975540280859 0.21974512032920321 0 0.22899394789752359 0.21798178444318991 0 0.21921932990660331 0.209866240906732 0 0.21969629415881939 0.1977996135282751 0 0.22970384492890719 0.20555758066394189 0 0.21921932990660331 0.209866240906732 0 0.22899394789752359 0.21798178444318991 0 0.22970384492890719 0.20555758066394189 0 0.21921932990660331 0.209866240906732 0 0.21170975540280859 0.21974512032920321 0 0.22899394789752359 0.21798178444318991 0 0.22568531256228311 0.23084960383698649 0 0.22899394789752359 0.21798178444318991 0 0.22568531256228311 0.23084960383698649 0 0.24052004511954039 0.22067850476574419 0 0.22568531256228311 0.23084960383698649 0 0.24052004511954039 0.22067850476574419 0 0.25368711172669489 0.22744564524590891 0 0.22568531256228311 0.23084960383698649 0 0.25368711172669489 0.22744564524590891 0 0.24052004511954039 0.22067850476574419 0 0.25368711172669489 0.22744564524590891 0 0.25211219122479772 0.21539887619163911 0 0.22568531256228311 0.23084960383698649 0 0.24183819042719651 0.2457468380927334 0 0.25368711172669489 0.22744564524590891 0 0.24183819042719651 0.2457468380927334 0 0.23155823319848901 0.2434254289707001 0 0.23139783464498431 0.25143329747616178 0 0.24183819042719651 0.2457468380927334 0 0.23155823319848901 0.2434254289707001 0 0.24183819042719651 0.2457468380927334 0 0.23139783464498431 0.25143329747616178 0 0.22568531256228311 0.23084960383698649 0 0.24183819042719651 0.2457468380927334 0 0.23155823319848901 0.2434254289707001 0 0.23155823319848901 0.2434254289707001 0 0.22348263930331591 0.2464400267148367 0 0.23139783464498431 0.25143329747616178 0 0.22568531256228311 0.23084960383698649 0 0.23155823319848901 0.2434254289707001 0 0.22348263930331591 0.2464400267148367 0 0.21269313292684 0.24545189561992939 0 0.22568531256228311 0.23084960383698649 0 0.22348263930331591 0.2464400267148367 0 0.2129487117940364 0.14389601358541179 0 0.20220026374617481 0.15648981153844549 0 0.21305312509966309 0.16237739515072111 0 0.2129487117940364 0.14389601358541179 0 0.21305312509966309 0.16237739515072111 0 0.2224830957758791 0.15607515156997681 0 0.2129487117940364 0.14389601358541179 0 0.20427673045774619 0.135665905826692 0 0.2006049430631606 0.14460364104888429 0 0.2129487117940364 0.14389601358541179 0 0.2006049430631606 0.14460364104888429 0 0.20220026374617481 0.15648981153844549 0 0.2129487117940364 0.14389601358541179 0 0.21366541505620301 0.132384607510457 0 0.22062283881040129 0.1361223010114784 0 0.21366541505620301 0.132384607510457 0 0.2209656712416683 0.12738385069044039 0 0.22062283881040129 0.1361223010114784 0 0.21366541505620301 0.132384607510457 0 0.2209656712416683 0.12738385069044039 0 0.21066846561752811 0.12453088953678 0 0.21366541505620301 0.132384607510457 0 0.20427673045774619 0.135665905826692 0 0.21066846561752811 0.12453088953678 0 0.2129487117940364 0.14389601358541179 0 0.21366541505620301 0.132384607510457 0 0.20427673045774619 0.135665905826692 0 0.20427673045774619 0.135665905826692 0 0.1929676199926546 0.13143408262577039 0 0.2006049430631606 0.14460364104888429 0 0.20427673045774619 0.135665905826692 0 0.1929676199926546 0.13143408262577039 0 0.21066846561752811 0.12453088953678 0 0.18335134468828149 0.1493948982179332 0 0.1929676199926546 0.13143408262577039 0 0.18335134468828149 0.1493948982179332 0 0.1929676199926546 0.13143408262577039 0 0.1932347256660481 0.15145930765584281 0 0.1929676199926546 0.13143408262577039 0 0.2006049430631606 0.14460364104888429 0 0.1932347256660481 0.15145930765584281 0 0.2006049430631606 0.14460364104888429 0 0.1932347256660481 0.15145930765584281 0 0.20220026374617481 0.15648981153844549 0 0.18335134468828149 0.1493948982179332 0 0.1932347256660481 0.15145930765584281 0 0.1911360549195264 0.1625946941467557 0 0.1911360549195264 0.1625946941467557 0 0.20220026374617481 0.15648981153844549 0 0.20222402193461431 0.17400781764305731 0 0.1932347256660481 0.15145930765584281 0 0.1911360549195264 0.1625946941467557 0 0.20220026374617481 0.15648981153844549 0 0.1854140593691733 0.18261438002969979 0 0.20222402193461431 0.17400781764305731 0 0.198184433870156 0.18516682505180049 0 0.1854140593691733 0.18261438002969979 0 0.1911360549195264 0.1625946941467557 0 0.20222402193461431 0.17400781764305731 0 0.1854140593691733 0.18261438002969979 0 0.1911360549195264 0.1625946941467557 0 0.21016908151161781 0.1884853797187489 0 0.20222402193461431 0.17400781764305731 0 0.198184433870156 0.18516682505180049 0 0.21016908151161781 0.1884853797187489 0 0.20222402193461431 0.17400781764305731 0 0.21670463503905699 0.17509024169332271 0 0.21016908151161781 0.1884853797187489 0 0.21670463503905699 0.17509024169332271 0 0.2240751778714983 0.18511240687216859 0 0.20220026374617481 0.15648981153844549 0 0.20222402193461431 0.17400781764305731 0 0.21305312509966309 0.16237739515072111 0 0.20222402193461431 0.17400781764305731 0 0.21670463503905699 0.17509024169332271 0 0.21305312509966309 0.16237739515072111 0 0.21670463503905699 0.17509024169332271 0 0.21305312509966309 0.16237739515072111 0 0.2226576496139335 0.16588613717978451 0 0.2226576496139335 0.16588613717978451 0 0.233910663753544 0.1603966270902081 0 0.2224830957758791 0.15607515156997681 0 0.21305312509966309 0.16237739515072111 0 0.2226576496139335 0.16588613717978451 0 0.2224830957758791 0.15607515156997681 0 0.21670463503905699 0.17509024169332271 0 0.2226576496139335 0.16588613717978451 0 0.23012507169300669 0.1726781404441019 0 0.2226576496139335 0.16588613717978451 0 0.233910663753544 0.1603966270902081 0 0.23012507169300669 0.1726781404441019 0 0.21670463503905699 0.17509024169332271 0 0.2240751778714983 0.18511240687216859 0 0.23012507169300669 0.1726781404441019 0 0.2240751778714983 0.18511240687216859 0 0.23012507169300669 0.1726781404441019 0 0.23721006323004001 0.18395832323446321 0 0.23012507169300669 0.1726781404441019 0 0.23721006323004001 0.18395832323446321 0 0.23953385134921329 0.17196074172665449 0 0.23721006323004001 0.18395832323446321 0 0.23953385134921329 0.17196074172665449 0 0.24766329858608541 0.17908959816882719 0 0.23953385134921329 0.17196074172665449 0 0.24766329858608541 0.17908959816882719 0 0.24784934954833149 0.16614280917059021 0 0.24876004431712601 0.19146109645531589 0 0.23721006323004001 0.18395832323446321 0 0.24766329858608541 0.17908959816882719 0 0.233910663753544 0.1603966270902081 0 0.23012507169300669 0.1726781404441019 0 0.23953385134921329 0.17196074172665449 0 0.233910663753544 0.1603966270902081 0 0.23953385134921329 0.17196074172665449 0 0.24784934954833149 0.16614280917059021 0 0.233910663753544 0.1603966270902081 0 0.24784934954833149 0.16614280917059021 0 0.24925024078985389 0.15478675394773139 0 0.24925024078985389 0.15478675394773139 0 0.23926948986503629 0.14361530378287621 0 0.22513031442654149 0.14477802623592609 0 0.24925024078985389 0.15478675394773139 0 0.22513031442654149 0.14477802623592609 0 0.233910663753544 0.1603966270902081 0 0.24925024078985389 0.15478675394773139 0 0.22513031442654149 0.14477802623592609 0 0.24925024078985389 0.15478675394773139 0 0.23926948986503629 0.14361530378287621 0 0.252293322710193 0.14272742791269041 0 0.233910663753544 0.1603966270902081 0 0.22513031442654149 0.14477802623592609 0 0.2224830957758791 0.15607515156997681 0 0.2129487117940364 0.14389601358541179 0 0.22513031442654149 0.14477802623592609 0 0.2224830957758791 0.15607515156997681 0 0.2129487117940364 0.14389601358541179 0 0.22513031442654149 0.14477802623592609 0 0.22062283881040129 0.1361223010114784 0 0.2209656712416683 0.12738385069044039 0 0.23040408153355721 0.13216900703515669 0 0.22882459510145051 0.1160382210136286 0 0.2209656712416683 0.12738385069044039 0 0.22062283881040129 0.1361223010114784 0 0.23040408153355721 0.13216900703515669 0 0.22513031442654149 0.14477802623592609 0 0.22062283881040129 0.1361223010114784 0 0.23040408153355721 0.13216900703515669 0 0.23926948986503629 0.14361530378287621 0 0.22513031442654149 0.14477802623592609 0 0.23040408153355721 0.13216900703515669 0 0.23926948986503629 0.14361530378287621 0 0.23040408153355721 0.13216900703515669 0 0.252293322710193 0.14272742791269041 0 0.23040408153355721 0.13216900703515669 0 0.24509620270052029 0.12967906857116551 0 0.252293322710193 0.14272742791269041 0 0.23040408153355721 0.13216900703515669 0 0.252293322710193 0.14272742791269041 0 0.23040408153355721 0.13216900703515669 0 0.24509620270052029 0.12967906857116551 0 0.22882459510145051 0.1160382210136286 0 0.24003717726993551 0.099918932080049289 0 0.22882459510145051 0.1160382210136286 0 0.25506529490587471 0.118603174993655 0 0.22882459510145051 0.1160382210136286 0 0.25506529490587471 0.118603174993655 0 0.24509620270052029 0.12967906857116551 0 0.22882459510145051 0.1160382210136286 0 0.25506529490587471 0.118603174993655 0 0.24003717726993551 0.099918932080049289 0 0.22653616624584819 0.1016821550729031 0 0.22882459510145051 0.1160382210136286 0 0.22653616624584819 0.1016821550729031 0 0.21332754047055921 0.093406804329313559 0 0.2292277911365336 0.088641479150997626 0 0.24003717726993551 0.099918932080049289 0 0.22653616624584819 0.1016821550729031 0 0.2292277911365336 0.088641479150997626 0 0.22653616624584819 0.1016821550729031 0 0.22882459510145051 0.1160382210136286 0 0.2182009023867259 0.1066229148543814 0 0.22653616624584819 0.1016821550729031 0 0.2182009023867259 0.1066229148543814 0 0.21332754047055921 0.093406804329313559 0 0.2209656712416683 0.12738385069044039 0 0.22882459510145051 0.1160382210136286 0 0.21066846561752811 0.12453088953678 0 0.22882459510145051 0.1160382210136286 0 0.20258389529702611 0.11347326703360699 0 0.22882459510145051 0.1160382210136286 0 0.2182009023867259 0.1066229148543814 0 0.20258389529702611 0.11347326703360699 0 0.22882459510145051 0.1160382210136286 0 0.21066846561752811 0.12453088953678 0 0.20258389529702611 0.11347326703360699 0 0.20258389529702611 0.11347326703360699 0 0.21332754047055921 0.093406804329313559 0 0.19973951844623861 0.096421681041723384 0 0.20258389529702611 0.11347326703360699 0 0.21332754047055921 0.093406804329313559 0 0.2182009023867259 0.1066229148543814 0 0.20258389529702611 0.11347326703360699 0 0.21332754047055921 0.093406804329313559 0 0.19018889364999891 0.093793572917675747 0 0.19474286718464021 0.10370571131946769 0 0.18682460393819469 0.1119328410009689 0 0.19973951844623861 0.096421681041723384 0 0.19474286718464021 0.10370571131946769 0 0.20258389529702611 0.11347326703360699 0 0.19018889364999891 0.093793572917675747 0 0.18682460393819469 0.1119328410009689 0 0.19973951844623861 0.096421681041723384 0 0.19018889364999891 0.093793572917675747 0 0.19474286718464021 0.10370571131946769 0 0.1929676199926546 0.13143408262577039 0 0.20258389529702611 0.11347326703360699 0 0.18682460393819469 0.1119328410009689 0 0.20258389529702611 0.11347326703360699 0 0.18682460393819469 0.1119328410009689 0 0.1929676199926546 0.13143408262577039 0 0.20258389529702611 0.11347326703360699 0 0.1929676199926546 0.13143408262577039 0 0.21066846561752811 0.12453088953678 0 0.20258389529702611 0.11347326703360699 0 0.19474286718464021 0.10370571131946769 0 0.20258389529702611 0.11347326703360699 0 0.18682460393819469 0.1119328410009689 0 0.1995690445507847 0.065873816972442018 0 0.1896738203090888 0.076312207569898163 0 0.1960327403331118 0.054949391077104393 0 0.1896738203090888 0.076312207569898163 0 0.1960327403331118 0.054949391077104393 0 0.2009276149853185 0.077335597431510181 0 0.1995690445507847 0.065873816972442018 0 0.19355318336180311 0.07565430483438261 0 0.2009276149853185 0.077335597431510181 0 0.1995690445507847 0.065873816972442018 0 0.20867958993093649 0.0748202509900638 0 0.1995690445507847 0.065873816972442018 0 0.1896738203090888 0.076312207569898163 0 0.19355318336180311 0.07565430483438261 0 0.19018889364999891 0.093793572917675747 0 0.1896738203090888 0.076312207569898163 0 0.18331490028506539 0.097675024062691712 0 0.19018889364999891 0.093793572917675747 0 0.1896738203090888 0.076312207569898163 0 0.19355318336180311 0.07565430483438261 0 0.19018889364999891 0.093793572917675747 0 0.19355318336180311 0.07565430483438261 0 0.19625631066718871 0.0826746966695453 0 0.19018889364999891 0.093793572917675747 0 0.19355318336180311 0.07565430483438261 0 0.19018889364999891 0.093793572917675747 0 0.1971525286170209 0.089513252087134149 0 0.19625631066718871 0.0826746966695453 0 0.19973951844623861 0.096421681041723384 0 0.1971525286170209 0.089513252087134149 0 0.20242539170465751 0.085163057719592178 0 0.19973951844623861 0.096421681041723384 0 0.19018889364999891 0.093793572917675747 0 0.1971525286170209 0.089513252087134149 0 0.2009276149853185 0.077335597431510181 0 0.19625631066718871 0.0826746966695453 0 0.20242539170465751 0.085163057719592178 0 0.2009276149853185 0.077335597431510181 0 0.19355318336180311 0.07565430483438261 0 0.19625631066718871 0.0826746966695453 0 0.1971525286170209 0.089513252087134149 0 0.19625631066718871 0.0826746966695453 0 0.20242539170465751 0.085163057719592178 0 0.20242539170465751 0.085163057719592178 0 0.21332754047055921 0.093406804329313559 0 0.20867958993093649 0.0748202509900638 0 0.2009276149853185 0.077335597431510181 0 0.20242539170465751 0.085163057719592178 0 0.20867958993093649 0.0748202509900638 0 0.21332754047055921 0.093406804329313559 0 0.22407118564409079 0.073340341625019151 0 0.21332754047055921 0.093406804329313559 0 0.20867958993093649 0.0748202509900638 0 0.22407118564409079 0.073340341625019151 0 0.19973951844623861 0.096421681041723384 0 0.20242539170465751 0.085163057719592178 0 0.21332754047055921 0.093406804329313559 0 0.20867958993093649 0.0748202509900638 0 0.21002620416496889 0.06328565506698075 0 0.22407118564409079 0.073340341625019151 0 0.1995690445507847 0.065873816972442018 0 0.20867958993093649 0.0748202509900638 0 0.21002620416496889 0.06328565506698075 0 0.22407118564409079 0.073340341625019151 0 0.2409659187322033 0.078141118072394308 0 0.2348148308176225 0.053273878920724743 0 0.22407118564409079 0.073340341625019151 0 0.2348148308176225 0.053273878920724743 0 0.22407118564409079 0.073340341625019151 0 0.2292277911365336 0.088641479150997626 0 0.2409659187322033 0.078141118072394308 0 0.21332754047055921 0.093406804329313559 0 0.22407118564409079 0.073340341625019151 0 0.2292277911365336 0.088641479150997626 0 0.24003717726993551 0.099918932080049289 0 0.2292277911365336 0.088641479150997626 0 0.2409659187322033 0.078141118072394308 0 0.24003717726993551 0.099918932080049289 0 0.2409659187322033 0.078141118072394308 0 0.25814072779734848 0.095593975415470503 0 0.2409659187322033 0.078141118072394308 0 0.2348148308176225 0.053273878920724743 0 0.25133989080314079 0.059719491021616368 0 0.2348148308176225 0.053273878920724743 0 0.25029940785347599 0.047571772133718992 0 0.25133989080314079 0.059719491021616368 0 0.2348148308176225 0.053273878920724743 0 0.24555847599115399 0.033207416216430273 0 0.2348148308176225 0.053273878920724743 0 0.24555847599115399 0.033207416216430273 0 0.23233653027902909 0.03822630228610973 0 0.2348148308176225 0.053273878920724743 0 0.24555847599115399 0.033207416216430273 0 0.25029940785347599 0.047571772133718992 0 0.24555847599115399 0.033207416216430273 0 0.24744119228347231 0.029690969456284209 0 0.24555847599115399 0.033207416216430273 0 0.23233653027902909 0.03822630228610973 0 0.2382402572385274 0.029124570584695031 0 0.23233653027902909 0.03822630228610973 0 0.2382402572385274 0.029124570584695031 0 0.2212906269819209 0.02808117103842343 0 0.2348148308176225 0.053273878920724743 0 0.23233653027902909 0.03822630228610973 0 0.2217784603659208 0.047444474670274753 0 0.23233653027902909 0.03822630228610973 0 0.2217784603659208 0.047444474670274753 0 0.2212906269819209 0.02808117103842343 0 0.22407118564409079 0.073340341625019151 0 0.2348148308176225 0.053273878920724743 0 0.2217784603659208 0.047444474670274753 0 0.24093385669049561 0.015210147916720771 0 0.22770851530255631 0.0083928414719516876 0 0.24005759833730889 -0.00091445705150014652 0 0.24093385669049561 0.015210147916720771 0 0.25843576353106312 0.0091558391233349454 0 0.24005759833730889 -0.00091445705150014652 0 0.24093385669049561 0.015210147916720771 0 0.24744119228347231 0.029690969456284209 0 0.25843576353106312 0.0091558391233349454 0 0.24555847599115399 0.033207416216430273 0 0.24744119228347231 0.029690969456284209 0 0.2382402572385274 0.029124570584695031 0 0.24093385669049561 0.015210147916720771 0 0.24744119228347231 0.029690969456284209 0 0.2382402572385274 0.029124570584695031 0 0.24744119228347231 0.029690969456284209 0 0.2382402572385274 0.029124570584695031 0 0.24555847599115399 0.033207416216430273 0 0.2382402572385274 0.029124570584695031 0 0.2382402572385274 0.029124570584695031 0 0.2212906269819209 0.02808117103842343 0 0.22358048947354919 0.02094586333299113 0 0.24093385669049561 0.015210147916720771 0 0.2382402572385274 0.029124570584695031 0 0.22358048947354919 0.02094586333299113 0 0.2382402572385274 0.029124570584695031 0 0.2212906269819209 0.02808117103842343 0 0.2382402572385274 0.029124570584695031 0 0.22358048947354919 0.02094586333299113 0 0.2212906269819209 0.02808117103842343 0 0.22358048947354919 0.02094586333299113 0 0.2133090341045272 0.020438410915845959 0 0.24093385669049561 0.015210147916720771 0 0.22358048947354919 0.02094586333299113 0 0.22770851530255631 0.0083928414719516876 0 0.22770851530255631 0.0083928414719516876 0 0.20892072170857109 0.012767156081287029 0 0.2250499103028572 -0.0060445029197408878 0 0.22358048947354919 0.02094586333299113 0 0.22770851530255631 0.0083928414719516876 0 0.20892072170857109 0.012767156081287029 0 0.22770851530255631 0.0083928414719516876 0 0.24005759833730889 -0.00091445705150014652 0 0.2250499103028572 -0.0060445029197408878 0 0.20892072170857109 0.012767156081287029 0 0.2250499103028572 -0.0060445029197408878 0 0.21205365186150391 0.001127076637653511 0 0.20892072170857109 0.012767156081287029 0 0.2250499103028572 -0.0060445029197408878 0 0.204306859725019 0.0021511387259922541 0 0.21205365186150391 0.001127076637653511 0 0.20892072170857109 0.012767156081287029 0 0.21205365186150391 0.001127076637653511 0 0.20892072170857109 0.012767156081287029 0 0.2212906269819209 0.02808117103842343 0 0.2133090341045272 0.020438410915845959 0 0.20434099672531431 0.027037771492151409 0 0.2212906269819209 0.02808117103842343 0 0.20434099672531431 0.027037771492151409 0 0.20892072170857109 0.012767156081287029 0 0.20434099672531431 0.027037771492151409 0 0.19706886986630101 0.02659010781157238 0 0.20892072170857109 0.012767156081287029 0 0.2133090341045272 0.020438410915845959 0 0.20434099672531431 0.027037771492151409 0 0.20892072170857109 0.012767156081287029 0 0.20434099672531431 0.027037771492151409 0 0.22358048947354919 0.02094586333299113 0 0.20892072170857109 0.012767156081287029 0 0.2133090341045272 0.020438410915845959 0 0.22358048947354919 0.02094586333299113 0 0.20892072170857109 0.012767156081287029 0 0.20434099672531431 0.027037771492151409 0 0.19706886986630101 0.02659010781157238 0 0.18584722908846579 0.039678037096461748 0 0.19706886986630101 0.02659010781157238 0 0.1793489050894036 0.025499287367217131 0 0.19706886986630101 0.02659010781157238 0 0.18886261666727239 0.017781810293305961 0 0.1793489050894036 0.025499287367217131 0 0.20434099672531431 0.027037771492151409 0 0.19706886986630101 0.02659010781157238 0 0.19706886986630101 0.02659010781157238 0 0.18886261666727239 0.017781810293305961 0 0.19930568838653551 0.01554774923698905 0 0.20892072170857109 0.012767156081287029 0 0.19706886986630101 0.02659010781157238 0 0.20892072170857109 0.012767156081287029 0 0.19706886986630101 0.02659010781157238 0 0.19930568838653551 0.01554774923698905 0 0.20892072170857109 0.012767156081287029 0 0.1938796680963169 0.0043757288619775247 0 0.20892072170857109 0.012767156081287029 0 0.19930568838653551 0.01554774923698905 0 0.1938796680963169 0.0043757288619775247 0 0.18886261666727239 0.017781810293305961 0 0.19930568838653551 0.01554774923698905 0 0.1938796680963169 0.0043757288619775247 0 0.204306859725019 0.0021511387259922541 0 0.20892072170857109 0.012767156081287029 0 0.1938796680963169 0.0043757288619775247 0 0.2217784603659208 0.047444474670274753 0 0.2108607061015669 0.039378202069488437 0 0.1960327403331118 0.054949391077104393 0 0.21002620416496889 0.06328565506698075 0 0.2217784603659208 0.047444474670274753 0 0.1960327403331118 0.054949391077104393 0 0.2217784603659208 0.047444474670274753 0 0.1960327403331118 0.054949391077104393 0 0.21002620416496889 0.06328565506698075 0 0.22407118564409079 0.073340341625019151 0 0.2217784603659208 0.047444474670274753 0 0.2217784603659208 0.047444474670274753 0 0.2212906269819209 0.02808117103842343 0 0.2108607061015669 0.039378202069488437 0 0.2212906269819209 0.02808117103842343 0 0.20434099672531431 0.027037771492151409 0 0.2108607061015669 0.039378202069488437 0 0.20434099672531431 0.027037771492151409 0 0.2108607061015669 0.039378202069488437 0 0.1960327403331118 0.054949391077104393 0 0.20434099672531431 0.027037771492151409 0 0.1960327403331118 0.054949391077104393 0 0.20434099672531431 0.027037771492151409 0 0.1960327403331118 0.054949391077104393 0 0.18584722908846579 0.039678037096461748 0 0.19706886986630101 0.02659010781157238 0 0.18584722908846579 0.039678037096461748 0 0.1995690445507847 0.065873816972442018 0 0.21002620416496889 0.06328565506698075 0 0.1960327403331118 0.054949391077104393 0 0.1960327403331118 0.054949391077104393 0 0.1746255883106308 0.052765966381351101 0 0.17163692998096569 0.062060806766251642 0 0.1960327403331118 0.054949391077104393 0 0.1746255883106308 0.052765966381351101 0 0.18584722908846579 0.039678037096461748 0 0.1960327403331118 0.054949391077104393 0 0.17163692998096569 0.062060806766251642 0 0.1746255883106308 0.052765966381351101 0 0.18584722908846579 0.039678037096461748 0 0.18584722908846579 0.039678037096461748 0 0.17106570266099719 0.037692703549262331 0 0.1793489050894036 0.025499287367217131 0 0.1746255883106308 0.052765966381351101 0 0.18584722908846579 0.039678037096461748 0 0.17106570266099719 0.037692703549262331 0 0.17106570266099719 0.037692703549262331 0 0.16525880824784889 0.023599248423987959 0 0.155277780545339 0.036726375296258343 0 0.17106570266099719 0.037692703549262331 0 0.16586313708802489 0.047532501458816309 0 0.155277780545339 0.036726375296258343 0 0.16586313708802489 0.047532501458816309 0 0.15586797499423979 0.052588317029067473 0 0.155277780545339 0.036726375296258343 0 0.1746255883106308 0.052765966381351101 0 0.17106570266099719 0.037692703549262331 0 0.16586313708802489 0.047532501458816309 0 0.17163692998096569 0.062060806766251642 0 0.16586313708802489 0.047532501458816309 0 0.15586797499423979 0.052588317029067473 0 0.17163692998096569 0.062060806766251642 0 0.15586797499423979 0.052588317029067473 0 0.14724111962881961 0.069172222455399196 0 0.1746255883106308 0.052765966381351101 0 0.17163692998096569 0.062060806766251642 0 0.16586313708802489 0.047532501458816309 0 0.18886261666727239 0.017781810293305961 0 0.1938796680963169 0.0043757288619775247 0 0.17537224354991091 0.010850892601100479 0 0.1938796680963169 0.0043757288619775247 0 0.17537224354991091 0.010850892601100479 0 0.17912323869707381 -0.003856906065920949 0 0.1938796680963169 0.0043757288619775247 0 0.17912323869707381 -0.003856906065920949 0 0.19706886986630101 0.02659010781157238 0 0.18584722908846579 0.039678037096461748 0 0.1793489050894036 0.025499287367217131 0 0.17537224354991091 0.010850892601100479 0 0.1793489050894036 0.025499287367217131 0 0.16525880824784889 0.023599248423987959 0 0.18886261666727239 0.017781810293305961 0 0.17537224354991091 0.010850892601100479 0 0.1793489050894036 0.025499287367217131 0 0.17106570266099719 0.037692703549262331 0 0.1793489050894036 0.025499287367217131 0 0.16525880824784889 0.023599248423987959 0 0.16525880824784889 0.023599248423987959 0 0.1516511660130683 0.021966999119350319 0 0.155277780545339 0.036726375296258343 0 0.16525880824784889 0.023599248423987959 0 0.15764205944865481 0.0083270856753996751 0 0.1516511660130683 0.021966999119350319 0 0.17537224354991091 0.010850892601100479 0 0.15764205944865481 0.0083270856753996751 0 0.16310660367626731 -0.0083879180435666549 0 0.17537224354991091 0.010850892601100479 0 0.16525880824784889 0.023599248423987959 0 0.15764205944865481 0.0083270856753996751 0 0.15764205944865481 0.0083270856753996751 0 0.14041294484288791 0.01224106892269761 0 0.1443933526966239 -0.0053404741926335233 0 0.15764205944865481 0.0083270856753996751 0 0.1516511660130683 0.021966999119350319 0 0.14041294484288791 0.01224106892269761 0 0.1516511660130683 0.021966999119350319 0 0.1396642369806107 0.028941217278408031 0 0.14041294484288791 0.01224106892269761 0 0.1516511660130683 0.021966999119350319 0 0.1396642369806107 0.028941217278408031 0 0.155277780545339 0.036726375296258343 0 0.12401493039047071 0.020319397639299529 0 0.1396642369806107 0.028941217278408031 0 0.14041294484288791 0.01224106892269761 0 0.12401493039047071 0.020319397639299529 0 0.1396642369806107 0.028941217278408031 0 0.12590570183597469 0.035936875787285161 0 0.12313387866373759 0.0035515711970952281 0 0.14041294484288791 0.01224106892269761 0 0.1443933526966239 -0.0053404741926335233 0 0.12401493039047071 0.020319397639299529 0 0.12313387866373759 0.0035515711970952281 0 0.14041294484288791 0.01224106892269761 0 0.15586797499423979 0.052588317029067473 0 0.13994254830725381 0.046775972621773153 0 0.14724111962881961 0.069172222455399196 0 0.1396642369806107 0.028941217278408031 0 0.155277780545339 0.036726375296258343 0 0.13994254830725381 0.046775972621773153 0 0.15586797499423979 0.052588317029067473 0 0.155277780545339 0.036726375296258343 0 0.13994254830725381 0.046775972621773153 0 0.12084946676276651 0.051920765802114653 0 0.13994254830725381 0.046775972621773153 0 0.12590570183597469 0.035936875787285161 0 0.1396642369806107 0.028941217278408031 0 0.13994254830725381 0.046775972621773153 0 0.12590570183597469 0.035936875787285161 0 0.12084946676276651 0.051920765802114653 0 0.13994254830725381 0.046775972621773153 0 0.14724111962881961 0.069172222455399196 0 0.12084946676276651 0.051920765802114653 0 0.1228453092766736 0.076283638144546695 0 0.14724111962881961 0.069172222455399196 0 0.1228453092766736 0.076283638144546695 0 0.14724111962881961 0.069172222455399196 0 0.1228453092766736 0.076283638144546695 0 0.14724111962881961 0.069172222455399196 0 0.14634680338186221 0.08472444087822889 0 0.14724111962881961 0.069172222455399196 0 0.14634680338186221 0.08472444087822889 0 0.1628819387299254 0.079953855936591933 0 0.14634680338186221 0.08472444087822889 0 0.15639292478588979 0.09681930926516806 0 0.1628819387299254 0.079953855936591933 0 0.14634680338186221 0.08472444087822889 0 0.1416551878783204 0.098341423160604985 0 0.15639292478588979 0.09681930926516806 0 0.14634680338186221 0.08472444087822889 0 0.13332427816065981 0.091465475151634515 0 0.1416551878783204 0.098341423160604985 0 0.1234856839472072 0.093079819220779875 0 0.1228453092766736 0.076283638144546695 0 0.13332427816065981 0.091465475151634515 0 0.1228453092766736 0.076283638144546695 0 0.14634680338186221 0.08472444087822889 0 0.13332427816065981 0.091465475151634515 0 0.1234856839472072 0.093079819220779875 0 0.13332427816065981 0.091465475151634515 0 0.12939896873949361 0.099253187387794956 0 0.124516223342394 0.102573694320021 0 0.1234856839472072 0.093079819220779875 0 0.12939896873949361 0.099253187387794956 0 0.13332427816065981 0.091465475151634515 0 0.12939896873949361 0.099253187387794956 0 0.13470892670643281 0.098145382386264135 0 0.12629269148191641 0.106016018243555 0 0.13042910013620129 0.10642034045751381 0 0.13445727204725691 0.1035214438450215 0 0.12629269148191641 0.106016018243555 0 0.13445727204725691 0.1035214438450215 0 0.124516223342394 0.102573694320021 0 0.12939896873949361 0.099253187387794956 0 0.12629269148191641 0.106016018243555 0 0.12939896873949361 0.099253187387794956 0 0.12629269148191641 0.106016018243555 0 0.13445727204725691 0.1035214438450215 0 0.12629269148191641 0.106016018243555 0 0.13042910013620129 0.10642034045751381 0 0.13042910013620129 0.10642034045751381 0 0.13445727204725691 0.1035214438450215 0 0.13445727204725691 0.1035214438450215 0 0.1416551878783204 0.098341423160604985 0 0.13445727204725691 0.1035214438450215 0 0.13470892670643281 0.098145382386264135 0 0.1416551878783204 0.098341423160604985 0 0.13332427816065981 0.091465475151634515 0 0.13470892670643281 0.098145382386264135 0 0.1416551878783204 0.098341423160604985 0 0.12939896873949361 0.099253187387794956 0 0.13445727204725691 0.1035214438450215 0 0.13470892670643281 0.098145382386264135 0 0.1311219964085299 0.13107921951882709 0 0.13042910013620129 0.10642034045751381 0 0.14610784646156841 0.1232675220587309 0 0.1136454455756077 0.1184987920293956 0 0.1311219964085299 0.13107921951882709 0 0.13042910013620129 0.10642034045751381 0 0.13042910013620129 0.10642034045751381 0 0.14610784646156841 0.1232675220587309 0 0.15862685203719781 0.1091765907292425 0 0.16087236332234431 0.1292463525528601 0 0.14610784646156841 0.1232675220587309 0 0.15862685203719781 0.1091765907292425 0 0.13042910013620129 0.10642034045751381 0 0.13445727204725691 0.1035214438450215 0 0.15862685203719781 0.1091765907292425 0 0.13445727204725691 0.1035214438450215 0 0.1416551878783204 0.098341423160604985 0 0.15639292478588979 0.09681930926516806 0 0.13445727204725691 0.1035214438450215 0 0.15639292478588979 0.09681930926516806 0 0.15862685203719781 0.1091765907292425 0 0.13042910013620129 0.10642034045751381 0 0.15862685203719781 0.1091765907292425 0 0.13445727204725691 0.1035214438450215 0 0.15639292478588979 0.09681930926516806 0 0.15862685203719781 0.1091765907292425 0 0.16989094328234061 0.1011077375373983 0 0.18682460393819469 0.1119328410009689 0 0.15639292478588979 0.09681930926516806 0 0.16989094328234061 0.1011077375373983 0 0.178328577524523 0.090117174685315285 0 0.15639292478588979 0.09681930926516806 0 0.15862685203719781 0.1091765907292425 0 0.16989094328234061 0.1011077375373983 0 0.1730945517163176 0.12565831839266209 0 0.16087236332234431 0.1292463525528601 0 0.15862685203719781 0.1091765907292425 0 0.15862685203719781 0.1091765907292425 0 0.18682460393819469 0.1119328410009689 0 0.1730945517163176 0.12565831839266209 0 0.15862685203719781 0.1091765907292425 0 0.18682460393819469 0.1119328410009689 0 0.19018889364999891 0.093793572917675747 0 0.18682460393819469 0.1119328410009689 0 0.18331490028506539 0.097675024062691712 0 0.16989094328234061 0.1011077375373983 0 0.18682460393819469 0.1119328410009689 0 0.1769415099635574 0.097887606769155019 0 0.16989094328234061 0.1011077375373983 0 0.1769415099635574 0.097887606769155019 0 0.178328577524523 0.090117174685315285 0 0.1769415099635574 0.097887606769155019 0 0.18331490028506539 0.097675024062691712 0 0.178328577524523 0.090117174685315285 0 0.18682460393819469 0.1119328410009689 0 0.1769415099635574 0.097887606769155019 0 0.18331490028506539 0.097675024062691712 0 0.1896738203090888 0.076312207569898163 0 0.18331490028506539 0.097675024062691712 0 0.18331490028506539 0.097675024062691712 0 0.178328577524523 0.090117174685315285 0 0.1818373739731898 0.085321539146003447 0 0.1896738203090888 0.076312207569898163 0 0.18331490028506539 0.097675024062691712 0 0.1818373739731898 0.085321539146003447 0 0.178328577524523 0.090117174685315285 0 0.1818373739731898 0.085321539146003447 0 0.17603219777408219 0.077181750266108684 0 0.178328577524523 0.090117174685315285 0 0.17603219777408219 0.077181750266108684 0 0.1628819387299254 0.079953855936591933 0 0.1896738203090888 0.076312207569898163 0 0.1818373739731898 0.085321539146003447 0 0.17603219777408219 0.077181750266108684 0 0.1896738203090888 0.076312207569898163 0 0.17163692998096569 0.062060806766251642 0 0.17603219777408219 0.077181750266108684 0 0.1896738203090888 0.076312207569898163 0 0.1960327403331118 0.054949391077104393 0 0.17163692998096569 0.062060806766251642 0 0.17163692998096569 0.062060806766251642 0 0.17603219777408219 0.077181750266108684 0 0.1628819387299254 0.079953855936591933 0 0.17163692998096569 0.062060806766251642 0 0.14724111962881961 0.069172222455399196 0 0.1628819387299254 0.079953855936591933 0 0.17163692998096569 0.062060806766251642 0 0.14724111962881961 0.069172222455399196 0 0.15639292478588979 0.09681930926516806 0 0.178328577524523 0.090117174685315285 0 0.1628819387299254 0.079953855936591933 0 0.15639292478588979 0.09681930926516806 0 0.178328577524523 0.090117174685315285 0 0.1064642695094989 0.47665876851161731 0 0.1153009038496213 0.5 0 0.089539576259972276 0.5 0 0.1064642695094989 0.47665876851161731 0 0.088576602776384489 0.48099300239631659 0 0.089539576259972276 0.5 0 0.1064642695094989 0.47665876851161731 0 0.1153009038496213 0.5 0 0.1344799913076026 0.47921315784804291 0 0.1064642695094989 0.47665876851161731 0 0.1278977511759336 0.45842631569609049 0 0.1344799913076026 0.47921315784804291 0 0.1064642695094989 0.47665876851161731 0 0.10638163176300761 0.45524890958736619 0 0.1278977511759336 0.45842631569609049 0 0.12131551104426461 0.43763947354413812 0 0.10638163176300761 0.45524890958736619 0 0.1278977511759336 0.45842631569609049 0 0.12131551104426461 0.43763947354413812 0 0.1278977511759336 0.45842631569609049 0 0.095526410633707565 0.43870059007458351 0 0.10638163176300761 0.45524890958736619 0 0.08070421645163299 0.46481940011040129 0 0.12131551104426461 0.43763947354413812 0 0.095526410633707565 0.43870059007458351 0 0.10638163176300761 0.45524890958736619 0 0.1064642695094989 0.47665876851161731 0 0.10638163176300761 0.45524890958736619 0 0.08070421645163299 0.46481940011040129 0 0.095526410633707565 0.43870059007458351 0 0.08070421645163299 0.46481940011040129 0 0.078099157297793792 0.440445808541017 0 0.08070421645163299 0.46481940011040129 0 0.078099157297793792 0.440445808541017 0 0.066389714838403918 0.45309971317951958 0 0.078099157297793792 0.440445808541017 0 0.066389714838403918 0.45309971317951958 0 0.063977228270350392 0.43263328419191732 0 0.08070421645163299 0.46481940011040129 0 0.066389714838403918 0.45309971317951958 0 0.057096325155191981 0.46804233190681782 0 0.08070421645163299 0.46481940011040129 0 0.072060391741020621 0.48304480064329941 0 0.057096325155191981 0.46804233190681782 0 0.08070421645163299 0.46481940011040129 0 0.072060391741020621 0.48304480064329941 0 0.088576602776384489 0.48099300239631659 0 0.1064642695094989 0.47665876851161731 0 0.08070421645163299 0.46481940011040129 0 0.088576602776384489 0.48099300239631659 0 0.072060391741020621 0.48304480064329941 0 0.088576602776384489 0.48099300239631659 0 0.089539576259972276 0.5 0 0.072060391741020621 0.48304480064329941 0 0.089539576259972276 0.5 0 0.06377824867032339 0.5 0 0.072060391741020621 0.48304480064329941 0 0.06377824867032339 0.5 0 0.052180159396324512 0.48446254210955381 0 0.06377824867032339 0.5 0 0.052180159396324512 0.48446254210955381 0 0.038016921080674497 0.5 0 0.072060391741020621 0.48304480064329941 0 0.052180159396324512 0.48446254210955381 0 0.057096325155191981 0.46804233190681782 0 0.052180159396324512 0.48446254210955381 0 0.043290205718736638 0.47286710429814588 0 0.057096325155191981 0.46804233190681782 0 0.052180159396324512 0.48446254210955381 0 0.043290205718736638 0.47286710429814588 0 0.036247041080798348 0.48456414866912412 0 0.043290205718736638 0.47286710429814588 0 0.036247041080798348 0.48456414866912412 0 0.030942504690626989 0.47597456970631319 0 0.036247041080798348 0.48456414866912412 0 0.027832576773274581 0.48257174432414057 0 0.030942504690626989 0.47597456970631319 0 0.043290205718736638 0.47286710429814588 0 0.030942504690626989 0.47597456970631319 0 0.032391195287627912 0.46380111001184121 0 0.052180159396324512 0.48446254210955381 0 0.036247041080798348 0.48456414866912412 0 0.038016921080674497 0.5 0 0.036247041080798348 0.48456414866912412 0 0.038016921080674497 0.5 0 0.02521987882515286 0.49150893157659098 0 0.038016921080674497 0.5 0 0.02521987882515286 0.49150893157659098 0 0.01225559349102562 0.5 0 0.02521987882515286 0.49150893157659098 0 0.01225559349102562 0.5 0 0.01340480907097895 0.4874299313747133 0 0.021360537255457831 0.48505781559699601 0 0.02521987882515286 0.49150893157659098 0 0.01340480907097895 0.4874299313747133 0 0.021360537255457831 0.48505781559699601 0 0.02521987882515286 0.49150893157659098 0 0.027832576773274581 0.48257174432414057 0 0.036247041080798348 0.48456414866912412 0 0.02521987882515286 0.49150893157659098 0 0.027832576773274581 0.48257174432414057 0 0.027832576773274581 0.48257174432414057 0 0.030942504690626989 0.47597456970631319 0 0.021191738914219369 0.47749559469277658 0 0.021360537255457831 0.48505781559699601 0 0.027832576773274581 0.48257174432414057 0 0.021191738914219369 0.47749559469277658 0 0.02072615032942926 0.47531170678851148 0 0.032391195287627912 0.46380111001184121 0 0.030942504690626989 0.47597456970631319 0 0.02072615032942926 0.47531170678851148 0 0.032391195287627912 0.46380111001184121 0 0.030942504690626989 0.47597456970631319 0 0.02072615032942926 0.47531170678851148 0 0.021191738914219369 0.47749559469277658 0 0.02072615032942926 0.47531170678851148 0 0.021191738914219369 0.47749559469277658 0 0.021360537255457831 0.48505781559699601 0 0.021191738914219369 0.47749559469277658 0 0.01340480907097895 0.4874299313747133 0 0.02072615032942926 0.47531170678851148 0 0.021191738914219369 0.47749559469277658 0 0.01340480907097895 0.4874299313747133 0 0.02072615032942926 0.47531170678851148 0 0.0080216253579254212 0.47624624169120339 0 0.00047754122158997348 0.49529221912806559 0 0.02072615032942926 0.47531170678851148 0 0.0080216253579254212 0.47624624169120339 0 0.0070915896478249809 0.46407540904328187 0 -0.0046263563138369129 0.47472740336317082 0 0.0080216253579254212 0.47624624169120339 0 0.0070915896478249809 0.46407540904328187 0 -0.0015562876768971451 0.48331675208623398 0 -0.0046263563138369129 0.47472740336317082 0 0.0080216253579254212 0.47624624169120339 0 -0.0015562876768971451 0.48331675208623398 0 0.0080216253579254212 0.47624624169120339 0 0.00047754122158997348 0.49529221912806559 0 0.02072615032942926 0.47531170678851148 0 0.00047754122158997348 0.49529221912806559 0 0.02072615032942926 0.47531170678851148 0 0.00047754122158997348 0.49529221912806559 0 0.01340480907097895 0.4874299313747133 0 0.00047754122158997348 0.49529221912806559 0 0.01225559349102562 0.5 0 0.01340480907097895 0.4874299313747133 0 -0.0093705465621650112 0.44912781746802999 0 0.014834025034906601 0.44767412807311707 0 0.00070246242907472112 0.4356242166470069 0 0.02072615032942926 0.47531170678851148 0 0.014834025034906601 0.44767412807311707 0 0.0070915896478249809 0.46407540904328187 0 -0.0093705465621650112 0.44912781746802999 0 0.014834025034906601 0.44767412807311707 0 0.0070915896478249809 0.46407540904328187 0 0.02072615032942926 0.47531170678851148 0 0.014834025034906601 0.44767412807311707 0 0.032391195287627912 0.46380111001184121 0 0.02072615032942926 0.47531170678851148 0 0.014834025034906601 0.44767412807311707 0 0.014834025034906601 0.44767412807311707 0 0.03065489434706261 0.45059900282980819 0 0.032391195287627912 0.46380111001184121 0 0.014834025034906601 0.44767412807311707 0 0.031338116819889357 0.43863025999910382 0 0.024043356041985889 0.42702135517020778 0 0.014834025034906601 0.44767412807311707 0 0.03065489434706261 0.45059900282980819 0 0.031338116819889357 0.43863025999910382 0 0.031338116819889357 0.43863025999910382 0 0.044056240245826578 0.452290513235171 0 0.041947732939803348 0.42279117811590528 0 0.044056240245826578 0.452290513235171 0 0.041947732939803348 0.42279117811590528 0 0.03065489434706261 0.45059900282980819 0 0.031338116819889357 0.43863025999910382 0 0.044056240245826578 0.452290513235171 0 0.044056240245826578 0.452290513235171 0 0.032391195287627912 0.46380111001184121 0 0.03065489434706261 0.45059900282980819 0 0.044056240245826578 0.452290513235171 0 0.032391195287627912 0.46380111001184121 0 0.044056240245826578 0.452290513235171 0 0.032391195287627912 0.46380111001184121 0 0.044660587259281098 0.46074570569634898 0 0.044056240245826578 0.452290513235171 0 0.044660587259281098 0.46074570569634898 0 0.043290205718736638 0.47286710429814588 0 0.032391195287627912 0.46380111001184121 0 0.044660587259281098 0.46074570569634898 0 0.043290205718736638 0.47286710429814588 0 0.044660587259281098 0.46074570569634898 0 0.057096325155191981 0.46804233190681782 0 0.044056240245826578 0.452290513235171 0 0.044660587259281098 0.46074570569634898 0 0.055236019153810802 0.45336230964195501 0 0.044660587259281098 0.46074570569634898 0 0.055236019153810802 0.45336230964195501 0 0.057096325155191981 0.46804233190681782 0 0.066389714838403918 0.45309971317951958 0 0.055236019153810802 0.45336230964195501 0 0.057096325155191981 0.46804233190681782 0 0.066389714838403918 0.45309971317951958 0 0.055236019153810802 0.45336230964195501 0 0.063977228270350392 0.43263328419191732 0 0.044056240245826578 0.452290513235171 0 0.055236019153810802 0.45336230964195501 0 0.063977228270350392 0.43263328419191732 0 0.044056240245826578 0.452290513235171 0 0.063977228270350392 0.43263328419191732 0 0.044056240245826578 0.452290513235171 0 0.041947732939803348 0.42279117811590528 0 0.063977228270350392 0.43263328419191732 0 0.06079548108225364 0.41017969837043389 0 0.041947732939803348 0.42279117811590528 0 0.063977228270350392 0.43263328419191732 0 0.06079548108225364 0.41017969837043389 0 0.041947732939803348 0.42279117811590528 0 0.039839225633780243 0.39329184299663977 0 0.041947732939803348 0.42279117811590528 0 0.023155005674946341 0.40597466030519003 0 0.039839225633780243 0.39329184299663977 0 0.041947732939803348 0.42279117811590528 0 0.039839225633780243 0.39329184299663977 0 0.031338116819889357 0.43863025999910382 0 0.041947732939803348 0.42279117811590528 0 0.024043356041985889 0.42702135517020778 0 0.014834025034906601 0.44767412807311707 0 0.024043356041985889 0.42702135517020778 0 0.0089418997403838164 0.42003654935772261 0 0.041947732939803348 0.42279117811590528 0 0.024043356041985889 0.42702135517020778 0 0.023155005674946341 0.40597466030519003 0 0.024043356041985889 0.42702135517020778 0 0.0089418997403838164 0.42003654935772261 0 0.023155005674946341 0.40597466030519003 0 -0.0033560911855174251 0.4100707043998737 0 0.0089418997403838164 0.42003654935772261 0 0.003049774445861032 0.39239897064232809 0 0.014834025034906601 0.44767412807311707 0 0.0089418997403838164 0.42003654935772261 0 0.014834025034906601 0.44767412807311707 0 0.0089418997403838164 0.42003654935772261 0 0.00070246242907472112 0.4356242166470069 0 -0.0031907760215338348 0.38094285235515429 0 0.003049774445861032 0.39239897064232809 0 0.019022490955649628 0.38390163027806729 0 -0.0031907760215338348 0.38094285235515429 0 0.019022490955649628 0.38390163027806729 0 0.013550997673091951 0.36700894749171747 0 0.003049774445861032 0.39239897064232809 0 0.023155005674946341 0.40597466030519003 0 0.019022490955649628 0.38390163027806729 0 0.0089418997403838164 0.42003654935772261 0 0.003049774445861032 0.39239897064232809 0 0.023155005674946341 0.40597466030519003 0 0.0089418997403838164 0.42003654935772261 0 0.003049774445861032 0.39239897064232809 0 0.023155005674946341 0.40597466030519003 0 0.019022490955649628 0.38390163027806729 0 0.039839225633780243 0.39329184299663977 0 0.019022490955649628 0.38390163027806729 0 0.039839225633780243 0.39329184299663977 0 0.037730718327752093 0.3637925078773746 0 0.039839225633780243 0.39329184299663977 0 0.037730718327752093 0.3637925078773746 0 0.039839225633780243 0.39329184299663977 0 0.052895904244040143 0.37618504541454878 0 0.037730718327752093 0.3637925078773746 0 0.06079548108225364 0.41017969837043389 0 0.039839225633780243 0.39329184299663977 0 0.067135407186936377 0.38864723161718229 0 0.039839225633780243 0.39329184299663977 0 0.052895904244040143 0.37618504541454878 0 0.067135407186936377 0.38864723161718229 0 0.087047445244074623 0.37911733500321182 0 0.083898216294874095 0.41297605514866348 0 0.1038192043193978 0.39331882610540958 0 0.067135407186936377 0.38864723161718229 0 0.087047445244074623 0.37911733500321182 0 0.083898216294874095 0.41297605514866348 0 0.067135407186936377 0.38864723161718229 0 0.087047445244074623 0.37911733500321182 0 0.065219665079130837 0.36013586773043083 0 0.06079548108225364 0.41017969837043389 0 0.067135407186936377 0.38864723161718229 0 0.083898216294874095 0.41297605514866348 0 0.06079548108225364 0.41017969837043389 0 0.063977228270350392 0.43263328419191732 0 0.083898216294874095 0.41297605514866348 0 0.078099157297793792 0.440445808541017 0 0.063977228270350392 0.43263328419191732 0 0.083898216294874095 0.41297605514866348 0 0.063977228270350392 0.43263328419191732 0 0.083898216294874095 0.41297605514866348 0 0.095526410633707565 0.43870059007458351 0 0.078099157297793792 0.440445808541017 0 0.083898216294874095 0.41297605514866348 0 0.083898216294874095 0.41297605514866348 0 0.114470326864687 0.41556032037417961 0 0.1038192043193978 0.39331882610540958 0 0.095526410633707565 0.43870059007458351 0 0.083898216294874095 0.41297605514866348 0 0.114470326864687 0.41556032037417961 0 0.12131551104426461 0.43763947354413812 0 0.114470326864687 0.41556032037417961 0 0.13545573333377081 0.42744960681673111 0 0.12131551104426461 0.43763947354413812 0 0.095526410633707565 0.43870059007458351 0 0.114470326864687 0.41556032037417961 0 0.114470326864687 0.41556032037417961 0 0.1248040273615745 0.39426397529669138 0 0.1038192043193978 0.39331882610540958 0 0.1248040273615745 0.39426397529669138 0 0.1038192043193978 0.39331882610540958 0 0.1237401923439215 0.37366159706215579 0 0.1038192043193978 0.39331882610540958 0 0.1055026024639584 0.3710799146381617 0 0.1237401923439215 0.37366159706215579 0 0.1038192043193978 0.39331882610540958 0 0.1237401923439215 0.37366159706215579 0 0.087047445244074623 0.37911733500321182 0 0.1038192043193978 0.39331882610540958 0 0.1055026024639584 0.3710799146381617 0 0.083898216294874095 0.41297605514866348 0 0.1038192043193978 0.39331882610540958 0 0.12019755858188839 0.35282258743654399 0 0.10745660952205401 0.33672956511806951 0 0.092708611830509643 0.35647922758348738 0 0.12019755858188839 0.35282258743654399 0 0.092708611830509643 0.35647922758348738 0 0.1055026024639584 0.3710799146381617 0 0.12019755858188839 0.35282258743654399 0 0.092708611830509643 0.35647922758348738 0 0.087047445244074623 0.37911733500321182 0 0.1055026024639584 0.3710799146381617 0 0.092708611830509643 0.35647922758348738 0 0.1055026024639584 0.3710799146381617 0 0.1237401923439215 0.37366159706215579 0 0.12019755858188839 0.35282258743654399 0 0.12019755858188839 0.35282258743654399 0 0.10745660952205401 0.33672956511806951 0 0.12822311230229611 0.33267102260534198 0 0.1178418837420498 0.3212742172592557 0 0.10745660952205401 0.33672956511806951 0 0.12822311230229611 0.33267102260534198 0 0.1178418837420498 0.3212742172592557 0 0.1037272511331867 0.31820530559976401 0 0.1175151721489681 0.30506634405420768 0 0.1178418837420498 0.3212742172592557 0 0.1175151721489681 0.30506634405420768 0 0.13228727360374379 0.31369884891889549 0 0.1178418837420498 0.3212742172592557 0 0.1037272511331867 0.31820530559976401 0 0.10745660952205401 0.33672956511806951 0 0.10745660952205401 0.33672956511806951 0 0.085071315374679629 0.33407853086780392 0 0.092708611830509643 0.35647922758348738 0 0.1037272511331867 0.31820530559976401 0 0.10745660952205401 0.33672956511806951 0 0.085071315374679629 0.33407853086780392 0 0.085071315374679629 0.33407853086780392 0 0.06848497676158645 0.31529679547880041 0 0.087539601033616271 0.31076469726459371 0 0.1037272511331867 0.31820530559976401 0 0.085071315374679629 0.33407853086780392 0 0.087539601033616271 0.31076469726459371 0 0.085071315374679629 0.33407853086780392 0 0.06848497676158645 0.31529679547880041 0 0.058196173403724683 0.3383236311089331 0 0.085071315374679629 0.33407853086780392 0 0.065219665079130837 0.36013586773043083 0 0.058196173403724683 0.3383236311089331 0 0.092708611830509643 0.35647922758348738 0 0.065219665079130837 0.36013586773043083 0 0.085071315374679629 0.33407853086780392 0 0.092708611830509643 0.35647922758348738 0 0.065219665079130837 0.36013586773043083 0 0.087047445244074623 0.37911733500321182 0 0.092708611830509643 0.35647922758348738 0 0.065219665079130837 0.36013586773043083 0 0.052895904244040143 0.37618504541454878 0 0.067135407186936377 0.38864723161718229 0 0.065219665079130837 0.36013586773043083 0 0.052895904244040143 0.37618504541454878 0 0.065219665079130837 0.36013586773043083 0 0.037730718327752093 0.3637925078773746 0 0.065219665079130837 0.36013586773043083 0 0.037730718327752093 0.3637925078773746 0 0.065219665079130837 0.36013586773043083 0 0.037730718327752093 0.3637925078773746 0 0.058196173403724683 0.3383236311089331 0 0.037730718327752093 0.3637925078773746 0 0.035626830094632668 0.33435779647508052 0 0.037730718327752093 0.3637925078773746 0 0.035626830094632668 0.33435779647508052 0 0.058196173403724683 0.3383236311089331 0 0.037730718327752093 0.3637925078773746 0 0.013550997673091951 0.36700894749171747 0 0.019022490955649628 0.38390163027806729 0 0.037730718327752093 0.3637925078773746 0 0.013550997673091951 0.36700894749171747 0 0.037730718327752093 0.3637925078773746 0 0.013667537737262319 0.34686808482662967 0 0.013550997673091951 0.36700894749171747 0 0.037730718327752093 0.3637925078773746 0 0.013667537737262319 0.34686808482662967 0 0.035626830094632668 0.33435779647508052 0 -0.002301468281773961 0.35105905958958589 0 0.013667537737262319 0.34686808482662967 0 0.013667537737262319 0.34686808482662967 0 0.013550997673091951 0.36700894749171747 0 0.0017598356757351249 0.35970487886607511 0 -0.0027275111302669762 0.33917893461267751 0 -0.002301468281773961 0.35105905958958589 0 0.013667537737262319 0.34686808482662967 0 -0.002301468281773961 0.35105905958958589 0 0.013667537737262319 0.34686808482662967 0 0.0017598356757351249 0.35970487886607511 0 -0.01062872298156819 0.37022538710606068 0 0.013550997673091951 0.36700894749171747 0 -0.01062872298156819 0.37022538710606068 0 0.013550997673091951 0.36700894749171747 0 0.0017598356757351249 0.35970487886607511 0 -0.0074649973427216437 0.32553759514413338 0 0.0099458108876561181 0.30752992596193612 0 -0.0074649973427216437 0.32553759514413338 0 0.011186771252963711 0.32818244582930323 0 0.0099458108876561181 0.30752992596193612 0 0.011186771252963711 0.32818244582930323 0 0.02257058852419017 0.3187483133347766 0 0.0099458108876561181 0.30752992596193612 0 -0.0027275111302669762 0.33917893461267751 0 -0.0074649973427216437 0.32553759514413338 0 0.011186771252963711 0.32818244582930323 0 -0.0027275111302669762 0.33917893461267751 0 0.013667537737262319 0.34686808482662967 0 0.011186771252963711 0.32818244582930323 0 0.013667537737262319 0.34686808482662967 0 0.011186771252963711 0.32818244582930323 0 0.035626830094632668 0.33435779647508052 0 0.011186771252963711 0.32818244582930323 0 0.02257058852419017 0.3187483133347766 0 0.035626830094632668 0.33435779647508052 0 0.02257058852419017 0.3187483133347766 0 0.035626830094632668 0.33435779647508052 0 0.033522941861508199 0.3049230850727867 0 0.035626830094632668 0.33435779647508052 0 0.050583367404711171 0.31799307838170382 0 0.033522941861508199 0.3049230850727867 0 0.035626830094632668 0.33435779647508052 0 0.033522941861508199 0.3049230850727867 0 0.035626830094632668 0.33435779647508052 0 0.058196173403724683 0.3383236311089331 0 0.050583367404711171 0.31799307838170382 0 0.06848497676158645 0.31529679547880041 0 0.058196173403724683 0.3383236311089331 0 0.050583367404711171 0.31799307838170382 0 0.06848497676158645 0.31529679547880041 0 0.050583367404711171 0.31799307838170382 0 0.057085914902103838 0.29706408377291799 0 0.050583367404711171 0.31799307838170382 0 0.057085914902103838 0.29706408377291799 0 0.033522941861508199 0.3049230850727867 0 0.057085914902103838 0.29706408377291799 0 0.044483982715641759 0.28760289495066921 0 0.062389469804621012 0.27548666367454527 0 0.044483982715641759 0.28760289495066921 0 0.027356619118033901 0.28952225677973881 0 0.044767427348412221 0.27151458759754188 0 0.057085914902103838 0.29706408377291799 0 0.044483982715641759 0.28760289495066921 0 0.033522941861508199 0.3049230850727867 0 0.044483982715641759 0.28760289495066921 0 0.033522941861508199 0.3049230850727867 0 0.027356619118033901 0.28952225677973881 0 0.027356619118033901 0.28952225677973881 0 0.0099458108876561181 0.30752992596193612 0 0.033522941861508199 0.3049230850727867 0 0.027356619118033901 0.28952225677973881 0 0.0099458108876561181 0.30752992596193612 0 0.02257058852419017 0.3187483133347766 0 0.033522941861508199 0.3049230850727867 0 0.0099458108876561181 0.30752992596193612 0 0.027356619118033901 0.28952225677973881 0 0.0092751585124298732 0.2885309868865864 0 0.015712342419492011 0.27405135326386221 0 -0.001578176680146459 0.27507181497635702 0 -0.0056734005591082184 0.29844779389953791 0 0.0092751585124298732 0.2885309868865864 0 0.027356619118033901 0.28952225677973881 0 0.0092751585124298732 0.2885309868865864 0 0.0099458108876561181 0.30752992596193612 0 -0.0056734005591082184 0.29844779389953791 0 0.0092751585124298732 0.2885309868865864 0 0.0099458108876561181 0.30752992596193612 0 -0.001578176680146459 0.27507181497635702 0 0.0099098419912429878 0.26365487840773483 0 0.00052355941179598429 0.25579479798048171 0 0.0099098419912429878 0.26365487840773483 0 0.015096421446432079 0.25209654690509331 0 0.01979506335864133 0.26125987891287972 0 0.0099098419912429878 0.26365487840773483 0 0.015096421446432079 0.25209654690509331 0 0.00052355941179598429 0.25579479798048171 0 -0.001578176680146459 0.27507181497635702 0 0.0099098419912429878 0.26365487840773483 0 0.015712342419492011 0.27405135326386221 0 -0.001578176680146459 0.27507181497635702 0 0.0092751585124298732 0.2885309868865864 0 0.015712342419492011 0.27405135326386221 0 0.0099098419912429878 0.26365487840773483 0 0.015712342419492011 0.27405135326386221 0 0.01979506335864133 0.26125987891287972 0 0.015712342419492011 0.27405135326386221 0 0.027448562580092869 0.26802105039543228 0 0.01979506335864133 0.26125987891287972 0 0.027356619118033901 0.28952225677973881 0 0.015712342419492011 0.27405135326386221 0 0.027448562580092869 0.26802105039543228 0 0.027356619118033901 0.28952225677973881 0 0.027448562580092869 0.26802105039543228 0 0.038431876658968432 0.27008653012970391 0 0.027448562580092869 0.26802105039543228 0 0.027206279367625669 0.25373786143723448 0 0.035430745663873033 0.2603881365480713 0 0.027448562580092869 0.26802105039543228 0 0.01979506335864133 0.26125987891287972 0 0.027206279367625669 0.25373786143723448 0 0.015096421446432079 0.25209654690509331 0 0.01979506335864133 0.26125987891287972 0 0.027206279367625669 0.25373786143723448 0 0.035598449415234837 0.2495524571064667 0 0.027206279367625669 0.25373786143723448 0 0.035430745663873033 0.2603881365480713 0 0.035430745663873033 0.2603881365480713 0 0.046196578722919449 0.26104926210950002 0 0.038431876658968432 0.27008653012970391 0 0.047546082556938617 0.24747125154829211 0 0.035598449415234837 0.2495524571064667 0 0.046196578722919449 0.26104926210950002 0 0.035598449415234837 0.2495524571064667 0 0.035430745663873033 0.2603881365480713 0 0.046196578722919449 0.26104926210950002 0 0.047546082556938617 0.24747125154829211 0 0.046196578722919449 0.26104926210950002 0 0.027356619118033901 0.28952225677973881 0 0.044767427348412221 0.27151458759754188 0 0.027356619118033901 0.28952225677973881 0 0.038431876658968432 0.27008653012970391 0 0.044767427348412221 0.27151458759754188 0 0.027448562580092869 0.26802105039543228 0 0.035430745663873033 0.2603881365480713 0 0.038431876658968432 0.27008653012970391 0 0.046196578722919449 0.26104926210950002 0 0.038431876658968432 0.27008653012970391 0 0.044767427348412221 0.27151458759754188 0 0.038431876658968432 0.27008653012970391 0 0.044767427348412221 0.27151458759754188 0 0.044767427348412221 0.27151458759754188 0 0.062389469804621012 0.27548666367454527 0 0.058028282024128817 0.2577991367744793 0 0.044767427348412221 0.27151458759754188 0 0.062389469804621012 0.27548666367454527 0 0.044483982715641759 0.28760289495066921 0 0.044767427348412221 0.27151458759754188 0 0.062389469804621012 0.27548666367454527 0 0.047546082556938617 0.24747125154829211 0 0.058028282024128817 0.2577991367744793 0 0.047546082556938617 0.24747125154829211 0 0.046196578722919449 0.26104926210950002 0 0.058028282024128817 0.2577991367744793 0 0.046196578722919449 0.26104926210950002 0 0.044767427348412221 0.27151458759754188 0 0.058028282024128817 0.2577991367744793 0 0.044767427348412221 0.27151458759754188 0 0.058028282024128817 0.2577991367744793 0 0.060789523616018221 0.25494323689545412 0 0.058028282024128817 0.2577991367744793 0 0.061072009066903667 0.25345897537562068 0 0.047546082556938617 0.24747125154829211 0 0.058028282024128817 0.2577991367744793 0 0.061072009066903667 0.25345897537562068 0 0.060789523616018221 0.25494323689545412 0 0.058028282024128817 0.2577991367744793 0 0.070610784923539879 0.2441657739946789 0 0.061072009066903667 0.25345897537562068 0 0.072856792737802545 0.25660343021552873 0 0.072856792737802545 0.25660343021552873 0 0.090131343139204109 0.26441229451162318 0 0.069019897142478498 0.26862893826301398 0 0.060789523616018221 0.25494323689545412 0 0.061072009066903667 0.25345897537562068 0 0.072856792737802545 0.25660343021552873 0 0.058028282024128817 0.2577991367744793 0 0.069019897142478498 0.26862893826301398 0 0.060789523616018221 0.25494323689545412 0 0.072856792737802545 0.25660343021552873 0 0.069019897142478498 0.26862893826301398 0 0.060789523616018221 0.25494323689545412 0 0.058028282024128817 0.2577991367744793 0 0.069019897142478498 0.26862893826301398 0 0.070610784923539879 0.2441657739946789 0 0.072856792737802545 0.25660343021552873 0 0.084825475029785158 0.25213258584012982 0 0.072856792737802545 0.25660343021552873 0 0.090131343139204109 0.26441229451162318 0 0.084825475029785158 0.25213258584012982 0 0.096639130049948313 0.24797278035889231 0 0.090131343139204109 0.26441229451162318 0 0.084825475029785158 0.25213258584012982 0 0.090131343139204109 0.26441229451162318 0 0.080011512260830253 0.27945873975154673 0 0.069019897142478498 0.26862893826301398 0 0.090131343139204109 0.26441229451162318 0 0.080011512260830253 0.27945873975154673 0 0.109029133406435 0.2859994230492065 0 0.062389469804621012 0.27548666367454527 0 0.080011512260830253 0.27945873975154673 0 0.06838342515590963 0.28709767512252948 0 0.080011512260830253 0.27945873975154673 0 0.069019897142478498 0.26862893826301398 0 0.062389469804621012 0.27548666367454527 0 0.080011512260830253 0.27945873975154673 0 0.069019897142478498 0.26862893826301398 0 0.062389469804621012 0.27548666367454527 0 0.058028282024128817 0.2577991367744793 0 0.069019897142478498 0.26862893826301398 0 0.062389469804621012 0.27548666367454527 0 0.080011512260830253 0.27945873975154673 0 0.080011512260830253 0.27945873975154673 0 0.074046803656083585 0.29638121329110712 0 0.06838342515590963 0.28709767512252948 0 0.057085914902103838 0.29706408377291799 0 0.062389469804621012 0.27548666367454527 0 0.06838342515590963 0.28709767512252948 0 0.057085914902103838 0.29706408377291799 0 0.074046803656083585 0.29638121329110712 0 0.06838342515590963 0.28709767512252948 0 0.06848497676158645 0.31529679547880041 0 0.074046803656083585 0.29638121329110712 0 0.087539601033616271 0.31076469726459371 0 0.06848497676158645 0.31529679547880041 0 0.057085914902103838 0.29706408377291799 0 0.074046803656083585 0.29638121329110712 0 0.074046803656083585 0.29638121329110712 0 0.087539601033616271 0.31076469726459371 0 0.090409382195944493 0.28970353690722878 0 0.087539601033616271 0.31076469726459371 0 0.090409382195944493 0.28970353690722878 0 0.10164410798363011 0.30194786137500013 0 0.080011512260830253 0.27945873975154673 0 0.074046803656083585 0.29638121329110712 0 0.090409382195944493 0.28970353690722878 0 0.080011512260830253 0.27945873975154673 0 0.090409382195944493 0.28970353690722878 0 0.109029133406435 0.2859994230492065 0 0.080011512260830253 0.27945873975154673 0 0.090409382195944493 0.28970353690722878 0 0.080011512260830253 0.27945873975154673 0 0.109029133406435 0.2859994230492065 0 0.090409382195944493 0.28970353690722878 0 0.109029133406435 0.2859994230492065 0 0.10164410798363011 0.30194786137500013 0 0.1037272511331867 0.31820530559976401 0 0.087539601033616271 0.31076469726459371 0 0.10164410798363011 0.30194786137500013 0 0.1037272511331867 0.31820530559976401 0 0.10164410798363011 0.30194786137500013 0 0.1175151721489681 0.30506634405420768 0 0.109029133406435 0.2859994230492065 0 0.10164410798363011 0.30194786137500013 0 0.1175151721489681 0.30506634405420768 0 0.109029133406435 0.2859994230492065 0 0.13804675455203999 0.29254010634686561 0 0.109029133406435 0.2859994230492065 0 0.1175151721489681 0.30506634405420768 0 0.13804675455203999 0.29254010634686561 0 0.109029133406435 0.2859994230492065 0 0.1108366062957163 0.25664873547543587 0 0.1336233243165916 0.26342578592320198 0 0.1246815833938911 0.242072742896983 0 0.1108366062957163 0.25664873547543587 0 0.1336233243165916 0.26342578592320198 0 0.096639130049948313 0.24797278035889231 0 0.090131343139204109 0.26441229451162318 0 0.1108366062957163 0.25664873547543587 0 0.090131343139204109 0.26441229451162318 0 0.109029133406435 0.2859994230492065 0 0.1108366062957163 0.25664873547543587 0 0.1336233243165916 0.26342578592320198 0 0.13804675455203999 0.29254010634686561 0 0.1618767332304652 0.26496499908816251 0 0.14027572627916499 0.24411909677404031 0 0.1520623545728659 0.25113852338775589 0 0.1336233243165916 0.26342578592320198 0 0.1520623545728659 0.25113852338775589 0 0.1336233243165916 0.26342578592320198 0 0.1618767332304652 0.26496499908816251 0 0.109029133406435 0.2859994230492065 0 0.1336233243165916 0.26342578592320198 0 0.13804675455203999 0.29254010634686561 0 0.13804675455203999 0.29254010634686561 0 0.16706437569764479 0.29908078964452472 0 0.1618767332304652 0.26496499908816251 0 0.1175151721489681 0.30506634405420768 0 0.13804675455203999 0.29254010634686561 0 0.13228727360374379 0.31369884891889549 0 0.13804675455203999 0.29254010634686561 0 0.14640968842967589 0.3077808068667765 0 0.13228727360374379 0.31369884891889549 0 0.13804675455203999 0.29254010634686561 0 0.14640968842967589 0.3077808068667765 0 0.16706437569764479 0.29908078964452472 0 0.13804675455203999 0.29254010634686561 0 0.16706437569764479 0.29908078964452472 0 0.16706437569764479 0.29908078964452472 0 0.18461864979132731 0.27994994062915912 0 0.1618767332304652 0.26496499908816251 0 0.14640968842967589 0.3077808068667765 0 0.1712458426364627 0.30670113990448111 0 0.15853480362576741 0.31768468044606002 0 0.14640968842967589 0.3077808068667765 0 0.16706437569764479 0.29908078964452472 0 0.1712458426364627 0.30670113990448111 0 0.14640968842967589 0.3077808068667765 0 0.1712458426364627 0.30670113990448111 0 0.16706437569764479 0.29908078964452472 0 0.1712458426364627 0.30670113990448111 0 0.19608199684324951 0.30562147294218472 0 0.16706437569764479 0.29908078964452472 0 0.19608199684324951 0.30562147294218472 0 0.1712458426364627 0.30670113990448111 0 0.19608199684324951 0.30562147294218472 0 0.18604836880892239 0.32438752676663152 0 0.1712458426364627 0.30670113990448111 0 0.19608199684324951 0.30562147294218472 0 0.16706437569764479 0.29908078964452472 0 0.18461864979132731 0.27994994062915912 0 0.19608199684324951 0.30562147294218472 0 0.18461864979132731 0.27994994062915912 0 0.1618767332304652 0.26496499908816251 0 0.18276014028142329 0.25616471926899897 0 0.1632916252549198 0.23843431390121811 0 0.1520623545728659 0.25113852338775589 0 0.1618767332304652 0.26496499908816251 0 0.16968171423345929 0.23765752101914181 0 0.1618767332304652 0.26496499908816251 0 0.16968171423345929 0.23765752101914181 0 0.1618767332304652 0.26496499908816251 0 0.18276014028142329 0.25616471926899897 0 0.18276014028142329 0.25616471926899897 0 0.20060002443300079 0.25362908350645108 0 0.2019016877234629 0.26912202811877028 0 0.18461864979132731 0.27994994062915912 0 0.18276014028142329 0.25616471926899897 0 0.2019016877234629 0.26912202811877028 0 0.18461864979132731 0.27994994062915912 0 0.2019016877234629 0.26912202811877028 0 0.20566140158946961 0.28734907871808968 0 0.2019016877234629 0.26912202811877028 0 0.22395186718982871 0.27754642971052601 0 0.20566140158946961 0.28734907871808968 0 0.2019016877234629 0.26912202811877028 0 0.21832711130035901 0.25942656833452249 0 0.22395186718982871 0.27754642971052601 0 0.21269313292684 0.24545189561992939 0 0.20060002443300079 0.25362908350645108 0 0.21832711130035901 0.25942656833452249 0 0.20060002443300079 0.25362908350645108 0 0.2019016877234629 0.26912202811877028 0 0.21832711130035901 0.25942656833452249 0 0.21269313292684 0.24545189561992939 0 0.22348263930331591 0.2464400267148367 0 0.21832711130035901 0.25942656833452249 0 0.22348263930331591 0.2464400267148367 0 0.21832711130035901 0.25942656833452249 0 0.23139783464498431 0.25143329747616178 0 0.21832711130035901 0.25942656833452249 0 0.23139783464498431 0.25143329747616178 0 0.2310228435293861 0.26353882921184563 0 0.21832711130035901 0.25942656833452249 0 0.2310228435293861 0.26353882921184563 0 0.22395186718982871 0.27754642971052601 0 0.2310228435293861 0.26353882921184563 0 0.22395186718982871 0.27754642971052601 0 0.2450857944433146 0.27030788438377867 0 0.22395186718982871 0.27754642971052601 0 0.2450857944433146 0.27030788438377867 0 0.23956717808636549 0.28739138189209501 0 0.2450857944433146 0.27030788438377867 0 0.23956717808636549 0.28739138189209501 0 0.2616507532446114 0.28546331061322289 0 0.2450857944433146 0.27030788438377867 0 0.24161625020094579 0.25832902884627951 0 0.25118401839053822 0.25829087403604301 0 0.24183819042719651 0.2457468380927334 0 0.24161625020094579 0.25832902884627951 0 0.25118401839053822 0.25829087403604301 0 0.23139783464498431 0.25143329747616178 0 0.2310228435293861 0.26353882921184563 0 0.24161625020094579 0.25832902884627951 0 0.24183819042719651 0.2457468380927334 0 0.23139783464498431 0.25143329747616178 0 0.24161625020094579 0.25832902884627951 0 0.2310228435293861 0.26353882921184563 0 0.2450857944433146 0.27030788438377867 0 0.24161625020094579 0.25832902884627951 0 0.23607509692364689 0.31204232112263169 0 0.24742361595570961 0.30338957143742967 0 0.22175280639947961 0.3045055221898077 0 0.24742361595570961 0.30338957143742967 0 0.23956717808636549 0.28739138189209501 0 0.22175280639947961 0.3045055221898077 0 0.24742361595570961 0.30338957143742967 0 0.22175280639947961 0.3045055221898077 0 0.23607509692364689 0.31204232112263169 0 0.24742361595570961 0.30338957143742967 0 0.24909357857261069 0.3143195866460467 0 0.24742361595570961 0.30338957143742967 0 0.23956717808636549 0.28739138189209501 0 0.2616507532446114 0.28546331061322289 0 0.22395186718982871 0.27754642971052601 0 0.23956717808636549 0.28739138189209501 0 0.22175280639947961 0.3045055221898077 0 0.23607509692364689 0.31204232112263169 0 0.22175280639947961 0.3045055221898077 0 0.22544187819860381 0.31223930300615182 0 0.22175280639947961 0.3045055221898077 0 0.20566140158946961 0.28734907871808968 0 0.19608199684324951 0.30562147294218472 0 0.22544187819860381 0.31223930300615182 0 0.19608199684324951 0.30562147294218472 0 0.22175280639947961 0.3045055221898077 0 0.22544187819860381 0.31223930300615182 0 0.19608199684324951 0.30562147294218472 0 0.22175280639947961 0.3045055221898077 0 0.19608199684324951 0.30562147294218472 0 0.22395186718982871 0.27754642971052601 0 0.22175280639947961 0.3045055221898077 0 0.20566140158946961 0.28734907871808968 0 0.18461864979132731 0.27994994062915912 0 0.20566140158946961 0.28734907871808968 0 0.19608199684324951 0.30562147294218472 0 0.19608199684324951 0.30562147294218472 0 0.2086398508622675 0.32288228891122189 0 0.18604836880892239 0.32438752676663152 0 0.20266439883602461 0.34185266699571393 0 0.1751754520846458 0.34550930714265732 0 0.20266439883602461 0.34185266699571393 0 0.2086398508622675 0.32288228891122189 0 0.18604836880892239 0.32438752676663152 0 0.20266439883602461 0.34185266699571393 0 0.1751754520846458 0.34550930714265732 0 0.18604836880892239 0.32438752676663152 0 0.20266439883602461 0.34185266699571393 0 0.2086398508622675 0.32288228891122189 0 0.22260052100417849 0.33585889806748692 0 0.22544187819860381 0.31223930300615182 0 0.19608199684324951 0.30562147294218472 0 0.2086398508622675 0.32288228891122189 0 0.2086398508622675 0.32288228891122189 0 0.22365318776767459 0.32309718075580801 0 0.22260052100417849 0.33585889806748692 0 0.22544187819860381 0.31223930300615182 0 0.2086398508622675 0.32288228891122189 0 0.22365318776767459 0.32309718075580801 0 0.22544187819860381 0.31223930300615182 0 0.23179149852310321 0.31801806617674849 0 0.22365318776767459 0.32309718075580801 0 0.23607509692364689 0.31204232112263169 0 0.22544187819860381 0.31223930300615182 0 0.23179149852310321 0.31801806617674849 0 0.23179149852310321 0.31801806617674849 0 0.2297921902502201 0.32648734761743092 0 0.24094720389237489 0.31978187727960611 0 0.23179149852310321 0.31801806617674849 0 0.2297921902502201 0.32648734761743092 0 0.22365318776767459 0.32309718075580801 0 0.2297921902502201 0.32648734761743092 0 0.22365318776767459 0.32309718075580801 0 0.22260052100417849 0.33585889806748692 0 0.22260052100417849 0.33585889806748692 0 0.23572030114411771 0.3361838727949214 0 0.23709370763267359 0.34834228800926792 0 0.2297921902502201 0.32648734761743092 0 0.22260052100417849 0.33585889806748692 0 0.23572030114411771 0.3361838727949214 0 0.2297921902502201 0.32648734761743092 0 0.23572030114411771 0.3361838727949214 0 0.24254776796155969 0.32975328033525719 0 0.23572030114411771 0.3361838727949214 0 0.2454433179995788 0.34064303552443082 0 0.24254776796155969 0.32975328033525719 0 0.23572030114411771 0.3361838727949214 0 0.2454433179995788 0.34064303552443082 0 0.23709370763267359 0.34834228800926792 0 0.2454433179995788 0.34064303552443082 0 0.24254776796155969 0.32975328033525719 0 0.25368736998104258 0.33396041038714808 0 0.24254776796155969 0.32975328033525719 0 0.24879734118681349 0.32316930840062541 0 0.25368736998104258 0.33396041038714808 0 0.24254776796155969 0.32975328033525719 0 0.24879734118681349 0.32316930840062541 0 0.24094720389237489 0.31978187727960611 0 0.24879734118681349 0.32316930840062541 0 0.24909357857261069 0.3143195866460467 0 0.24094720389237489 0.31978187727960611 0 0.23607509692364689 0.31204232112263169 0 0.23179149852310321 0.31801806617674849 0 0.24094720389237489 0.31978187727960611 0 0.23607509692364689 0.31204232112263169 0 0.24909357857261069 0.3143195866460467 0 0.24094720389237489 0.31978187727960611 0 0.2297921902502201 0.32648734761743092 0 0.24254776796155969 0.32975328033525719 0 0.24094720389237489 0.31978187727960611 0 0.2432837744142313 0.3599619814363646 0 0.23056971389864031 0.37058390479554398 0 0.24994444510306871 0.37636341328293732 0 0.2432837744142313 0.3599619814363646 0 0.23709370763267359 0.34834228800926792 0 0.22521817207321851 0.35449170552762832 0 0.2432837744142313 0.3599619814363646 0 0.24773370951071341 0.34939505946418481 0 0.23709370763267359 0.34834228800926792 0 0.2432837744142313 0.3599619814363646 0 0.24773370951071341 0.34939505946418481 0 0.25425457857839617 0.35319856858963428 0 0.2454433179995788 0.34064303552443082 0 0.24773370951071341 0.34939505946418481 0 0.23709370763267359 0.34834228800926792 0 0.2454433179995788 0.34064303552443082 0 0.24773370951071341 0.34939505946418481 0 0.25284652517593192 0.34486049319971879 0 0.22260052100417849 0.33585889806748692 0 0.23709370763267359 0.34834228800926792 0 0.22521817207321851 0.35449170552762832 0 0.22521817207321851 0.35449170552762832 0 0.23056971389864031 0.37058390479554398 0 0.21279694779643429 0.36748535200109161 0 0.2432837744142313 0.3599619814363646 0 0.22521817207321851 0.35449170552762832 0 0.23056971389864031 0.37058390479554398 0 0.20266439883602461 0.34185266699571393 0 0.22521817207321851 0.35449170552762832 0 0.21279694779643429 0.36748535200109161 0 0.20266439883602461 0.34185266699571393 0 0.22260052100417849 0.33585889806748692 0 0.22521817207321851 0.35449170552762832 0 0.20266439883602461 0.34185266699571393 0 0.21279694779643429 0.36748535200109161 0 0.19331622636792439 0.36224884768439009 0 0.20266439883602461 0.34185266699571393 0 0.19331622636792439 0.36224884768439009 0 0.1751754520846458 0.34550930714265732 0 0.21279694779643429 0.36748535200109161 0 0.19331622636792439 0.36224884768439009 0 0.19464781328503039 0.38809946308323201 0 0.15917064206687179 0.36426154375648251 0 0.1751754520846458 0.34550930714265732 0 0.17624271007644551 0.3768052056293939 0 0.19331622636792439 0.36224884768439009 0 0.1751754520846458 0.34550930714265732 0 0.17624271007644551 0.3768052056293939 0 0.15917064206687179 0.36426154375648251 0 0.14742880319492629 0.38387530475883108 0 0.17624271007644551 0.3768052056293939 0 0.15917064206687179 0.36426154375648251 0 0.1751754520846458 0.34550930714265732 0 0.14768650533326719 0.34916594728960071 0 0.1751754520846458 0.34550930714265732 0 0.14768650533326719 0.34916594728960071 0 0.1751754520846458 0.34550930714265732 0 0.18604836880892239 0.32438752676663152 0 0.17120184582259701 0.32139823533525957 0 0.1712458426364627 0.30670113990448111 0 0.18604836880892239 0.32438752676663152 0 0.17120184582259701 0.32139823533525957 0 0.1712458426364627 0.30670113990448111 0 0.17120184582259701 0.32139823533525957 0 0.15853480362576741 0.31768468044606002 0 0.17120184582259701 0.32139823533525957 0 0.15853480362576741 0.31768468044606002 0 0.15962334786992299 0.33024206008647861 0 0.1751754520846458 0.34550930714265732 0 0.17120184582259701 0.32139823533525957 0 0.15962334786992299 0.33024206008647861 0 0.1751754520846458 0.34550930714265732 0 0.15962334786992299 0.33024206008647861 0 0.14768650533326719 0.34916594728960071 0 0.15962334786992299 0.33024206008647861 0 0.14419329337017819 0.32230116003730402 0 0.14768650533326719 0.34916594728960071 0 0.14640968842967589 0.3077808068667765 0 0.15853480362576741 0.31768468044606002 0 0.14419329337017819 0.32230116003730402 0 0.15853480362576741 0.31768468044606002 0 0.15962334786992299 0.33024206008647861 0 0.14419329337017819 0.32230116003730402 0 0.14640968842967589 0.3077808068667765 0 0.14419329337017819 0.32230116003730402 0 0.13228727360374379 0.31369884891889549 0 0.1178418837420498 0.3212742172592557 0 0.13228727360374379 0.31369884891889549 0 0.12822311230229611 0.33267102260534198 0 0.14419329337017819 0.32230116003730402 0 0.13228727360374379 0.31369884891889549 0 0.12822311230229611 0.33267102260534198 0 0.14419329337017819 0.32230116003730402 0 0.12822311230229611 0.33267102260534198 0 0.14768650533326719 0.34916594728960071 0 0.12019755858188839 0.35282258743654399 0 0.12822311230229611 0.33267102260534198 0 0.14768650533326719 0.34916594728960071 0 0.12019755858188839 0.35282258743654399 0 0.14111663798938151 0.36669588775060591 0 0.14768650533326719 0.34916594728960071 0 0.12019755858188839 0.35282258743654399 0 0.14768650533326719 0.34916594728960071 0 0.1237401923439215 0.37366159706215579 0 0.12019755858188839 0.35282258743654399 0 0.14111663798938151 0.36669588775060591 0 0.1237401923439215 0.37366159706215579 0 0.14111663798938151 0.36669588775060591 0 0.14742880319492629 0.38387530475883108 0 0.15917064206687179 0.36426154375648251 0 0.14111663798938151 0.36669588775060591 0 0.14768650533326719 0.34916594728960071 0 0.15917064206687179 0.36426154375648251 0 0.14111663798938151 0.36669588775060591 0 0.14742880319492629 0.38387530475883108 0 0.14742880319492629 0.38387530475883108 0 0.1390004183949041 0.40860521843398218 0 0.16843741877476481 0.40483938671403119 0 0.1248040273615745 0.39426397529669138 0 0.1237401923439215 0.37366159706215579 0 0.14742880319492629 0.38387530475883108 0 0.1248040273615745 0.39426397529669138 0 0.14742880319492629 0.38387530475883108 0 0.1390004183949041 0.40860521843398218 0 0.114470326864687 0.41556032037417961 0 0.1248040273615745 0.39426397529669138 0 0.1390004183949041 0.40860521843398218 0 0.114470326864687 0.41556032037417961 0 0.1390004183949041 0.40860521843398218 0 0.13545573333377081 0.42744960681673111 0 0.12131551104426461 0.43763947354413812 0 0.13545573333377081 0.42744960681673111 0 0.14186028289191421 0.4425694539326871 0 0.13545573333377081 0.42744960681673111 0 0.1606321274730842 0.43287356779866842 0 0.14186028289191421 0.4425694539326871 0 0.1390004183949041 0.40860521843398218 0 0.13545573333377081 0.42744960681673111 0 0.1606321274730842 0.43287356779866842 0 0.1390004183949041 0.40860521843398218 0 0.1606321274730842 0.43287356779866842 0 0.16843741877476481 0.40483938671403119 0 0.1606321274730842 0.43287356779866842 0 0.18349986471478091 0.42571601208412929 0 0.16843741877476481 0.40483938671403119 0 0.1606321274730842 0.43287356779866842 0 0.16843741877476481 0.40483938671403119 0 0.18349986471478091 0.42571601208412929 0 0.16843741877476481 0.40483938671403119 0 0.20022189815564151 0.41048296023633629 0 0.1606321274730842 0.43287356779866842 0 0.18349986471478091 0.42571601208412929 0 0.18799266165097259 0.44761311357569938 0 0.16843741877476481 0.40483938671403119 0 0.17624271007644551 0.3768052056293939 0 0.14742880319492629 0.38387530475883108 0 0.16843741877476481 0.40483938671403119 0 0.17624271007644551 0.3768052056293939 0 0.16843741877476481 0.40483938671403119 0 0.17624271007644551 0.3768052056293939 0 0.19464781328503039 0.38809946308323201 0 0.16843741877476481 0.40483938671403119 0 0.19464781328503039 0.38809946308323201 0 0.20022189815564151 0.41048296023633629 0 0.19331622636792439 0.36224884768439009 0 0.17624271007644551 0.3768052056293939 0 0.19464781328503039 0.38809946308323201 0 0.19464781328503039 0.38809946308323201 0 0.21852103649538701 0.39091574921934058 0 0.20022189815564151 0.41048296023633629 0 0.21852103649538701 0.39091574921934058 0 0.22026629491229821 0.41108188215453251 0 0.20022189815564151 0.41048296023633629 0 0.21279694779643429 0.36748535200109161 0 0.19464781328503039 0.38809946308323201 0 0.21852103649538701 0.39091574921934058 0 0.23056971389864031 0.37058390479554398 0 0.21852103649538701 0.39091574921934058 0 0.23781071186957581 0.3845610556172242 0 0.23056971389864031 0.37058390479554398 0 0.21279694779643429 0.36748535200109161 0 0.21852103649538701 0.39091574921934058 0 0.21852103649538701 0.39091574921934058 0 0.23471539603886171 0.40390538998486908 0 0.22026629491229821 0.41108188215453251 0 0.21852103649538701 0.39091574921934058 0 0.23471539603886171 0.40390538998486908 0 0.23781071186957581 0.3845610556172242 0 0.23471539603886171 0.40390538998486908 0 0.23781071186957581 0.3845610556172242 0 0.23471539603886171 0.40390538998486908 0 0.24985620661731231 0.39952604056457169 0 0.23781071186957581 0.3845610556172242 0 0.24985620661731231 0.39952604056457169 0 0.23781071186957581 0.3845610556172242 0 0.24994444510306871 0.37636341328293732 0 0.23056971389864031 0.37058390479554398 0 0.23781071186957581 0.3845610556172242 0 0.24994444510306871 0.37636341328293732 0 0.2427092401615151 0.42278671651753319 0 0.23162008020814709 0.42324972435251412 0 0.2289343327983295 0.44003443995633268 0 0.2427092401615151 0.42278671651753319 0 0.2289343327983295 0.44003443995633268 0 0.24200394983854201 0.42730501108156799 0 0.22786259452879151 0.44673232300752058 0 0.2427092401615151 0.42278671651753319 0 0.24200394983854201 0.42730501108156799 0 0.2289343327983295 0.44003443995633268 0 0.2427092401615151 0.42278671651753319 0 0.25648414752470178 0.40553899307873442 0 0.24200394983854201 0.42730501108156799 0 0.25614530514829098 0.40787769915561428 0 0.24985620661731231 0.39952604056457169 0 0.23162008020814709 0.42324972435251412 0 0.24985620661731231 0.39952604056457169 0 0.2427092401615151 0.42278671651753319 0 0.25648414752470178 0.40553899307873442 0 0.24985620661731231 0.39952604056457169 0 0.2427092401615151 0.42278671651753319 0 0.23162008020814709 0.42324972435251412 0 0.23471539603886171 0.40390538998486908 0 0.24985620661731231 0.39952604056457169 0 0.23162008020814709 0.42324972435251412 0 0.2427092401615151 0.42278671651753319 0 0.24200394983854201 0.42730501108156799 0 0.25614530514829098 0.40787769915561428 0 0.22026629491229821 0.41108188215453251 0 0.23162008020814709 0.42324972435251412 0 0.21507967951117529 0.42520557227840478 0 0.23471539603886171 0.40390538998486908 0 0.23162008020814709 0.42324972435251412 0 0.23471539603886171 0.40390538998486908 0 0.22026629491229821 0.41108188215453251 0 0.23162008020814709 0.42324972435251412 0 0.23162008020814709 0.42324972435251412 0 0.21672031892656901 0.44263307458978279 0 0.2289343327983295 0.44003443995633268 0 0.23162008020814709 0.42324972435251412 0 0.21672031892656901 0.44263307458978279 0 0.23162008020814709 0.42324972435251412 0 0.2289343327983295 0.44003443995633268 0 0.23162008020814709 0.42324972435251412 0 0.21507967951117529 0.42520557227840478 0 0.21672031892656901 0.44263307458978279 0 0.21507967951117529 0.42520557227840478 0 0.20022189815564151 0.41048296023633629 0 0.20093756142228361 0.43066014949310999 0 0.21507967951117529 0.42520557227840478 0 0.20093756142228361 0.43066014949310999 0 0.21672031892656901 0.44263307458978279 0 0.22026629491229821 0.41108188215453251 0 0.21507967951117529 0.42520557227840478 0 0.20022189815564151 0.41048296023633629 0 0.18349986471478091 0.42571601208412929 0 0.20093756142228361 0.43066014949310999 0 0.18799266165097259 0.44761311357569938 0 0.18349986471478091 0.42571601208412929 0 0.20022189815564151 0.41048296023633629 0 0.20093756142228361 0.43066014949310999 0 0.20093756142228361 0.43066014949310999 0 0.18799266165097259 0.44761311357569938 0 0.21672031892656901 0.44263307458978279 0 0.18799266165097259 0.44761311357569938 0 0.20182055764499249 0.46201642482705257 0 0.21672031892656901 0.44263307458978279 0 0.18799266165097259 0.44761311357569938 0 0.20182055764499249 0.46201642482705257 0 0.1729766813812279 0.46105026014700701 0 0.18799266165097259 0.44761311357569938 0 0.20182055764499249 0.46201642482705257 0 0.20182055764499249 0.46201642482705257 0 0.20703805097417011 0.46745103182760522 0 0.19967683878323311 0.47666809214576777 0 0.21798619188624929 0.45374273589196851 0 0.22786259452879151 0.44673232300752058 0 0.2103045517676673 0.47085346034253078 0 0.20703805097417011 0.46745103182760522 0 0.21798619188624929 0.45374273589196851 0 0.2103045517676673 0.47085346034253078 0 0.20182055764499249 0.46201642482705257 0 0.20703805097417011 0.46745103182760522 0 0.21798619188624929 0.45374273589196851 0 0.20182055764499249 0.46201642482705257 0 0.20703805097417011 0.46745103182760522 0 0.20703805097417011 0.46745103182760522 0 0.21798619188624929 0.45374273589196851 0 0.20182055764499249 0.46201642482705257 0 0.21672031892656901 0.44263307458978279 0 0.20182055764499249 0.46201642482705257 0 0.21798619188624929 0.45374273589196851 0 0.21672031892656901 0.44263307458978279 0 0.24200394983854201 0.42730501108156799 0 0.2289343327983295 0.44003443995633268 0 0.22786259452879151 0.44673232300752058 0 0.2289343327983295 0.44003443995633268 0 0.22786259452879151 0.44673232300752058 0 0.21798619188624929 0.45374273589196851 0 0.2289343327983295 0.44003443995633268 0 0.22786259452879151 0.44673232300752058 0 0.21798619188624929 0.45374273589196851 0 0.21672031892656901 0.44263307458978279 0 0.2289343327983295 0.44003443995633268 0 0.21798619188624929 0.45374273589196851 0 0.2289343327983295 0.44003443995633268 0 0.22786259452879151 0.44673232300752058 0 0.22495429221354771 0.46490790685908862 0 0.2455982333906237 0.45143945378670242 0 0.22786259452879151 0.44673232300752058 0 0.22495429221354771 0.46490790685908862 0 0.22786259452879151 0.44673232300752058 0 0.2103045517676673 0.47085346034253078 0 0.22786259452879151 0.44673232300752058 0 0.22495429221354771 0.46490790685908862 0 0.2103045517676673 0.47085346034253078 0 0.2455982333906237 0.45143945378670242 0 0.24205976586770761 0.46909560375318798 0 0.2620014036598437 0.45966417087171929 0 0.22495429221354771 0.46490790685908862 0 0.2455982333906237 0.45143945378670242 0 0.24205976586770761 0.46909560375318798 0 0.24200394983854201 0.42730501108156799 0 0.22786259452879151 0.44673232300752058 0 0.2455982333906237 0.45143945378670242 0 0.24200394983854201 0.42730501108156799 0 0.2455982333906237 0.45143945378670242 0 0.25699255592125192 0.43840673530346591 0 0.23828668114997781 0.50000000000000056 0 0.24679633081225291 0.48874361315514597 0 0.26460013732901227 0.5 0 0.24679633081225291 0.48874361315514597 0 0.24187808117930759 0.48000330474503089 0 0.23341056709411059 0.48455789314910258 0 0.23828668114997781 0.50000000000000056 0 0.24679633081225291 0.48874361315514597 0 0.23341056709411059 0.48455789314910258 0 0.24679633081225291 0.48874361315514597 0 0.24187808117930759 0.48000330474503089 0 0.2553882950345352 0.47961560205184239 0 0.24205976586770761 0.46909560375318798 0 0.24187808117930759 0.48000330474503089 0 0.2553882950345352 0.47961560205184239 0 0.24205976586770761 0.46909560375318798 0 0.24187808117930759 0.48000330474503089 0 0.2317354470879319 0.47800381161587591 0 0.24187808117930759 0.48000330474503089 0 0.2317354470879319 0.47800381161587591 0 0.23341056709411059 0.48455789314910258 0 0.2317354470879319 0.47800381161587591 0 0.22564609400028951 0.48683340464843589 0 0.23341056709411059 0.48455789314910258 0 0.22495429221354771 0.46490790685908862 0 0.2317354470879319 0.47800381161587591 0 0.22204598989830659 0.48308349071065693 0 0.22495429221354771 0.46490790685908862 0 0.22204598989830659 0.48308349071065693 0 0.22495429221354771 0.46490790685908862 0 0.24205976586770761 0.46909560375318798 0 0.2317354470879319 0.47800381161587591 0 0.22495429221354771 0.46490790685908862 0 0.22204598989830659 0.48308349071065693 0 0.2103045517676673 0.47085346034253078 0 0.2317354470879319 0.47800381161587591 0 0.22204598989830659 0.48308349071065693 0 0.22564609400028951 0.48683340464843589 0 0.22204598989830659 0.48308349071065693 0 0.22123930831147781 0.48812488848627678 0 0.21653375840417949 0.48325971788699962 0 0.22204598989830659 0.48308349071065693 0 0.22123930831147781 0.48812488848627678 0 0.22123930831147781 0.48812488848627678 0 0.22564609400028951 0.48683340464843589 0 0.2193391539840486 0.50000000000000355 0 0.23828668114997781 0.50000000000000056 0 0.22564609400028951 0.48683340464843589 0 0.2193391539840486 0.50000000000000355 0 0.22123930831147781 0.48812488848627678 0 0.22564609400028951 0.48683340464843589 0 0.22204598989830659 0.48308349071065693 0 0.22123930831147781 0.48812488848627678 0 0.22564609400028951 0.48683340464843589 0 0.22204598989830659 0.48308349071065693 0 0.22564609400028951 0.48683340464843589 0 0.22564609400028951 0.48683340464843589 0 0.23341056709411059 0.48455789314910258 0 0.23828668114997781 0.50000000000000056 0 0.22564609400028951 0.48683340464843589 0 0.23341056709411059 0.48455789314910258 0 0.23828668114997781 0.50000000000000056 0 0.22564609400028951 0.48683340464843589 0 0.22123930831147781 0.48812488848627678 0 0.2193391539840486 0.50000000000000355 0 0.2193391539840486 0.50000000000000355 0 0.2000291744832631 0.5 0 0.20097925164697719 0.49406244424313639 0 0.22123930831147781 0.48812488848627678 0 0.2193391539840486 0.50000000000000355 0 0.20097925164697719 0.49406244424313639 0 0.22123930831147781 0.48812488848627678 0 0.21082812611657381 0.48387374162485403 0 0.20097925164697719 0.49406244424313639 0 0.22123930831147781 0.48812488848627678 0 0.20097925164697719 0.49406244424313639 0 0.22123930831147781 0.48812488848627678 0 0.21653375840417949 0.48325971788699962 0 0.21082812611657381 0.48387374162485403 0 0.21082812611657381 0.48387374162485403 0 0.20286219472076211 0.48396284092794611 0 0.20097925164697719 0.49406244424313639 0 0.22204598989830659 0.48308349071065693 0 0.2120216092903589 0.47795675072621091 0 0.21653375840417949 0.48325971788699962 0 0.22204598989830659 0.48308349071065693 0 0.2103045517676673 0.47085346034253078 0 0.22204598989830659 0.48308349071065693 0 0.2120216092903589 0.47795675072621091 0 0.2103045517676673 0.47085346034253078 0 0.2120216092903589 0.47795675072621091 0 0.21653375840417949 0.48325971788699962 0 0.21082812611657381 0.48387374162485403 0 0.21082812611657381 0.48387374162485403 0 0.20698591157877619 0.47950867657794111 0 0.20286219472076211 0.48396284092794611 0 0.20698591157877619 0.47950867657794111 0 0.19967683878323311 0.47666809214576777 0 0.20286219472076211 0.48396284092794611 0 0.2120216092903589 0.47795675072621091 0 0.20698591157877619 0.47950867657794111 0 0.2088903457859787 0.47279628831990872 0 0.2120216092903589 0.47795675072621091 0 0.21082812611657381 0.48387374162485403 0 0.20698591157877619 0.47950867657794111 0 0.20698591157877619 0.47950867657794111 0 0.2088903457859787 0.47279628831990872 0 0.19967683878323311 0.47666809214576777 0 0.20703805097417011 0.46745103182760522 0 0.2088903457859787 0.47279628831990872 0 0.19967683878323311 0.47666809214576777 0 0.20703805097417011 0.46745103182760522 0 0.19967683878323311 0.47666809214576777 0 0.2120216092903589 0.47795675072621091 0 0.2088903457859787 0.47279628831990872 0 0.2103045517676673 0.47085346034253078 0 0.20703805097417011 0.46745103182760522 0 0.2088903457859787 0.47279628831990872 0 0.2103045517676673 0.47085346034253078 0 0.20703805097417011 0.46745103182760522 0 0.2103045517676673 0.47085346034253078 0 0.2088903457859787 0.47279628831990872 0 0.2103045517676673 0.47085346034253078 0 0.20182055764499249 0.46201642482705257 0 0.18722178612793411 0.48100821241353248 0 0.20182055764499249 0.46201642482705257 0 0.19967683878323311 0.47666809214576777 0 0.18722178612793411 0.48100821241353248 0 0.19967683878323311 0.47666809214576777 0 0.20286219472076211 0.48396284092794611 0 0.19584084547825001 0.48570125004803089 0 0.19967683878323311 0.47666809214576777 0 0.19584084547825001 0.48570125004803089 0 0.18722178612793411 0.48100821241353248 0 0.20097925164697719 0.49406244424313639 0 0.1807191949824776 0.49999999999999961 0 0.1871700839968061 0.49171668608094982 0 0.20097925164697719 0.49406244424313639 0 0.1807191949824776 0.49999999999999961 0 0.2000291744832631 0.5 0 0.20097925164697719 0.49406244424313639 0 0.1807191949824776 0.49999999999999961 0 0.20286219472076211 0.48396284092794611 0 0.20097925164697719 0.49406244424313639 0 0.19584084547825001 0.48570125004803089 0 0.19584084547825001 0.48570125004803089 0 0.1871700839968061 0.49171668608094982 0 0.18722178612793411 0.48100821241353248 0 0.20097925164697719 0.49406244424313639 0 0.19584084547825001 0.48570125004803089 0 0.1871700839968061 0.49171668608094982 0 0.1726230146108719 0.50000000000000977 0 0.18722178612793411 0.48100821241353248 0 0.1726230146108719 0.50000000000000977 0 0.16473281881799129 0.47943708427404508 0 0.18722178612793411 0.48100821241353248 0 0.1807191949824776 0.49999999999999961 0 0.1871700839968061 0.49171668608094982 0 0.1726230146108719 0.50000000000000977 0 0.1871700839968061 0.49171668608094982 0 0.1726230146108719 0.50000000000000977 0 0.18722178612793411 0.48100821241353248 0 0.1726230146108719 0.50000000000000977 0 0.1568426230250711 0.5 0 0.16473281881799129 0.47943708427404508 0 0.1568426230250711 0.5 0 0.16473281881799129 0.47943708427404508 0 0.14998890015226771 0.48391159820107882 0 0.16473281881799129 0.47943708427404508 0 0.18722178612793411 0.48100821241353248 0 0.1729766813812279 0.46105026014700701 0 0.20182055764499249 0.46201642482705257 0 0.18722178612793411 0.48100821241353248 0 0.1729766813812279 0.46105026014700701 0 0.1606321274730842 0.43287356779866842 0 0.18799266165097259 0.44761311357569938 0 0.1729766813812279 0.46105026014700701 0 0.1606321274730842 0.43287356779866842 0 0.1729766813812279 0.46105026014700701 0 0.15282683617140361 0.46090774888330588 0 0.1606321274730842 0.43287356779866842 0 0.15282683617140361 0.46090774888330588 0 0.16473281881799129 0.47943708427404508 0 0.1729766813812279 0.46105026014700701 0 0.15282683617140361 0.46090774888330588 0 0.15282683617140361 0.46090774888330588 0 0.14186028289191421 0.4425694539326871 0 0.1278977511759336 0.45842631569609049 0 0.1606321274730842 0.43287356779866842 0 0.15282683617140361 0.46090774888330588 0 0.14186028289191421 0.4425694539326871 0 0.12131551104426461 0.43763947354413812 0 0.14186028289191421 0.4425694539326871 0 0.1278977511759336 0.45842631569609049 0 0.15282683617140361 0.46090774888330588 0 0.1278977511759336 0.45842631569609049 0 0.1344799913076026 0.47921315784804291 0 0.1278977511759336 0.45842631569609049 0 0.1344799913076026 0.47921315784804291 0 0.1344799913076026 0.47921315784804291 0 0.14106223143927021 0.49999999999999573 0 0.1153009038496213 0.5 0 0.1344799913076026 0.47921315784804291 0 0.14106223143927021 0.49999999999999573 0 0.1344799913076026 0.47921315784804291 0 0.14106223143927021 0.49999999999999573 0 0.14998890015226771 0.48391159820107882 0 0.1568426230250711 0.5 0 0.14106223143927021 0.49999999999999573 0 0.14998890015226771 0.48391159820107882 0 0.16473281881799129 0.47943708427404508 0 0.15282683617140361 0.46090774888330588 0 0.14998890015226771 0.48391159820107882 0 0.15282683617140361 0.46090774888330588 0 0.1344799913076026 0.47921315784804291 0 0.14998890015226771 0.48391159820107882 0 0.34627523667157101 0.48213249998926672 0 0.36387763328550737 0.48008113127634777 0 0.34688229003554111 0.46387074050112431 0 0.34627523667157101 0.48213249998926672 0 0.3549185142812149 0.5 0 0.36387763328550737 0.48008113127634777 0 0.3549185142812149 0.5 0 0.36387763328550737 0.48008113127634777 0 0.3802897614485849 0.5 0 0.36387763328550737 0.48008113127634777 0 0.36843703055511617 0.45445870904313002 0 0.38580411359204531 0.48077386434603941 0 0.36387763328550737 0.48008113127634777 0 0.36843703055511617 0.45445870904313002 0 0.34688229003554111 0.46387074050112431 0 0.36843703055511617 0.45445870904313002 0 0.36416890344821268 0.4270724543000024 0 0.38122367912334232 0.43895175051498048 0 0.36843703055511617 0.45445870904313002 0 0.34609454587534139 0.43979329865219458 0 0.36416890344821268 0.4270724543000024 0 0.36843703055511617 0.45445870904313002 0 0.34609454587534139 0.43979329865219458 0 0.34688229003554111 0.46387074050112431 0 0.34688229003554111 0.46387074050112431 0 0.32118149782121141 0.45193366914510952 0 0.32678949338531749 0.47735279272355419 0 0.34609454587534139 0.43979329865219458 0 0.32118149782121141 0.45193366914510952 0 0.32749210712865279 0.42785799156019172 0 0.34609454587534139 0.43979329865219458 0 0.34688229003554111 0.46387074050112431 0 0.32118149782121141 0.45193366914510952 0 0.32118149782121141 0.45193366914510952 0 0.32678949338531749 0.47735279272355419 0 0.29868208511479472 0.4760437081826816 0 0.34627523667157101 0.48213249998926672 0 0.34688229003554111 0.46387074050112431 0 0.32678949338531749 0.47735279272355419 0 0.34627523667157101 0.48213249998926672 0 0.32678949338531749 0.47735279272355419 0 0.32954726711384491 0.5 0 0.34627523667157101 0.48213249998926672 0 0.3549185142812149 0.5 0 0.32954726711384491 0.5 0 0.32678949338531749 0.47735279272355419 0 0.32954726711384491 0.5 0 0.30417601994647492 0.49999999999999861 0 0.32678949338531749 0.47735279272355419 0 0.30417601994647492 0.49999999999999861 0 0.29868208511479472 0.4760437081826816 0 0.30417601994647492 0.49999999999999861 0 0.29868208511479472 0.4760437081826816 0 0.29091359350804702 0.50000000000000022 0 0.30417601994647492 0.49999999999999861 0 0.29868208511479472 0.4760437081826816 0 0.29868208511479472 0.4760437081826816 0 0.2764574985839453 0.47983208543585992 0 0.27922447889225022 0.46258382419178218 0 0.29091359350804702 0.50000000000000022 0 0.2764574985839453 0.47983208543585992 0 0.29868208511479472 0.4760437081826816 0 0.29091359350804702 0.50000000000000022 0 0.2764574985839453 0.47983208543585992 0 0.29091359350804702 0.50000000000000022 0 0.2764574985839453 0.47983208543585992 0 0.26460013732901227 0.5 0 0.2764574985839453 0.47983208543585992 0 0.2620014036598437 0.45966417087171929 0 0.2764574985839453 0.47983208543585992 0 0.2553882950345352 0.47961560205184239 0 0.2620014036598437 0.45966417087171929 0 0.24205976586770761 0.46909560375318798 0 0.2553882950345352 0.47961560205184239 0 0.2620014036598437 0.45966417087171929 0 0.24679633081225291 0.48874361315514597 0 0.2553882950345352 0.47961560205184239 0 0.26460013732901227 0.5 0 0.2764574985839453 0.47983208543585992 0 0.2553882950345352 0.47961560205184239 0 0.26460013732901227 0.5 0 0.2455982333906237 0.45143945378670242 0 0.25699255592125192 0.43840673530346591 0 0.2620014036598437 0.45966417087171929 0 0.25699255592125192 0.43840673530346591 0 0.2620014036598437 0.45966417087171929 0 0.2743789456573999 0.44382454968378532 0 0.2764574985839453 0.47983208543585992 0 0.2620014036598437 0.45966417087171929 0 0.27922447889225022 0.46258382419178218 0 0.2620014036598437 0.45966417087171929 0 0.27922447889225022 0.46258382419178218 0 0.2743789456573999 0.44382454968378532 0 0.27922447889225022 0.46258382419178218 0 0.2743789456573999 0.44382454968378532 0 0.29318815028311418 0.45208741636536492 0 0.2743789456573999 0.44382454968378532 0 0.29318815028311418 0.45208741636536492 0 0.28769421545143359 0.42813112454804803 0 0.29318815028311418 0.45208741636536492 0 0.28769421545143359 0.42813112454804803 0 0.29868208511479472 0.4760437081826816 0 0.27922447889225022 0.46258382419178218 0 0.29318815028311418 0.45208741636536492 0 0.29868208511479472 0.4760437081826816 0 0.29318815028311418 0.45208741636536492 0 0.32118149782121141 0.45193366914510952 0 0.29868208511479472 0.4760437081826816 0 0.29318815028311418 0.45208741636536492 0 0.32118149782121141 0.45193366914510952 0 0.29318815028311418 0.45208741636536492 0 0.30720304585612529 0.4298293703334386 0 0.30720304585612529 0.4298293703334386 0 0.29769594512633091 0.40944652592720809 0 0.28769421545143359 0.42813112454804803 0 0.30720304585612529 0.4298293703334386 0 0.29769594512633091 0.40944652592720809 0 0.31596635932600908 0.40951949445470959 0 0.28769421545143359 0.42813112454804803 0 0.28220028061975311 0.40417483273073118 0 0.28769421545143359 0.42813112454804803 0 0.27701943256974038 0.41461861001642031 0 0.28220028061975311 0.40417483273073118 0 0.29769594512633091 0.40944652592720809 0 0.28769421545143359 0.42813112454804803 0 0.28220028061975311 0.40417483273073118 0 0.29318815028311418 0.45208741636536492 0 0.30720304585612529 0.4298293703334386 0 0.28769421545143359 0.42813112454804803 0 0.28769421545143359 0.42813112454804803 0 0.26764172366417549 0.42300327695322038 0 0.27701943256974038 0.41461861001642031 0 0.25699255592125192 0.43840673530346591 0 0.2743789456573999 0.44382454968378532 0 0.26764172366417549 0.42300327695322038 0 0.2743789456573999 0.44382454968378532 0 0.28769421545143359 0.42813112454804803 0 0.26764172366417549 0.42300327695322038 0 0.26764172366417549 0.42300327695322038 0 0.27701943256974038 0.41461861001642031 0 0.27293239059273527 0.40370028787478213 0 0.27701943256974038 0.41461861001642031 0 0.27293239059273527 0.40370028787478213 0 0.28220028061975311 0.40417483273073118 0 0.24200394983854201 0.42730501108156799 0 0.26764172366417549 0.42300327695322038 0 0.25614530514829098 0.40787769915561428 0 0.26764172366417549 0.42300327695322038 0 0.25614530514829098 0.40787769915561428 0 0.27293239059273527 0.40370028787478213 0 0.2427092401615151 0.42278671651753319 0 0.25614530514829098 0.40787769915561428 0 0.25648414752470178 0.40553899307873442 0 0.24200394983854201 0.42730501108156799 0 0.25699255592125192 0.43840673530346591 0 0.26764172366417549 0.42300327695322038 0 0.24985620661731231 0.39952604056457169 0 0.26809233302647961 0.37580235677663099 0 0.24985620661731231 0.39952604056457169 0 0.27028666045804017 0.38845038722966058 0 0.26809233302647961 0.37580235677663099 0 0.24985620661731231 0.39952604056457169 0 0.24994444510306871 0.37636341328293732 0 0.26809233302647961 0.37580235677663099 0 0.25648414752470178 0.40553899307873442 0 0.27028666045804017 0.38845038722966058 0 0.25614530514829098 0.40787769915561428 0 0.25648414752470178 0.40553899307873442 0 0.27028666045804017 0.38845038722966058 0 0.25614530514829098 0.40787769915561428 0 0.27028666045804017 0.38845038722966058 0 0.24985620661731231 0.39952604056457169 0 0.25648414752470178 0.40553899307873442 0 0.27028666045804017 0.38845038722966058 0 0.27293239059273527 0.40370028787478213 0 0.27028666045804017 0.38845038722966058 0 0.27660389545147918 0.37977180642613029 0 0.28220028061975311 0.40417483273073118 0 0.27293239059273527 0.40370028787478213 0 0.27028666045804017 0.38845038722966058 0 0.28220028061975311 0.40417483273073118 0 0.27028666045804017 0.38845038722966058 0 0.27187836784725727 0.3862637088478611 0 0.28220028061975311 0.40417483273073118 0 0.25614530514829098 0.40787769915561428 0 0.27293239059273527 0.40370028787478213 0 0.27028666045804017 0.38845038722966058 0 0.27187836784725727 0.3862637088478611 0 0.27660389545147918 0.37977180642613029 0 0.28220028061975311 0.40417483273073118 0 0.27187836784725727 0.3862637088478611 0 0.27660389545147918 0.37977180642613029 0 0.27028666045804017 0.38845038722966058 0 0.27187836784725727 0.3862637088478611 0 0.26809233302647961 0.37580235677663099 0 0.27028666045804017 0.38845038722966058 0 0.27187836784725727 0.3862637088478611 0 0.27187836784725727 0.3862637088478611 0 0.26809233302647961 0.37580235677663099 0 0.27660389545147918 0.37977180642613029 0 0.27028666045804017 0.38845038722966058 0 0.26809233302647961 0.37580235677663099 0 0.30444061152336682 0.39118099734922668 0 0.28769421810890622 0.36453598546653831 0 0.27660389545147918 0.37977180642613029 0 0.28800663694376749 0.39627190438954008 0 0.30444061152336682 0.39118099734922668 0 0.27660389545147918 0.37977180642613029 0 0.30444061152336682 0.39118099734922668 0 0.28769421810890622 0.36453598546653831 0 0.28800663694376749 0.39627190438954008 0 0.30444061152336682 0.39118099734922668 0 0.29769594512633091 0.40944652592720809 0 0.28800663694376749 0.39627190438954008 0 0.30444061152336682 0.39118099734922668 0 0.27660389545147918 0.37977180642613029 0 0.28220028061975311 0.40417483273073118 0 0.28800663694376749 0.39627190438954008 0 0.29769594512633091 0.40944652592720809 0 0.28220028061975311 0.40417483273073118 0 0.28800663694376749 0.39627190438954008 0 0.29769594512633091 0.40944652592720809 0 0.30444061152336682 0.39118099734922668 0 0.31596635932600908 0.40951949445470959 0 0.30444061152336682 0.39118099734922668 0 0.31596635932600908 0.40951949445470959 0 0.30444061152336682 0.39118099734922668 0 0.33138159001921208 0.38283523677663128 0 0.31101285831576531 0.3688781314997378 0 0.30444061152336682 0.39118099734922668 0 0.33138159001921208 0.38283523677663128 0 0.33138159001921208 0.38283523677663128 0 0.33711552014263041 0.40669005555343279 0 0.34498487371609121 0.39229343844263981 0 0.33138159001921208 0.38283523677663128 0 0.31596635932600908 0.40951949445470959 0 0.33711552014263041 0.40669005555343279 0 0.30444061152336682 0.39118099734922668 0 0.33138159001921208 0.38283523677663128 0 0.31596635932600908 0.40951949445470959 0 0.31596635932600908 0.40951949445470959 0 0.32749210712865279 0.42785799156019172 0 0.33711552014263041 0.40669005555343279 0 0.31596635932600908 0.40951949445470959 0 0.32749210712865279 0.42785799156019172 0 0.30720304585612529 0.4298293703334386 0 0.31596635932600908 0.40951949445470959 0 0.32749210712865279 0.42785799156019172 0 0.32118149782121141 0.45193366914510952 0 0.30720304585612529 0.4298293703334386 0 0.32749210712865279 0.42785799156019172 0 0.34609454587534139 0.43979329865219458 0 0.32749210712865279 0.42785799156019172 0 0.34672802511537559 0.42156661173448062 0 0.32749210712865279 0.42785799156019172 0 0.33711552014263041 0.40669005555343279 0 0.34672802511537559 0.42156661173448062 0 0.34672802511537559 0.42156661173448062 0 0.35486045380865749 0.4070024858934711 0 0.36416890344821268 0.4270724543000024 0 0.33711552014263041 0.40669005555343279 0 0.34672802511537559 0.42156661173448062 0 0.35486045380865749 0.4070024858934711 0 0.34609454587534139 0.43979329865219458 0 0.34672802511537559 0.42156661173448062 0 0.36416890344821268 0.4270724543000024 0 0.35486045380865749 0.4070024858934711 0 0.36416890344821268 0.4270724543000024 0 0.37151667547236522 0.40731593792463089 0 0.36416890344821268 0.4270724543000024 0 0.37151667547236522 0.40731593792463089 0 0.38488852484373909 0.42186566976482193 0 0.35486045380865749 0.4070024858934711 0 0.37151667547236522 0.40731593792463089 0 0.35833980182733599 0.39085331528004352 0 0.37151667547236522 0.40731593792463089 0 0.35833980182733599 0.39085331528004352 0 0.37515320112216599 0.39444110959527667 0 0.37456973803530302 0.38139199705956128 0 0.35833980182733599 0.39085331528004352 0 0.37515320112216599 0.39444110959527667 0 0.37456973803530302 0.38139199705956128 0 0.35833980182733599 0.39085331528004352 0 0.35832256851505939 0.37448947620404199 0 0.34498487371609121 0.39229343844263981 0 0.35833980182733599 0.39085331528004352 0 0.35832256851505939 0.37448947620404199 0 0.33138159001921208 0.38283523677663128 0 0.34498487371609121 0.39229343844263981 0 0.35832256851505939 0.37448947620404199 0 0.33138159001921208 0.38283523677663128 0 0.35832256851505939 0.37448947620404199 0 0.35833980182733599 0.39085331528004352 0 0.35832256851505939 0.37448947620404199 0 0.35486045380865749 0.4070024858934711 0 0.34498487371609121 0.39229343844263981 0 0.35833980182733599 0.39085331528004352 0 0.33711552014263041 0.40669005555343279 0 0.35486045380865749 0.4070024858934711 0 0.34498487371609121 0.39229343844263981 0 0.34586600449482408 0.34951065881178589 0 0.35830788398646018 0.36054582689055381 0 0.33005589633097571 0.3546697071405468 0 0.35830788398646018 0.36054582689055381 0 0.33005589633097571 0.3546697071405468 0 0.34586600449482408 0.34951065881178589 0 0.35830788398646018 0.36054582689055381 0 0.35828349006117061 0.33738264957627268 0 0.35830788398646018 0.36054582689055381 0 0.35828349006117061 0.33738264957627268 0 0.33138159001921208 0.38283523677663128 0 0.35832256851505939 0.37448947620404199 0 0.34211718915799039 0.36753471024790169 0 0.35832256851505939 0.37448947620404199 0 0.35830788398646018 0.36054582689055381 0 0.34211718915799039 0.36753471024790169 0 0.35832256851505939 0.37448947620404199 0 0.35830788398646018 0.36054582689055381 0 0.35832256851505939 0.37448947620404199 0 0.35830788398646018 0.36054582689055381 0 0.38524691998039923 0.36614886634323102 0 0.35830788398646018 0.36054582689055381 0 0.38524691998039923 0.36614886634323102 0 0.35832256851505939 0.37448947620404199 0 0.38524691998039923 0.36614886634323102 0 0.37456973803530302 0.38139199705956128 0 0.35832256851505939 0.37448947620404199 0 0.38524691998039923 0.36614886634323102 0 0.35830788398646018 0.36054582689055381 0 0.37148228865019978 0.35115512767359319 0 0.35828349006117061 0.33738264957627268 0 0.35830788398646018 0.36054582689055381 0 0.37148228865019978 0.35115512767359319 0 0.38524691998039923 0.36614886634323102 0 0.37148228865019978 0.35115512767359319 0 0.37360930816772697 0.33500334687362232 0 0.35828349006117061 0.33738264957627268 0 0.37360930816772697 0.33500334687362232 0 0.36859239944596278 0.32553583407693681 0 0.37960851528568879 0.32580096223681221 0 0.37360930816772697 0.33500334687362232 0 0.36859239944596278 0.32553583407693681 0 0.35828349006117061 0.33738264957627268 0 0.37360930816772697 0.33500334687362232 0 0.35828349006117061 0.33738264957627268 0 0.36859239944596278 0.32553583407693681 0 0.35826305370689687 0.31797737174628171 0 0.35828349006117061 0.33738264957627268 0 0.37355828893919801 0.31406904318946938 0 0.36859239944596278 0.32553583407693681 0 0.37960851528568879 0.32580096223681221 0 0.37355828893919801 0.31406904318946938 0 0.36859239944596278 0.32553583407693681 0 0.35826305370689687 0.31797737174628171 0 0.35826305370689687 0.31797737174628171 0 0.35828349006117061 0.33738264957627268 0 0.35826305370689687 0.31797737174628171 0 0.34485447000264041 0.3210894262725596 0 0.35828349006117061 0.33738264957627268 0 0.35826305370689687 0.31797737174628171 0 0.34485447000264041 0.3210894262725596 0 0.34666974786746518 0.30991229339078502 0 0.34586600449482408 0.34951065881178589 0 0.35828349006117061 0.33738264957627268 0 0.33124831362481788 0.34157980681215722 0 0.35828349006117061 0.33738264957627268 0 0.33124831362481788 0.34157980681215722 0 0.34485447000264041 0.3210894262725596 0 0.35828349006117061 0.33738264957627268 0 0.33539002386225208 0.32829275944936331 0 0.35828349006117061 0.33738264957627268 0 0.33539002386225208 0.32829275944936331 0 0.33124831362481788 0.34157980681215722 0 0.33539002386225208 0.32829275944936331 0 0.33124831362481788 0.34157980681215722 0 0.32590498686407621 0.33327706948955621 0 0.33539002386225208 0.32829275944936331 0 0.32820870379776462 0.32448319178788509 0 0.32590498686407621 0.33327706948955621 0 0.34485447000264041 0.3210894262725596 0 0.33573931357382258 0.31349544014444092 0 0.34666974786746518 0.30991229339078502 0 0.34485447000264041 0.3210894262725596 0 0.33347722584237749 0.31956909473381939 0 0.33573931357382258 0.31349544014444092 0 0.34485447000264041 0.3210894262725596 0 0.33539002386225208 0.32829275944936331 0 0.33347722584237749 0.31956909473381939 0 0.33539002386225208 0.32829275944936331 0 0.32820870379776462 0.32448319178788509 0 0.33347722584237749 0.31956909473381939 0 0.32820870379776462 0.32448319178788509 0 0.33347722584237749 0.31956909473381939 0 0.3263478024623151 0.31741904511029462 0 0.33124360227541849 0.31442764345776991 0 0.3263478024623151 0.31741904511029462 0 0.32941006722315891 0.30722699384252472 0 0.33347722584237749 0.31956909473381939 0 0.33124360227541849 0.31442764345776991 0 0.3263478024623151 0.31741904511029462 0 0.33347722584237749 0.31956909473381939 0 0.33124360227541849 0.31442764345776991 0 0.33573931357382258 0.31349544014444092 0 0.3263478024623151 0.31741904511029462 0 0.31519714809528632 0.3267526197268541 0 0.32941006722315891 0.30722699384252472 0 0.31519714809528632 0.3267526197268541 0 0.30803157192662911 0.3238447286521593 0 0.32941006722315891 0.30722699384252472 0 0.31519714809528632 0.3267526197268541 0 0.32941006722315891 0.30722699384252472 0 0.3263478024623151 0.31741904511029462 0 0.3210727586670476 0.3246668338033496 0 0.31519714809528632 0.3267526197268541 0 0.32820870379776462 0.32448319178788509 0 0.3210727586670476 0.3246668338033496 0 0.32590498686407621 0.33327706948955621 0 0.32820870379776462 0.32448319178788509 0 0.3263478024623151 0.31741904511029462 0 0.3210727586670476 0.3246668338033496 0 0.3210727586670476 0.3246668338033496 0 0.30421313718846488 0.34577696404803948 0 0.33124831362481788 0.34157980681215722 0 0.32590498686407621 0.33327706948955621 0 0.30421313718846488 0.34577696404803948 0 0.3210727586670476 0.3246668338033496 0 0.31519714809528632 0.3267526197268541 0 0.30421313718846488 0.34577696404803948 0 0.33124831362481788 0.34157980681215722 0 0.30421313718846488 0.34577696404803948 0 0.3210727586670476 0.3246668338033496 0 0.32590498686407621 0.33327706948955621 0 0.30421313718846488 0.34577696404803948 0 0.33005589633097571 0.3546697071405468 0 0.31101285831576531 0.3688781314997378 0 0.30180390867549101 0.34879358739054073 0 0.33005589633097571 0.3546697071405468 0 0.30180390867549101 0.34879358739054073 0 0.33124831362481788 0.34157980681215722 0 0.33005589633097571 0.3546697071405468 0 0.30421313718846488 0.34577696404803948 0 0.34586600449482408 0.34951065881178589 0 0.33124831362481788 0.34157980681215722 0 0.33005589633097571 0.3546697071405468 0 0.35830788398646018 0.36054582689055381 0 0.33005589633097571 0.3546697071405468 0 0.34211718915799039 0.36753471024790169 0 0.33138159001921208 0.38283523677663128 0 0.33005589633097571 0.3546697071405468 0 0.34211718915799039 0.36753471024790169 0 0.33138159001921208 0.38283523677663128 0 0.33005589633097571 0.3546697071405468 0 0.31101285831576531 0.3688781314997378 0 0.30444061152336682 0.39118099734922668 0 0.31101285831576531 0.3688781314997378 0 0.28769421810890622 0.36453598546653831 0 0.31101285831576531 0.3688781314997378 0 0.30180390867549101 0.34879358739054073 0 0.28769421810890622 0.36453598546653831 0 0.33005589633097571 0.3546697071405468 0 0.30180390867549101 0.34879358739054073 0 0.30421313718846488 0.34577696404803948 0 0.29950181594027059 0.34831477603210581 0 0.29452879359991918 0.34728043908039452 0 0.30180390867549101 0.34879358739054073 0 0.29950181594027059 0.34831477603210581 0 0.30180390867549101 0.34879358739054073 0 0.29950181594027059 0.34831477603210581 0 0.30098422896741472 0.34627824561118409 0 0.29950181594027059 0.34831477603210581 0 0.30098422896741472 0.34627824561118409 0 0.29950181594027059 0.34831477603210581 0 0.30098422896741472 0.34627824561118409 0 0.29452879359991918 0.34728043908039452 0 0.30098422896741472 0.34627824561118409 0 0.29452879359991918 0.34728043908039452 0 0.30180390867549101 0.34879358739054073 0 0.30098422896741472 0.34627824561118409 0 0.30421313718846488 0.34577696404803948 0 0.30098422896741472 0.34627824561118409 0 0.30421313718846488 0.34577696404803948 0 0.30180390867549101 0.34879358739054073 0 0.30421313718846488 0.34577696404803948 0 0.2906387453579814 0.34647134948352531 0 0.27394691218276562 0.36818603621057122 0 0.29950181594027059 0.34831477603210581 0 0.28769421810890622 0.36453598546653831 0 0.30180390867549101 0.34879358739054073 0 0.28769421810890622 0.36453598546653831 0 0.29950181594027059 0.34831477603210581 0 0.29164189260858608 0.35197543745330162 0 0.28769421810890622 0.36453598546653831 0 0.2906387453579814 0.34647134948352531 0 0.28351319099031541 0.35788359682979981 0 0.27394691218276562 0.36818603621057122 0 0.30180390867549101 0.34879358739054073 0 0.29950181594027059 0.34831477603210581 0 0.28769421810890622 0.36453598546653831 0 0.29950181594027059 0.34831477603210581 0 0.29452879359991918 0.34728043908039452 0 0.29164189260858608 0.35197543745330162 0 0.30098422896741472 0.34627824561118409 0 0.2906387453579814 0.34647134948352531 0 0.29452879359991918 0.34728043908039452 0 0.2906387453579814 0.34647134948352531 0 0.29452879359991918 0.34728043908039452 0 0.2906387453579814 0.34647134948352531 0 0.29452879359991918 0.34728043908039452 0 0.29164189260858608 0.35197543745330162 0 0.2906387453579814 0.34647134948352531 0 0.29164189260858608 0.35197543745330162 0 0.28351319099031541 0.35788359682979981 0 0.29164189260858608 0.35197543745330162 0 0.28351319099031541 0.35788359682979981 0 0.28769421810890622 0.36453598546653831 0 0.28351319099031541 0.35788359682979981 0 0.28769421810890622 0.36453598546653831 0 0.27394691218276562 0.36818603621057122 0 0.28351319099031541 0.35788359682979981 0 0.28769421810890622 0.36453598546653831 0 0.27660389545147918 0.37977180642613029 0 0.28769421810890622 0.36453598546653831 0 0.26809233302647961 0.37580235677663099 0 0.27394691218276562 0.36818603621057122 0 0.2631136498099288 0.34710539203319618 0 0.27660389545147918 0.37977180642613029 0 0.28769421810890622 0.36453598546653831 0 0.27394691218276562 0.36818603621057122 0 0.27660389545147918 0.37977180642613029 0 0.27394691218276562 0.36818603621057122 0 0.26809233302647961 0.37580235677663099 0 0.27660389545147918 0.37977180642613029 0 0.27394691218276562 0.36818603621057122 0 0.26809233302647961 0.37580235677663099 0 0.27394691218276562 0.36818603621057122 0 0.27394691218276562 0.36818603621057122 0 0.2631136498099288 0.34710539203319618 0 0.26788156272430519 0.34173809205898509 0 0.2906387453579814 0.34647134948352531 0 0.27394691218276562 0.36818603621057122 0 0.26788156272430519 0.34173809205898509 0 0.27394691218276562 0.36818603621057122 0 0.26788156272430519 0.34173809205898509 0 0.2906387453579814 0.34647134948352531 0 0.26788156272430519 0.34173809205898509 0 0.2631136498099288 0.34710539203319618 0 0.25425457857839617 0.35319856858963428 0 0.2576302396975203 0.3626825246625407 0 0.2631136498099288 0.34710539203319618 0 0.26200766509687112 0.34073053287126631 0 0.2631136498099288 0.34710539203319618 0 0.25284652517593192 0.34486049319971879 0 0.25425457857839617 0.35319856858963428 0 0.24773370951071341 0.34939505946418481 0 0.25284652517593192 0.34486049319971879 0 0.25425457857839617 0.35319856858963428 0 0.2432837744142313 0.3599619814363646 0 0.25425457857839617 0.35319856858963428 0 0.2576302396975203 0.3626825246625407 0 0.24994444510306871 0.37636341328293732 0 0.26809233302647961 0.37580235677663099 0 0.2576302396975203 0.3626825246625407 0 0.2432837744142313 0.3599619814363646 0 0.24994444510306871 0.37636341328293732 0 0.2576302396975203 0.3626825246625407 0 0.26809233302647961 0.37580235677663099 0 0.2631136498099288 0.34710539203319618 0 0.2576302396975203 0.3626825246625407 0 0.26809233302647961 0.37580235677663099 0 0.2631136498099288 0.34710539203319618 0 0.26404745166916482 0.32501945849104352 0 0.26021334061402152 0.30830082492310262 0 0.26404745166916482 0.32501945849104352 0 0.25813496659337493 0.31840842728976188 0 0.26021334061402152 0.30830082492310262 0 0.26404745166916482 0.32501945849104352 0 0.25813496659337493 0.31840842728976188 0 0.26200766509687112 0.34073053287126631 0 0.24909357857261069 0.3143195866460467 0 0.25813496659337493 0.31840842728976188 0 0.26021334061402152 0.30830082492310262 0 0.24879734118681349 0.32316930840062541 0 0.24909357857261069 0.3143195866460467 0 0.25813496659337493 0.31840842728976188 0 0.24879734118681349 0.32316930840062541 0 0.25813496659337493 0.31840842728976188 0 0.25368736998104258 0.33396041038714808 0 0.25813496659337493 0.31840842728976188 0 0.25368736998104258 0.33396041038714808 0 0.26200766509687112 0.34073053287126631 0 0.25813496659337493 0.31840842728976188 0 0.26200766509687112 0.34073053287126631 0 0.26404745166916482 0.32501945849104352 0 0.26200766509687112 0.34073053287126631 0 0.26788156272430519 0.34173809205898509 0 0.2631136498099288 0.34710539203319618 0 0.25284652517593192 0.34486049319971879 0 0.25368736998104258 0.33396041038714808 0 0.2454433179995788 0.34064303552443082 0 0.25284652517593192 0.34486049319971879 0 0.25368736998104258 0.33396041038714808 0 0.2631136498099288 0.34710539203319618 0 0.25368736998104258 0.33396041038714808 0 0.26200766509687112 0.34073053287126631 0 0.26200766509687112 0.34073053287126631 0 0.26788156272430519 0.34173809205898509 0 0.2631136498099288 0.34710539203319618 0 0.26200766509687112 0.34073053287126631 0 0.26788156272430519 0.34173809205898509 0 0.26404745166916482 0.32501945849104352 0 0.26788156272430519 0.34173809205898509 0 0.2906387453579814 0.34647134948352531 0 0.26788156272430519 0.34173809205898509 0 0.27614976826783338 0.33158032963958189 0 0.26404745166916482 0.32501945849104352 0 0.26788156272430519 0.34173809205898509 0 0.27614976826783338 0.33158032963958189 0 0.27614976826783338 0.33158032963958189 0 0.27465772849379699 0.32327872664032908 0 0.28559690454049219 0.32146566629293599 0 0.26404745166916482 0.32501945849104352 0 0.27283678949769741 0.31504945213775509 0 0.26021334061402152 0.30830082492310262 0 0.26404745166916482 0.32501945849104352 0 0.27465772849379699 0.32327872664032908 0 0.27283678949769741 0.31504945213775509 0 0.26404745166916482 0.32501945849104352 0 0.27614976826783338 0.33158032963958189 0 0.27465772849379699 0.32327872664032908 0 0.27465772849379699 0.32327872664032908 0 0.27283678949769741 0.31504945213775509 0 0.28559690454049219 0.32146566629293599 0 0.27283678949769741 0.31504945213775509 0 0.28559690454049219 0.32146566629293599 0 0.28257333865457468 0.30998660226210423 0 0.2906387453579814 0.34647134948352531 0 0.28559690454049219 0.32146566629293599 0 0.30803157192662911 0.3238447286521593 0 0.2906387453579814 0.34647134948352531 0 0.27614976826783338 0.33158032963958189 0 0.28559690454049219 0.32146566629293599 0 0.31519714809528632 0.3267526197268541 0 0.30098422896741472 0.34627824561118409 0 0.30803157192662911 0.3238447286521593 0 0.31519714809528632 0.3267526197268541 0 0.30098422896741472 0.34627824561118409 0 0.30421313718846488 0.34577696404803948 0 0.2906387453579814 0.34647134948352531 0 0.30803157192662911 0.3238447286521593 0 0.30098422896741472 0.34627824561118409 0 0.2906387453579814 0.34647134948352531 0 0.30803157192662911 0.3238447286521593 0 0.31519714809528632 0.3267526197268541 0 0.30098422896741472 0.34627824561118409 0 0.28559690454049219 0.32146566629293599 0 0.30803157192662911 0.3238447286521593 0 0.29876523506816971 0.30115766993267379 0 0.29876523506816971 0.30115766993267379 0 0.32443604462439968 0.3000417191802946 0 0.30803157192662911 0.3238447286521593 0 0.29876523506816971 0.30115766993267379 0 0.32443604462439968 0.3000417191802946 0 0.2890204212871017 0.28659767383957457 0 0.31600866174563053 0.29001102290859371 0 0.29876523506816971 0.30115766993267379 0 0.2890204212871017 0.28659767383957457 0 0.31600866174563053 0.29001102290859371 0 0.2890204212871017 0.28659767383957457 0 0.30539289208996462 0.2773755982888616 0 0.31600866174563053 0.29001102290859371 0 0.30539289208996462 0.2773755982888616 0 0.31600866174563053 0.29001102290859371 0 0.29876523506816971 0.30115766993267379 0 0.2890204212871017 0.28659767383957457 0 0.27309442551193958 0.30227362068505181 0 0.29876523506816971 0.30115766993267379 0 0.27309442551193958 0.30227362068505181 0 0.28559690454049219 0.32146566629293599 0 0.29876523506816971 0.30115766993267379 0 0.28257333865457468 0.30998660226210423 0 0.29876523506816971 0.30115766993267379 0 0.28257333865457468 0.30998660226210423 0 0.27309442551193958 0.30227362068505181 0 0.27283678949769741 0.31504945213775509 0 0.28257333865457468 0.30998660226210423 0 0.27309442551193958 0.30227362068505181 0 0.27283678949769741 0.31504945213775509 0 0.27309442551193958 0.30227362068505181 0 0.26021334061402152 0.30830082492310262 0 0.27309442551193958 0.30227362068505181 0 0.27535624986120372 0.28553194964108669 0 0.2616507532446114 0.28546331061322289 0 0.2890204212871017 0.28659767383957457 0 0.27309442551193958 0.30227362068505181 0 0.27535624986120372 0.28553194964108669 0 0.2890204212871017 0.28659767383957457 0 0.27535624986120372 0.28553194964108669 0 0.27704232197650452 0.27347437854435119 0 0.27535624986120372 0.28553194964108669 0 0.2616507532446114 0.28546331061322289 0 0.27704232197650452 0.27347437854435119 0 0.24742361595570961 0.30338957143742967 0 0.27309442551193958 0.30227362068505181 0 0.26021334061402152 0.30830082492310262 0 0.24742361595570961 0.30338957143742967 0 0.27309442551193958 0.30227362068505181 0 0.2616507532446114 0.28546331061322289 0 0.24742361595570961 0.30338957143742967 0 0.27309442551193958 0.30227362068505181 0 0.24742361595570961 0.30338957143742967 0 0.24909357857261069 0.3143195866460467 0 0.26021334061402152 0.30830082492310262 0 0.24183819042719651 0.2457468380927334 0 0.26465850061080509 0.25090009652069561 0 0.25118401839053822 0.25829087403604301 0 0.2450857944433146 0.27030788438377867 0 0.25118401839053822 0.25829087403604301 0 0.26272135627042897 0.26617052233672728 0 0.26465850061080509 0.25090009652069561 0 0.25118401839053822 0.25829087403604301 0 0.26272135627042897 0.26617052233672728 0 0.2450857944433146 0.27030788438377867 0 0.2616507532446114 0.28546331061322289 0 0.26272135627042897 0.26617052233672728 0 0.2616507532446114 0.28546331061322289 0 0.26272135627042897 0.26617052233672728 0 0.27704232197650452 0.27347437854435119 0 0.26272135627042897 0.26617052233672728 0 0.27704232197650452 0.27347437854435119 0 0.27531375717850548 0.2623804633376941 0 0.27704232197650452 0.27347437854435119 0 0.27531375717850548 0.2623804633376941 0 0.28466779624037419 0.26530396433804049 0 0.26465850061080509 0.25090009652069561 0 0.28747881079441429 0.25605335494865578 0 0.26465850061080509 0.25090009652069561 0 0.27531375717850548 0.2623804633376941 0 0.28747881079441429 0.25605335494865578 0 0.26465850061080509 0.25090009652069561 0 0.26272135627042897 0.26617052233672728 0 0.27531375717850548 0.2623804633376941 0 0.28747881079441429 0.25605335494865578 0 0.30607067953178091 0.25253179152387178 0 0.29622194496412108 0.24800439574613639 0 0.27531375717850548 0.2623804633376941 0 0.28747881079441429 0.25605335494865578 0 0.28466779624037419 0.26530396433804049 0 0.28747881079441429 0.25605335494865578 0 0.28466779624037419 0.26530396433804049 0 0.29477712243429888 0.26474017366912928 0 0.28747881079441429 0.25605335494865578 0 0.29477712243429888 0.26474017366912928 0 0.2890204212871017 0.28659767383957457 0 0.29088457933687739 0.27208597279078089 0 0.30539289208996462 0.2773755982888616 0 0.2890204212871017 0.28659767383957457 0 0.27704232197650452 0.27347437854435119 0 0.29088457933687739 0.27208597279078089 0 0.27704232197650452 0.27347437854435119 0 0.28466779624037419 0.26530396433804049 0 0.29088457933687739 0.27208597279078089 0 0.28466779624037419 0.26530396433804049 0 0.29477712243429888 0.26474017366912928 0 0.29088457933687739 0.27208597279078089 0 0.29477712243429888 0.26474017366912928 0 0.30539289208996462 0.2773755982888616 0 0.3225024263958039 0.26684560479604952 0 0.29477712243429888 0.26474017366912928 0 0.3225024263958039 0.26684560479604952 0 0.29477712243429888 0.26474017366912928 0 0.30539289208996462 0.2773755982888616 0 0.29477712243429888 0.26474017366912928 0 0.29088457933687739 0.27208597279078089 0 0.30539289208996462 0.2773755982888616 0 0.28747881079441429 0.25605335494865578 0 0.30607067953178091 0.25253179152387178 0 0.31318273839018951 0.26185778882570931 0 0.29477712243429888 0.26474017366912928 0 0.31318273839018951 0.26185778882570931 0 0.3225024263958039 0.26684560479604952 0 0.28747881079441429 0.25605335494865578 0 0.29477712243429888 0.26474017366912928 0 0.31318273839018951 0.26185778882570931 0 0.28747881079441429 0.25605335494865578 0 0.31318273839018951 0.26185778882570931 0 0.31318273839018951 0.26185778882570931 0 0.33885438183696498 0.26808735550939272 0 0.30607067953178091 0.25253179152387178 0 0.3191259817613481 0.25540705495601701 0 0.31318273839018951 0.26185778882570931 0 0.31318273839018951 0.26185778882570931 0 0.33885438183696498 0.26808735550939272 0 0.3225024263958039 0.26684560479604952 0 0.30607067953178091 0.25253179152387178 0 0.3191259817613481 0.25540705495601701 0 0.31617596768273748 0.24862092986720671 0 0.31318273839018951 0.26185778882570931 0 0.32761136606282282 0.25777802355240531 0 0.33885438183696498 0.26808735550939272 0 0.3191259817613481 0.25540705495601701 0 0.31318273839018951 0.26185778882570931 0 0.32761136606282282 0.25777802355240531 0 0.3191259817613481 0.25540705495601701 0 0.32761136606282282 0.25777802355240531 0 0.3286309626952284 0.2434480298853621 0 0.32761136606282282 0.25777802355240531 0 0.33695847385438371 0.25848859673387808 0 0.3286309626952284 0.2434480298853621 0 0.32761136606282282 0.25777802355240531 0 0.33695847385438371 0.25848859673387808 0 0.33885438183696498 0.26808735550939272 0 0.33695847385438371 0.25848859673387808 0 0.33885438183696498 0.26808735550939272 0 0.34545280513403431 0.26099883918469308 0 0.33695847385438371 0.25848859673387808 0 0.34299065606626278 0.25131321409070428 0 0.3286309626952284 0.2434480298853621 0 0.33695847385438371 0.25848859673387808 0 0.34299065606626278 0.25131321409070428 0 0.34545280513403431 0.26099883918469308 0 0.32552324176346298 0.27990615997693069 0 0.33244154856593039 0.29208937918437378 0 0.35022773035730892 0.26895103592297109 0 0.33885438183696498 0.26808735550939272 0 0.3225024263958039 0.26684560479604952 0 0.33885438183696498 0.26808735550939272 0 0.32552324176346298 0.27990615997693069 0 0.35022773035730892 0.26895103592297109 0 0.33885438183696498 0.26808735550939272 0 0.32552324176346298 0.27990615997693069 0 0.3225024263958039 0.26684560479604952 0 0.33244154856593039 0.29208937918437378 0 0.35022773035730892 0.26895103592297109 0 0.30539289208996462 0.2773755982888616 0 0.32552324176346298 0.27990615997693069 0 0.3225024263958039 0.26684560479604952 0 0.32552324176346298 0.27990615997693069 0 0.31600866174563053 0.29001102290859371 0 0.33244154856593039 0.29208937918437378 0 0.30539289208996462 0.2773755982888616 0 0.32552324176346298 0.27990615997693069 0 0.31600866174563053 0.29001102290859371 0 0.31600866174563053 0.29001102290859371 0 0.32443604462439968 0.3000417191802946 0 0.33244154856593039 0.29208937918437378 0 0.31600866174563053 0.29001102290859371 0 0.33244154856593039 0.29208937918437378 0 0.31600866174563053 0.29001102290859371 0 0.32443604462439968 0.3000417191802946 0 0.30803157192662911 0.3238447286521593 0 0.32443604462439968 0.3000417191802946 0 0.30803157192662911 0.3238447286521593 0 0.32443604462439968 0.3000417191802946 0 0.32941006722315891 0.30722699384252472 0 0.29876523506816971 0.30115766993267379 0 0.31600866174563053 0.29001102290859371 0 0.32443604462439968 0.3000417191802946 0 0.32639410588498952 0.29995659915584622 0 0.32443604462439968 0.3000417191802946 0 0.33244154856593039 0.29208937918437378 0 0.32639410588498952 0.29995659915584622 0 0.32443604462439968 0.3000417191802946 0 0.32639410588498952 0.29995659915584622 0 0.34231836161880652 0.29926434653606898 0 0.32639410588498952 0.29995659915584622 0 0.34231836161880652 0.29926434653606898 0 0.33244154856593039 0.29208937918437378 0 0.32639410588498952 0.29995659915584622 0 0.33456071553786132 0.30431427628352192 0 0.34231836161880652 0.29926434653606898 0 0.33573931357382258 0.31349544014444092 0 0.32443604462439968 0.3000417191802946 0 0.33573931357382258 0.31349544014444092 0 0.32443604462439968 0.3000417191802946 0 0.32941006722315891 0.30722699384252472 0 0.33573931357382258 0.31349544014444092 0 0.32443604462439968 0.3000417191802946 0 0.33456071553786132 0.30431427628352192 0 0.33124360227541849 0.31442764345776991 0 0.33573931357382258 0.31349544014444092 0 0.32941006722315891 0.30722699384252472 0 0.32639410588498952 0.29995659915584622 0 0.32443604462439968 0.3000417191802946 0 0.33456071553786132 0.30431427628352192 0 0.33456071553786132 0.30431427628352192 0 0.34231836161880652 0.29926434653606898 0 0.34666974786746518 0.30991229339078502 0 0.33573931357382258 0.31349544014444092 0 0.33456071553786132 0.30431427628352192 0 0.34666974786746518 0.30991229339078502 0 0.32639410588498952 0.29995659915584622 0 0.33244154856593039 0.29208937918437378 0 0.34231836161880652 0.29926434653606898 0 0.33244154856593039 0.29208937918437378 0 0.35823922632220823 0.29535215133462311 0 0.35823922632220823 0.29535215133462311 0 0.35821206095287778 0.26955735779366019 0 0.33244154856593039 0.29208937918437378 0 0.35823922632220823 0.29535215133462311 0 0.33244154856593039 0.29208937918437378 0 0.35823922632220823 0.29535215133462311 0 0.35022773035730892 0.26895103592297109 0 0.34231836161880652 0.29926434653606898 0 0.35823922632220823 0.29535215133462311 0 0.35824261735262353 0.2985720939162908 0 0.35826305370689687 0.31797737174628171 0 0.34666974786746518 0.30991229339078502 0 0.35824261735262353 0.2985720939162908 0 0.34231836161880652 0.29926434653606898 0 0.34666974786746518 0.30991229339078502 0 0.35824261735262353 0.2985720939162908 0 0.35826305370689687 0.31797737174628171 0 0.35824261735262353 0.2985720939162908 0 0.34231836161880652 0.29926434653606898 0 0.35824261735262353 0.2985720939162908 0 0.35823922632220823 0.29535215133462311 0 0.35824261735262353 0.2985720939162908 0 0.35824261735262353 0.2985720939162908 0 0.36489310987453338 0.29619370405695189 0 0.38530062484196742 0.29739583947252168 0 0.37355828893919801 0.31406904318946938 0 0.35824261735262353 0.2985720939162908 0 0.38530062484196742 0.29739583947252168 0 0.35824261735262353 0.2985720939162908 0 0.38530062484196742 0.29739583947252168 0 0.37355828893919801 0.31406904318946938 0 0.35826305370689687 0.31797737174628171 0 0.35824261735262353 0.2985720939162908 0 0.35823922632220823 0.29535215133462311 0 0.36559308939395813 0.28328420626751072 0 0.35821206095287778 0.26955735779366019 0 0.35823922632220823 0.29535215133462311 0 0.36559308939395813 0.28328420626751072 0 0.36489310987453338 0.29619370405695189 0 0.35823922632220823 0.29535215133462311 0 0.36489310987453338 0.29619370405695189 0 0.35823922632220823 0.29535215133462311 0 0.35824261735262353 0.2985720939162908 0 0.36489310987453338 0.29619370405695189 0 0.36559308939395813 0.28328420626751072 0 0.36489310987453338 0.29619370405695189 0 0.37748990794392862 0.28748647681792888 0 0.35821206095287778 0.26955735779366019 0 0.38224350058891821 0.27138228065491421 0 0.37466402894604239 0.25663903199270788 0 0.35821206095287778 0.26955735779366019 0 0.38224350058891821 0.27138228065491421 0 0.36559308939395813 0.28328420626751072 0 0.35821206095287778 0.26955735779366019 0 0.38224350058891821 0.27138228065491421 0 0.37466402894604239 0.25663903199270788 0 0.35820049940624799 0.25857912647314701 0 0.35821206095287778 0.26955735779366019 0 0.37466402894604239 0.25663903199270788 0 0.35820049940624799 0.25857912647314701 0 0.3723050453064225 0.240230285310258 0 0.34299065606626278 0.25131321409070428 0 0.35820049940624799 0.25857912647314701 0 0.3470821380133452 0.2412510483538059 0 0.35820049940624799 0.25857912647314701 0 0.35821206095287778 0.26955735779366019 0 0.35820049940624799 0.25857912647314701 0 0.35022773035730892 0.26895103592297109 0 0.34299065606626278 0.25131321409070428 0 0.35820049940624799 0.25857912647314701 0 0.34545280513403431 0.26099883918469308 0 0.35820049940624799 0.25857912647314701 0 0.34545280513403431 0.26099883918469308 0 0.35022773035730892 0.26895103592297109 0 0.33885438183696498 0.26808735550939272 0 0.35022773035730892 0.26895103592297109 0 0.33885438183696498 0.26808735550939272 0 0.34545280513403431 0.26099883918469308 0 0.35022773035730892 0.26895103592297109 0 0.35823922632220823 0.29535215133462311 0 0.35022773035730892 0.26895103592297109 0 0.35821206095287778 0.26955735779366019 0 0.35820049940624799 0.25857912647314701 0 0.35022773035730892 0.26895103592297109 0 0.35821206095287778 0.26955735779366019 0 0.35022773035730892 0.26895103592297109 0 0.35821206095287778 0.26955735779366019 0 0.40534162597018197 0.27176225368828177 0 0.38224350058891821 0.27138228065491421 0 0.39756955503893288 0.28466984631635489 0 0.40534162597018197 0.27176225368828177 0 0.3987046988472237 0.2591012138895944 0 0.38224350058891821 0.27138228065491421 0 0.40534162597018197 0.27176225368828177 0 0.3987046988472237 0.2591012138895944 0 0.41465733722559611 0.25736223411530967 0 0.3987046988472237 0.2591012138895944 0 0.39488500936975263 0.24532584809717059 0 0.40701393632937788 0.24838861756848099 0 0.37466402894604239 0.25663903199270788 0 0.3987046988472237 0.2591012138895944 0 0.39488500936975263 0.24532584809717059 0 0.37466402894604239 0.25663903199270788 0 0.3987046988472237 0.2591012138895944 0 0.38224350058891821 0.27138228065491421 0 0.38224350058891821 0.27138228065491421 0 0.37748990794392862 0.28748647681792888 0 0.39756955503893288 0.28466984631635489 0 0.36559308939395813 0.28328420626751072 0 0.38224350058891821 0.27138228065491421 0 0.37748990794392862 0.28748647681792888 0 0.36489310987453338 0.29619370405695189 0 0.37748990794392862 0.28748647681792888 0 0.38530062484196742 0.29739583947252168 0 0.37748990794392862 0.28748647681792888 0 0.38530062484196742 0.29739583947252168 0 0.39756955503893288 0.28466984631635489 0 0.37355828893919801 0.31406904318946938 0 0.38530062484196742 0.29739583947252168 0 0.39099523915189621 0.31971442110025788 0 0.38530062484196742 0.29739583947252168 0 0.4123586323313112 0.29621958502875168 0 0.40340273595425341 0.31559659934648798 0 0.38530062484196742 0.29739583947252168 0 0.40340273595425341 0.31559659934648798 0 0.39099523915189621 0.31971442110025788 0 0.38530062484196742 0.29739583947252168 0 0.39756955503893288 0.28466984631635489 0 0.4123586323313112 0.29621958502875168 0 0.38530062484196742 0.29739583947252168 0 0.4123586323313112 0.29621958502875168 0 0.4123586323313112 0.29621958502875168 0 0.42068333352655141 0.27820822720815069 0 0.39756955503893288 0.28466984631635489 0 0.4123586323313112 0.29621958502875168 0 0.42068333352655141 0.27820822720815069 0 0.4123586323313112 0.29621958502875168 0 0.42383495187878317 0.31556067175743879 0 0.40340273595425341 0.31559659934648798 0 0.4123586323313112 0.29621958502875168 0 0.40340273595425341 0.31559659934648798 0 0.43406415216573602 0.29527601170136342 0 0.44290015824061157 0.31588511156537158 0 0.42383495187878317 0.31556067175743879 0 0.43406415216573602 0.29527601170136342 0 0.42383495187878317 0.31556067175743879 0 0.4123586323313112 0.29621958502875168 0 0.43406415216573602 0.29527601170136342 0 0.42383495187878317 0.31556067175743879 0 0.4123586323313112 0.29621958502875168 0 0.43406415216573602 0.29527601170136342 0 0.42068333352655141 0.27820822720815069 0 0.43406415216573602 0.29527601170136342 0 0.43168657359780582 0.27313006506669779 0 0.42068333352655141 0.27820822720815069 0 0.43406415216573602 0.29527601170136342 0 0.43168657359780582 0.27313006506669779 0 0.4421427610191298 0.27925600723184318 0 0.4123586323313112 0.29621958502875168 0 0.43406415216573602 0.29527601170136342 0 0.43168657359780582 0.27313006506669779 0 0.42197875017009162 0.26655524539489889 0 0.43504823485866528 0.26133645920022941 0 0.43168657359780582 0.27313006506669779 0 0.42197875017009162 0.26655524539489889 0 0.42068333352655141 0.27820822720815069 0 0.40534162597018197 0.27176225368828177 0 0.39756955503893288 0.28466984631635489 0 0.42068333352655141 0.27820822720815069 0 0.40534162597018197 0.27176225368828177 0 0.42197875017009162 0.26655524539489889 0 0.42068333352655141 0.27820822720815069 0 0.3987046988472237 0.2591012138895944 0 0.41465733722559611 0.25736223411530967 0 0.40701393632937788 0.24838861756848099 0 0.40534162597018197 0.27176225368828177 0 0.42197875017009162 0.26655524539489889 0 0.41465733722559611 0.25736223411530967 0 0.40534162597018197 0.27176225368828177 0 0.41465733722559611 0.25736223411530967 0 0.42197875017009162 0.26655524539489889 0 0.41465733722559611 0.25736223411530967 0 0.42659905199128428 0.25466336600345729 0 0.41465733722559611 0.25736223411530967 0 0.42397304848100981 0.2429622145423376 0 0.41465733722559611 0.25736223411530967 0 0.42659905199128428 0.25466336600345729 0 0.42397304848100981 0.2429622145423376 0 0.42659905199128428 0.25466336600345729 0 0.43504823485866528 0.26133645920022941 0 0.44670741272494002 0.25014944309200082 0 0.42197875017009162 0.26655524539489889 0 0.42659905199128428 0.25466336600345729 0 0.43504823485866528 0.26133645920022941 0 0.43504823485866528 0.26133645920022941 0 0.45022136987251349 0.26323600276231812 0 0.44670741272494002 0.25014944309200082 0 0.45022136987251349 0.26323600276231812 0 0.45543009270220658 0.25290702601315013 0 0.45022136987251349 0.26323600276231812 0 0.44670741272494002 0.25014944309200082 0 0.45022136987251349 0.26323600276231812 0 0.44670741272494002 0.25014944309200082 0 0.45543009270220658 0.25290702601315013 0 0.44670741272494002 0.25014944309200082 0 0.45543009270220658 0.25290702601315013 0 0.45022136987251349 0.26323600276231812 0 0.4421427610191298 0.27925600723184318 0 0.45438016016841209 0.27872402810753932 0 0.43168657359780582 0.27313006506669779 0 0.45022136987251349 0.26323600276231812 0 0.4421427610191298 0.27925600723184318 0 0.43168657359780582 0.27313006506669779 0 0.43504823485866528 0.26133645920022941 0 0.45022136987251349 0.26323600276231812 0 0.45022136987251349 0.26323600276231812 0 0.4421427610191298 0.27925600723184318 0 0.45022136987251349 0.26323600276231812 0 0.45438016016841209 0.27872402810753932 0 0.45438016016841209 0.27872402810753932 0 0.46173964970624198 0.26675904913524601 0 0.47095157943697319 0.27897601063177341 0 0.45022136987251349 0.26323600276231812 0 0.45438016016841209 0.27872402810753932 0 0.46173964970624198 0.26675904913524601 0 0.45543009270220658 0.25290702601315013 0 0.47771504635110412 0.25995217816144911 0 0.45543009270220658 0.25290702601315013 0 0.47771504635110412 0.25995217816144911 0 0.46950086217180798 0.24660621613382361 0 0.46173964970624198 0.26675904913524601 0 0.45543009270220658 0.25290702601315013 0 0.47771504635110412 0.25995217816144911 0 0.45022136987251349 0.26323600276231812 0 0.46173964970624198 0.26675904913524601 0 0.45543009270220658 0.25290702601315013 0 0.46173964970624198 0.26675904913524601 0 0.47771504635110412 0.25995217816144911 0 0.47095157943697319 0.27897601063177341 0 0.47771504635110412 0.25995217816144911 0 0.47095157943697319 0.27897601063177341 0 0.4862344054678045 0.27844940804874602 0 0.50000000000000133 0.26699733030974848 0 0.4862344054678045 0.27844940804874602 0 0.49999999999999539 0.29240967595771278 0 0.47771504635110412 0.25995217816144911 0 0.50000000000000133 0.26699733030974848 0 0.4862344054678045 0.27844940804874602 0 0.47771504635110412 0.25995217816144911 0 0.50000000000000133 0.26699733030974848 0 0.47771504635110412 0.25995217816144911 0 0.50000000000000133 0.26699733030974848 0 0.5 0.24683478028199449 0 0.49999999999999539 0.29240967595771278 0 0.47926947523215618 0.29331086470523487 0 0.48213457459829112 0.31214622902563871 0 0.49999999999999539 0.29240967595771278 0 0.48213457459829112 0.31214622902563871 0 0.5 0.3193209602778716 0 0.49999999999999539 0.29240967595771278 0 0.47926947523215618 0.29331086470523487 0 0.4862344054678045 0.27844940804874602 0 0.49999999999999539 0.29240967595771278 0 0.47926947523215618 0.29331086470523487 0 0.47095157943697319 0.27897601063177341 0 0.47926947523215618 0.29331086470523487 0 0.45853895046431709 0.29421205345275869 0 0.47926947523215618 0.29331086470523487 0 0.45853895046431709 0.29421205345275869 0 0.47095157943697319 0.27897601063177341 0 0.4862344054678045 0.27844940804874602 0 0.47926947523215618 0.29331086470523487 0 0.47926947523215618 0.29331086470523487 0 0.48213457459829112 0.31214622902563871 0 0.46290568611590022 0.31047450181771469 0 0.46290568611590022 0.31047450181771469 0 0.45853895046431709 0.29421205345275869 0 0.47926947523215618 0.29331086470523487 0 0.46290568611590022 0.31047450181771469 0 0.45853895046431709 0.29421205345275869 0 0.46290568611590022 0.31047450181771469 0 0.45853895046431709 0.29421205345275869 0 0.44960223674664113 0.30396191963430019 0 0.45438016016841209 0.27872402810753932 0 0.47095157943697319 0.27897601063177341 0 0.45853895046431709 0.29421205345275869 0 0.45438016016841209 0.27872402810753932 0 0.45853895046431709 0.29421205345275869 0 0.43406415216573602 0.29527601170136342 0 0.4421427610191298 0.27925600723184318 0 0.4421427610191298 0.27925600723184318 0 0.45438016016841209 0.27872402810753932 0 0.45853895046431709 0.29421205345275869 0 0.43406415216573602 0.29527601170136342 0 0.4421427610191298 0.27925600723184318 0 0.45853895046431709 0.29421205345275869 0 0.43406415216573602 0.29527601170136342 0 0.45853895046431709 0.29421205345275869 0 0.43406415216573602 0.29527601170136342 0 0.44960223674664113 0.30396191963430019 0 0.44290015824061157 0.31588511156537158 0 0.46290568611590022 0.31047450181771469 0 0.44960223674664113 0.30396191963430019 0 0.44290015824061157 0.31588511156537158 0 0.43406415216573602 0.29527601170136342 0 0.45853895046431709 0.29421205345275869 0 0.44960223674664113 0.30396191963430019 0 0.44290015824061157 0.31588511156537158 0 0.44194958552009972 0.33728940838239108 0 0.42791621726700169 0.32879143304134523 0 0.44290015824061157 0.31588511156537158 0 0.44194958552009972 0.33728940838239108 0 0.45375918679186172 0.32524175631901092 0 0.44194958552009972 0.33728940838239108 0 0.45580322483011732 0.33649289964709522 0 0.45375918679186172 0.32524175631901092 0 0.44194958552009972 0.33728940838239108 0 0.45580322483011732 0.33649289964709522 0 0.45110215894823358 0.34699004005998518 0 0.45580322483011732 0.33649289964709522 0 0.4672724217674904 0.32673695018266868 0 0.46371805799502458 0.34603103462540552 0 0.45580322483011732 0.33649289964709522 0 0.46371805799502458 0.34603103462540552 0 0.45110215894823358 0.34699004005998518 0 0.45580322483011732 0.33649289964709522 0 0.45375918679186172 0.32524175631901092 0 0.4672724217674904 0.32673695018266868 0 0.46290568611590022 0.31047450181771469 0 0.4672724217674904 0.32673695018266868 0 0.46290568611590022 0.31047450181771469 0 0.45375918679186172 0.32524175631901092 0 0.4672724217674904 0.32673695018266868 0 0.46290568611590022 0.31047450181771469 0 0.44290015824061157 0.31588511156537158 0 0.45375918679186172 0.32524175631901092 0 0.48213457459829112 0.31214622902563871 0 0.4672724217674904 0.32673695018266868 0 0.48393361351104902 0.33051935588691322 0 0.48213457459829112 0.31214622902563871 0 0.46290568611590022 0.31047450181771469 0 0.4672724217674904 0.32673695018266868 0 0.4672724217674904 0.32673695018266868 0 0.48393361351104902 0.33051935588691322 0 0.47841289750494997 0.34666762720258182 0 0.4672724217674904 0.32673695018266868 0 0.47841289750494997 0.34666762720258182 0 0.46371805799502458 0.34603103462540552 0 0.48393361351104902 0.33051935588691322 0 0.5 0.3193209602778716 0 0.5 0.34623224459803043 0 0.48393361351104902 0.33051935588691322 0 0.5 0.34623224459803043 0 0.47841289750494997 0.34666762720258182 0 0.48213457459829112 0.31214622902563871 0 0.48393361351104902 0.33051935588691322 0 0.5 0.3193209602778716 0 0.48496930933626381 0.36567786141122771 0 0.5 0.37314352891818908 0 0.5 0.34623224459803043 0 0.48496930933626381 0.36567786141122771 0 0.5 0.37314352891818908 0 0.48049935295033619 0.38227310855918822 0 0.48496930933626381 0.36567786141122771 0 0.5 0.34623224459803043 0 0.47841289750494997 0.34666762720258182 0 0.47841289750494997 0.34666762720258182 0 0.46808887461129578 0.36252891116089259 0 0.46371805799502458 0.34603103462540552 0 0.48496930933626381 0.36567786141122771 0 0.47841289750494997 0.34666762720258182 0 0.46808887461129578 0.36252891116089259 0 0.48496930933626381 0.36567786141122771 0 0.48049935295033619 0.38227310855918822 0 0.48496930933626381 0.36567786141122771 0 0.47229015429969962 0.37473130044258118 0 0.48049935295033619 0.38227310855918822 0 0.48496930933626381 0.36567786141122771 0 0.47229015429969962 0.37473130044258118 0 0.46808887461129578 0.36252891116089259 0 0.46808887461129578 0.36252891116089259 0 0.45469107073808868 0.36648145615220251 0 0.46033483767153838 0.37614347190105257 0 0.47229015429969962 0.37473130044258118 0 0.46808887461129578 0.36252891116089259 0 0.46033483767153838 0.37614347190105257 0 0.45469107073808868 0.36648145615220251 0 0.45769588754370172 0.35601399370068187 0 0.44783726048551359 0.35864257681002432 0 0.46808887461129578 0.36252891116089259 0 0.45469107073808868 0.36648145615220251 0 0.45769588754370172 0.35601399370068187 0 0.45469107073808868 0.36648145615220251 0 0.45139417975576102 0.37595483366699839 0 0.46033483767153838 0.37614347190105257 0 0.46808887461129578 0.36252891116089259 0 0.46371805799502458 0.34603103462540552 0 0.45769588754370172 0.35601399370068187 0 0.46371805799502458 0.34603103462540552 0 0.45769588754370172 0.35601399370068187 0 0.45110215894823358 0.34699004005998518 0 0.45110215894823358 0.34699004005998518 0 0.44783726048551359 0.35864257681002432 0 0.44235124358090377 0.35049759555824739 0 0.45769588754370172 0.35601399370068187 0 0.45110215894823358 0.34699004005998518 0 0.44783726048551359 0.35864257681002432 0 0.44783726048551359 0.35864257681002432 0 0.44235124358090377 0.35049759555824739 0 0.43734774707678331 0.36122028519247551 0 0.44235124358090377 0.35049759555824739 0 0.43734774707678331 0.36122028519247551 0 0.43343891469457602 0.3493620906398312 0 0.44194958552009972 0.33728940838239108 0 0.45110215894823358 0.34699004005998518 0 0.44235124358090377 0.35049759555824739 0 0.44194958552009972 0.33728940838239108 0 0.44235124358090377 0.35049759555824739 0 0.43343891469457602 0.3493620906398312 0 0.45469107073808868 0.36648145615220251 0 0.44383545502537092 0.3706520901965536 0 0.45139417975576102 0.37595483366699839 0 0.45469107073808868 0.36648145615220251 0 0.44783726048551359 0.35864257681002432 0 0.44383545502537092 0.3706520901965536 0 0.44783726048551359 0.35864257681002432 0 0.44383545502537092 0.3706520901965536 0 0.43734774707678331 0.36122028519247551 0 0.43734774707678331 0.36122028519247551 0 0.42780257137082961 0.35665965104122049 0 0.42835325183149769 0.38110003570901407 0 0.41464232463172002 0.3677117124311341 0 0.42780257137082961 0.35665965104122049 0 0.42835325183149769 0.38110003570901407 0 0.44383545502537092 0.3706520901965536 0 0.43734774707678331 0.36122028519247551 0 0.42835325183149769 0.38110003570901407 0 0.42780257137082961 0.35665965104122049 0 0.42835325183149769 0.38110003570901407 0 0.41464232463172002 0.3677117124311341 0 0.42077278933928558 0.35514368329658669 0 0.40300985465984268 0.36064627481990991 0 0.41464232463172002 0.3677117124311341 0 0.42077278933928558 0.35514368329658669 0 0.42780257137082961 0.35665965104122049 0 0.41464232463172002 0.3677117124311341 0 0.40206241129070891 0.37136570532197027 0 0.40300985465984268 0.36064627481990991 0 0.41464232463172002 0.3677117124311341 0 0.40206241129070891 0.37136570532197027 0 0.40738125773306721 0.38200395520979658 0 0.42077278933928558 0.35514368329658669 0 0.41579906914660308 0.34558863425836939 0 0.40300985465984268 0.36064627481990991 0 0.42077278933928558 0.35514368329658669 0 0.40300985465984268 0.36064627481990991 0 0.41579906914660308 0.34558863425836939 0 0.41028542932793183 0.34061696112786211 0 0.40370242556569791 0.34616854713700729 0 0.41579906914660308 0.34558863425836939 0 0.40300985465984268 0.36064627481990991 0 0.40370242556569791 0.34616854713700729 0 0.42077278933928558 0.35514368329658669 0 0.41579906914660308 0.34558863425836939 0 0.4256199020127252 0.34972394478380209 0 0.41579906914660308 0.34558863425836939 0 0.4256199020127252 0.34972394478380209 0 0.42674279640308832 0.34105196318636161 0 0.4256199020127252 0.34972394478380209 0 0.43343891469457602 0.3493620906398312 0 0.42674279640308832 0.34105196318636161 0 0.4256199020127252 0.34972394478380209 0 0.42780257137082961 0.35665965104122049 0 0.43343891469457602 0.3493620906398312 0 0.42077278933928558 0.35514368329658669 0 0.4256199020127252 0.34972394478380209 0 0.42780257137082961 0.35665965104122049 0 0.43734774707678331 0.36122028519247551 0 0.42780257137082961 0.35665965104122049 0 0.43343891469457602 0.3493620906398312 0 0.44194958552009972 0.33728940838239108 0 0.43343891469457602 0.3493620906398312 0 0.42674279640308832 0.34105196318636161 0 0.44194958552009972 0.33728940838239108 0 0.42791621726700169 0.32879143304134523 0 0.42674279640308832 0.34105196318636161 0 0.42791621726700169 0.32879143304134523 0 0.42674279640308832 0.34105196318636161 0 0.41573308977752438 0.33555626801243049 0 0.44290015824061157 0.31588511156537158 0 0.42791621726700169 0.32879143304134523 0 0.42383495187878317 0.31556067175743879 0 0.42383495187878317 0.31556067175743879 0 0.41055087124743173 0.32600375581109792 0 0.40340273595425341 0.31559659934648798 0 0.42791621726700169 0.32879143304134523 0 0.42383495187878317 0.31556067175743879 0 0.41055087124743173 0.32600375581109792 0 0.42791621726700169 0.32879143304134523 0 0.41055087124743173 0.32600375581109792 0 0.41573308977752438 0.33555626801243049 0 0.41579906914660308 0.34558863425836939 0 0.42674279640308832 0.34105196318636161 0 0.41573308977752438 0.33555626801243049 0 0.41055087124743173 0.32600375581109792 0 0.41573308977752438 0.33555626801243049 0 0.40542178435513643 0.33655290389702941 0 0.41573308977752438 0.33555626801243049 0 0.41028542932793183 0.34061696112786211 0 0.40542178435513643 0.33655290389702941 0 0.41579906914660308 0.34558863425836939 0 0.41573308977752438 0.33555626801243049 0 0.41028542932793183 0.34061696112786211 0 0.41028542932793183 0.34061696112786211 0 0.40542178435513643 0.33655290389702941 0 0.40370242556569791 0.34616854713700729 0 0.41055087124743173 0.32600375581109792 0 0.40542178435513643 0.33655290389702941 0 0.39444683957720361 0.33497361366422801 0 0.40542178435513643 0.33655290389702941 0 0.39958209753026019 0.34049415776887137 0 0.39444683957720361 0.33497361366422801 0 0.40542178435513643 0.33655290389702941 0 0.39958209753026019 0.34049415776887137 0 0.40370242556569791 0.34616854713700729 0 0.39444683957720361 0.33497361366422801 0 0.39099523915189621 0.31971442110025788 0 0.38893512627428278 0.33262404417096869 0 0.39958209753026019 0.34049415776887137 0 0.39444683957720361 0.33497361366422801 0 0.39561922283928558 0.34635012702981838 0 0.39444683957720361 0.33497361366422801 0 0.40340273595425341 0.31559659934648798 0 0.39099523915189621 0.31971442110025788 0 0.39444683957720361 0.33497361366422801 0 0.40340273595425341 0.31559659934648798 0 0.41055087124743173 0.32600375581109792 0 0.39444683957720361 0.33497361366422801 0 0.40340273595425341 0.31559659934648798 0 0.37355828893919801 0.31406904318946938 0 0.39099523915189621 0.31971442110025788 0 0.37960851528568879 0.32580096223681221 0 0.39099523915189621 0.31971442110025788 0 0.37960851528568879 0.32580096223681221 0 0.38893512627428278 0.33262404417096869 0 0.39444683957720361 0.33497361366422801 0 0.38262086571026638 0.34175907232497499 0 0.38549094320015392 0.35435062798196792 0 0.37148228865019978 0.35115512767359319 0 0.37360930816772697 0.33500334687362232 0 0.38262086571026638 0.34175907232497499 0 0.39444683957720361 0.33497361366422801 0 0.38893512627428278 0.33262404417096869 0 0.38262086571026638 0.34175907232497499 0 0.37360930816772697 0.33500334687362232 0 0.37960851528568879 0.32580096223681221 0 0.38893512627428278 0.33262404417096869 0 0.37360930816772697 0.33500334687362232 0 0.38893512627428278 0.33262404417096869 0 0.37360930816772697 0.33500334687362232 0 0.38893512627428278 0.33262404417096869 0 0.38262086571026638 0.34175907232497499 0 0.39444683957720361 0.33497361366422801 0 0.38549094320015392 0.35435062798196792 0 0.37148228865019978 0.35115512767359319 0 0.38262086571026638 0.34175907232497499 0 0.38549094320015392 0.35435062798196792 0 0.38549094320015392 0.35435062798196792 0 0.38524691998039923 0.36614886634323102 0 0.39461387324907587 0.35473288866238661 0 0.37148228865019978 0.35115512767359319 0 0.38549094320015392 0.35435062798196792 0 0.38524691998039923 0.36614886634323102 0 0.37456973803530302 0.38139199705956128 0 0.38524691998039923 0.36614886634323102 0 0.38595184066193511 0.37617012105883108 0 0.38524691998039923 0.36614886634323102 0 0.39074560802765779 0.36729253629762798 0 0.38595184066193511 0.37617012105883108 0 0.39074560802765779 0.36729253629762798 0 0.39453301140125679 0.37917404785138281 0 0.38595184066193511 0.37617012105883108 0 0.38524691998039923 0.36614886634323102 0 0.39074560802765779 0.36729253629762798 0 0.38524691998039923 0.36614886634323102 0 0.39074560802765779 0.36729253629762798 0 0.40300985465984268 0.36064627481990991 0 0.38524691998039923 0.36614886634323102 0 0.40300985465984268 0.36064627481990991 0 0.39461387324907587 0.35473288866238661 0 0.38524691998039923 0.36614886634323102 0 0.40300985465984268 0.36064627481990991 0 0.39074560802765779 0.36729253629762798 0 0.40206241129070891 0.37136570532197027 0 0.39453301140125679 0.37917404785138281 0 0.39074560802765779 0.36729253629762798 0 0.40206241129070891 0.37136570532197027 0 0.40300985465984268 0.36064627481990991 0 0.39444683957720361 0.33497361366422801 0 0.38549094320015392 0.35435062798196792 0 0.39561922283928558 0.34635012702981838 0 0.40300985465984268 0.36064627481990991 0 0.40370242556569791 0.34616854713700729 0 0.39461387324907587 0.35473288866238661 0 0.39958209753026019 0.34049415776887137 0 0.40370242556569791 0.34616854713700729 0 0.39561922283928558 0.34635012702981838 0 0.40370242556569791 0.34616854713700729 0 0.39561922283928558 0.34635012702981838 0 0.39461387324907587 0.35473288866238661 0 0.38549094320015392 0.35435062798196792 0 0.39561922283928558 0.34635012702981838 0 0.39461387324907587 0.35473288866238661 0 0.39124364271818668 0.40322707466369889 0 0.39755850096232093 0.3898493031590537 0 0.38466392586505782 0.38684315774235423 0 0.39124364271818668 0.40322707466369889 0 0.39755850096232093 0.3898493031590537 0 0.40997066709403562 0.39799828032803569 0 0.39755850096232093 0.3898493031590537 0 0.40997066709403562 0.39799828032803569 0 0.40738125773306721 0.38200395520979658 0 0.39453301140125679 0.37917404785138281 0 0.39755850096232093 0.3898493031590537 0 0.40738125773306721 0.38200395520979658 0 0.40206241129070891 0.37136570532197027 0 0.39453301140125679 0.37917404785138281 0 0.40738125773306721 0.38200395520979658 0 0.39453301140125679 0.37917404785138281 0 0.39755850096232093 0.3898493031590537 0 0.38466392586505782 0.38684315774235423 0 0.39453301140125679 0.37917404785138281 0 0.38466392586505782 0.38684315774235423 0 0.38595184066193511 0.37617012105883108 0 0.37456973803530302 0.38139199705956128 0 0.38466392586505782 0.38684315774235423 0 0.38595184066193511 0.37617012105883108 0 0.37456973803530302 0.38139199705956128 0 0.38466392586505782 0.38684315774235423 0 0.37515320112216599 0.39444110959527667 0 0.37151667547236522 0.40731593792463089 0 0.39124364271818668 0.40322707466369889 0 0.37515320112216599 0.39444110959527667 0 0.39124364271818668 0.40322707466369889 0 0.38466392586505782 0.38684315774235423 0 0.37515320112216599 0.39444110959527667 0 0.37151667547236522 0.40731593792463089 0 0.39124364271818668 0.40322707466369889 0 0.38488852484373909 0.42186566976482193 0 0.36416890344821268 0.4270724543000024 0 0.38488852484373909 0.42186566976482193 0 0.38122367912334232 0.43895175051498048 0 0.38488852484373909 0.42186566976482193 0 0.39647284998262428 0.43646603895773511 0 0.38122367912334232 0.43895175051498048 0 0.38488852484373909 0.42186566976482193 0 0.39647284998262428 0.43646603895773511 0 0.4080287477857536 0.41989713052501931 0 0.39647284998262428 0.43646603895773511 0 0.4080287477857536 0.41989713052501931 0 0.41174527726749138 0.44240293731337382 0 0.39124364271818668 0.40322707466369889 0 0.4080287477857536 0.41989713052501931 0 0.40997066709403562 0.39799828032803569 0 0.39124364271818668 0.40322707466369889 0 0.38488852484373909 0.42186566976482193 0 0.4080287477857536 0.41989713052501931 0 0.4080287477857536 0.41989713052501931 0 0.428903932292166 0.40554042037680749 0 0.40997066709403562 0.39799828032803569 0 0.4080287477857536 0.41989713052501931 0 0.4294546127528342 0.42998080504460112 0 0.41174527726749138 0.44240293731337382 0 0.4080287477857536 0.41989713052501931 0 0.4294546127528342 0.42998080504460112 0 0.428903932292166 0.40554042037680749 0 0.4294546127528342 0.42998080504460112 0 0.428903932292166 0.40554042037680749 0 0.4294546127528342 0.42998080504460112 0 0.428903932292166 0.40554042037680749 0 0.44072555405538411 0.42151859950197529 0 0.428903932292166 0.40554042037680749 0 0.42835325183149769 0.38110003570901407 0 0.44440571646814891 0.39720030853198091 0 0.428903932292166 0.40554042037680749 0 0.42835325183149769 0.38110003570901407 0 0.428903932292166 0.40554042037680749 0 0.40997066709403562 0.39799828032803569 0 0.42835325183149769 0.38110003570901407 0 0.41464232463172002 0.3677117124311341 0 0.40738125773306721 0.38200395520979658 0 0.42835325183149769 0.38110003570901407 0 0.40997066709403562 0.39799828032803569 0 0.40738125773306721 0.38200395520979658 0 0.42835325183149769 0.38110003570901407 0 0.42835325183149769 0.38110003570901407 0 0.44458204416943481 0.38231751391918373 0 0.44440571646814891 0.39720030853198091 0 0.44383545502537092 0.3706520901965536 0 0.42835325183149769 0.38110003570901407 0 0.44458204416943481 0.38231751391918373 0 0.44458204416943481 0.38231751391918373 0 0.44440571646814891 0.39720030853198091 0 0.45552192554761489 0.38659078054893647 0 0.44383545502537092 0.3706520901965536 0 0.44458204416943481 0.38231751391918373 0 0.45139417975576102 0.37595483366699839 0 0.44458204416943481 0.38231751391918373 0 0.45139417975576102 0.37595483366699839 0 0.45552192554761489 0.38659078054893647 0 0.428903932292166 0.40554042037680749 0 0.44440571646814891 0.39720030853198091 0 0.45101709272496981 0.41129906930395599 0 0.44440571646814891 0.39720030853198091 0 0.45897381758733069 0.39802416669118662 0 0.45552192554761489 0.38659078054893647 0 0.44440571646814891 0.39720030853198091 0 0.45897381758733069 0.39802416669118662 0 0.45101709272496981 0.41129906930395599 0 0.45897381758733069 0.39802416669118662 0 0.4675583969290637 0.38703314918054488 0 0.4760293965644089 0.39886835570714868 0 0.45897381758733069 0.39802416669118662 0 0.4760293965644089 0.39886835570714868 0 0.45101709272496981 0.41129906930395599 0 0.45897381758733069 0.39802416669118662 0 0.4760293965644089 0.39886835570714868 0 0.45139417975576102 0.37595483366699839 0 0.46033483767153838 0.37614347190105257 0 0.45552192554761489 0.38659078054893647 0 0.45897381758733069 0.39802416669118662 0 0.45552192554761489 0.38659078054893647 0 0.4675583969290637 0.38703314918054488 0 0.46033483767153838 0.37614347190105257 0 0.45552192554761489 0.38659078054893647 0 0.4675583969290637 0.38703314918054488 0 0.47229015429969962 0.37473130044258118 0 0.46033483767153838 0.37614347190105257 0 0.4675583969290637 0.38703314918054488 0 0.48049935295033619 0.38227310855918822 0 0.4760293965644089 0.39886835570714868 0 0.4675583969290637 0.38703314918054488 0 0.48049935295033619 0.38227310855918822 0 0.4760293965644089 0.39886835570714868 0 0.47229015429969962 0.37473130044258118 0 0.4675583969290637 0.38703314918054488 0 0.48049935295033619 0.38227310855918822 0 0.48049935295033619 0.38227310855918822 0 0.4760293965644089 0.39886835570714868 0 0.50000000000000111 0.40005481323834791 0 0.4760293965644089 0.39886835570714868 0 0.50000000000000111 0.40005481323834791 0 0.48606240699301201 0.41259198193004371 0 0.4760293965644089 0.39886835570714868 0 0.50000000000000111 0.40005481323834791 0 0.5 0.37314352891818908 0 0.48049935295033619 0.38227310855918822 0 0.50000000000000111 0.40005481323834791 0 0.5 0.42358394439302338 0 0.46822023140763802 0.42786081438165469 0 0.48260152579442089 0.44488975888157212 0 0.5 0.42358394439302338 0 0.48606240699301201 0.41259198193004371 0 0.46822023140763802 0.42786081438165469 0 0.50000000000000111 0.40005481323834791 0 0.5 0.42358394439302338 0 0.48606240699301201 0.41259198193004371 0 0.4760293965644089 0.39886835570714868 0 0.48606240699301201 0.41259198193004371 0 0.46822023140763802 0.42786081438165469 0 0.4760293965644089 0.39886835570714868 0 0.46822023140763802 0.42786081438165469 0 0.46822023140763802 0.42786081438165469 0 0.45101709272496981 0.41129906930395599 0 0.44795563360275109 0.435010729537466 0 0.4760293965644089 0.39886835570714868 0 0.46822023140763802 0.42786081438165469 0 0.45101709272496981 0.41129906930395599 0 0.428903932292166 0.40554042037680749 0 0.44072555405538411 0.42151859950197529 0 0.45101709272496981 0.41129906930395599 0 0.44072555405538411 0.42151859950197529 0 0.45101709272496981 0.41129906930395599 0 0.44795563360275109 0.435010729537466 0 0.45101709272496981 0.41129906930395599 0 0.44795563360275109 0.435010729537466 0 0.4294546127528342 0.42998080504460112 0 0.44072555405538411 0.42151859950197529 0 0.44795563360275109 0.435010729537466 0 0.44795563360275109 0.435010729537466 0 0.44489417448053259 0.4587223897709759 0 0.43000529321350239 0.45442118971239448 0 0.44795563360275109 0.435010729537466 0 0.44489417448053259 0.4587223897709759 0 0.44795563360275109 0.435010729537466 0 0.44489417448053259 0.4587223897709759 0 0.46041106625086742 0.45685327305616069 0 0.44489417448053259 0.4587223897709759 0 0.46041106625086742 0.45685327305616069 0 0.45260190109409759 0.48584573173066692 0 0.46822023140763802 0.42786081438165469 0 0.44795563360275109 0.435010729537466 0 0.46041106625086742 0.45685327305616069 0 0.46822023140763802 0.42786081438165469 0 0.46041106625086742 0.45685327305616069 0 0.46822023140763802 0.42786081438165469 0 0.46041106625086742 0.45685327305616069 0 0.48260152579442089 0.44488975888157212 0 0.46041106625086742 0.45685327305616069 0 0.48437633131359692 0.4690376870293218 0 0.46653549032143837 0.47567474758177342 0 0.46041106625086742 0.45685327305616069 0 0.48260152579442089 0.44488975888157212 0 0.48437633131359692 0.4690376870293218 0 0.48260152579442089 0.44488975888157212 0 0.50000000000000133 0.44711307554769891 0 0.48437633131359692 0.4690376870293218 0 0.50000000000000133 0.44711307554769891 0 0.48437633131359692 0.4690376870293218 0 0.5 0.42358394439302338 0 0.48260152579442089 0.44488975888157212 0 0.50000000000000133 0.44711307554769891 0 0.50000000000000133 0.44711307554769891 0 0.5 0.5 0 0.48437633131359692 0.4690376870293218 0 0.5 0.5 0 0.48104914342719152 0.4948578278360895 0 0.46231231800033129 0.50000000000000078 0 0.5 0.5 0 0.48437633131359692 0.4690376870293218 0 0.48104914342719152 0.4948578278360895 0 0.48437633131359692 0.4690376870293218 0 0.46875266262719151 0.49096229851094408 0 0.48437633131359692 0.4690376870293218 0 0.46875266262719151 0.49096229851094408 0 0.46653549032143837 0.47567474758177342 0 0.46875266262719151 0.49096229851094408 0 0.48104914342719152 0.4948578278360895 0 0.46231231800033129 0.50000000000000078 0 0.48437633131359692 0.4690376870293218 0 0.46875266262719151 0.49096229851094408 0 0.48104914342719152 0.4948578278360895 0 0.46875266262719151 0.49096229851094408 0 0.48104914342719152 0.4948578278360895 0 0.46875266262719151 0.49096229851094408 0 0.45260190109409759 0.48584573173066692 0 0.46875266262719151 0.49096229851094408 0 0.46231231800033129 0.50000000000000078 0 0.46875266262719151 0.49096229851094408 0 0.46231231800033129 0.50000000000000078 0 0.45260190109409759 0.48584573173066692 0 0.46231231800033129 0.50000000000000078 0 0.44878942627678781 0.49999999999999772 0 0.45260190109409759 0.48584573173066692 0 0.46041106625086742 0.45685327305616069 0 0.45260190109409759 0.48584573173066692 0 0.46041106625086742 0.45685327305616069 0 0.46653549032143837 0.47567474758177342 0 0.45260190109409759 0.48584573173066692 0 0.46875266262719151 0.49096229851094408 0 0.46653549032143837 0.47567474758177342 0 0.45260190109409759 0.48584573173066692 0 0.44489417448053259 0.4587223897709759 0 0.44183271535831381 0.4824340500044858 0 0.45260190109409759 0.48584573173066692 0 0.44489417448053259 0.4587223897709759 0 0.44183271535831381 0.4824340500044858 0 0.43055597367417209 0.47886157438018812 0 0.44489417448053259 0.4587223897709759 0 0.44183271535831381 0.4824340500044858 0 0.44183271535831381 0.4824340500044858 0 0.45260190109409759 0.48584573173066692 0 0.44878942627678781 0.49999999999999772 0 0.44042983317417378 0.493299674652732 0 0.43103225578332482 0.49999999999999623 0 0.44878942627678781 0.49999999999999772 0 0.45260190109409759 0.48584573173066692 0 0.44878942627678781 0.49999999999999772 0 0.45260190109409759 0.48584573173066692 0 0.44042983317417378 0.493299674652732 0 0.44183271535831381 0.4824340500044858 0 0.45260190109409759 0.48584573173066692 0 0.44042983317417378 0.493299674652732 0 0.44183271535831381 0.4824340500044858 0 0.44042983317417378 0.493299674652732 0 0.44183271535831381 0.4824340500044858 0 0.44042983317417378 0.493299674652732 0 0.43055597367417209 0.47886157438018812 0 0.43103225578332482 0.49999999999999623 0 0.41812124575827719 0.48906341359345118 0 0.43055597367417209 0.47886157438018812 0 0.44042983317417378 0.493299674652732 0 0.43103225578332482 0.49999999999999623 0 0.43055597367417209 0.47886157438018812 0 0.43103225578332482 0.49999999999999623 0 0.43055597367417209 0.47886157438018812 0 0.43103225578332482 0.49999999999999623 0 0.41812124575827719 0.48906341359345118 0 0.40566100861595489 0.5 0 0.41812124575827719 0.48906341359345118 0 0.40566100861595489 0.5 0 0.40267391251257562 0.47002852786329319 0 0.43055597367417209 0.47886157438018812 0 0.40267391251257562 0.47002852786329319 0 0.43055597367417209 0.47886157438018812 0 0.41435907308321529 0.45875657913127987 0 0.40267391251257562 0.47002852786329319 0 0.41812124575827719 0.48906341359345118 0 0.43055597367417209 0.47886157438018812 0 0.40267391251257562 0.47002852786329319 0 0.44183271535831381 0.4824340500044858 0 0.43055597367417209 0.47886157438018812 0 0.43055597367417209 0.47886157438018812 0 0.43000529321350239 0.45442118971239448 0 0.43055597367417209 0.47886157438018812 0 0.43000529321350239 0.45442118971239448 0 0.41435907308321529 0.45875657913127987 0 0.44489417448053259 0.4587223897709759 0 0.43055597367417209 0.47886157438018812 0 0.43000529321350239 0.45442118971239448 0 0.4294546127528342 0.42998080504460112 0 0.43000529321350239 0.45442118971239448 0 0.4294546127528342 0.42998080504460112 0 0.44795563360275109 0.435010729537466 0 0.43000529321350239 0.45442118971239448 0 0.4294546127528342 0.42998080504460112 0 0.43000529321350239 0.45442118971239448 0 0.41174527726749138 0.44240293731337382 0 0.41174527726749138 0.44240293731337382 0 0.41435907308321529 0.45875657913127987 0 0.39273337127440822 0.454805413873486 0 0.43000529321350239 0.45442118971239448 0 0.41174527726749138 0.44240293731337382 0 0.41435907308321529 0.45875657913127987 0 0.39273337127440822 0.454805413873486 0 0.38580411359204531 0.48077386434603941 0 0.40267391251257562 0.47002852786329319 0 0.41435907308321529 0.45875657913127987 0 0.39273337127440822 0.454805413873486 0 0.40267391251257562 0.47002852786329319 0 0.39647284998262428 0.43646603895773511 0 0.41174527726749138 0.44240293731337382 0 0.39273337127440822 0.454805413873486 0 0.36843703055511617 0.45445870904313002 0 0.39273337127440822 0.454805413873486 0 0.38122367912334232 0.43895175051498048 0 0.39647284998262428 0.43646603895773511 0 0.39273337127440822 0.454805413873486 0 0.38122367912334232 0.43895175051498048 0 0.36843703055511617 0.45445870904313002 0 0.39273337127440822 0.454805413873486 0 0.38580411359204531 0.48077386434603941 0 0.38580411359204531 0.48077386434603941 0 0.3802897614485849 0.5 0 0.40566100861595489 0.5 0 0.36387763328550737 0.48008113127634777 0 0.38580411359204531 0.48077386434603941 0 0.3802897614485849 0.5 0 0.38580411359204531 0.48077386434603941 0 0.40566100861595489 0.5 0 0.40267391251257562 0.47002852786329319 0 0.33595220392303538 0.093262129509420311 0 0.3372819207801474 0.073972342496736981 0 0.35527870269098649 0.09267011997643114 0 0.33595220392303538 0.093262129509420311 0 0.3372819207801474 0.073972342496736981 0 0.32577354779779888 0.077805172178716714 0 0.3372819207801474 0.073972342496736981 0 0.31928513886930882 0.055274565017042303 0 0.3372819207801474 0.073972342496736981 0 0.31911186149721121 0.06761578123084383 0 0.31928513886930882 0.055274565017042303 0 0.3372819207801474 0.073972342496736981 0 0.32577354779779888 0.077805172178716714 0 0.31911186149721121 0.06761578123084383 0 0.31911186149721121 0.06761578123084383 0 0.31928513886930882 0.055274565017042303 0 0.30873334197797608 0.067865007252106493 0 0.31911186149721121 0.06761578123084383 0 0.31319194554837082 0.077100357113636775 0 0.30873334197797608 0.067865007252106493 0 0.32577354779779888 0.077805172178716714 0 0.31911186149721121 0.06761578123084383 0 0.31319194554837082 0.077100357113636775 0 0.32577354779779888 0.077805172178716714 0 0.31319194554837082 0.077100357113636775 0 0.31943642685580131 0.087861765893510232 0 0.33595220392303538 0.093262129509420311 0 0.32577354779779888 0.077805172178716714 0 0.31943642685580131 0.087861765893510232 0 0.31943642685580131 0.087861765893510232 0 0.31796875054163148 0.100365609951686 0 0.30429568646816962 0.090775560714091347 0 0.31796875054163148 0.100365609951686 0 0.3203035702638044 0.1165863940065279 0 0.30438628220225239 0.10645711740955589 0 0.33595220392303538 0.093262129509420311 0 0.31943642685580131 0.087861765893510232 0 0.31796875054163148 0.100365609951686 0 0.3203035702638044 0.1165863940065279 0 0.30359597155328372 0.12282326774352879 0 0.32431048765461618 0.13097412205690609 0 0.31796875054163148 0.100365609951686 0 0.3203035702638044 0.1165863940065279 0 0.33710215149459388 0.114868033997594 0 0.3203035702638044 0.1165863940065279 0 0.33710215149459388 0.114868033997594 0 0.32431048765461618 0.13097412205690609 0 0.33595220392303538 0.093262129509420311 0 0.31796875054163148 0.100365609951686 0 0.33710215149459388 0.114868033997594 0 0.33595220392303538 0.093262129509420311 0 0.33710215149459388 0.114868033997594 0 0.3551951861000982 0.11168727411896159 0 0.33595220392303538 0.093262129509420311 0 0.3551951861000982 0.11168727411896159 0 0.35527870269098649 0.09267011997643114 0 0.33710215149459388 0.114868033997594 0 0.3551951861000982 0.11168727411896159 0 0.3552353390837853 0.1311211250796985 0 0.3551951861000982 0.11168727411896159 0 0.37327548460182558 0.1113678974561253 0 0.37255982364045082 0.13075991920717381 0 0.3551951861000982 0.11168727411896159 0 0.3552353390837853 0.1311211250796985 0 0.37255982364045082 0.13075991920717381 0 0.37327548460182558 0.1113678974561253 0 0.35527870269098649 0.09267011997643114 0 0.3551951861000982 0.11168727411896159 0 0.37327548460182558 0.1113678974561253 0 0.35527870269098649 0.09267011997643114 0 0.37327548460182558 0.1113678974561253 0 0.35527870269098649 0.09267011997643114 0 0.38014645982606732 0.09027587587142484 0 0.36069574398586229 0.07290716682734652 0 0.37830890906235759 0.075109030043237643 0 0.38014645982606732 0.09027587587142484 0 0.36069574398586229 0.07290716682734652 0 0.38014645982606732 0.09027587587142484 0 0.35527870269098649 0.09267011997643114 0 0.36069574398586229 0.07290716682734652 0 0.38014645982606732 0.09027587587142484 0 0.3372819207801474 0.073972342496736981 0 0.35527870269098649 0.09267011997643114 0 0.3372819207801474 0.073972342496736981 0 0.35527870269098649 0.09267011997643114 0 0.36069574398586229 0.07290716682734652 0 0.36069574398586229 0.07290716682734652 0 0.34124502814565749 0.055538457783268207 0 0.3372819207801474 0.073972342496736981 0 0.36069574398586229 0.07290716682734652 0 0.34124502814565749 0.055538457783268207 0 0.36069574398586229 0.07290716682734652 0 0.37830890906235759 0.075109030043237643 0 0.37861700854773539 0.056586702579697792 0 0.36123578576608151 0.056790014374085859 0 0.35605506134215431 0.044400213490005308 0 0.37861700854773539 0.056586702579697792 0 0.36069574398586229 0.07290716682734652 0 0.36123578576608151 0.056790014374085859 0 0.37861700854773539 0.056586702579697792 0 0.36345759320570542 0.032507030264914138 0 0.37861700854773539 0.056586702579697792 0 0.36345759320570542 0.032507030264914138 0 0.37830796774458419 0.036928202919997058 0 0.37861700854773539 0.056586702579697792 0 0.36345759320570542 0.032507030264914138 0 0.35605506134215431 0.044400213490005308 0 0.37861700854773539 0.056586702579697792 0 0.35605506134215431 0.044400213490005308 0 0.34358143221371518 0.048180872308715157 0 0.34032096977880649 0.033147382795080768 0 0.36345759320570542 0.032507030264914138 0 0.35605506134215431 0.044400213490005308 0 0.34032096977880649 0.033147382795080768 0 0.36069574398586229 0.07290716682734652 0 0.36123578576608151 0.056790014374085859 0 0.35256261029069419 0.055563344956684232 0 0.35605506134215431 0.044400213490005308 0 0.35256261029069419 0.055563344956684232 0 0.34358143221371518 0.048180872308715157 0 0.35256261029069419 0.055563344956684232 0 0.34124502814565749 0.055538457783268207 0 0.34358143221371518 0.048180872308715157 0 0.36069574398586229 0.07290716682734652 0 0.35256261029069419 0.055563344956684232 0 0.34124502814565749 0.055538457783268207 0 0.36123578576608151 0.056790014374085859 0 0.35605506134215431 0.044400213490005308 0 0.35256261029069419 0.055563344956684232 0 0.37447597730174847 0.0095799553022342526 0 0.34829817786367551 0.0084273579501304846 0 0.35931857102837611 -0.010168671154215349 0 0.36345759320570542 0.032507030264914138 0 0.37447597730174847 0.0095799553022342526 0 0.37830796774458419 0.036928202919997058 0 0.36345759320570542 0.032507030264914138 0 0.37447597730174847 0.0095799553022342526 0 0.34829817786367551 0.0084273579501304846 0 0.36345759320570542 0.032507030264914138 0 0.34829817786367551 0.0084273579501304846 0 0.36345759320570542 0.032507030264914138 0 0.34829817786367551 0.0084273579501304846 0 0.34032096977880649 0.033147382795080768 0 0.34829817786367551 0.0084273579501304846 0 0.33031478758935878 0.021463516130418879 0 0.31839539554110913 0.0037088833068538809 0 0.34829817786367551 0.0084273579501304846 0 0.33031478758935878 0.021463516130418879 0 0.34032096977880649 0.033147382795080768 0 0.33031478758935878 0.021463516130418879 0 0.34032096977880649 0.033147382795080768 0 0.32842142987820239 0.032376670609310321 0 0.33031478758935878 0.021463516130418879 0 0.3194165026362884 0.028966150309424569 0 0.32842142987820239 0.032376670609310321 0 0.3194165026362884 0.028966150309424569 0 0.31485103925962238 0.018783785903549201 0 0.30799760042916619 0.029049738847059279 0 0.33031478758935878 0.021463516130418879 0 0.3194165026362884 0.028966150309424569 0 0.31485103925962238 0.018783785903549201 0 0.33031478758935878 0.021463516130418879 0 0.31485103925962238 0.018783785903549201 0 0.31839539554110913 0.0037088833068538809 0 0.34358143221371518 0.048180872308715157 0 0.31928513886930882 0.055274565017042303 0 0.3372819207801474 0.073972342496736981 0 0.34124502814565749 0.055538457783268207 0 0.31928513886930882 0.055274565017042303 0 0.34358143221371518 0.048180872308715157 0 0.32486243109622548 0.048465372471063362 0 0.31928513886930882 0.055274565017042303 0 0.34124502814565749 0.055538457783268207 0 0.34358143221371518 0.048180872308715157 0 0.31928513886930882 0.055274565017042303 0 0.34358143221371518 0.048180872308715157 0 0.33030572593673468 0.04118883260294437 0 0.32486243109622548 0.048465372471063362 0 0.34358143221371518 0.048180872308715157 0 0.34032096977880649 0.033147382795080768 0 0.33030572593673468 0.04118883260294437 0 0.34032096977880649 0.033147382795080768 0 0.32842142987820239 0.032376670609310321 0 0.33030572593673468 0.04118883260294437 0 0.33030572593673468 0.04118883260294437 0 0.32225035308107408 0.043892111516705537 0 0.32184183198527372 0.038067575541186872 0 0.33030572593673468 0.04118883260294437 0 0.32225035308107408 0.043892111516705537 0 0.32486243109622548 0.048465372471063362 0 0.32842142987820239 0.032376670609310321 0 0.33030572593673468 0.04118883260294437 0 0.32184183198527372 0.038067575541186872 0 0.3194165026362884 0.028966150309424569 0 0.32842142987820239 0.032376670609310321 0 0.32184183198527372 0.038067575541186872 0 0.3194165026362884 0.028966150309424569 0 0.32184183198527372 0.038067575541186872 0 0.31329473116118772 0.036335865223032088 0 0.3194165026362884 0.028966150309424569 0 0.31329473116118772 0.036335865223032088 0 0.30799760042916619 0.029049738847059279 0 0.32184183198527372 0.038067575541186872 0 0.31329473116118772 0.036335865223032088 0 0.31608846144422881 0.043318400234978773 0 0.32225035308107408 0.043892111516705537 0 0.31608846144422881 0.043318400234978773 0 0.31815331494290777 0.048420376733354309 0 0.32225035308107408 0.043892111516705537 0 0.32184183198527372 0.038067575541186872 0 0.31608846144422881 0.043318400234978773 0 0.31329473116118772 0.036335865223032088 0 0.31608846144422881 0.043318400234978773 0 0.31006600963431158 0.043019648965111623 0 0.31707215932042859 0.052975387343108561 0 0.31815331494290777 0.048420376733354309 0 0.31036015736888112 0.049557674022507943 0 0.31608846144422881 0.043318400234978773 0 0.31815331494290777 0.048420376733354309 0 0.31036015736888112 0.049557674022507943 0 0.31968368489557258 0.051288521624634688 0 0.31707215932042859 0.052975387343108561 0 0.31815331494290777 0.048420376733354309 0 0.31968368489557258 0.051288521624634688 0 0.31707215932042859 0.052975387343108561 0 0.31928513886930882 0.055274565017042303 0 0.31707215932042859 0.052975387343108561 0 0.31928513886930882 0.055274565017042303 0 0.31968368489557258 0.051288521624634688 0 0.31815331494290777 0.048420376733354309 0 0.32486243109622548 0.048465372471063362 0 0.32225035308107408 0.043892111516705537 0 0.31815331494290777 0.048420376733354309 0 0.32486243109622548 0.048465372471063362 0 0.31968368489557258 0.051288521624634688 0 0.32486243109622548 0.048465372471063362 0 0.31928513886930882 0.055274565017042303 0 0.31707215932042859 0.052975387343108561 0 0.31928513886930882 0.055274565017042303 0 0.29201026972960947 0.063237900724025645 0 0.31036015736888112 0.049557674022507943 0 0.30520691267028688 0.046698957123246503 0 0.29201026972960947 0.063237900724025645 0 0.30520691267028688 0.046698957123246503 0 0.300066229102954 0.044836298186194168 0 0.29201026972960947 0.063237900724025645 0 0.31928513886930882 0.055274565017042303 0 0.29201026972960947 0.063237900724025645 0 0.30873334197797608 0.067865007252106493 0 0.31707215932042859 0.052975387343108561 0 0.31036015736888112 0.049557674022507943 0 0.29201026972960947 0.063237900724025645 0 0.31928513886930882 0.055274565017042303 0 0.29201026972960947 0.063237900724025645 0 0.31608846144422881 0.043318400234978773 0 0.31036015736888112 0.049557674022507943 0 0.31006600963431158 0.043019648965111623 0 0.31329473116118772 0.036335865223032088 0 0.31006600963431158 0.043019648965111623 0 0.30537978552697342 0.039187348221792817 0 0.31006600963431158 0.043019648965111623 0 0.30537978552697342 0.039187348221792817 0 0.30520691267028688 0.046698957123246503 0 0.31036015736888112 0.049557674022507943 0 0.31006600963431158 0.043019648965111623 0 0.30520691267028688 0.046698957123246503 0 0.31329473116118772 0.036335865223032088 0 0.30537978552697342 0.039187348221792817 0 0.30799760042916619 0.029049738847059279 0 0.30537978552697342 0.039187348221792817 0 0.29571549408532882 0.038404429493695519 0 0.30799760042916619 0.029049738847059279 0 0.30537978552697342 0.039187348221792817 0 0.300066229102954 0.044836298186194168 0 0.29571549408532882 0.038404429493695519 0 0.30537978552697342 0.039187348221792817 0 0.30520691267028688 0.046698957123246503 0 0.300066229102954 0.044836298186194168 0 0.28958303197759527 0.032285172146856597 0 0.29571549408532882 0.038404429493695519 0 0.28493576973993973 0.043074939078468343 0 0.28958303197759527 0.032285172146856597 0 0.28493576973993973 0.043074939078468343 0 0.27575360852511072 0.039531336107618283 0 0.28493576973993973 0.043074939078468343 0 0.27530526052127341 0.04980319360198484 0 0.29201026972960947 0.063237900724025645 0 0.300066229102954 0.044836298186194168 0 0.29571549408532882 0.038404429493695519 0 0.29201026972960947 0.063237900724025645 0 0.29571549408532882 0.038404429493695519 0 0.28493576973993973 0.043074939078468343 0 0.29201026972960947 0.063237900724025645 0 0.29571549408532882 0.038404429493695519 0 0.29201026972960947 0.063237900724025645 0 0.31839539554110913 0.0037088833068538809 0 0.29942071844104678 0.01357095826336532 0 0.30312594279676469 -0.01126251296696487 0 0.29942071844104678 0.01357095826336532 0 0.30312594279676469 -0.01126251296696487 0 0.31485103925962238 0.018783785903549201 0 0.31839539554110913 0.0037088833068538809 0 0.29942071844104678 0.01357095826336532 0 0.29571549408532882 0.038404429493695519 0 0.29942071844104678 0.01357095826336532 0 0.29571549408532882 0.038404429493695519 0 0.29942071844104678 0.01357095826336532 0 0.30799760042916619 0.029049738847059279 0 0.31485103925962238 0.018783785903549201 0 0.29942071844104678 0.01357095826336532 0 0.30799760042916619 0.029049738847059279 0 0.28958303197759527 0.032285172146856597 0 0.29942071844104678 0.01357095826336532 0 0.27933685592591417 0.014749632179179911 0 0.28958303197759527 0.032285172146856597 0 0.29571549408532882 0.038404429493695519 0 0.29942071844104678 0.01357095826336532 0 0.29942071844104678 0.01357095826336532 0 0.27933685592591417 0.014749632179179911 0 0.28624791255345389 -0.0025993173291637851 0 0.27933685592591417 0.014749632179179911 0 0.26943033477865169 -0.01137929120961546 0 0.28624791255345389 -0.0025993173291637851 0 0.27933685592591417 0.014749632179179911 0 0.25843576353106312 0.0091558391233349454 0 0.26943033477865169 -0.01137929120961546 0 0.27933685592591417 0.014749632179179911 0 0.2674592406239597 0.01941164915598733 0 0.25843576353106312 0.0091558391233349454 0 0.28958303197759527 0.032285172146856597 0 0.27933685592591417 0.014749632179179911 0 0.26851211213053378 0.030988070801569911 0 0.27933685592591417 0.014749632179179911 0 0.2674592406239597 0.01941164915598733 0 0.26851211213053378 0.030988070801569911 0 0.24744119228347231 0.029690969456284209 0 0.26851211213053378 0.030988070801569911 0 0.24744119228347231 0.029690969456284209 0 0.26851211213053378 0.030988070801569911 0 0.26025939886539401 0.022374318938269331 0 0.24744119228347231 0.029690969456284209 0 0.25843576353106312 0.0091558391233349454 0 0.24744119228347231 0.029690969456284209 0 0.26025939886539401 0.022374318938269331 0 0.25843576353106312 0.0091558391233349454 0 0.2674592406239597 0.01941164915598733 0 0.26851211213053378 0.030988070801569911 0 0.26025939886539401 0.022374318938269331 0 0.2674592406239597 0.01941164915598733 0 0.26025939886539401 0.022374318938269331 0 0.25843576353106312 0.0091558391233349454 0 0.25843576353106312 0.0091558391233349454 0 0.25421330537797993 -0.0064747013630946093 0 0.24005759833730889 -0.00091445705150014652 0 0.27530526052127341 0.04980319360198484 0 0.26159613889583522 0.053672227563851788 0 0.26648809423090591 0.070689509398208325 0 0.27530526052127341 0.04980319360198484 0 0.26648809423090591 0.070689509398208325 0 0.29201026972960947 0.063237900724025645 0 0.27530526052127341 0.04980319360198484 0 0.2604318682562114 0.041505304909211699 0 0.26159613889583522 0.053672227563851788 0 0.28493576973993973 0.043074939078468343 0 0.27530526052127341 0.04980319360198484 0 0.27575360852511072 0.039531336107618283 0 0.28958303197759527 0.032285172146856597 0 0.26851211213053378 0.030988070801569911 0 0.27575360852511072 0.039531336107618283 0 0.28958303197759527 0.032285172146856597 0 0.26851211213053378 0.030988070801569911 0 0.26851211213053378 0.030988070801569911 0 0.27575360852511072 0.039531336107618283 0 0.2604318682562114 0.041505304909211699 0 0.27530526052127341 0.04980319360198484 0 0.2604318682562114 0.041505304909211699 0 0.27530526052127341 0.04980319360198484 0 0.27575360852511072 0.039531336107618283 0 0.2604318682562114 0.041505304909211699 0 0.24744119228347231 0.029690969456284209 0 0.26851211213053378 0.030988070801569911 0 0.2604318682562114 0.041505304909211699 0 0.24555847599115399 0.033207416216430273 0 0.2604318682562114 0.041505304909211699 0 0.24555847599115399 0.033207416216430273 0 0.24744119228347231 0.029690969456284209 0 0.2604318682562114 0.041505304909211699 0 0.24555847599115399 0.033207416216430273 0 0.2604318682562114 0.041505304909211699 0 0.25029940785347599 0.047571772133718992 0 0.2604318682562114 0.041505304909211699 0 0.25029940785347599 0.047571772133718992 0 0.26159613889583522 0.053672227563851788 0 0.26159613889583522 0.053672227563851788 0 0.25133989080314079 0.059719491021616368 0 0.26648809423090591 0.070689509398208325 0 0.25029940785347599 0.047571772133718992 0 0.26159613889583522 0.053672227563851788 0 0.25133989080314079 0.059719491021616368 0 0.2409659187322033 0.078141118072394308 0 0.25133989080314079 0.059719491021616368 0 0.26648809423090591 0.070689509398208325 0 0.2409659187322033 0.078141118072394308 0 0.26648809423090591 0.070689509398208325 0 0.2409659187322033 0.078141118072394308 0 0.26648809423090591 0.070689509398208325 0 0.25814072779734848 0.095593975415470503 0 0.27488608452821128 0.093618264237804311 0 0.26648809423090591 0.070689509398208325 0 0.28884900033212541 0.084425630560851256 0 0.27488608452821128 0.093618264237804311 0 0.26648809423090591 0.070689509398208325 0 0.25814072779734848 0.095593975415470503 0 0.26648809423090591 0.070689509398208325 0 0.29201026972960947 0.063237900724025645 0 0.29201026972960947 0.063237900724025645 0 0.28884900033212541 0.084425630560851256 0 0.26648809423090591 0.070689509398208325 0 0.29201026972960947 0.063237900724025645 0 0.28884900033212541 0.084425630560851256 0 0.29201026972960947 0.063237900724025645 0 0.28884900033212541 0.084425630560851256 0 0.30088002793281088 0.076854301933372449 0 0.28884900033212541 0.084425630560851256 0 0.30429568646816962 0.090775560714091347 0 0.28568773093463989 0.1056133603976767 0 0.28884900033212541 0.084425630560851256 0 0.30429568646816962 0.090775560714091347 0 0.30088002793281088 0.076854301933372449 0 0.31319194554837082 0.077100357113636775 0 0.30429568646816962 0.090775560714091347 0 0.30088002793281088 0.076854301933372449 0 0.31319194554837082 0.077100357113636775 0 0.31943642685580131 0.087861765893510232 0 0.30429568646816962 0.090775560714091347 0 0.29201026972960947 0.063237900724025645 0 0.30873334197797608 0.067865007252106493 0 0.30088002793281088 0.076854301933372449 0 0.31319194554837082 0.077100357113636775 0 0.30873334197797608 0.067865007252106493 0 0.30088002793281088 0.076854301933372449 0 0.30359597155328372 0.12282326774352879 0 0.30438628220225239 0.10645711740955589 0 0.28568773093463989 0.1056133603976767 0 0.3203035702638044 0.1165863940065279 0 0.30359597155328372 0.12282326774352879 0 0.30438628220225239 0.10645711740955589 0 0.30429568646816962 0.090775560714091347 0 0.30438628220225239 0.10645711740955589 0 0.28568773093463989 0.1056133603976767 0 0.31796875054163148 0.100365609951686 0 0.30429568646816962 0.090775560714091347 0 0.30438628220225239 0.10645711740955589 0 0.28884900033212541 0.084425630560851256 0 0.28568773093463989 0.1056133603976767 0 0.27488608452821128 0.093618264237804311 0 0.28884900033212541 0.084425630560851256 0 0.28568773093463989 0.1056133603976767 0 0.28568773093463989 0.1056133603976767 0 0.28252646153715449 0.12680109023450209 0 0.30359597155328372 0.12282326774352879 0 0.28568773093463989 0.1056133603976767 0 0.28252646153715449 0.12680109023450209 0 0.28568773093463989 0.1056133603976767 0 0.26980799928098798 0.11484587969162389 0 0.28252646153715449 0.12680109023450209 0 0.27488608452821128 0.093618264237804311 0 0.28568773093463989 0.1056133603976767 0 0.26980799928098798 0.11484587969162389 0 0.27488608452821128 0.093618264237804311 0 0.26980799928098798 0.11484587969162389 0 0.25814072779734848 0.095593975415470503 0 0.24003717726993551 0.099918932080049289 0 0.25814072779734848 0.095593975415470503 0 0.25506529490587471 0.118603174993655 0 0.26980799928098798 0.11484587969162389 0 0.25814072779734848 0.095593975415470503 0 0.25506529490587471 0.118603174993655 0 0.26980799928098798 0.11484587969162389 0 0.25506529490587471 0.118603174993655 0 0.2577633164002 0.13052228886072589 0 0.2577633164002 0.13052228886072589 0 0.26976896942005463 0.13505840934678759 0 0.252293322710193 0.14272742791269041 0 0.24509620270052029 0.12967906857116551 0 0.25506529490587471 0.118603174993655 0 0.2577633164002 0.13052228886072589 0 0.24509620270052029 0.12967906857116551 0 0.2577633164002 0.13052228886072589 0 0.252293322710193 0.14272742791269041 0 0.26980799928098798 0.11484587969162389 0 0.26976896942005463 0.13505840934678759 0 0.28252646153715449 0.12680109023450209 0 0.26980799928098798 0.11484587969162389 0 0.2577633164002 0.13052228886072589 0 0.26976896942005463 0.13505840934678759 0 0.26976896942005463 0.13505840934678759 0 0.28252646153715449 0.12680109023450209 0 0.28224508650419078 0.14095612381612491 0 0.26976896942005463 0.13505840934678759 0 0.27418256388682882 0.15328584879022419 0 0.28224508650419078 0.14095612381612491 0 0.27418256388682882 0.15328584879022419 0 0.252293322710193 0.14272742791269041 0 0.24925024078985389 0.15478675394773139 0 0.27418256388682882 0.15328584879022419 0 0.252293322710193 0.14272742791269041 0 0.26976896942005463 0.13505840934678759 0 0.27418256388682882 0.15328584879022419 0 0.252293322710193 0.14272742791269041 0 0.24925024078985389 0.15478675394773139 0 0.25625769999760112 0.16697938644338561 0 0.26348700835945699 0.16686864507211749 0 0.24925024078985389 0.15478675394773139 0 0.26348700835945699 0.16686864507211749 0 0.27337016715316631 0.16479548165953661 0 0.24784934954833149 0.16614280917059021 0 0.24925024078985389 0.15478675394773139 0 0.25625769999760112 0.16697938644338561 0 0.24925024078985389 0.15478675394773139 0 0.27337016715316631 0.16479548165953661 0 0.24925024078985389 0.15478675394773139 0 0.27418256388682882 0.15328584879022419 0 0.27337016715316631 0.16479548165953661 0 0.25625769999760112 0.16697938644338561 0 0.25553829716495569 0.1748177732503223 0 0.26161231562463427 0.17249967829312871 0 0.24784934954833149 0.16614280917059021 0 0.25625769999760112 0.16697938644338561 0 0.25553829716495569 0.1748177732503223 0 0.25625769999760112 0.16697938644338561 0 0.26348700835945699 0.16686864507211749 0 0.26161231562463427 0.17249967829312871 0 0.26348700835945699 0.16686864507211749 0 0.26161231562463427 0.17249967829312871 0 0.26819930752265342 0.17343785053084851 0 0.24876004431712601 0.19146109645531589 0 0.24766329858608541 0.17908959816882719 0 0.25633911546594729 0.18435234298515099 0 0.24766329858608541 0.17908959816882719 0 0.24784934954833149 0.16614280917059021 0 0.25553829716495569 0.1748177732503223 0 0.24766329858608541 0.17908959816882719 0 0.25633911546594729 0.18435234298515099 0 0.25553829716495569 0.1748177732503223 0 0.25553829716495569 0.1748177732503223 0 0.26161231562463427 0.17249967829312871 0 0.26350800376713468 0.17984282444085101 0 0.25633911546594729 0.18435234298515099 0 0.25553829716495569 0.1748177732503223 0 0.26350800376713468 0.17984282444085101 0 0.26161231562463427 0.17249967829312871 0 0.26350800376713468 0.17984282444085101 0 0.26819930752265342 0.17343785053084851 0 0.25633911546594729 0.18435234298515099 0 0.26350800376713468 0.17984282444085101 0 0.26351851259685311 0.18732917652601741 0 0.26350800376713468 0.17984282444085101 0 0.26351851259685311 0.18732917652601741 0 0.27020234473533011 0.18521209001234859 0 0.26350800376713468 0.17984282444085101 0 0.27020234473533011 0.18521209001234859 0 0.27066669734496968 0.17910095843286969 0 0.27020234473533011 0.18521209001234859 0 0.27066669734496968 0.17910095843286969 0 0.27628948998810188 0.18331311537517461 0 0.27066669734496968 0.17910095843286969 0 0.2727079790138579 0.17478855905979909 0 0.27661430710453078 0.17778807995783469 0 0.26350800376713468 0.17984282444085101 0 0.27066669734496968 0.17910095843286969 0 0.26819930752265342 0.17343785053084851 0 0.2727079790138579 0.17478855905979909 0 0.27551714943074651 0.17284223541063931 0 0.27156376634413171 0.16990534085174711 0 0.26819930752265342 0.17343785053084851 0 0.2727079790138579 0.17478855905979909 0 0.27156376634413171 0.16990534085174711 0 0.27066669734496968 0.17910095843286969 0 0.26819930752265342 0.17343785053084851 0 0.2727079790138579 0.17478855905979909 0 0.2727079790138579 0.17478855905979909 0 0.27551714943074651 0.17284223541063931 0 0.27661430710453078 0.17778807995783469 0 0.27551714943074651 0.17284223541063931 0 0.28037423465397388 0.17480485770465981 0 0.2774420927347751 0.171036485938728 0 0.27551714943074651 0.17284223541063931 0 0.28037423465397388 0.17480485770465981 0 0.27661430710453078 0.17778807995783469 0 0.28037423465397388 0.17480485770465981 0 0.27661430710453078 0.17778807995783469 0 0.28151149929727021 0.1804678872082808 0 0.27066669734496968 0.17910095843286969 0 0.27661430710453078 0.17778807995783469 0 0.27628948998810188 0.18331311537517461 0 0.27661430710453078 0.17778807995783469 0 0.27628948998810188 0.18331311537517461 0 0.28151149929727021 0.1804678872082808 0 0.27628948998810188 0.18331311537517461 0 0.28167095190631869 0.18627951096883461 0 0.28151149929727021 0.1804678872082808 0 0.27628948998810188 0.18331311537517461 0 0.28167095190631869 0.18627951096883461 0 0.2770711395401923 0.19103016567087919 0 0.27020234473533011 0.18521209001234859 0 0.27628948998810188 0.18331311537517461 0 0.2770711395401923 0.19103016567087919 0 0.26348700835945699 0.16686864507211749 0 0.27156376634413171 0.16990534085174711 0 0.27337016715316631 0.16479548165953661 0 0.26348700835945699 0.16686864507211749 0 0.26819930752265342 0.17343785053084851 0 0.27156376634413171 0.16990534085174711 0 0.27337016715316631 0.16479548165953661 0 0.2774420927347751 0.171036485938728 0 0.28638514609185689 0.1728345140670573 0 0.27551714943074651 0.17284223541063931 0 0.27156376634413171 0.16990534085174711 0 0.2774420927347751 0.171036485938728 0 0.27156376634413171 0.16990534085174711 0 0.27337016715316631 0.16479548165953661 0 0.2774420927347751 0.171036485938728 0 0.27418256388682882 0.15328584879022419 0 0.27337016715316631 0.16479548165953661 0 0.27691989803504402 0.1653271624912428 0 0.27337016715316631 0.16479548165953661 0 0.29749009351647859 0.17480420937134181 0 0.27337016715316631 0.16479548165953661 0 0.27691989803504402 0.1653271624912428 0 0.29749009351647859 0.17480420937134181 0 0.27418256388682882 0.15328584879022419 0 0.27691989803504402 0.1653271624912428 0 0.2960718050634647 0.16384426966775789 0 0.27691989803504402 0.1653271624912428 0 0.30163874584938882 0.1729682505898899 0 0.27691989803504402 0.1653271624912428 0 0.29749009351647859 0.17480420937134181 0 0.30163874584938882 0.1729682505898899 0 0.27337016715316631 0.16479548165953661 0 0.28638514609185689 0.1728345140670573 0 0.29749009351647859 0.17480420937134181 0 0.27418256388682882 0.15328584879022419 0 0.2960718050634647 0.16384426966775789 0 0.27691989803504402 0.1653271624912428 0 0.2960718050634647 0.16384426966775789 0 0.30163874584938882 0.1729682505898899 0 0.28167095190631869 0.18627951096883461 0 0.28773161686977428 0.18345490406533049 0 0.28626551431008929 0.19236377766216881 0 0.28151149929727021 0.1804678872082808 0 0.28773161686977428 0.18345490406533049 0 0.28612245688397542 0.1773824420141436 0 0.28167095190631869 0.18627951096883461 0 0.28151149929727021 0.1804678872082808 0 0.28773161686977428 0.18345490406533049 0 0.28773161686977428 0.18345490406533049 0 0.28612245688397542 0.1773824420141436 0 0.29102986326720198 0.17834456013456201 0 0.28037423465397388 0.17480485770465981 0 0.2774420927347751 0.171036485938728 0 0.28638514609185689 0.1728345140670573 0 0.28612245688397542 0.1773824420141436 0 0.29102986326720198 0.17834456013456201 0 0.28928342589079031 0.17578939633847951 0 0.28037423465397388 0.17480485770465981 0 0.28151149929727021 0.1804678872082808 0 0.28612245688397542 0.1773824420141436 0 0.28037423465397388 0.17480485770465981 0 0.28612245688397542 0.1773824420141436 0 0.28638514609185689 0.1728345140670573 0 0.28612245688397542 0.1773824420141436 0 0.28638514609185689 0.1728345140670573 0 0.28928342589079031 0.17578939633847951 0 0.28638514609185689 0.1728345140670573 0 0.29241897025176161 0.17568049253407089 0 0.29749009351647859 0.17480420937134181 0 0.28638514609185689 0.1728345140670573 0 0.29241897025176161 0.17568049253407089 0 0.28928342589079031 0.17578939633847951 0 0.29241897025176161 0.17568049253407089 0 0.29555178835575041 0.17879862955074591 0 0.29102986326720198 0.17834456013456201 0 0.29241897025176161 0.17568049253407089 0 0.29555178835575041 0.17879862955074591 0 0.29749009351647859 0.17480420937134181 0 0.29241897025176161 0.17568049253407089 0 0.29102986326720198 0.17834456013456201 0 0.28928342589079031 0.17578939633847951 0 0.28773161686977428 0.18345490406533049 0 0.29102986326720198 0.17834456013456201 0 0.29299054334323599 0.1823371679495005 0 0.29555178835575041 0.17879862955074591 0 0.29299054334323599 0.1823371679495005 0 0.29746879890441641 0.1836354761932078 0 0.29555178835575041 0.17879862955074591 0 0.29102986326720198 0.17834456013456201 0 0.29299054334323599 0.1823371679495005 0 0.29299054334323599 0.1823371679495005 0 0.29317064931903691 0.1874522698036564 0 0.29746879890441641 0.1836354761932078 0 0.29317064931903691 0.1874522698036564 0 0.29746879890441641 0.1836354761932078 0 0.2985194550196324 0.18911451256912501 0 0.28773161686977428 0.18345490406533049 0 0.29299054334323599 0.1823371679495005 0 0.29317064931903691 0.1874522698036564 0 0.30163874584938882 0.1729682505898899 0 0.30916246790256641 0.18084103588051739 0 0.32635759366373351 0.18060933868853701 0 0.3044331499013625 0.1855483436217483 0 0.29746879890441641 0.1836354761932078 0 0.2985194550196324 0.18911451256912501 0 0.29555178835575041 0.17879862955074591 0 0.29746879890441641 0.1836354761932078 0 0.30062621554241881 0.1794136432408831 0 0.3044331499013625 0.1855483436217483 0 0.29746879890441641 0.1836354761932078 0 0.30062621554241881 0.1794136432408831 0 0.30062621554241881 0.1794136432408831 0 0.30163874584938882 0.1729682505898899 0 0.30916246790256641 0.18084103588051739 0 0.29555178835575041 0.17879862955074591 0 0.30062621554241881 0.1794136432408831 0 0.29749009351647859 0.17480420937134181 0 0.30062621554241881 0.1794136432408831 0 0.29749009351647859 0.17480420937134181 0 0.30163874584938882 0.1729682505898899 0 0.3044331499013625 0.1855483436217483 0 0.30916246790256641 0.18084103588051739 0 0.31275663455592873 0.1856656032615287 0 0.3044331499013625 0.1855483436217483 0 0.30876490561131442 0.1901901959717954 0 0.31275663455592873 0.1856656032615287 0 0.3044331499013625 0.1855483436217483 0 0.30062621554241881 0.1794136432408831 0 0.30916246790256641 0.18084103588051739 0 0.2960718050634647 0.16384426966775789 0 0.31064842415502431 0.16203969671399129 0 0.31796104624010069 0.17440269054529181 0 0.2960718050634647 0.16384426966775789 0 0.31796104624010069 0.17440269054529181 0 0.2960718050634647 0.16384426966775789 0 0.30163874584938882 0.1729682505898899 0 0.31796104624010069 0.17440269054529181 0 0.2960718050634647 0.16384426966775789 0 0.31064842415502431 0.16203969671399129 0 0.30307318472485512 0.15294507089645551 0 0.31064842415502431 0.16203969671399129 0 0.30307318472485512 0.15294507089645551 0 0.31636513732471289 0.15390152427372039 0 0.30307318472485512 0.15294507089645551 0 0.31168603585884141 0.1410068674984237 0 0.29492336220522858 0.13920952351576771 0 0.30307318472485512 0.15294507089645551 0 0.31168603585884141 0.1410068674984237 0 0.31636513732471289 0.15390152427372039 0 0.30359597155328372 0.12282326774352879 0 0.31168603585884141 0.1410068674984237 0 0.29492336220522858 0.13920952351576771 0 0.30359597155328372 0.12282326774352879 0 0.29492336220522858 0.13920952351576771 0 0.28252646153715449 0.12680109023450209 0 0.29492336220522858 0.13920952351576771 0 0.28252646153715449 0.12680109023450209 0 0.28224508650419078 0.14095612381612491 0 0.27418256388682882 0.15328584879022419 0 0.28224508650419078 0.14095612381612491 0 0.2898240754716872 0.15042574719334309 0 0.27418256388682882 0.15328584879022419 0 0.2960718050634647 0.16384426966775789 0 0.2898240754716872 0.15042574719334309 0 0.29492336220522858 0.13920952351576771 0 0.28224508650419078 0.14095612381612491 0 0.2898240754716872 0.15042574719334309 0 0.2960718050634647 0.16384426966775789 0 0.30307318472485512 0.15294507089645551 0 0.2898240754716872 0.15042574719334309 0 0.30307318472485512 0.15294507089645551 0 0.29492336220522858 0.13920952351576771 0 0.2898240754716872 0.15042574719334309 0 0.28747881079441429 0.25605335494865578 0 0.27073394493800118 0.23612277081212929 0 0.26528831460587121 0.24252146347076059 0 0.28747881079441429 0.25605335494865578 0 0.27073394493800118 0.23612277081212929 0 0.26465850061080509 0.25090009652069561 0 0.28747881079441429 0.25605335494865578 0 0.26528831460587121 0.24252146347076059 0 0.27073394493800118 0.23612277081212929 0 0.26528831460587121 0.24252146347076059 0 0.26176355065915152 0.23489426237378269 0 0.24183819042719651 0.2457468380927334 0 0.26465850061080509 0.25090009652069561 0 0.24183819042719651 0.2457468380927334 0 0.26176355065915152 0.23489426237378269 0 0.25368711172669489 0.22744564524590891 0 0.24183819042719651 0.2457468380927334 0 0.26528831460587121 0.24252146347076059 0 0.26176355065915152 0.23489426237378269 0 0.24183819042719651 0.2457468380927334 0 0.26176355065915152 0.23489426237378269 0 0.24183819042719651 0.2457468380927334 0 0.26465850061080509 0.25090009652069561 0 0.26528831460587121 0.24252146347076059 0 0.25368711172669489 0.22744564524590891 0 0.26470620776890691 0.2180955866504245 0 0.25211219122479772 0.21539887619163911 0 0.27073394493800118 0.23612277081212929 0 0.28168891089110681 0.2240416866548324 0 0.2865903529475799 0.23612691064947991 0 0.27073394493800118 0.23612277081212929 0 0.26176355065915152 0.23489426237378269 0 0.28168891089110681 0.2240416866548324 0 0.26176355065915152 0.23489426237378269 0 0.25368711172669489 0.22744564524590891 0 0.28168891089110681 0.2240416866548324 0 0.25368711172669489 0.22744564524590891 0 0.26470620776890691 0.2180955866504245 0 0.28168891089110681 0.2240416866548324 0 0.25368711172669489 0.22744564524590891 0 0.28168891089110681 0.2240416866548324 0 0.26176355065915152 0.23489426237378269 0 0.28168891089110681 0.2240416866548324 0 0.27346119131552032 0.21286213609323371 0 0.26470620776890691 0.2180955866504245 0 0.28168891089110681 0.2240416866548324 0 0.27346119131552032 0.21286213609323371 0 0.28494368097089112 0.2088468111766198 0 0.28168891089110681 0.2240416866548324 0 0.27382942014743972 0.20541407287957211 0 0.28029816037971678 0.19902339276507849 0 0.28494368097089112 0.2088468111766198 0 0.27346119131552032 0.21286213609323371 0 0.27382942014743972 0.20541407287957211 0 0.28494368097089112 0.2088468111766198 0 0.27382942014743972 0.20541407287957211 0 0.26213773679925712 0.20791252310472 0 0.26798810363701181 0.1961318072285935 0 0.27346119131552032 0.21286213609323371 0 0.27382942014743972 0.20541407287957211 0 0.26213773679925712 0.20791252310472 0 0.27346119131552032 0.21286213609323371 0 0.26470620776890691 0.2180955866504245 0 0.26213773679925712 0.20791252310472 0 0.26470620776890691 0.2180955866504245 0 0.25211219122479772 0.21539887619163911 0 0.26213773679925712 0.20791252310472 0 0.25211219122479772 0.21539887619163911 0 0.25014587321706061 0.20332338773671221 0 0.26213773679925712 0.20791252310472 0 0.25014587321706061 0.20332338773671221 0 0.26213773679925712 0.20791252310472 0 0.25771996735137559 0.20000746662769001 0 0.25771996735137559 0.20000746662769001 0 0.25909419418126511 0.19251359656204681 0 0.26798810363701181 0.1961318072285935 0 0.26213773679925712 0.20791252310472 0 0.25771996735137559 0.20000746662769001 0 0.26798810363701181 0.1961318072285935 0 0.24876004431712601 0.19146109645531589 0 0.25014587321706061 0.20332338773671221 0 0.25771996735137559 0.20000746662769001 0 0.24876004431712601 0.19146109645531589 0 0.25771996735137559 0.20000746662769001 0 0.25909419418126511 0.19251359656204681 0 0.24876004431712601 0.19146109645531589 0 0.25633911546594729 0.18435234298515099 0 0.25909419418126511 0.19251359656204681 0 0.26351851259685311 0.18732917652601741 0 0.25909419418126511 0.19251359656204681 0 0.26798810363701181 0.1961318072285935 0 0.25633911546594729 0.18435234298515099 0 0.26351851259685311 0.18732917652601741 0 0.25909419418126511 0.19251359656204681 0 0.26351851259685311 0.18732917652601741 0 0.27020234473533011 0.18521209001234859 0 0.26798810363701181 0.1961318072285935 0 0.27020234473533011 0.18521209001234859 0 0.26798810363701181 0.1961318072285935 0 0.2770711395401923 0.19103016567087919 0 0.26798810363701181 0.1961318072285935 0 0.28029816037971678 0.19902339276507849 0 0.2770711395401923 0.19103016567087919 0 0.27382942014743972 0.20541407287957211 0 0.26798810363701181 0.1961318072285935 0 0.28029816037971678 0.19902339276507849 0 0.28029816037971678 0.19902339276507849 0 0.2770711395401923 0.19103016567087919 0 0.28626551431008929 0.19236377766216881 0 0.28773161686977428 0.18345490406533049 0 0.29317064931903691 0.1874522698036564 0 0.28626551431008929 0.19236377766216881 0 0.28167095190631869 0.18627951096883461 0 0.2770711395401923 0.19103016567087919 0 0.28626551431008929 0.19236377766216881 0 0.28029816037971678 0.19902339276507849 0 0.28626551431008929 0.19236377766216881 0 0.29026364193081772 0.19937593554012631 0 0.28029816037971678 0.19902339276507849 0 0.29026364193081772 0.19937593554012631 0 0.28494368097089112 0.2088468111766198 0 0.29026364193081772 0.19937593554012631 0 0.29573750555137301 0.19455476070938399 0 0.29961965408357011 0.19984137201799421 0 0.28626551431008929 0.19236377766216881 0 0.29026364193081772 0.19937593554012631 0 0.29573750555137301 0.19455476070938399 0 0.29026364193081772 0.19937593554012631 0 0.29961965408357011 0.19984137201799421 0 0.29496139974334368 0.20495607722469611 0 0.29317064931903691 0.1874522698036564 0 0.28626551431008929 0.19236377766216881 0 0.29573750555137301 0.19455476070938399 0 0.29317064931903691 0.1874522698036564 0 0.29573750555137301 0.19455476070938399 0 0.2985194550196324 0.18911451256912501 0 0.29573750555137301 0.19455476070938399 0 0.2985194550196324 0.18911451256912501 0 0.3026859874002979 0.1928746414229553 0 0.3044331499013625 0.1855483436217483 0 0.2985194550196324 0.18911451256912501 0 0.3026859874002979 0.1928746414229553 0 0.3044331499013625 0.1855483436217483 0 0.3026859874002979 0.1928746414229553 0 0.30876490561131442 0.1901901959717954 0 0.30876490561131442 0.1901901959717954 0 0.30805477903541112 0.19762378197599981 0 0.31705280687611709 0.191253187907198 0 0.3026859874002979 0.1928746414229553 0 0.30876490561131442 0.1901901959717954 0 0.30805477903541112 0.19762378197599981 0 0.30805477903541112 0.19762378197599981 0 0.30450462034665782 0.2040092505042993 0 0.3192676874259428 0.20357397550571579 0 0.3026859874002979 0.1928746414229553 0 0.30805477903541112 0.19762378197599981 0 0.29961965408357011 0.19984137201799421 0 0.29961965408357011 0.19984137201799421 0 0.30450462034665782 0.2040092505042993 0 0.29496139974334368 0.20495607722469611 0 0.30805477903541112 0.19762378197599981 0 0.29961965408357011 0.19984137201799421 0 0.30450462034665782 0.2040092505042993 0 0.29573750555137301 0.19455476070938399 0 0.3026859874002979 0.1928746414229553 0 0.29961965408357011 0.19984137201799421 0 0.30450462034665782 0.2040092505042993 0 0.30047829915852509 0.21380783108027451 0 0.3192676874259428 0.20357397550571579 0 0.30047829915852509 0.21380783108027451 0 0.30488348762263301 0.22122210430342201 0 0.3192676874259428 0.20357397550571579 0 0.30450462034665782 0.2040092505042993 0 0.30047829915852509 0.21380783108027451 0 0.29496139974334368 0.20495607722469611 0 0.30047829915852509 0.21380783108027451 0 0.3192676874259428 0.20357397550571579 0 0.30047829915852509 0.21380783108027451 0 0.28494368097089112 0.2088468111766198 0 0.28168891089110681 0.2240416866548324 0 0.30047829915852509 0.21380783108027451 0 0.29496139974334368 0.20495607722469611 0 0.28494368097089112 0.2088468111766198 0 0.29026364193081772 0.19937593554012631 0 0.29496139974334368 0.20495607722469611 0 0.28494368097089112 0.2088468111766198 0 0.28168891089110681 0.2240416866548324 0 0.29655328010231419 0.2326357623994986 0 0.30488348762263301 0.22122210430342201 0 0.30047829915852509 0.21380783108027451 0 0.28168891089110681 0.2240416866548324 0 0.30488348762263301 0.22122210430342201 0 0.28168891089110681 0.2240416866548324 0 0.30488348762263301 0.22122210430342201 0 0.30047829915852509 0.21380783108027451 0 0.28168891089110681 0.2240416866548324 0 0.28168891089110681 0.2240416866548324 0 0.29655328010231419 0.2326357623994986 0 0.2865903529475799 0.23612691064947991 0 0.30488348762263301 0.22122210430342201 0 0.30716551091625088 0.23362769774943401 0 0.31769130935039969 0.23126250329072959 0 0.29655328010231419 0.2326357623994986 0 0.30488348762263301 0.22122210430342201 0 0.30716551091625088 0.23362769774943401 0 0.29655328010231419 0.2326357623994986 0 0.30403294369684092 0.24256115881848 0 0.2951193522316663 0.2411601050748281 0 0.29655328010231419 0.2326357623994986 0 0.30716551091625088 0.23362769774943401 0 0.30403294369684092 0.24256115881848 0 0.30716551091625088 0.23362769774943401 0 0.30403294369684092 0.24256115881848 0 0.313724087410712 0.24017487013259209 0 0.30403294369684092 0.24256115881848 0 0.31617596768273748 0.24862092986720671 0 0.313724087410712 0.24017487013259209 0 0.30607067953178091 0.25253179152387178 0 0.30403294369684092 0.24256115881848 0 0.31617596768273748 0.24862092986720671 0 0.30403294369684092 0.24256115881848 0 0.29622194496412108 0.24800439574613639 0 0.2951193522316663 0.2411601050748281 0 0.30607067953178091 0.25253179152387178 0 0.30403294369684092 0.24256115881848 0 0.29622194496412108 0.24800439574613639 0 0.28747881079441429 0.25605335494865578 0 0.29622194496412108 0.24800439574613639 0 0.28722888117515649 0.2434935074462459 0 0.27073394493800118 0.23612277081212929 0 0.2865903529475799 0.23612691064947991 0 0.28722888117515649 0.2434935074462459 0 0.28747881079441429 0.25605335494865578 0 0.27073394493800118 0.23612277081212929 0 0.28722888117515649 0.2434935074462459 0 0.29622194496412108 0.24800439574613639 0 0.2951193522316663 0.2411601050748281 0 0.28722888117515649 0.2434935074462459 0 0.29655328010231419 0.2326357623994986 0 0.2951193522316663 0.2411601050748281 0 0.2865903529475799 0.23612691064947991 0 0.2951193522316663 0.2411601050748281 0 0.2865903529475799 0.23612691064947991 0 0.28722888117515649 0.2434935074462459 0 0.3286309626952284 0.2434480298853621 0 0.3404094617023935 0.23022838322495651 0 0.3470821380133452 0.2412510483538059 0 0.34299065606626278 0.25131321409070428 0 0.3286309626952284 0.2434480298853621 0 0.3470821380133452 0.2412510483538059 0 0.3286309626952284 0.2434480298853621 0 0.32862053074600972 0.23076874159190949 0 0.3404094617023935 0.23022838322495651 0 0.3191259817613481 0.25540705495601701 0 0.3286309626952284 0.2434480298853621 0 0.31617596768273748 0.24862092986720671 0 0.3286309626952284 0.2434480298853621 0 0.31617596768273748 0.24862092986720671 0 0.313724087410712 0.24017487013259209 0 0.3286309626952284 0.2434480298853621 0 0.313724087410712 0.24017487013259209 0 0.31769130935039969 0.23126250329072959 0 0.30716551091625088 0.23362769774943401 0 0.313724087410712 0.24017487013259209 0 0.31769130935039969 0.23126250329072959 0 0.3286309626952284 0.2434480298853621 0 0.31769130935039969 0.23126250329072959 0 0.32862053074600972 0.23076874159190949 0 0.30488348762263301 0.22122210430342201 0 0.32807806435415932 0.21840252195201251 0 0.30488348762263301 0.22122210430342201 0 0.31769130935039969 0.23126250329072959 0 0.32807806435415932 0.21840252195201251 0 0.31769130935039969 0.23126250329072959 0 0.32862053074600972 0.23076874159190949 0 0.32807806435415932 0.21840252195201251 0 0.32862053074600972 0.23076874159190949 0 0.3404094617023935 0.23022838322495651 0 0.32807806435415932 0.21840252195201251 0 0.3404094617023935 0.23022838322495651 0 0.32807806435415932 0.21840252195201251 0 0.35127264108568562 0.2155829396006031 0 0.33659909186271447 0.2068122924386899 0 0.32807806435415932 0.21840252195201251 0 0.35127264108568562 0.2155829396006031 0 0.32807806435415932 0.21840252195201251 0 0.35127264108568562 0.2155829396006031 0 0.33659909186271447 0.2068122924386899 0 0.32807806435415932 0.21840252195201251 0 0.3192676874259428 0.20357397550571579 0 0.30488348762263301 0.22122210430342201 0 0.32807806435415932 0.21840252195201251 0 0.3192676874259428 0.20357397550571579 0 0.3192676874259428 0.20357397550571579 0 0.3251837909147885 0.19219415550815189 0 0.33805707569336058 0.19334011993115699 0 0.3192676874259428 0.20357397550571579 0 0.31705280687611709 0.191253187907198 0 0.3251837909147885 0.19219415550815189 0 0.30805477903541112 0.19762378197599981 0 0.3192676874259428 0.20357397550571579 0 0.31705280687611709 0.191253187907198 0 0.30876490561131442 0.1901901959717954 0 0.31705280687611709 0.191253187907198 0 0.31275663455592873 0.1856656032615287 0 0.31705280687611709 0.191253187907198 0 0.3251837909147885 0.19219415550815189 0 0.32635759366373351 0.18060933868853701 0 0.3192676874259428 0.20357397550571579 0 0.33805707569336058 0.19334011993115699 0 0.33659909186271447 0.2068122924386899 0 0.3192676874259428 0.20357397550571579 0 0.33805707569336058 0.19334011993115699 0 0.3251837909147885 0.19219415550815189 0 0.33805707569336058 0.19334011993115699 0 0.32635759366373351 0.18060933868853701 0 0.33659909186271447 0.2068122924386899 0 0.33805707569336058 0.19334011993115699 0 0.34631999075442432 0.20316190520396099 0 0.33805707569336058 0.19334011993115699 0 0.35107644147807832 0.18825042678718409 0 0.34631999075442432 0.20316190520396099 0 0.35107644147807832 0.18825042678718409 0 0.35527467969978133 0.1998328654549309 0 0.34631999075442432 0.20316190520396099 0 0.35107644147807832 0.18825042678718409 0 0.35527467969978133 0.1998328654549309 0 0.36346144909610262 0.20039093583097839 0 0.35527467969978133 0.1998328654549309 0 0.36346144909610262 0.20039093583097839 0 0.35814725648678558 0.20802247479359329 0 0.35107644147807832 0.18825042678718409 0 0.3757952892924229 0.19589151488583131 0 0.35107644147807832 0.18825042678718409 0 0.36610643915245178 0.18333266315472979 0 0.3757952892924229 0.19589151488583131 0 0.35107644147807832 0.18825042678718409 0 0.36346144909610262 0.20039093583097839 0 0.3757952892924229 0.19589151488583131 0 0.36610643915245178 0.18333266315472979 0 0.37740862827749788 0.1837279601486573 0 0.3757952892924229 0.19589151488583131 0 0.36346144909610262 0.20039093583097839 0 0.37282641655597543 0.2109459588253384 0 0.3757952892924229 0.19589151488583131 0 0.36346144909610262 0.20039093583097839 0 0.37282641655597543 0.2109459588253384 0 0.35814725648678558 0.20802247479359329 0 0.37282641655597543 0.2109459588253384 0 0.35814725648678558 0.20802247479359329 0 0.36492610794123181 0.21954776616982549 0 0.35527467969978133 0.1998328654549309 0 0.35814725648678558 0.20802247479359329 0 0.34631999075442432 0.20316190520396099 0 0.35814725648678558 0.20802247479359329 0 0.34631999075442432 0.20316190520396099 0 0.35127264108568562 0.2155829396006031 0 0.33659909186271447 0.2068122924386899 0 0.34631999075442432 0.20316190520396099 0 0.35127264108568562 0.2155829396006031 0 0.35814725648678558 0.20802247479359329 0 0.35817387794651528 0.23330080063337011 0 0.3404094617023935 0.23022838322495651 0 0.35127264108568562 0.2155829396006031 0 0.35817387794651528 0.23330080063337011 0 0.35814725648678558 0.20802247479359329 0 0.35127264108568562 0.2155829396006031 0 0.35817387794651528 0.23330080063337011 0 0.35814725648678558 0.20802247479359329 0 0.35817387794651528 0.23330080063337011 0 0.36492610794123181 0.21954776616982549 0 0.35817387794651528 0.23330080063337011 0 0.36492610794123181 0.21954776616982549 0 0.37055688077565091 0.22592183042700009 0 0.37282641655597543 0.2109459588253384 0 0.36492610794123181 0.21954776616982549 0 0.37055688077565091 0.22592183042700009 0 0.35817387794651528 0.23330080063337011 0 0.37055688077565091 0.22592183042700009 0 0.3723050453064225 0.240230285310258 0 0.35820049940624799 0.25857912647314701 0 0.35817387794651528 0.23330080063337011 0 0.3723050453064225 0.240230285310258 0 0.35820049940624799 0.25857912647314701 0 0.3723050453064225 0.240230285310258 0 0.3404094617023935 0.23022838322495651 0 0.35817387794651528 0.23330080063337011 0 0.3470821380133452 0.2412510483538059 0 0.35820049940624799 0.25857912647314701 0 0.35817387794651528 0.23330080063337011 0 0.3470821380133452 0.2412510483538059 0 0.35820049940624799 0.25857912647314701 0 0.35817387794651528 0.23330080063337011 0 0.33831379872314488 0.15580857018841079 0 0.33894292786629981 0.13673365786463099 0 0.32741919626772348 0.146098269168215 0 0.33831379872314488 0.15580857018841079 0 0.33894292786629981 0.13673365786463099 0 0.34990241808855732 0.14683647533388991 0 0.33831379872314488 0.15580857018841079 0 0.32741919626772348 0.146098269168215 0 0.327504037056076 0.1569513032066597 0 0.33710215149459388 0.114868033997594 0 0.33894292786629981 0.13673365786463099 0 0.32431048765461618 0.13097412205690609 0 0.33894292786629981 0.13673365786463099 0 0.32431048765461618 0.13097412205690609 0 0.32741919626772348 0.146098269168215 0 0.30359597155328372 0.12282326774352879 0 0.31168603585884141 0.1410068674984237 0 0.32431048765461618 0.13097412205690609 0 0.31168603585884141 0.1410068674984237 0 0.32431048765461618 0.13097412205690609 0 0.32741919626772348 0.146098269168215 0 0.31168603585884141 0.1410068674984237 0 0.32741919626772348 0.146098269168215 0 0.31636513732471289 0.15390152427372039 0 0.32741919626772348 0.146098269168215 0 0.31636513732471289 0.15390152427372039 0 0.327504037056076 0.1569513032066597 0 0.31064842415502431 0.16203969671399129 0 0.31636513732471289 0.15390152427372039 0 0.32034701960890433 0.16290412116558739 0 0.31064842415502431 0.16203969671399129 0 0.32034701960890433 0.16290412116558739 0 0.31796104624010069 0.17440269054529181 0 0.32034701960890433 0.16290412116558739 0 0.31796104624010069 0.17440269054529181 0 0.32925645326860759 0.16722539108827389 0 0.32034701960890433 0.16290412116558739 0 0.327504037056076 0.1569513032066597 0 0.32925645326860759 0.16722539108827389 0 0.31636513732471289 0.15390152427372039 0 0.32034701960890433 0.16290412116558739 0 0.327504037056076 0.1569513032066597 0 0.30163874584938882 0.1729682505898899 0 0.31796104624010069 0.17440269054529181 0 0.32635759366373351 0.18060933868853701 0 0.30916246790256641 0.18084103588051739 0 0.31275663455592873 0.1856656032615287 0 0.32635759366373351 0.18060933868853701 0 0.30163874584938882 0.1729682505898899 0 0.32635759366373351 0.18060933868853701 0 0.31705280687611709 0.191253187907198 0 0.31275663455592873 0.1856656032615287 0 0.32635759366373351 0.18060933868853701 0 0.31796104624010069 0.17440269054529181 0 0.32635759366373351 0.18060933868853701 0 0.32925645326860759 0.16722539108827389 0 0.35107644147807832 0.18825042678718409 0 0.32635759366373351 0.18060933868853701 0 0.35107644147807832 0.18825042678718409 0 0.32635759366373351 0.18060933868853701 0 0.3428334268882326 0.17132925570095839 0 0.32635759366373351 0.18060933868853701 0 0.32925645326860759 0.16722539108827389 0 0.3428334268882326 0.17132925570095839 0 0.33805707569336058 0.19334011993115699 0 0.35107644147807832 0.18825042678718409 0 0.32635759366373351 0.18060933868853701 0 0.33831379872314488 0.15580857018841079 0 0.327504037056076 0.1569513032066597 0 0.32925645326860759 0.16722539108827389 0 0.33831379872314488 0.15580857018841079 0 0.32925645326860759 0.16722539108827389 0 0.3428334268882326 0.17132925570095839 0 0.33831379872314488 0.15580857018841079 0 0.3428334268882326 0.17132925570095839 0 0.35522394179636391 0.16191545869965859 0 0.3428334268882326 0.17132925570095839 0 0.35522394179636391 0.16191545869965859 0 0.35657983665461829 0.17538635605791469 0 0.35107644147807832 0.18825042678718409 0 0.3428334268882326 0.17132925570095839 0 0.35657983665461829 0.17538635605791469 0 0.35107644147807832 0.18825042678718409 0 0.35657983665461829 0.17538635605791469 0 0.36610643915245178 0.18333266315472979 0 0.35657983665461829 0.17538635605791469 0 0.36610643915245178 0.18333266315472979 0 0.36925509917921562 0.17220668775327869 0 0.36610643915245178 0.18333266315472979 0 0.36925509917921562 0.17220668775327869 0 0.37740862827749788 0.1837279601486573 0 0.35522394179636391 0.16191545869965859 0 0.36925509917921562 0.17220668775327869 0 0.37525715385503983 0.14997676306661689 0 0.35522394179636391 0.16191545869965859 0 0.35657983665461829 0.17538635605791469 0 0.36925509917921562 0.17220668775327869 0 0.34990241808855732 0.14683647533388991 0 0.3552353390837853 0.1311211250796985 0 0.37525715385503983 0.14997676306661689 0 0.35522394179636391 0.16191545869965859 0 0.34990241808855732 0.14683647533388991 0 0.37525715385503983 0.14997676306661689 0 0.33831379872314488 0.15580857018841079 0 0.35522394179636391 0.16191545869965859 0 0.34990241808855732 0.14683647533388991 0 0.33894292786629981 0.13673365786463099 0 0.34990241808855732 0.14683647533388991 0 0.3552353390837853 0.1311211250796985 0 0.33710215149459388 0.114868033997594 0 0.33894292786629981 0.13673365786463099 0 0.3552353390837853 0.1311211250796985 0 0.3552353390837853 0.1311211250796985 0 0.37255982364045082 0.13075991920717381 0 0.37525715385503983 0.14997676306661689 0 0.37255982364045082 0.13075991920717381 0 0.39562715892620642 0.1308083476196758 0 0.37525715385503983 0.14997676306661689 0 0.39562715892620642 0.1308083476196758 0 0.37525715385503983 0.14997676306661689 0 0.4024907944824101 0.15775459886220439 0 0.37525715385503983 0.14997676306661689 0 0.4024907944824101 0.15775459886220439 0 0.37525715385503983 0.14997676306661689 0 0.38549372808294702 0.17341308227467231 0 0.4024907944824101 0.15775459886220439 0 0.36925509917921562 0.17220668775327869 0 0.37525715385503983 0.14997676306661689 0 0.38549372808294702 0.17341308227467231 0 0.38549372808294702 0.17341308227467231 0 0.37740862827749788 0.1837279601486573 0 0.38796261869834919 0.19129240058697311 0 0.36925509917921562 0.17220668775327869 0 0.38549372808294702 0.17341308227467231 0 0.37740862827749788 0.1837279601486573 0 0.38549372808294702 0.17341308227467231 0 0.40057152188692391 0.17882730829654911 0 0.38796261869834919 0.19129240058697311 0 0.38549372808294702 0.17341308227467231 0 0.40057152188692391 0.17882730829654911 0 0.4024907944824101 0.15775459886220439 0 0.4024907944824101 0.15775459886220439 0 0.41822324565171881 0.18049452560661489 0 0.42972443510978148 0.16553243465778769 0 0.4024907944824101 0.15775459886220439 0 0.42972443510978148 0.16553243465778769 0 0.40057152188692391 0.17882730829654911 0 0.41822324565171881 0.18049452560661489 0 0.40672205619365948 0.19545661655544491 0 0.40057152188692391 0.17882730829654911 0 0.4024907944824101 0.15775459886220439 0 0.41822324565171881 0.18049452560661489 0 0.41822324565171881 0.18049452560661489 0 0.43242688177337257 0.1796050899521674 0 0.42770112017194672 0.20011354474127621 0 0.41822324565171881 0.18049452560661489 0 0.43242688177337257 0.1796050899521674 0 0.42972443510978148 0.16553243465778769 0 0.41822324565171881 0.18049452560661489 0 0.42972443510978148 0.16553243465778769 0 0.42972443510978148 0.16553243465778769 0 0.42414351446746879 0.1401132647628838 0 0.44672246083881167 0.14341941688378379 0 0.42414351446746879 0.1401132647628838 0 0.44298104839699942 0.12309133275351 0 0.42206616576997769 0.1180414050672233 0 0.39562715892620642 0.1308083476196758 0 0.42414351446746879 0.1401132647628838 0 0.42206616576997769 0.1180414050672233 0 0.39562715892620642 0.1308083476196758 0 0.4024907944824101 0.15775459886220439 0 0.42414351446746879 0.1401132647628838 0 0.4024907944824101 0.15775459886220439 0 0.42972443510978148 0.16553243465778769 0 0.42414351446746879 0.1401132647628838 0 0.39488500936975263 0.24532584809717059 0 0.40873184439015159 0.23920623085314091 0 0.40701393632937788 0.24838861756848099 0 0.39488500936975263 0.24532584809717059 0 0.40340281756451352 0.2298486664875439 0 0.40873184439015159 0.23920623085314091 0 0.37466402894604239 0.25663903199270788 0 0.3723050453064225 0.240230285310258 0 0.39488500936975263 0.24532584809717059 0 0.3723050453064225 0.240230285310258 0 0.39488500936975263 0.24532584809717059 0 0.38640959120659413 0.22188144414736691 0 0.3723050453064225 0.240230285310258 0 0.38640959120659413 0.22188144414736691 0 0.37282641655597543 0.2109459588253384 0 0.37055688077565091 0.22592183042700009 0 0.38640959120659413 0.22188144414736691 0 0.37055688077565091 0.22592183042700009 0 0.3723050453064225 0.240230285310258 0 0.38640959120659413 0.22188144414736691 0 0.39488500936975263 0.24532584809717059 0 0.38640959120659413 0.22188144414736691 0 0.40340281756451352 0.2298486664875439 0 0.38640959120659413 0.22188144414736691 0 0.40340281756451352 0.2298486664875439 0 0.40537056847063158 0.21691184532339239 0 0.38640959120659413 0.22188144414736691 0 0.40537056847063158 0.21691184532339239 0 0.40051413710676792 0.20353260298447751 0 0.38640959120659413 0.22188144414736691 0 0.40051413710676792 0.20353260298447751 0 0.38640959120659413 0.22188144414736691 0 0.40051413710676792 0.20353260298447751 0 0.38388635854043951 0.208062880210753 0 0.37282641655597543 0.2109459588253384 0 0.38640959120659413 0.22188144414736691 0 0.38388635854043951 0.208062880210753 0 0.37282641655597543 0.2109459588253384 0 0.38388635854043951 0.208062880210753 0 0.3757952892924229 0.19589151488583131 0 0.40051413710676792 0.20353260298447751 0 0.3757952892924229 0.19589151488583131 0 0.40051413710676792 0.20353260298447751 0 0.38388635854043951 0.208062880210753 0 0.3757952892924229 0.19589151488583131 0 0.40051413710676792 0.20353260298447751 0 0.3757952892924229 0.19589151488583131 0 0.38796261869834919 0.19129240058697311 0 0.37740862827749788 0.1837279601486573 0 0.3757952892924229 0.19589151488583131 0 0.38796261869834919 0.19129240058697311 0 0.38796261869834919 0.19129240058697311 0 0.40672205619365948 0.19545661655544491 0 0.40051413710676792 0.20353260298447751 0 0.38796261869834919 0.19129240058697311 0 0.40672205619365948 0.19545661655544491 0 0.40057152188692391 0.17882730829654911 0 0.38796261869834919 0.19129240058697311 0 0.40672205619365948 0.19545661655544491 0 0.40051413710676792 0.20353260298447751 0 0.40672205619365948 0.19545661655544491 0 0.40672205619365948 0.19545661655544491 0 0.42770112017194672 0.20011354474127621 0 0.40051413710676792 0.20353260298447751 0 0.40672205619365948 0.19545661655544491 0 0.41622519929096979 0.20838920516814269 0 0.40672205619365948 0.19545661655544491 0 0.42770112017194672 0.20011354474127621 0 0.41622519929096979 0.20838920516814269 0 0.41822324565171881 0.18049452560661489 0 0.40672205619365948 0.19545661655544491 0 0.42770112017194672 0.20011354474127621 0 0.41822324565171881 0.18049452560661489 0 0.40672205619365948 0.19545661655544491 0 0.43242688177337257 0.1796050899521674 0 0.42770112017194672 0.20011354474127621 0 0.44425219295815388 0.1875699898503389 0 0.43193626147517211 0.21324580735180701 0 0.41622519929096979 0.20838920516814269 0 0.42770112017194672 0.20011354474127621 0 0.43193626147517211 0.21324580735180701 0 0.44868018415023531 0.20477047292710129 0 0.43193626147517211 0.21324580735180701 0 0.41862627718430329 0.21814473290475569 0 0.41622519929096979 0.20838920516814269 0 0.42770112017194672 0.20011354474127621 0 0.43193626147517211 0.21324580735180701 0 0.41622519929096979 0.20838920516814269 0 0.43193626147517211 0.21324580735180701 0 0.41862627718430329 0.21814473290475569 0 0.42642193570617792 0.2217428569476507 0 0.40537056847063158 0.21691184532339239 0 0.40051413710676792 0.20353260298447751 0 0.41622519929096979 0.20838920516814269 0 0.40051413710676792 0.20353260298447751 0 0.41622519929096979 0.20838920516814269 0 0.40537056847063158 0.21691184532339239 0 0.41862627718430329 0.21814473290475569 0 0.41622519929096979 0.20838920516814269 0 0.40537056847063158 0.21691184532339239 0 0.41862627718430329 0.21814473290475569 0 0.41213622124707588 0.22377781704679969 0 0.40340281756451352 0.2298486664875439 0 0.40537056847063158 0.21691184532339239 0 0.41213622124707588 0.22377781704679969 0 0.40340281756451352 0.2298486664875439 0 0.41399420508405538 0.23158526363219331 0 0.40873184439015159 0.23920623085314091 0 0.40340281756451352 0.2298486664875439 0 0.41213622124707588 0.22377781704679969 0 0.41399420508405538 0.23158526363219331 0 0.41399420508405538 0.23158526363219331 0 0.4196674769157932 0.22480086559074139 0 0.42326848092306069 0.23097323523878241 0 0.41213622124707588 0.22377781704679969 0 0.41399420508405538 0.23158526363219331 0 0.4196674769157932 0.22480086559074139 0 0.41862627718430329 0.21814473290475569 0 0.41213622124707588 0.22377781704679969 0 0.4196674769157932 0.22480086559074139 0 0.41862627718430329 0.21814473290475569 0 0.4196674769157932 0.22480086559074139 0 0.42642193570617792 0.2217428569476507 0 0.4196674769157932 0.22480086559074139 0 0.42642193570617792 0.2217428569476507 0 0.42326848092306069 0.23097323523878241 0 0.42642193570617792 0.2217428569476507 0 0.43632661631562258 0.2238663437347195 0 0.42326848092306069 0.23097323523878241 0 0.43632661631562258 0.2238663437347195 0 0.42326848092306069 0.23097323523878241 0 0.42397304848100981 0.2429622145423376 0 0.43632661631562258 0.2238663437347195 0 0.42397304848100981 0.2429622145423376 0 0.43193626147517211 0.21324580735180701 0 0.42642193570617792 0.2217428569476507 0 0.43632661631562258 0.2238663437347195 0 0.44670741272494002 0.25014944309200082 0 0.42397304848100981 0.2429622145423376 0 0.43632661631562258 0.2238663437347195 0 0.4370064892215873 0.23711536409662931 0 0.42397304848100981 0.2429622145423376 0 0.44670741272494002 0.25014944309200082 0 0.4370064892215873 0.23711536409662931 0 0.42397304848100981 0.2429622145423376 0 0.42659905199128428 0.25466336600345729 0 0.44670741272494002 0.25014944309200082 0 0.42397304848100981 0.2429622145423376 0 0.41465733722559611 0.25736223411530967 0 0.41761589313238973 0.24095246718692229 0 0.40701393632937788 0.24838861756848099 0 0.41465733722559611 0.25736223411530967 0 0.42397304848100981 0.2429622145423376 0 0.41761589313238973 0.24095246718692229 0 0.41399420508405538 0.23158526363219331 0 0.42326848092306069 0.23097323523878241 0 0.41761589313238973 0.24095246718692229 0 0.42397304848100981 0.2429622145423376 0 0.41761589313238973 0.24095246718692229 0 0.42326848092306069 0.23097323523878241 0 0.42397304848100981 0.2429622145423376 0 0.41761589313238973 0.24095246718692229 0 0.41399420508405538 0.23158526363219331 0 0.41761589313238973 0.24095246718692229 0 0.40873184439015159 0.23920623085314091 0 0.41761589313238973 0.24095246718692229 0 0.40873184439015159 0.23920623085314091 0 0.40701393632937788 0.24838861756848099 0 0.45543009270220658 0.25290702601315013 0 0.46383750135509921 0.2362350065304798 0 0.46950086217180798 0.24660621613382361 0 0.45543009270220658 0.25290702601315013 0 0.46383750135509921 0.2362350065304798 0 0.45325052662634718 0.24462693143021669 0 0.45543009270220658 0.25290702601315013 0 0.46383750135509921 0.2362350065304798 0 0.46383750135509921 0.2362350065304798 0 0.45325052662634718 0.24462693143021669 0 0.45076420925285771 0.2370435176832624 0 0.44670741272494002 0.25014944309200082 0 0.45076420925285771 0.2370435176832624 0 0.44041593762659731 0.2267189455557041 0 0.44670741272494002 0.25014944309200082 0 0.4370064892215873 0.23711536409662931 0 0.44041593762659731 0.2267189455557041 0 0.44670741272494002 0.25014944309200082 0 0.44041593762659731 0.2267189455557041 0 0.44670741272494002 0.25014944309200082 0 0.45543009270220658 0.25290702601315013 0 0.45325052662634718 0.24462693143021669 0 0.44670741272494002 0.25014944309200082 0 0.45325052662634718 0.24462693143021669 0 0.45076420925285771 0.2370435176832624 0 0.45076420925285771 0.2370435176832624 0 0.45195056622686669 0.2272594684879255 0 0.44041593762659731 0.2267189455557041 0 0.43632661631562258 0.2238663437347195 0 0.4370064892215873 0.23711536409662931 0 0.44041593762659731 0.2267189455557041 0 0.43632661631562258 0.2238663437347195 0 0.44041593762659731 0.2267189455557041 0 0.4462869729104828 0.21996943690845419 0 0.45195056622686669 0.2272594684879255 0 0.4462869729104828 0.21996943690845419 0 0.45406156023309219 0.2172319538368207 0 0.45195056622686669 0.2272594684879255 0 0.44041593762659731 0.2267189455557041 0 0.4462869729104828 0.21996943690845419 0 0.46383750135509921 0.2362350065304798 0 0.46160563503546431 0.22268661813524859 0 0.47224491000799212 0.21956298704780949 0 0.46383750135509921 0.2362350065304798 0 0.47224491000799212 0.21956298704780949 0 0.45195056622686669 0.2272594684879255 0 0.46160563503546431 0.22268661813524859 0 0.45406156023309219 0.2172319538368207 0 0.46383750135509921 0.2362350065304798 0 0.45076420925285771 0.2370435176832624 0 0.45195056622686669 0.2272594684879255 0 0.46383750135509921 0.2362350065304798 0 0.45195056622686669 0.2272594684879255 0 0.46160563503546431 0.22268661813524859 0 0.46377560428101983 0.20812135109576799 0 0.44868018415023531 0.20477047292710129 0 0.46483959116806672 0.19793548372678541 0 0.46160563503546431 0.22268661813524859 0 0.46377560428101983 0.20812135109576799 0 0.47224491000799212 0.21956298704780949 0 0.46377560428101983 0.20812135109576799 0 0.46483959116806672 0.19793548372678541 0 0.47322143937675182 0.2036093783246912 0 0.46377560428101983 0.20812135109576799 0 0.44868018415023531 0.20477047292710129 0 0.46377560428101983 0.20812135109576799 0 0.45406156023309219 0.2172319538368207 0 0.44868018415023531 0.20477047292710129 0 0.46160563503546431 0.22268661813524859 0 0.46377560428101983 0.20812135109576799 0 0.45406156023309219 0.2172319538368207 0 0.4462869729104828 0.21996943690845419 0 0.45406156023309219 0.2172319538368207 0 0.44868018415023531 0.20477047292710129 0 0.43193626147517211 0.21324580735180701 0 0.43632661631562258 0.2238663437347195 0 0.44868018415023531 0.20477047292710129 0 0.43632661631562258 0.2238663437347195 0 0.4462869729104828 0.21996943690845419 0 0.44868018415023531 0.20477047292710129 0 0.43632661631562258 0.2238663437347195 0 0.44868018415023531 0.20477047292710129 0 0.44868018415023531 0.20477047292710129 0 0.44425219295815388 0.1875699898503389 0 0.46294094531597968 0.18272650502364651 0 0.42770112017194672 0.20011354474127621 0 0.44868018415023531 0.20477047292710129 0 0.44425219295815388 0.1875699898503389 0 0.42770112017194672 0.20011354474127621 0 0.44868018415023531 0.20477047292710129 0 0.44868018415023531 0.20477047292710129 0 0.46483959116806672 0.19793548372678541 0 0.46294094531597968 0.18272650502364651 0 0.44868018415023531 0.20477047292710129 0 0.46294094531597968 0.18272650502364651 0 0.46483959116806672 0.19793548372678541 0 0.47712300867658469 0.19508031153906691 0 0.46294094531597968 0.18272650502364651 0 0.47712300867658469 0.19508031153906691 0 0.49148629281842038 0.2031702184845581 0 0.4829725856368407 0.17966820671487579 0 0.46483959116806672 0.19793548372678541 0 0.47712300867658469 0.19508031153906691 0 0.47322143937675182 0.2036093783246912 0 0.47712300867658469 0.19508031153906691 0 0.48149796834628311 0.20543751599740079 0 0.47322143937675182 0.2036093783246912 0 0.47712300867658469 0.19508031153906691 0 0.49148629281842038 0.2031702184845581 0 0.48149796834628311 0.20543751599740079 0 0.49380131233102759 0.18951468186354609 0 0.49148629281842038 0.2031702184845581 0 0.4829725856368407 0.17966820671487579 0 0.49148629281842038 0.2031702184845581 0 0.4829725856368407 0.17966820671487579 0 0.49380131233102759 0.18951468186354609 0 0.5 0.2019005313271108 0 0.5 0.17712883239998131 0 0.49380131233102759 0.18951468186354609 0 0.5 0.2019005313271108 0 0.49148629281842038 0.2031702184845581 0 0.49148629281842038 0.2031702184845581 0 0.48741477876440797 0.213395681320318 0 0.5 0.22667223025424041 0 0.49148629281842038 0.2031702184845581 0 0.48741477876440797 0.213395681320318 0 0.48149796834628311 0.20543751599740079 0 0.49148629281842038 0.2031702184845581 0 0.5 0.22667223025424041 0 0.5 0.2019005313271108 0 0.49148629281842038 0.2031702184845581 0 0.5 0.22667223025424041 0 0.48741477876440797 0.213395681320318 0 0.47887102441180429 0.21147222926443501 0 0.4844962547061108 0.22283782674501329 0 0.47887102441180429 0.21147222926443501 0 0.47224491000799212 0.21956298704780949 0 0.4844962547061108 0.22283782674501329 0 0.48741477876440797 0.213395681320318 0 0.47887102441180429 0.21147222926443501 0 0.48149796834628311 0.20543751599740079 0 0.47887102441180429 0.21147222926443501 0 0.48149796834628311 0.20543751599740079 0 0.47322143937675182 0.2036093783246912 0 0.46377560428101983 0.20812135109576799 0 0.47887102441180429 0.21147222926443501 0 0.46377560428101983 0.20812135109576799 0 0.47887102441180429 0.21147222926443501 0 0.47322143937675182 0.2036093783246912 0 0.46377560428101983 0.20812135109576799 0 0.47887102441180429 0.21147222926443501 0 0.47224491000799212 0.21956298704780949 0 0.47224491000799212 0.21956298704780949 0 0.4844962547061108 0.22283782674501329 0 0.48102080827882232 0.2373306538302154 0 0.46383750135509921 0.2362350065304798 0 0.47224491000799212 0.21956298704780949 0 0.48102080827882232 0.2373306538302154 0 0.4844962547061108 0.22283782674501329 0 0.5 0.22667223025424041 0 0.48102080827882232 0.2373306538302154 0 0.48741477876440797 0.213395681320318 0 0.4844962547061108 0.22283782674501329 0 0.5 0.22667223025424041 0 0.47771504635110412 0.25995217816144911 0 0.5 0.24683478028199449 0 0.48102080827882232 0.2373306538302154 0 0.5 0.22667223025424041 0 0.5 0.24683478028199449 0 0.48102080827882232 0.2373306538302154 0 0.47771504635110412 0.25995217816144911 0 0.48102080827882232 0.2373306538302154 0 0.46950086217180798 0.24660621613382361 0 0.46383750135509921 0.2362350065304798 0 0.48102080827882232 0.2373306538302154 0 0.46950086217180798 0.24660621613382361 0 0.46088246703661362 0.1515095526543728 0 0.46255284843031819 0.1384328349228468 0 0.44672246083881167 0.14341941688378379 0 0.46088246703661362 0.1515095526543728 0 0.44672246083881167 0.14341941688378379 0 0.45783350323075961 0.16289862331844171 0 0.46088246703661362 0.1515095526543728 0 0.46816700927176258 0.16538473266348719 0 0.47200382120863549 0.14515099919078539 0 0.46088246703661362 0.1515095526543728 0 0.46255284843031819 0.1384328349228468 0 0.47200382120863549 0.14515099919078539 0 0.46255284843031819 0.1384328349228468 0 0.46943500649968672 0.13077780677551121 0 0.46372048656784298 0.1213063991097808 0 0.44672246083881167 0.14341941688378379 0 0.46372048656784298 0.1213063991097808 0 0.46255284843031819 0.1384328349228468 0 0.47200382120863549 0.14515099919078539 0 0.46943500649968672 0.13077780677551121 0 0.46255284843031819 0.1384328349228468 0 0.44672246083881167 0.14341941688378379 0 0.46372048656784298 0.1213063991097808 0 0.44672246083881167 0.14341941688378379 0 0.46372048656784298 0.1213063991097808 0 0.44298104839699942 0.12309133275351 0 0.42414351446746879 0.1401132647628838 0 0.44672246083881167 0.14341941688378379 0 0.44298104839699942 0.12309133275351 0 0.42972443510978148 0.16553243465778769 0 0.44672246083881167 0.14341941688378379 0 0.42972443510978148 0.16553243465778769 0 0.45045463369063071 0.17145290936691809 0 0.42972443510978148 0.16553243465778769 0 0.44672246083881167 0.14341941688378379 0 0.45045463369063071 0.17145290936691809 0 0.44672246083881167 0.14341941688378379 0 0.45045463369063071 0.17145290936691809 0 0.45783350323075961 0.16289862331844171 0 0.43242688177337257 0.1796050899521674 0 0.42972443510978148 0.16553243465778769 0 0.45045463369063071 0.17145290936691809 0 0.43242688177337257 0.1796050899521674 0 0.44425219295815388 0.1875699898503389 0 0.45045463369063071 0.17145290936691809 0 0.44425219295815388 0.1875699898503389 0 0.45045463369063071 0.17145290936691809 0 0.46294094531597968 0.18272650502364651 0 0.45045463369063071 0.17145290936691809 0 0.46294094531597968 0.18272650502364651 0 0.45783350323075961 0.16289862331844171 0 0.46294094531597968 0.18272650502364651 0 0.45783350323075961 0.16289862331844171 0 0.46816700927176258 0.16538473266348719 0 0.46088246703661362 0.1515095526543728 0 0.45783350323075961 0.16289862331844171 0 0.46816700927176258 0.16538473266348719 0 0.46294094531597968 0.18272650502364651 0 0.47720170648172411 0.1606825371201919 0 0.47720170648172411 0.1606825371201919 0 0.4829725856368407 0.17966820671487579 0 0.48908977902383038 0.1648720871719096 0 0.46816700927176258 0.16538473266348719 0 0.47720170648172411 0.1606825371201919 0 0.47200382120863549 0.14515099919078539 0 0.46294094531597968 0.18272650502364651 0 0.46816700927176258 0.16538473266348719 0 0.47720170648172411 0.1606825371201919 0 0.47720170648172411 0.1606825371201919 0 0.48908977902383038 0.1648720871719096 0 0.48465879358115382 0.15145472773636101 0 0.47712300867658469 0.19508031153906691 0 0.46294094531597968 0.18272650502364651 0 0.4829725856368407 0.17966820671487579 0 0.46294094531597968 0.18272650502364651 0 0.47720170648172411 0.1606825371201919 0 0.4829725856368407 0.17966820671487579 0 0.49380131233102759 0.18951468186354609 0 0.4829725856368407 0.17966820671487579 0 0.5 0.17712883239998131 0 0.4829725856368407 0.17966820671487579 0 0.5 0.17712883239998131 0 0.48908977902383038 0.1648720871719096 0 0.5 0.17712883239998131 0 0.48908977902383038 0.1648720871719096 0 0.5 0.15235713347285171 0 0.5 0.15235713347285171 0 0.48465879358115382 0.15145472773636101 0 0.48668310229342238 0.13745390723487319 0 0.48908977902383038 0.1648720871719096 0 0.5 0.15235713347285171 0 0.48465879358115382 0.15145472773636101 0 0.47720170648172411 0.1606825371201919 0 0.48465879358115382 0.15145472773636101 0 0.47200382120863549 0.14515099919078539 0 0.46816700927176258 0.16538473266348719 0 0.47200382120863549 0.14515099919078539 0 0.48465879358115382 0.15145472773636101 0 0.47200382120863549 0.14515099919078539 0 0.48668310229342238 0.13745390723487319 0 0.47200382120863549 0.14515099919078539 0 0.46943500649968672 0.13077780677551121 0 0.47584063314551028 0.12491726571808411 0 0.47200382120863549 0.14515099919078539 0 0.47584063314551028 0.12491726571808411 0 0.47200382120863549 0.14515099919078539 0 0.48668310229342238 0.13745390723487319 0 0.47584063314551028 0.12491726571808411 0 0.46943500649968672 0.13077780677551121 0 0.47584063314551028 0.12491726571808411 0 0.46372048656784298 0.1213063991097808 0 0.46943500649968672 0.13077780677551121 0 0.47584063314551028 0.12491726571808411 0 0.48761101300292148 0.1259555270417545 0 0.48668310229342238 0.13745390723487319 0 0.47584063314551028 0.12491726571808411 0 0.5 0.15235713347285171 0 0.48668310229342238 0.13745390723487319 0 0.5 0.12758543454572219 0 0.48761101300292148 0.1259555270417545 0 0.48668310229342238 0.13745390723487319 0 0.5 0.12758543454572219 0 0.5 0.12758543454572219 0 0.48792031657275509 0.113865500668339 0 0.49999999999999889 0.10281373561859269 0 0.48761101300292148 0.1259555270417545 0 0.5 0.12758543454572219 0 0.48792031657275509 0.113865500668339 0 0.48792031657275509 0.113865500668339 0 0.49219306800038709 0.095788355486638568 0 0.48071851229687401 0.099193381335777667 0 0.48792031657275509 0.113865500668339 0 0.49999999999999889 0.10281373561859269 0 0.49219306800038709 0.095788355486638568 0 0.48792031657275509 0.113865500668339 0 0.49999999999999889 0.10281373561859269 0 0.48071851229687401 0.099193381335777667 0 0.47584063314551028 0.12491726571808411 0 0.46372048656784298 0.1213063991097808 0 0.48071851229687401 0.099193381335777667 0 0.46372048656784298 0.1213063991097808 0 0.48071851229687401 0.099193381335777667 0 0.47584063314551028 0.12491726571808411 0 0.48792031657275509 0.113865500668339 0 0.48071851229687401 0.099193381335777667 0 0.47584063314551028 0.12491726571808411 0 0.48761101300292148 0.1259555270417545 0 0.48792031657275509 0.113865500668339 0 0.47584063314551028 0.12491726571808411 0 0.48792031657275509 0.113865500668339 0 0.47584063314551028 0.12491726571808411 0 0.48588800936725141 0.071931626620953537 0 0.5 0.078976819540325538 0 0.48812912895212229 0.061888965767604942 0 0.5 0.078976819540325538 0 0.49999999999999961 0.055139903462058423 0 0.48812912895212229 0.061888965767604942 0 0.49219306800038709 0.095788355486638568 0 0.49232651113230841 0.084092340270158633 0 0.5 0.078976819540325538 0 0.49999999999999889 0.10281373561859269 0 0.49219306800038709 0.095788355486638568 0 0.5 0.078976819540325538 0 0.48071851229687401 0.099193381335777667 0 0.48588800936725141 0.071931626620953537 0 0.49232651113230841 0.084092340270158633 0 0.48588800936725141 0.071931626620953537 0 0.49232651113230841 0.084092340270158633 0 0.5 0.078976819540325538 0 0.48071851229687401 0.099193381335777667 0 0.49232651113230841 0.084092340270158633 0 0.49219306800038709 0.095788355486638568 0 0.48071851229687401 0.099193381335777667 0 0.49232651113230841 0.084092340270158633 0 0.48071851229687401 0.099193381335777667 0 0.47800576619913698 0.082500842677453973 0 0.46461598541758431 0.093243546250615289 0 0.48071851229687401 0.099193381335777667 0 0.48588800936725141 0.071931626620953537 0 0.48071851229687401 0.099193381335777667 0 0.48588800936725141 0.071931626620953537 0 0.47800576619913698 0.082500842677453973 0 0.47800576619913698 0.082500842677453973 0 0.46255782692479791 0.061101604273109691 0 0.48588800936725141 0.071931626620953537 0 0.47800576619913698 0.082500842677453973 0 0.4777701573142844 0.064609095190841626 0 0.47800576619913698 0.082500842677453973 0 0.4777701573142844 0.064609095190841626 0 0.46255782692479791 0.061101604273109691 0 0.48588800936725141 0.071931626620953537 0 0.4777701573142844 0.064609095190841626 0 0.48812912895212229 0.061888965767604942 0 0.47800576619913698 0.082500842677453973 0 0.46160698997648542 0.077883406194794946 0 0.46255782692479791 0.061101604273109691 0 0.46160698997648542 0.077883406194794946 0 0.44679472411281118 0.073618074925000415 0 0.46255782692479791 0.061101604273109691 0 0.46160698997648542 0.077883406194794946 0 0.46461598541758431 0.093243546250615289 0 0.43955722944780118 0.088307917335773325 0 0.47800576619913698 0.082500842677453973 0 0.46160698997648542 0.077883406194794946 0 0.46461598541758431 0.093243546250615289 0 0.46160698997648542 0.077883406194794946 0 0.43955722944780118 0.088307917335773325 0 0.44679472411281118 0.073618074925000415 0 0.44679472411281118 0.073618074925000415 0 0.44173187600439229 0.058874166018118443 0 0.46255782692479791 0.061101604273109691 0 0.46372048656784298 0.1213063991097808 0 0.4558275424843144 0.1079899078441581 0 0.44298104839699942 0.12309133275351 0 0.48071851229687401 0.099193381335777667 0 0.46372048656784298 0.1213063991097808 0 0.4558275424843144 0.1079899078441581 0 0.48071851229687401 0.099193381335777667 0 0.46461598541758431 0.093243546250615289 0 0.4558275424843144 0.1079899078441581 0 0.46461598541758431 0.093243546250615289 0 0.43955722944780118 0.088307917335773325 0 0.4558275424843144 0.1079899078441581 0 0.43955722944780118 0.088307917335773325 0 0.4558275424843144 0.1079899078441581 0 0.43955722944780118 0.088307917335773325 0 0.4558275424843144 0.1079899078441581 0 0.43817838946269272 0.1071751325990646 0 0.4558275424843144 0.1079899078441581 0 0.43817838946269272 0.1071751325990646 0 0.44298104839699942 0.12309133275351 0 0.43817838946269272 0.1071751325990646 0 0.44298104839699942 0.12309133275351 0 0.42206616576997769 0.1180414050672233 0 0.42206616576997769 0.1180414050672233 0 0.41567974464870011 0.090700572173812194 0 0.39959717566627229 0.1076445849155033 0 0.43817838946269272 0.1071751325990646 0 0.42206616576997769 0.1180414050672233 0 0.41567974464870011 0.090700572173812194 0 0.43955722944780118 0.088307917335773325 0 0.43817838946269272 0.1071751325990646 0 0.41567974464870011 0.090700572173812194 0 0.43955722944780118 0.088307917335773325 0 0.42328691641128791 0.068625926827388481 0 0.43955722944780118 0.088307917335773325 0 0.42328691641128791 0.068625926827388481 0 0.41567974464870011 0.090700572173812194 0 0.43955722944780118 0.088307917335773325 0 0.44679472411281118 0.073618074925000415 0 0.42328691641128791 0.068625926827388481 0 0.44679472411281118 0.073618074925000415 0 0.42328691641128791 0.068625926827388481 0 0.44173187600439229 0.058874166018118443 0 0.42328691641128791 0.068625926827388481 0 0.40709797315305402 0.070283695612366637 0 0.41567974464870011 0.090700572173812194 0 0.42328691641128791 0.068625926827388481 0 0.40709797315305402 0.070283695612366637 0 0.40701660337477469 0.048943936319003713 0 0.40709797315305402 0.070283695612366637 0 0.41567974464870011 0.090700572173812194 0 0.3937764238897653 0.08066637489448146 0 0.41567974464870011 0.090700572173812194 0 0.3937764238897653 0.08066637489448146 0 0.39959717566627229 0.1076445849155033 0 0.3937764238897653 0.08066637489448146 0 0.38014645982606732 0.09027587587142484 0 0.39959717566627229 0.1076445849155033 0 0.40709797315305402 0.070283695612366637 0 0.3937764238897653 0.08066637489448146 0 0.39573017744074179 0.062481667847147329 0 0.3937764238897653 0.08066637489448146 0 0.37861700854773539 0.056586702579697792 0 0.39573017744074179 0.062481667847147329 0 0.3937764238897653 0.08066637489448146 0 0.37830890906235759 0.075109030043237643 0 0.37861700854773539 0.056586702579697792 0 0.3937764238897653 0.08066637489448146 0 0.37861700854773539 0.056586702579697792 0 0.3937764238897653 0.08066637489448146 0 0.37830890906235759 0.075109030043237643 0 0.38014645982606732 0.09027587587142484 0 0.37327548460182558 0.1113678974561253 0 0.38014645982606732 0.09027587587142484 0 0.39959717566627229 0.1076445849155033 0 0.38014645982606732 0.09027587587142484 0 0.39959717566627229 0.1076445849155033 0 0.37327548460182558 0.1113678974561253 0 0.37255982364045082 0.13075991920717381 0 0.39562715892620642 0.1308083476196758 0 0.37327548460182558 0.1113678974561253 0 0.39562715892620642 0.1308083476196758 0 0.39959717566627229 0.1076445849155033 0 0.39562715892620642 0.1308083476196758 0 0.42206616576997769 0.1180414050672233 0 0.39959717566627229 0.1076445849155033 0 0.39232475597749661 0.02371171105288316 0 0.41971732181397742 0.031707038460824788 0 0.39232475597749661 0.02371171105288316 0 0.40524025350360809 0.030384401577744719 0 0.41971732181397742 0.031707038460824788 0 0.39232475597749661 0.02371171105288316 0 0.40118826695778631 0.01441060991133215 0 0.41251797132155821 0.02063972707934085 0 0.39232475597749661 0.02371171105288316 0 0.39074629033826158 0.02926194581061899 0 0.39829565565118658 0.029584308085361749 0 0.39232475597749661 0.02371171105288316 0 0.39829565565118658 0.029584308085361749 0 0.40524025350360809 0.030384401577744719 0 0.39232475597749661 0.02371171105288316 0 0.40118826695778631 0.01441060991133215 0 0.39256602844795502 0.0050409065536643829 0 0.40118826695778631 0.01441060991133215 0 0.39256602844795502 0.0050409065536643829 0 0.41128474674939258 0.0074945688116730847 0 0.37447597730174847 0.0095799553022342526 0 0.39232475597749661 0.02371171105288316 0 0.39256602844795502 0.0050409065536643829 0 0.37447597730174847 0.0095799553022342526 0 0.39256602844795502 0.0050409065536643829 0 0.37831225193001822 -0.0089308101349801338 0 0.37447597730174847 0.0095799553022342526 0 0.39232475597749661 0.02371171105288316 0 0.39074629033826158 0.02926194581061899 0 0.37447597730174847 0.0095799553022342526 0 0.39074629033826158 0.02926194581061899 0 0.37447597730174847 0.0095799553022342526 0 0.39074629033826158 0.02926194581061899 0 0.37830796774458419 0.036928202919997058 0 0.39074629033826158 0.02926194581061899 0 0.37830796774458419 0.036928202919997058 0 0.39001976127463039 0.047058748246765383 0 0.37830796774458419 0.036928202919997058 0 0.39001976127463039 0.047058748246765383 0 0.37861700854773539 0.056586702579697792 0 0.39001976127463039 0.047058748246765383 0 0.37861700854773539 0.056586702579697792 0 0.39573017744074179 0.062481667847147329 0 0.40709797315305402 0.070283695612366637 0 0.39573017744074179 0.062481667847147329 0 0.40701660337477469 0.048943936319003713 0 0.39001976127463039 0.047058748246765383 0 0.39573017744074179 0.062481667847147329 0 0.40701660337477469 0.048943936319003713 0 0.39829565565118658 0.029584308085361749 0 0.40524025350360809 0.030384401577744719 0 0.40701660337477469 0.048943936319003713 0 0.39074629033826158 0.02926194581061899 0 0.40701660337477469 0.048943936319003713 0 0.39074629033826158 0.02926194581061899 0 0.39829565565118658 0.029584308085361749 0 0.40701660337477469 0.048943936319003713 0 0.39074629033826158 0.02926194581061899 0 0.39001976127463039 0.047058748246765383 0 0.40701660337477469 0.048943936319003713 0 0.41297090534751879 0.038511856109116858 0 0.40701660337477469 0.048943936319003713 0 0.42314494862186702 0.042037610990807793 0 0.40524025350360809 0.030384401577744719 0 0.41297090534751879 0.038511856109116858 0 0.41971732181397742 0.031707038460824788 0 0.40524025350360809 0.030384401577744719 0 0.41297090534751879 0.038511856109116858 0 0.40701660337477469 0.048943936319003713 0 0.41297090534751879 0.038511856109116858 0 0.41971732181397742 0.031707038460824788 0 0.42314494862186702 0.042037610990807793 0 0.42328691641128791 0.068625926827388481 0 0.40701660337477469 0.048943936319003713 0 0.4289100249226061 0.051322858196327918 0 0.42328691641128791 0.068625926827388481 0 0.40701660337477469 0.048943936319003713 0 0.40701660337477469 0.048943936319003713 0 0.4289100249226061 0.051322858196327918 0 0.42314494862186702 0.042037610990807793 0 0.42328691641128791 0.068625926827388481 0 0.4289100249226061 0.051322858196327918 0 0.44173187600439229 0.058874166018118443 0 0.4289100249226061 0.051322858196327918 0 0.42314494862186702 0.042037610990807793 0 0.44710988765045823 0.039702365868765702 0 0.41971732181397742 0.031707038460824788 0 0.44710988765045823 0.039702365868765702 0 0.42594108161923239 0.032640719542242742 0 0.43662474083000308 0.025177829454501199 0 0.44710988765045823 0.039702365868765702 0 0.41971732181397742 0.031707038460824788 0 0.42314494862186702 0.042037610990807793 0 0.44710988765045823 0.039702365868765702 0 0.41971732181397742 0.031707038460824788 0 0.42594108161923239 0.032640719542242742 0 0.44710988765045823 0.039702365868765702 0 0.43662474083000308 0.025177829454501199 0 0.42613959400954771 0.01065329304023708 0 0.44333281428912669 0.01376017034458765 0 0.43662474083000308 0.025177829454501199 0 0.42613959400954771 0.01065329304023708 0 0.43662474083000308 0.025177829454501199 0 0.42499754080204399 0.018991602712163529 0 0.42613959400954771 0.01065329304023708 0 0.42594108161923239 0.032640719542242742 0 0.43662474083000308 0.025177829454501199 0 0.42499754080204399 0.018991602712163529 0 0.42594108161923239 0.032640719542242742 0 0.41251797132155821 0.02063972707934085 0 0.41128474674939258 0.0074945688116730847 0 0.41971732181397742 0.031707038460824788 0 0.42594108161923239 0.032640719542242742 0 0.41251797132155821 0.02063972707934085 0 0.39232475597749661 0.02371171105288316 0 0.41971732181397742 0.031707038460824788 0 0.41251797132155821 0.02063972707934085 0 0.42594108161923239 0.032640719542242742 0 0.42499754080204399 0.018991602712163529 0 0.41128474674939258 0.0074945688116730847 0 0.42594108161923239 0.032640719542242742 0 0.41128474674939258 0.0074945688116730847 0 0.41128474674939258 0.0074945688116730847 0 0.42613959400954771 0.01065329304023708 0 0.4221783810106618 -0.0072269632870501366 0 0.40118826695778631 0.01441060991133215 0 0.41251797132155821 0.02063972707934085 0 0.41128474674939258 0.0074945688116730847 0 0.42499754080204399 0.018991602712163529 0 0.41128474674939258 0.0074945688116730847 0 0.42613959400954771 0.01065329304023708 0 0.42613959400954771 0.01065329304023708 0 0.43585955003476612 0.00090646914473122128 0 0.4221783810106618 -0.0072269632870501366 0 0.42613959400954771 0.01065329304023708 0 0.43585955003476612 0.00090646914473122128 0 0.44333281428912669 0.01376017034458765 0 0.45145220079927528 0.0019239926618769691 0 0.44333281428912669 0.01376017034458765 0 0.46073235123888612 0.019267694506584689 0 0.43585955003476612 0.00090646914473122128 0 0.45145220079927528 0.0019239926618769691 0 0.44333281428912669 0.01376017034458765 0 0.43662474083000308 0.025177829454501199 0 0.44333281428912669 0.01376017034458765 0 0.44979162963969571 0.026295210320035439 0 0.44333281428912669 0.01376017034458765 0 0.44979162963969571 0.026295210320035439 0 0.46073235123888612 0.019267694506584689 0 0.43662474083000308 0.025177829454501199 0 0.44979162963969571 0.026295210320035439 0 0.44710988765045823 0.039702365868765702 0 0.44979162963969571 0.026295210320035439 0 0.46073235123888612 0.019267694506584689 0 0.46115835419000428 0.033567991425737971 0 0.46073235123888612 0.019267694506584689 0 0.46115835419000428 0.033567991425737971 0 0.47392235587766529 0.031943393939687398 0 0.45145220079927528 0.0019239926618769691 0 0.46073235123888612 0.019267694506584689 0 0.46867072548814781 0.0034873305833067049 0 0.4289100249226061 0.051322858196327918 0 0.44173187600439229 0.058874166018118443 0 0.44710988765045823 0.039702365868765702 0 0.44173187600439229 0.058874166018118443 0 0.44710988765045823 0.039702365868765702 0 0.46255782692479791 0.061101604273109691 0 0.43662474083000308 0.025177829454501199 0 0.44710988765045823 0.039702365868765702 0 0.44979162963969571 0.026295210320035439 0 0.44710988765045823 0.039702365868765702 0 0.46115835419000428 0.033567991425737971 0 0.44710988765045823 0.039702365868765702 0 0.47355494382522878 0.047421134665412437 0 0.44710988765045823 0.039702365868765702 0 0.46115835419000428 0.033567991425737971 0 0.47355494382522878 0.047421134665412437 0 0.44710988765045823 0.039702365868765702 0 0.46255782692479791 0.061101604273109691 0 0.47355494382522878 0.047421134665412437 0 0.44710988765045823 0.039702365868765702 0 0.46255782692479791 0.061101604273109691 0 0.4777701573142844 0.064609095190841626 0 0.47355494382522878 0.047421134665412437 0 0.48812912895212229 0.061888965767604942 0 0.4777701573142844 0.064609095190841626 0 0.46255782692479791 0.061101604273109691 0 0.47355494382522878 0.047421134665412437 0 0.46115835419000428 0.033567991425737971 0 0.47355494382522878 0.047421134665412437 0 0.47392235587766529 0.031943393939687398 0 0.47355494382522878 0.047421134665412437 0 0.47392235587766529 0.031943393939687398 0 0.48731739257762818 0.037616197486047769 0 0.47355494382522878 0.047421134665412437 0 0.48731739257762818 0.037616197486047769 0 0.49999999999999961 0.055139903462058423 0 0.48731739257762818 0.037616197486047769 0 0.49999999999999961 0.055139903462058423 0 0.5 0.026559053009460269 0 0.47355494382522878 0.047421134665412437 0 0.49999999999999961 0.055139903462058423 0 0.48812912895212229 0.061888965767604942 0 0.47355494382522878 0.047421134665412437 0 0.49999999999999961 0.055139903462058423 0 0.46867072548814781 0.0034873305833067049 0 0.48236444174197762 0.00095096838932002842 0 0.48135184509023621 0.01925793009374006 0 0.46073235123888612 0.019267694506584689 0 0.46867072548814781 0.0034873305833067049 0 0.48135184509023621 0.01925793009374006 0 0.47392235587766529 0.031943393939687398 0 0.48731739257762818 0.037616197486047769 0 0.48135184509023621 0.01925793009374006 0 0.46073235123888612 0.019267694506584689 0 0.47392235587766529 0.031943393939687398 0 0.48135184509023621 0.01925793009374006 0 0.48731739257762818 0.037616197486047769 0 0.48135184509023621 0.01925793009374006 0 0.5 0.026559053009460269 0 0.48135184509023621 0.01925793009374006 0 0.5 0.026559053009460269 0 0.49120251654325792 0.010454581231604939 0 0.48236444174197762 0.00095096838932002842 0 0.48135184509023621 0.01925793009374006 0 0.49120251654325792 0.010454581231604939 0 0.5 0.026559053009460269 0 0.49120251654325792 0.010454581231604939 0 0.5 -0.002021797443137963 0 0.48236444174197762 0.00095096838932002842 0 0.49120251654325792 0.010454581231604939 0 0.49139400585722431 -0.003086084640385834 0 0.49120251654325792 0.010454581231604939 0 0.5 -0.002021797443137963 0 0.49139400585722431 -0.003086084640385834 0 0.5 -0.002021797443137963 0 0.49916072827342323 -0.0055145361851106772 0 0.5 -0.03060264789573636 0 0.5 -0.002021797443137963 0 0.49916072827342323 -0.0055145361851106772 0 0.49139400585722431 -0.003086084640385834 0 0.49916072827342323 -0.0055145361851106772 0 0.49105303343915141 -0.014978824761970161 0 0.49260083639526908 -0.024512385109976088 0 0.49916072827342323 -0.0055145361851106772 0 0.49306369261486271 -0.0090728658237428841 0 0.49139400585722431 -0.003086084640385834 0 0.49916072827342323 -0.0055145361851106772 0 0.49306369261486271 -0.0090728658237428841 0 0.49105303343915141 -0.014978824761970161 0 0.48901225563825251 -0.01086725549635646 0 0.48172053227710793 -0.0085468687438643408 0 0.48463845432905522 -0.01668004179154171 0 0.49306369261486271 -0.0090728658237428841 0 0.49105303343915141 -0.014978824761970161 0 0.48901225563825251 -0.01086725549635646 0 0.49105303343915141 -0.014978824761970161 0 0.48901225563825251 -0.01086725549635646 0 0.48463845432905522 -0.01668004179154171 0 0.48236444174197762 0.00095096838932002842 0 0.49139400585722431 -0.003086084640385834 0 0.48172053227710793 -0.0085468687438643408 0 0.48901225563825251 -0.01086725549635646 0 0.49139400585722431 -0.003086084640385834 0 0.48172053227710793 -0.0085468687438643408 0 0.49306369261486271 -0.0090728658237428841 0 0.48901225563825251 -0.01086725549635646 0 0.49139400585722431 -0.003086084640385834 0 0.48236444174197762 0.00095096838932002842 0 0.48172053227710793 -0.0085468687438643408 0 0.47397849973259321 -0.0064620723783639757 0 0.48172053227710793 -0.0085468687438643408 0 0.47543539091786918 -0.015850234499193198 0 0.48463845432905522 -0.01668004179154171 0 0.48172053227710793 -0.0085468687438643408 0 0.47397849973259321 -0.0064620723783639757 0 0.47543539091786918 -0.015850234499193198 0 0.47397849973259321 -0.0064620723783639757 0 0.47543539091786918 -0.015850234499193198 0 0.4621442509950533 -0.012398655774060109 0 0.46867072548814781 0.0034873305833067049 0 0.48236444174197762 0.00095096838932002842 0 0.47397849973259321 -0.0064620723783639757 0 0.4712638368425624 -0.026919013343423691 0 0.47543539091786918 -0.015850234499193198 0 0.48113253306650478 -0.02476644087162461 0 0.4712638368425624 -0.026919013343423691 0 0.47543539091786918 -0.015850234499193198 0 0.4621442509950533 -0.012398655774060109 0 0.47543539091786918 -0.015850234499193198 0 0.48113253306650478 -0.02476644087162461 0 0.48463845432905522 -0.01668004179154171 0 0.4712638368425624 -0.026919013343423691 0 0.48113253306650478 -0.02476644087162461 0 0.48081137740266949 -0.034914484196372157 0 0.48113253306650478 -0.02476644087162461 0 0.48745036315014367 -0.030331410033595529 0 0.48081137740266949 -0.034914484196372157 0 0.48745036315014367 -0.030331410033595529 0 0.49260083639526908 -0.024512385109976088 0 0.49453445163281218 -0.033164651458861563 0 0.49916072827342323 -0.0055145361851106772 0 0.5 -0.03060264789573636 0 0.49453445163281218 -0.033164651458861563 0 0.49916072827342323 -0.0055145361851106772 0 0.49453445163281218 -0.033164651458861563 0 0.49916072827342323 -0.0055145361851106772 0 0.49260083639526908 -0.024512385109976088 0 0.49453445163281218 -0.033164651458861563 0 0.48113253306650478 -0.02476644087162461 0 0.48745036315014367 -0.030331410033595529 0 0.48784223338404581 -0.023225864165093119 0 0.48745036315014367 -0.030331410033595529 0 0.48784223338404581 -0.023225864165093119 0 0.49260083639526908 -0.024512385109976088 0 0.48113253306650478 -0.02476644087162461 0 0.48463845432905522 -0.01668004179154171 0 0.48784223338404581 -0.023225864165093119 0 0.49105303343915141 -0.014978824761970161 0 0.48463845432905522 -0.01668004179154171 0 0.48784223338404581 -0.023225864165093119 0 0.49105303343915141 -0.014978824761970161 0 0.48784223338404581 -0.023225864165093119 0 0.49260083639526908 -0.024512385109976088 0 0.5 -0.03060264789573636 0 0.49453445163281218 -0.033164651458861563 0 0.50000000000000266 -0.05918349834833464 0 0.49453445163281218 -0.033164651458861563 0 0.4865460473151989 -0.04496654619061221 0 0.48829552239799862 -0.053675507996351547 0 0.49453445163281218 -0.033164651458861563 0 0.4865460473151989 -0.04496654619061221 0 0.48733555987520599 -0.035844272969860369 0 0.4865460473151989 -0.04496654619061221 0 0.48733555987520599 -0.035844272969860369 0 0.48081137740266949 -0.034914484196372157 0 0.48745036315014367 -0.030331410033595529 0 0.48733555987520599 -0.035844272969860369 0 0.48081137740266949 -0.034914484196372157 0 0.48745036315014367 -0.030331410033595529 0 0.49453445163281218 -0.033164651458861563 0 0.48733555987520599 -0.035844272969860369 0 0.49453445163281218 -0.033164651458861563 0 0.48976081653060272 -0.061695491939137453 0 0.49453445163281218 -0.033164651458861563 0 0.48829552239799862 -0.053675507996351547 0 0.48976081653060272 -0.061695491939137453 0 0.49453445163281218 -0.033164651458861563 0 0.50000000000000266 -0.05918349834833464 0 0.48976081653060272 -0.061695491939137453 0 0.50000000000000266 -0.05918349834833464 0 0.48976081653060272 -0.061695491939137453 0 0.48976081653060272 -0.061695491939137453 0 0.47259358367802662 -0.044766162355022253 0 0.46676089502350548 -0.064556352220447921 0 0.48829552239799862 -0.053675507996351547 0 0.48976081653060272 -0.061695491939137453 0 0.47259358367802662 -0.044766162355022253 0 0.4865460473151989 -0.04496654619061221 0 0.48829552239799862 -0.053675507996351547 0 0.47259358367802662 -0.044766162355022253 0 0.48976081653060272 -0.061695491939137453 0 0.47259358367802662 -0.044766162355022253 0 0.4712638368425624 -0.026919013343423691 0 0.48081137740266949 -0.034914484196372157 0 0.47259358367802662 -0.044766162355022253 0 0.4865460473151989 -0.04496654619061221 0 0.48081137740266949 -0.034914484196372157 0 0.47259358367802662 -0.044766162355022253 0 0.47259358367802662 -0.044766162355022253 0 0.44835386376535868 -0.047686975642220311 0 0.4561729245560755 -0.028573060493401772 0 0.4712638368425624 -0.026919013343423691 0 0.47259358367802662 -0.044766162355022253 0 0.4561729245560755 -0.028573060493401772 0 0.47259358367802662 -0.044766162355022253 0 0.4561729245560755 -0.028573060493401772 0 0.44835386376535868 -0.047686975642220311 0 0.46676089502350548 -0.064556352220447921 0 0.44450754724703279 -0.068153440224256595 0 0.47259358367802662 -0.044766162355022253 0 0.44835386376535868 -0.047686975642220311 0 0.46676089502350548 -0.064556352220447921 0 0.44835386376535868 -0.047686975642220311 0 0.44450754724703279 -0.068153440224256595 0 0.43141392620721453 -0.057597675160915879 0 0.44835386376535868 -0.047686975642220311 0 0.43869535195312009 -0.030116066005680751 0 0.42764816177300857 -0.041076415994737728 0 0.44835386376535868 -0.047686975642220311 0 0.43869535195312009 -0.030116066005680751 0 0.4561729245560755 -0.028573060493401772 0 0.43975226543412438 -0.012379958631781219 0 0.4561729245560755 -0.028573060493401772 0 0.43975226543412438 -0.012379958631781219 0 0.4621442509950533 -0.012398655774060109 0 0.4561729245560755 -0.028573060493401772 0 0.43869535195312009 -0.030116066005680751 0 0.43975226543412438 -0.012379958631781219 0 0.4561729245560755 -0.028573060493401772 0 0.45145220079927528 0.0019239926618769691 0 0.43975226543412438 -0.012379958631781219 0 0.4621442509950533 -0.012398655774060109 0 0.43585955003476612 0.00090646914473122128 0 0.45145220079927528 0.0019239926618769691 0 0.43975226543412438 -0.012379958631781219 0 0.46867072548814781 0.0034873305833067049 0 0.47397849973259321 -0.0064620723783639757 0 0.4621442509950533 -0.012398655774060109 0 0.45145220079927528 0.0019239926618769691 0 0.46867072548814781 0.0034873305833067049 0 0.4621442509950533 -0.012398655774060109 0 0.4712638368425624 -0.026919013343423691 0 0.4621442509950533 -0.012398655774060109 0 0.4561729245560755 -0.028573060493401772 0 0.48382002177701522 -0.1227013099542493 0 0.48207319082187838 -0.1082059153129197 0 0.47020393245064562 -0.12539652889200301 0 0.48207319082187838 -0.1082059153129197 0 0.46685853781344833 -0.1084742256584733 0 0.47020393245064562 -0.12539652889200301 0 0.48382002177701522 -0.1227013099542493 0 0.5 -0.1228360380456708 0 0.48207319082187838 -0.1082059153129197 0 0.5 -0.1228360380456708 0 0.5 -0.097314409497731846 0 0.48207319082187838 -0.1082059153129197 0 0.5 -0.097314409497731846 0 0.48207319082187838 -0.1082059153129197 0 0.48560834379332268 -0.086513798057932342 0 0.48207319082187838 -0.1082059153129197 0 0.48560834379332268 -0.086513798057932342 0 0.46790947709413477 -0.093869055736174919 0 0.48207319082187838 -0.1082059153129197 0 0.46790947709413477 -0.093869055736174919 0 0.46685853781344833 -0.1084742256584733 0 0.47656899800528879 -0.080765773049363027 0 0.46768485660339648 -0.074780658570427178 0 0.46790947709413477 -0.093869055736174919 0 0.47656899800528879 -0.080765773049363027 0 0.48560834379332268 -0.086513798057932342 0 0.46790947709413477 -0.093869055736174919 0 0.47656899800528879 -0.080765773049363027 0 0.48560834379332268 -0.086513798057932342 0 0.48200636975642508 -0.071493649893036026 0 0.5 -0.097314409497731846 0 0.48560834379332268 -0.086513798057932342 0 0.50000000000000044 -0.071792780949792689 0 0.48976081653060272 -0.061695491939137453 0 0.48560834379332268 -0.086513798057932342 0 0.48200636975642508 -0.071493649893036026 0 0.48976081653060272 -0.061695491939137453 0 0.48560834379332268 -0.086513798057932342 0 0.50000000000000044 -0.071792780949792689 0 0.48976081653060272 -0.061695491939137453 0 0.48560834379332268 -0.086513798057932342 0 0.48976081653060272 -0.061695491939137453 0 0.50000000000000044 -0.071792780949792689 0 0.50000000000000266 -0.05918349834833464 0 0.48976081653060272 -0.061695491939137453 0 0.50000000000000044 -0.071792780949792689 0 0.48976081653060272 -0.061695491939137453 0 0.48200636975642508 -0.071493649893036026 0 0.47461878961147308 -0.069853511518265771 0 0.48976081653060272 -0.061695491939137453 0 0.47461878961147308 -0.069853511518265771 0 0.46676089502350548 -0.064556352220447921 0 0.48976081653060272 -0.061695491939137453 0 0.46676089502350548 -0.064556352220447921 0 0.47656899800528879 -0.080765773049363027 0 0.48200636975642508 -0.071493649893036026 0 0.47461878961147308 -0.069853511518265771 0 0.47656899800528879 -0.080765773049363027 0 0.47461878961147308 -0.069853511518265771 0 0.46768485660339648 -0.074780658570427178 0 0.47461878961147308 -0.069853511518265771 0 0.46676089502350548 -0.064556352220447921 0 0.46768485660339648 -0.074780658570427178 0 0.46676089502350548 -0.064556352220447921 0 0.46768485660339648 -0.074780658570427178 0 0.44450754724703279 -0.068153440224256595 0 0.46676089502350548 -0.064556352220447921 0 0.44450754724703279 -0.068153440224256595 0 0.44450754724703279 -0.068153440224256595 0 0.44769828256634381 -0.091987870105194852 0 0.43139212122553572 -0.086527654895375117 0 0.46768485660339648 -0.074780658570427178 0 0.44769828256634381 -0.091987870105194852 0 0.46790947709413477 -0.093869055736174919 0 0.46768485660339648 -0.074780658570427178 0 0.44450754724703279 -0.068153440224256595 0 0.44769828256634381 -0.091987870105194852 0 0.46768485660339648 -0.074780658570427178 0 0.44769828256634381 -0.091987870105194852 0 0.46790947709413477 -0.093869055736174919 0 0.46685853781344833 -0.1084742256584733 0 0.45223152263945848 -0.1076101888894089 0 0.44769828256634381 -0.091987870105194852 0 0.46790947709413477 -0.093869055736174919 0 0.45223152263945848 -0.1076101888894089 0 0.44769828256634381 -0.091987870105194852 0 0.42771170852929119 -0.1091950816399625 0 0.44769828256634381 -0.091987870105194852 0 0.45223152263945848 -0.1076101888894089 0 0.42771170852929119 -0.1091950816399625 0 0.45223152263945848 -0.1076101888894089 0 0.44496682310404811 -0.12396741451712889 0 0.42771170852929119 -0.1091950816399625 0 0.45223152263945848 -0.1076101888894089 0 0.44496682310404811 -0.12396741451712889 0 0.45777406588341779 -0.1195765590237757 0 0.46685853781344833 -0.1084742256584733 0 0.45777406588341779 -0.1195765590237757 0 0.47020393245064562 -0.12539652889200301 0 0.46685853781344833 -0.1084742256584733 0 0.45223152263945848 -0.1076101888894089 0 0.45777406588341779 -0.1195765590237757 0 0.42771170852929119 -0.1091950816399625 0 0.40178870901101849 -0.108695138828091 0 0.40772513449223857 -0.12640229317473009 0 0.42771170852929119 -0.1091950816399625 0 0.421624536452258 -0.12796407503483759 0 0.40772513449223857 -0.12640229317473009 0 0.42771170852929119 -0.1091950816399625 0 0.40772513449223857 -0.12640229317473009 0 0.44496682310404811 -0.12396741451712889 0 0.42771170852929119 -0.1091950816399625 0 0.43288482995412281 -0.12888447347375009 0 0.42771170852929119 -0.1091950816399625 0 0.43288482995412281 -0.12888447347375009 0 0.421624536452258 -0.12796407503483759 0 0.44769828256634381 -0.091987870105194852 0 0.42771170852929119 -0.1091950816399625 0 0.43139212122553572 -0.086527654895375117 0 0.42771170852929119 -0.1091950816399625 0 0.41478886831445072 -0.091551354279396327 0 0.43139212122553572 -0.086527654895375117 0 0.42771170852929119 -0.1091950816399625 0 0.41478886831445072 -0.091551354279396327 0 0.40178870901101849 -0.108695138828091 0 0.41478886831445072 -0.091551354279396327 0 0.42225419947056009 -0.071750528228065269 0 0.4071218597554932 -0.078046540215875995 0 0.41478886831445072 -0.091551354279396327 0 0.43139212122553572 -0.086527654895375117 0 0.42225419947056009 -0.071750528228065269 0 0.42225419947056009 -0.071750528228065269 0 0.43141392620721453 -0.057597675160915879 0 0.41449237355216428 -0.0595829954361419 0 0.44450754724703279 -0.068153440224256595 0 0.43139212122553572 -0.086527654895375117 0 0.42225419947056009 -0.071750528228065269 0 0.44450754724703279 -0.068153440224256595 0 0.42225419947056009 -0.071750528228065269 0 0.43141392620721453 -0.057597675160915879 0 0.44450754724703279 -0.068153440224256595 0 0.42225419947056009 -0.071750528228065269 0 0.42225419947056009 -0.071750528228065269 0 0.4071218597554932 -0.078046540215875995 0 0.41449237355216428 -0.0595829954361419 0 0.4071218597554932 -0.078046540215875995 0 0.39711174874395588 -0.064601094519537647 0 0.41449237355216428 -0.0595829954361419 0 0.4071218597554932 -0.078046540215875995 0 0.39711174874395588 -0.064601094519537647 0 0.38256530449669662 -0.078990071840363149 0 0.39711174874395588 -0.064601094519537647 0 0.38256530449669662 -0.078990071840363149 0 0.38358823843533718 -0.058173093528320549 0 0.38256530449669662 -0.078990071840363149 0 0.38358823843533718 -0.058173093528320549 0 0.36545712718797291 -0.056820706468371521 0 0.38256530449669662 -0.078990071840363149 0 0.39682255587069842 -0.093332626044199216 0 0.37952459695937357 -0.1060214159295267 0 0.41478886831445072 -0.091551354279396327 0 0.4071218597554932 -0.078046540215875995 0 0.39682255587069842 -0.093332626044199216 0 0.4071218597554932 -0.078046540215875995 0 0.38256530449669662 -0.078990071840363149 0 0.39682255587069842 -0.093332626044199216 0 0.39682255587069842 -0.093332626044199216 0 0.40178870901101849 -0.108695138828091 0 0.37952459695937357 -0.1060214159295267 0 0.41478886831445072 -0.091551354279396327 0 0.39682255587069842 -0.093332626044199216 0 0.40178870901101849 -0.108695138828091 0 0.40178870901101849 -0.108695138828091 0 0.37952459695937357 -0.1060214159295267 0 0.38896787802519001 -0.1207049854734311 0 0.37952459695937357 -0.1060214159295267 0 0.37867726989722139 -0.11898856050058269 0 0.36687133745860512 -0.1213659082631299 0 0.37952459695937357 -0.1060214159295267 0 0.37867726989722139 -0.11898856050058269 0 0.38896787802519001 -0.1207049854734311 0 0.37867726989722139 -0.11898856050058269 0 0.38896787802519001 -0.1207049854734311 0 0.37934526714571698 -0.12786193233624291 0 0.40178870901101849 -0.108695138828091 0 0.38896787802519001 -0.1207049854734311 0 0.40772513449223857 -0.12640229317473009 0 0.41807668105125001 -0.025547585748239569 0 0.4221783810106618 -0.0072269632870501366 0 0.39662841187955289 -0.01765158191889634 0 0.41128474674939258 0.0074945688116730847 0 0.4221783810106618 -0.0072269632870501366 0 0.39662841187955289 -0.01765158191889634 0 0.43975226543412438 -0.012379958631781219 0 0.41807668105125001 -0.025547585748239569 0 0.4221783810106618 -0.0072269632870501366 0 0.43585955003476612 0.00090646914473122128 0 0.43975226543412438 -0.012379958631781219 0 0.4221783810106618 -0.0072269632870501366 0 0.43869535195312009 -0.030116066005680751 0 0.43975226543412438 -0.012379958631781219 0 0.41807668105125001 -0.025547585748239569 0 0.43869535195312009 -0.030116066005680751 0 0.41807668105125001 -0.025547585748239569 0 0.42764816177300857 -0.041076415994737728 0 0.42764816177300857 -0.041076415994737728 0 0.43141392620721453 -0.057597675160915879 0 0.41449237355216428 -0.0595829954361419 0 0.44835386376535868 -0.047686975642220311 0 0.42764816177300857 -0.041076415994737728 0 0.43141392620721453 -0.057597675160915879 0 0.42764816177300857 -0.041076415994737728 0 0.41449237355216428 -0.0595829954361419 0 0.40144320260693128 -0.044480297606227751 0 0.41807668105125001 -0.025547585748239569 0 0.42764816177300857 -0.041076415994737728 0 0.40144320260693128 -0.044480297606227751 0 0.40144320260693128 -0.044480297606227751 0 0.3819720770097132 -0.042797732649465799 0 0.39662841187955289 -0.01765158191889634 0 0.39711174874395588 -0.064601094519537647 0 0.41449237355216428 -0.0595829954361419 0 0.40144320260693128 -0.044480297606227751 0 0.39711174874395588 -0.064601094519537647 0 0.40144320260693128 -0.044480297606227751 0 0.38358823843533718 -0.058173093528320549 0 0.40144320260693128 -0.044480297606227751 0 0.38358823843533718 -0.058173093528320549 0 0.3819720770097132 -0.042797732649465799 0 0.38358823843533718 -0.058173093528320549 0 0.3819720770097132 -0.042797732649465799 0 0.36545712718797291 -0.056820706468371521 0 0.39662841187955289 -0.01765158191889634 0 0.37831225193001822 -0.0089308101349801338 0 0.36857227099245798 -0.031454659457687613 0 0.3819720770097132 -0.042797732649465799 0 0.39662841187955289 -0.01765158191889634 0 0.36857227099245798 -0.031454659457687613 0 0.3819720770097132 -0.042797732649465799 0 0.39662841187955289 -0.01765158191889634 0 0.41807668105125001 -0.025547585748239569 0 0.40144320260693128 -0.044480297606227751 0 0.39662841187955289 -0.01765158191889634 0 0.39256602844795502 0.0050409065536643829 0 0.41128474674939258 0.0074945688116730847 0 0.39662841187955289 -0.01765158191889634 0 0.41128474674939258 0.0074945688116730847 0 0.39662841187955289 -0.01765158191889634 0 0.39256602844795502 0.0050409065536643829 0 0.39662841187955289 -0.01765158191889634 0 0.37831225193001822 -0.0089308101349801338 0 0.37447597730174847 0.0095799553022342526 0 0.37831225193001822 -0.0089308101349801338 0 0.35931857102837611 -0.010168671154215349 0 0.35147294938152568 -0.024515344370351379 0 0.35931857102837611 -0.010168671154215349 0 0.36857227099245798 -0.031454659457687613 0 0.37831225193001822 -0.0089308101349801338 0 0.35931857102837611 -0.010168671154215349 0 0.36857227099245798 -0.031454659457687613 0 0.35147294938152568 -0.024515344370351379 0 0.35931857102837611 -0.010168671154215349 0 0.33313876252164548 -0.015652314364653148 0 0.34829817786367551 0.0084273579501304846 0 0.35931857102837611 -0.010168671154215349 0 0.33313876252164548 -0.015652314364653148 0 0.34829817786367551 0.0084273579501304846 0 0.33313876252164548 -0.015652314364653148 0 0.34829817786367551 0.0084273579501304846 0 0.31839539554110913 0.0037088833068538809 0 0.33313876252164548 -0.015652314364653148 0 0.35147294938152568 -0.024515344370351379 0 0.33313876252164548 -0.015652314364653148 0 0.34486219298362331 -0.040785732504849431 0 0.33313876252164548 -0.015652314364653148 0 0.31797934717961568 -0.039731986679436691 0 0.33313876252164548 -0.015652314364653148 0 0.31797934717961568 -0.039731986679436691 0 0.30312594279676469 -0.01126251296696487 0 0.31839539554110913 0.0037088833068538809 0 0.33313876252164548 -0.015652314364653148 0 0.30312594279676469 -0.01126251296696487 0 0.31797934717961568 -0.039731986679436691 0 0.32280242921960511 -0.064822978408236268 0 0.30281993183758582 -0.063811658994220241 0 0.31797934717961568 -0.039731986679436691 0 0.33302980242113922 -0.052691266792776748 0 0.32280242921960511 -0.064822978408236268 0 0.31797934717961568 -0.039731986679436691 0 0.33302980242113922 -0.052691266792776748 0 0.34486219298362331 -0.040785732504849431 0 0.33313876252164548 -0.015652314364653148 0 0.31797934717961568 -0.039731986679436691 0 0.34486219298362331 -0.040785732504849431 0 0.33302980242113922 -0.052691266792776748 0 0.34486219298362331 -0.040785732504849431 0 0.34353964836079942 -0.065492948973077475 0 0.33302980242113922 -0.052691266792776748 0 0.34353964836079942 -0.065492948973077475 0 0.32280242921960511 -0.064822978408236268 0 0.34486219298362331 -0.040785732504849431 0 0.36545712718797291 -0.056820706468371521 0 0.34353964836079942 -0.065492948973077475 0 0.35147294938152568 -0.024515344370351379 0 0.34486219298362331 -0.040785732504849431 0 0.36857227099245798 -0.031454659457687613 0 0.3819720770097132 -0.042797732649465799 0 0.36857227099245798 -0.031454659457687613 0 0.36545712718797291 -0.056820706468371521 0 0.34486219298362331 -0.040785732504849431 0 0.36857227099245798 -0.031454659457687613 0 0.36545712718797291 -0.056820706468371521 0 0.36857227099245798 -0.031454659457687613 0 0.36545712718797291 -0.056820706468371521 0 0.38256530449669662 -0.078990071840363149 0 0.36545712718797291 -0.056820706468371521 0 0.36234198338348778 -0.082186753479055408 0 0.36545712718797291 -0.056820706468371521 0 0.36234198338348778 -0.082186753479055408 0 0.38256530449669662 -0.078990071840363149 0 0.37952459695937357 -0.1060214159295267 0 0.36234198338348778 -0.082186753479055408 0 0.36234198338348778 -0.082186753479055408 0 0.34583169372648248 -0.088917554470044485 0 0.3592268395790027 -0.10755280048973929 0 0.36234198338348778 -0.082186753479055408 0 0.34583169372648248 -0.088917554470044485 0 0.34353964836079942 -0.065492948973077475 0 0.36545712718797291 -0.056820706468371521 0 0.36234198338348778 -0.082186753479055408 0 0.34353964836079942 -0.065492948973077475 0 0.36687133745860512 -0.1213659082631299 0 0.3592268395790027 -0.10755280048973929 0 0.35611169577451762 -0.13291884750042329 0 0.37952459695937357 -0.1060214159295267 0 0.36687133745860512 -0.1213659082631299 0 0.3592268395790027 -0.10755280048973929 0 0.37867726989722139 -0.11898856050058269 0 0.36687133745860512 -0.1213659082631299 0 0.37934526714571698 -0.12786193233624291 0 0.37952459695937357 -0.1060214159295267 0 0.36234198338348778 -0.082186753479055408 0 0.3592268395790027 -0.10755280048973929 0 0.36234198338348778 -0.082186753479055408 0 0.3592268395790027 -0.10755280048973929 0 0.34583169372648248 -0.088917554470044485 0 0.3592268395790027 -0.10755280048973929 0 0.33407735792843579 -0.10475846617948111 0 0.3592268395790027 -0.10755280048973929 0 0.34451815611333692 -0.12244443903013021 0 0.35611169577451762 -0.13291884750042329 0 0.3592268395790027 -0.10755280048973929 0 0.34451815611333692 -0.12244443903013021 0 0.33407735792843579 -0.10475846617948111 0 0.3592268395790027 -0.10755280048973929 0 0.35611169577451762 -0.13291884750042329 0 0.34451815611333692 -0.12244443903013021 0 0.32895781439821231 -0.1238583557131271 0 0.33407735792843579 -0.10475846617948111 0 0.33407735792843579 -0.10475846617948111 0 0.32021081120812989 -0.096372746223671368 0 0.31028515713160387 -0.1099609404297047 0 0.32021081120812989 -0.096372746223671368 0 0.30924472291080091 -0.084043358981197649 0 0.31028515713160387 -0.1099609404297047 0 0.33407735792843579 -0.10475846617948111 0 0.32021081120812989 -0.096372746223671368 0 0.32943664553974361 -0.083184509246024718 0 0.32895781439821231 -0.1238583557131271 0 0.33407735792843579 -0.10475846617948111 0 0.31028515713160387 -0.1099609404297047 0 0.32895781439821231 -0.1238583557131271 0 0.31028515713160387 -0.1099609404297047 0 0.31416361058857512 -0.1257411416618846 0 0.32895781439821231 -0.1238583557131271 0 0.31028515713160387 -0.1099609404297047 0 0.34353964836079942 -0.065492948973077475 0 0.32943664553974361 -0.083184509246024718 0 0.32280242921960511 -0.064822978408236268 0 0.34583169372648248 -0.088917554470044485 0 0.34353964836079942 -0.065492948973077475 0 0.32943664553974361 -0.083184509246024718 0 0.34583169372648248 -0.088917554470044485 0 0.33407735792843579 -0.10475846617948111 0 0.32943664553974361 -0.083184509246024718 0 0.32021081120812989 -0.096372746223671368 0 0.32943664553974361 -0.083184509246024718 0 0.30924472291080091 -0.084043358981197649 0 0.32943664553974361 -0.083184509246024718 0 0.32280242921960511 -0.064822978408236268 0 0.30924472291080091 -0.084043358981197649 0 0.32280242921960511 -0.064822978408236268 0 0.30281993183758582 -0.063811658994220241 0 0.30924472291080091 -0.084043358981197649 0 0.30281993183758582 -0.063811658994220241 0 0.30924472291080091 -0.084043358981197649 0 0.29560995487550529 -0.076736299999850627 0 0.30924472291080091 -0.084043358981197649 0 0.29560995487550529 -0.076736299999850627 0 0.2916124998649956 -0.096063525146282386 0 0.29560995487550529 -0.076736299999850627 0 0.2810137078625019 -0.074290960339693804 0 0.2778554394002295 -0.088274803992653694 0 0.29560995487550529 -0.076736299999850627 0 0.2916124998649956 -0.096063525146282386 0 0.2778554394002295 -0.088274803992653694 0 0.28406264274403142 -0.062584053211425669 0 0.29560995487550529 -0.076736299999850627 0 0.2810137078625019 -0.074290960339693804 0 0.30281993183758582 -0.063811658994220241 0 0.28406264274403142 -0.062584053211425669 0 0.29560995487550529 -0.076736299999850627 0 0.31028515713160387 -0.1099609404297047 0 0.29386827541947019 -0.1143788519092884 0 0.30100003341970238 -0.1288840262782221 0 0.31028515713160387 -0.1099609404297047 0 0.30100003341970238 -0.1288840262782221 0 0.31416361058857512 -0.1257411416618846 0 0.30924472291080091 -0.084043358981197649 0 0.31028515713160387 -0.1099609404297047 0 0.2916124998649956 -0.096063525146282386 0 0.31028515713160387 -0.1099609404297047 0 0.2916124998649956 -0.096063525146282386 0 0.31028515713160387 -0.1099609404297047 0 0.2916124998649956 -0.096063525146282386 0 0.29386827541947019 -0.1143788519092884 0 0.2916124998649956 -0.096063525146282386 0 0.29386827541947019 -0.1143788519092884 0 0.27559535103823302 -0.1174327644075662 0 0.29386827541947019 -0.1143788519092884 0 0.27559535103823302 -0.1174327644075662 0 0.2889900094259964 -0.125854928553322 0 0.29386827541947019 -0.1143788519092884 0 0.2889900094259964 -0.125854928553322 0 0.30100003341970238 -0.1288840262782221 0 0.27559535103823302 -0.1174327644075662 0 0.26854277136608629 -0.10125642915328251 0 0.25537680361060161 -0.1093239374920217 0 0.2916124998649956 -0.096063525146282386 0 0.26854277136608629 -0.10125642915328251 0 0.2778554394002295 -0.088274803992653694 0 0.2916124998649956 -0.096063525146282386 0 0.27559535103823302 -0.1174327644075662 0 0.26854277136608629 -0.10125642915328251 0 0.26854277136608629 -0.10125642915328251 0 0.25668472626630778 -0.097145337668056261 0 0.26257767387449549 -0.088191676296663177 0 0.25668472626630778 -0.097145337668056261 0 0.25537680361060161 -0.1093239374920217 0 0.24637425015114589 -0.097205074120530935 0 0.25668472626630778 -0.097145337668056261 0 0.25028343709017847 -0.088616175199920003 0 0.24637425015114589 -0.097205074120530935 0 0.26854277136608629 -0.10125642915328251 0 0.25668472626630778 -0.097145337668056261 0 0.25537680361060161 -0.1093239374920217 0 0.25537680361060161 -0.1093239374920217 0 0.25714316953967481 -0.12625740199524019 0 0.24817113923659859 -0.117360442065467 0 0.27559535103823302 -0.1174327644075662 0 0.25537680361060161 -0.1093239374920217 0 0.25714316953967481 -0.12625740199524019 0 0.26762324801346993 -0.075800638439406112 0 0.27015731473485621 -0.063654005112042 0 0.2810137078625019 -0.074290960339693804 0 0.28406264274403142 -0.062584053211425669 0 0.27015731473485621 -0.063654005112042 0 0.2810137078625019 -0.074290960339693804 0 0.26762324801346993 -0.075800638439406112 0 0.2810137078625019 -0.074290960339693804 0 0.2778554394002295 -0.088274803992653694 0 0.26854277136608629 -0.10125642915328251 0 0.2778554394002295 -0.088274803992653694 0 0.26257767387449549 -0.088191676296663177 0 0.26762324801346993 -0.075800638439406112 0 0.2778554394002295 -0.088274803992653694 0 0.26257767387449549 -0.088191676296663177 0 0.26762324801346993 -0.075800638439406112 0 0.26257767387449549 -0.088191676296663177 0 0.25498484230186258 -0.077574364109742305 0 0.25668472626630778 -0.097145337668056261 0 0.26257767387449549 -0.088191676296663177 0 0.25028343709017847 -0.088616175199920003 0 0.26257767387449549 -0.088191676296663177 0 0.25028343709017847 -0.088616175199920003 0 0.25498484230186258 -0.077574364109742305 0 0.25498484230186258 -0.077574364109742305 0 0.25817642240957328 -0.066304374468232841 0 0.2477454720430278 -0.068052074955554667 0 0.26762324801346993 -0.075800638439406112 0 0.25498484230186258 -0.077574364109742305 0 0.25817642240957328 -0.066304374468232841 0 0.26762324801346993 -0.075800638439406112 0 0.27015731473485621 -0.063654005112042 0 0.25817642240957328 -0.066304374468232841 0 0.25817642240957328 -0.066304374468232841 0 0.25649367245638999 -0.053415419680380147 0 0.2477454720430278 -0.068052074955554667 0 0.25649367245638999 -0.053415419680380147 0 0.27357419492317059 -0.049528584533113457 0 0.26414118217340482 -0.03923778172304547 0 0.27015731473485621 -0.063654005112042 0 0.25817642240957328 -0.066304374468232841 0 0.25649367245638999 -0.053415419680380147 0 0.27015731473485621 -0.063654005112042 0 0.25649367245638999 -0.053415419680380147 0 0.27357419492317059 -0.049528584533113457 0 0.28406264274403142 -0.062584053211425669 0 0.27015731473485621 -0.063654005112042 0 0.27357419492317059 -0.049528584533113457 0 0.28042490602624037 -0.031914421542565838 0 0.26414118217340482 -0.03923778172304547 0 0.25923744245051328 -0.023643412789666789 0 0.27357419492317059 -0.049528584533113457 0 0.28042490602624037 -0.031914421542565838 0 0.26414118217340482 -0.03923778172304547 0 0.26414118217340482 -0.03923778172304547 0 0.25097569501070971 -0.037687070069501123 0 0.25923744245051328 -0.023643412789666789 0 0.25649367245638999 -0.053415419680380147 0 0.26414118217340482 -0.03923778172304547 0 0.25097569501070971 -0.037687070069501123 0 0.25649367245638999 -0.053415419680380147 0 0.25097569501070971 -0.037687070069501123 0 0.2445366516472994 -0.047559521227277211 0 0.25097569501070971 -0.037687070069501123 0 0.25923744245051328 -0.023643412789666789 0 0.24002944727437761 -0.0280160369161764 0 0.25923744245051328 -0.023643412789666789 0 0.25421330537797993 -0.0064747013630946093 0 0.26943033477865169 -0.01137929120961546 0 0.25843576353106312 0.0091558391233349454 0 0.25421330537797993 -0.0064747013630946093 0 0.26943033477865169 -0.01137929120961546 0 0.25843576353106312 0.0091558391233349454 0 0.26943033477865169 -0.01137929120961546 0 0.25923744245051328 -0.023643412789666789 0 0.25421330537797993 -0.0064747013630946093 0 0.24520833016895319 -0.015320588585169241 0 0.28042490602624037 -0.031914421542565838 0 0.26943033477865169 -0.01137929120961546 0 0.28624791255345389 -0.0025993173291637851 0 0.28042490602624037 -0.031914421542565838 0 0.25923744245051328 -0.023643412789666789 0 0.26943033477865169 -0.01137929120961546 0 0.28042490602624037 -0.031914421542565838 0 0.26943033477865169 -0.01137929120961546 0 0.28042490602624037 -0.031914421542565838 0 0.30312594279676469 -0.01126251296696487 0 0.29896242963250758 -0.034562900920462568 0 0.29942071844104678 0.01357095826336532 0 0.28624791255345389 -0.0025993173291637851 0 0.30312594279676469 -0.01126251296696487 0 0.28042490602624037 -0.031914421542565838 0 0.28624791255345389 -0.0025993173291637851 0 0.30312594279676469 -0.01126251296696487 0 0.31797934717961568 -0.039731986679436691 0 0.30312594279676469 -0.01126251296696487 0 0.29896242963250758 -0.034562900920462568 0 0.31797934717961568 -0.039731986679436691 0 0.29896242963250758 -0.034562900920462568 0 0.29141947727382911 -0.052449551875516157 0 0.31797934717961568 -0.039731986679436691 0 0.30281993183758582 -0.063811658994220241 0 0.29141947727382911 -0.052449551875516157 0 0.31797934717961568 -0.039731986679436691 0 0.30281993183758582 -0.063811658994220241 0 0.30281993183758582 -0.063811658994220241 0 0.28406264274403142 -0.062584053211425669 0 0.29141947727382911 -0.052449551875516157 0 0.28406264274403142 -0.062584053211425669 0 0.27357419492317059 -0.049528584533113457 0 0.29141947727382911 -0.052449551875516157 0 0.27357419492317059 -0.049528584533113457 0 0.28042490602624037 -0.031914421542565838 0 0.29141947727382911 -0.052449551875516157 0 0.28042490602624037 -0.031914421542565838 0 0.29141947727382911 -0.052449551875516157 0 0.28042490602624037 -0.031914421542565838 0 0.29896242963250758 -0.034562900920462568 0 0.29141947727382911 -0.052449551875516157 0 0.29027794704362753 -0.210438230376047 0 0.29633044677016263 -0.195901297387581 0 0.27040190929638058 -0.2052436935248533 0 0.29027794704362753 -0.210438230376047 0 0.28418290850395711 -0.2243860114821494 0 0.27500762628273362 -0.21428172845855301 0 0.29633044677016263 -0.195901297387581 0 0.27040190929638058 -0.2052436935248533 0 0.29633044677016263 -0.195901297387581 0 0.32222933150798722 -0.1865695855245772 0 0.31600320587805553 -0.21287234257384771 0 0.29633044677016263 -0.195901297387581 0 0.32222933150798722 -0.1865695855245772 0 0.29633044677016263 -0.195901297387581 0 0.31600320587805553 -0.21287234257384771 0 0.29027794704362753 -0.210438230376047 0 0.29995521209158987 -0.22449123532283499 0 0.31600320587805553 -0.21287234257384771 0 0.29027794704362753 -0.210438230376047 0 0.29633044677016263 -0.195901297387581 0 0.31600320587805553 -0.21287234257384771 0 0.29995521209158987 -0.22449123532283499 0 0.29374351144436228 -0.23742812762270171 0 0.31371984494433958 -0.23379526266890979 0 0.29995521209158987 -0.22449123532283499 0 0.31600320587805553 -0.21287234257384771 0 0.31371984494433958 -0.23379526266890979 0 0.29374351144436228 -0.23742812762270171 0 0.31371984494433958 -0.23379526266890979 0 0.30497721120055121 -0.2528550804722447 0 0.29374351144436228 -0.23742812762270171 0 0.28190586271836621 -0.2482709691267555 0 0.30497721120055121 -0.2528550804722447 0 0.29374351144436228 -0.23742812762270171 0 0.28190586271836621 -0.2482709691267555 0 0.27371623876408652 -0.23304464177302289 0 0.29995521209158987 -0.22449123532283499 0 0.29374351144436228 -0.23742812762270171 0 0.28418290850395711 -0.2243860114821494 0 0.29374351144436228 -0.23742812762270171 0 0.28418290850395711 -0.2243860114821494 0 0.27371623876408652 -0.23304464177302289 0 0.29027794704362753 -0.210438230376047 0 0.29995521209158987 -0.22449123532283499 0 0.28418290850395711 -0.2243860114821494 0 0.28418290850395711 -0.2243860114821494 0 0.27371623876408652 -0.23304464177302289 0 0.27067066375116983 -0.22213137782245029 0 0.27371623876408652 -0.23304464177302289 0 0.27067066375116983 -0.22213137782245029 0 0.25581560275970988 -0.22328036523005279 0 0.28418290850395711 -0.2243860114821494 0 0.27067066375116983 -0.22213137782245029 0 0.27500762628273362 -0.21428172845855301 0 0.28190586271836621 -0.2482709691267555 0 0.2588345142361817 -0.2436868577812632 0 0.28190586271836621 -0.2482709691267555 0 0.27371623876408652 -0.23304464177302289 0 0.2588345142361817 -0.2436868577812632 0 0.2588345142361817 -0.2436868577812632 0 0.25197439650864428 -0.24232380162828601 0 0.25066576011535319 -0.23432551104963531 0 0.2588345142361817 -0.2436868577812632 0 0.25323092408648729 -0.24670316067535791 0 0.25386491405316808 -0.25320302537436762 0 0.2588345142361817 -0.2436868577812632 0 0.25197439650864428 -0.24232380162828601 0 0.25323092408648729 -0.24670316067535791 0 0.2588345142361817 -0.2436868577812632 0 0.25197439650864428 -0.24232380162828601 0 0.25197439650864428 -0.24232380162828601 0 0.25323092408648729 -0.24670316067535791 0 0.248249871547954 -0.24759895791751499 0 0.25323092408648729 -0.24670316067535791 0 0.25386491405316808 -0.25320302537436762 0 0.248249871547954 -0.24759895791751499 0 0.2588345142361817 -0.2436868577812632 0 0.25066576011535319 -0.23432551104963531 0 0.25581560275970988 -0.22328036523005279 0 0.27371623876408652 -0.23304464177302289 0 0.2588345142361817 -0.2436868577812632 0 0.25581560275970988 -0.22328036523005279 0 0.2588345142361817 -0.2436868577812632 0 0.25581560275970988 -0.22328036523005279 0 0.27371623876408652 -0.23304464177302289 0 0.25581560275970988 -0.22328036523005279 0 0.27067066375116983 -0.22213137782245029 0 0.25581560275970988 -0.22328036523005279 0 0.2646309424453645 -0.21566414216847321 0 0.25581560275970988 -0.22328036523005279 0 0.2540204803298135 -0.21114613977177321 0 0.25581560275970988 -0.22328036523005279 0 0.2540204803298135 -0.21114613977177321 0 0.24170514255856271 -0.21558351940183401 0 0.2540204803298135 -0.21114613977177321 0 0.27040190929638058 -0.2052436935248533 0 0.2540204803298135 -0.21114613977177321 0 0.27040190929638058 -0.2052436935248533 0 0.25881279457663681 -0.19869367513495079 0 0.2540204803298135 -0.21114613977177321 0 0.2646309424453645 -0.21566414216847321 0 0.27040190929638058 -0.2052436935248533 0 0.25581560275970988 -0.22328036523005279 0 0.2540204803298135 -0.21114613977177321 0 0.2646309424453645 -0.21566414216847321 0 0.29027794704362753 -0.210438230376047 0 0.27040190929638058 -0.2052436935248533 0 0.27500762628273362 -0.21428172845855301 0 0.2646309424453645 -0.21566414216847321 0 0.27040190929638058 -0.2052436935248533 0 0.27500762628273362 -0.21428172845855301 0 0.27067066375116983 -0.22213137782245029 0 0.2646309424453645 -0.21566414216847321 0 0.27500762628273362 -0.21428172845855301 0 0.27040190929638058 -0.2052436935248533 0 0.27500762628273362 -0.21428172845855301 0 0.29633044677016263 -0.195901297387581 0 0.27040190929638058 -0.2052436935248533 0 0.27667387139246707 -0.17894421337549499 0 0.27040190929638058 -0.2052436935248533 0 0.26542812833690349 -0.1897510134221613 0 0.27667387139246707 -0.17894421337549499 0 0.27040190929638058 -0.2052436935248533 0 0.25881279457663681 -0.19869367513495079 0 0.26032421605240202 -0.1854677186093141 0 0.2540204803298135 -0.21114613977177321 0 0.25062543226040762 -0.18819713193262769 0 0.27040190929638058 -0.2052436935248533 0 0.26542812833690349 -0.1897510134221613 0 0.26032421605240202 -0.1854677186093141 0 0.2540204803298135 -0.21114613977177321 0 0.25881279457663681 -0.19869367513495079 0 0.25062543226040762 -0.18819713193262769 0 0.27040190929638058 -0.2052436935248533 0 0.26032421605240202 -0.1854677186093141 0 0.25881279457663681 -0.19869367513495079 0 0.25062543226040762 -0.18819713193262769 0 0.26032421605240202 -0.1854677186093141 0 0.25062543226040762 -0.18819713193262769 0 0.26032421605240202 -0.1854677186093141 0 0.25024652280842458 -0.16569174369377421 0 0.26032421605240202 -0.1854677186093141 0 0.25024652280842458 -0.16569174369377421 0 0.26032421605240202 -0.1854677186093141 0 0.25024652280842458 -0.16569174369377421 0 0.26358600699813839 -0.16765374126582569 0 0.26358600699813839 -0.16765374126582569 0 0.24524563438093519 -0.1518321022820697 0 0.24608907216877149 -0.15753336482950031 0 0.26358600699813839 -0.16765374126582569 0 0.24524563438093519 -0.1518321022820697 0 0.26358600699813839 -0.16765374126582569 0 0.25761523173290779 -0.15335629499607109 0 0.24524563438093519 -0.1518321022820697 0 0.25024652280842458 -0.16569174369377421 0 0.26358600699813839 -0.16765374126582569 0 0.24608907216877149 -0.15753336482950031 0 0.25024652280842458 -0.16569174369377421 0 0.26358600699813839 -0.16765374126582569 0 0.26358600699813839 -0.16765374126582569 0 0.26742670077740288 -0.1622255910678452 0 0.26485210115727659 -0.15590769583953751 0 0.26358600699813839 -0.16765374126582569 0 0.25761523173290779 -0.15335629499607109 0 0.26485210115727659 -0.15590769583953751 0 0.26742670077740288 -0.1622255910678452 0 0.29410636307742238 -0.16219214541309609 0 0.26358600699813839 -0.16765374126582569 0 0.26742670077740288 -0.1622255910678452 0 0.28512609189239629 -0.1708218993192567 0 0.26742670077740288 -0.1622255910678452 0 0.27573776582566201 -0.15670643055952799 0 0.29410636307742238 -0.16219214541309609 0 0.26358600699813839 -0.16765374126582569 0 0.28512609189239629 -0.1708218993192567 0 0.26742670077740288 -0.1622255910678452 0 0.27573776582566201 -0.15670643055952799 0 0.26485210115727659 -0.15590769583953751 0 0.26032421605240202 -0.1854677186093141 0 0.26358600699813839 -0.16765374126582569 0 0.27667387139246707 -0.17894421337549499 0 0.27667387139246707 -0.17894421337549499 0 0.28512609189239629 -0.1708218993192567 0 0.26542812833690349 -0.1897510134221613 0 0.26032421605240202 -0.1854677186093141 0 0.27667387139246707 -0.17894421337549499 0 0.26358600699813839 -0.16765374126582569 0 0.27667387139246707 -0.17894421337549499 0 0.28512609189239629 -0.1708218993192567 0 0.26542812833690349 -0.1897510134221613 0 0.27667387139246707 -0.17894421337549499 0 0.26358600699813839 -0.16765374126582569 0 0.27667387139246707 -0.17894421337549499 0 0.25714316953967481 -0.12625740199524019 0 0.25128781742515011 -0.13950093605967059 0 0.26223615253914528 -0.14393454235255221 0 0.25714316953967481 -0.12625740199524019 0 0.26223615253914528 -0.14393454235255221 0 0.26897520157625998 -0.1328870277942788 0 0.25714316953967481 -0.12625740199524019 0 0.25128781742515011 -0.13950093605967059 0 0.24180340605901829 -0.12856417701889181 0 0.26223615253914528 -0.14393454235255221 0 0.25368177802147079 -0.1472340405715877 0 0.25761523173290779 -0.15335629499607109 0 0.25128781742515011 -0.13950093605967059 0 0.25368177802147079 -0.1472340405715877 0 0.24524563438093519 -0.1518321022820697 0 0.25128781742515011 -0.13950093605967059 0 0.26223615253914528 -0.14393454235255221 0 0.25368177802147079 -0.1472340405715877 0 0.25368177802147079 -0.1472340405715877 0 0.25761523173290779 -0.15335629499607109 0 0.24524563438093519 -0.1518321022820697 0 0.26223615253914528 -0.14393454235255221 0 0.25761523173290779 -0.15335629499607109 0 0.26485210115727659 -0.15590769583953751 0 0.27573776582566201 -0.15670643055952799 0 0.26485210115727659 -0.15590769583953751 0 0.27085545307601661 -0.1511574255005918 0 0.26223615253914528 -0.14393454235255221 0 0.26485210115727659 -0.15590769583953751 0 0.27085545307601661 -0.1511574255005918 0 0.27573776582566201 -0.15670643055952799 0 0.27085545307601661 -0.1511574255005918 0 0.28193764797745752 -0.15202512143028021 0 0.27085545307601661 -0.1511574255005918 0 0.27609191515394288 -0.14289143374821081 0 0.28193764797745752 -0.15202512143028021 0 0.26223615253914528 -0.14393454235255221 0 0.27085545307601661 -0.1511574255005918 0 0.27609191515394288 -0.14289143374821081 0 0.27559535103823302 -0.1174327644075662 0 0.25714316953967481 -0.12625740199524019 0 0.26897520157625998 -0.1328870277942788 0 0.26223615253914528 -0.14393454235255221 0 0.27609191515394288 -0.14289143374821081 0 0.26897520157625998 -0.1328870277942788 0 0.27609191515394288 -0.14289143374821081 0 0.26897520157625998 -0.1328870277942788 0 0.28074997340674762 -0.1328481343337076 0 0.27559535103823302 -0.1174327644075662 0 0.26897520157625998 -0.1328870277942788 0 0.28074997340674762 -0.1328481343337076 0 0.27609191515394288 -0.14289143374821081 0 0.28074997340674762 -0.1328481343337076 0 0.29293372750021929 -0.14278356467441569 0 0.28074997340674762 -0.1328481343337076 0 0.2889900094259964 -0.125854928553322 0 0.29293372750021929 -0.14278356467441569 0 0.2889900094259964 -0.125854928553322 0 0.29293372750021929 -0.14278356467441569 0 0.30100003341970238 -0.1288840262782221 0 0.27559535103823302 -0.1174327644075662 0 0.28074997340674762 -0.1328481343337076 0 0.2889900094259964 -0.125854928553322 0 0.27609191515394288 -0.14289143374821081 0 0.29293372750021929 -0.14278356467441569 0 0.28193764797745752 -0.15202512143028021 0 0.29293372750021929 -0.14278356467441569 0 0.28193764797745752 -0.15202512143028021 0 0.29403746522192942 -0.15165929985547771 0 0.28193764797745752 -0.15202512143028021 0 0.29403746522192942 -0.15165929985547771 0 0.29410636307742238 -0.16219214541309609 0 0.29403746522192942 -0.15165929985547771 0 0.30717212233261859 -0.14963636790411899 0 0.29410636307742238 -0.16219214541309609 0 0.30717212233261859 -0.14963636790411899 0 0.29410636307742238 -0.16219214541309609 0 0.30717212233261859 -0.14963636790411899 0 0.30816088505568823 -0.1377125000266935 0 0.32023788158781491 -0.13708059039514181 0 0.29293372750021929 -0.14278356467441569 0 0.30717212233261859 -0.14963636790411899 0 0.30816088505568823 -0.1377125000266935 0 0.29293372750021929 -0.14278356467441569 0 0.29403746522192942 -0.15165929985547771 0 0.30717212233261859 -0.14963636790411899 0 0.29293372750021929 -0.14278356467441569 0 0.30816088505568823 -0.1377125000266935 0 0.30100003341970238 -0.1288840262782221 0 0.30816088505568823 -0.1377125000266935 0 0.30100003341970238 -0.1288840262782221 0 0.31416361058857512 -0.1257411416618846 0 0.29633044677016263 -0.195901297387581 0 0.27667387139246707 -0.17894421337549499 0 0.29636533853419061 -0.18084320761501821 0 0.29633044677016263 -0.195901297387581 0 0.27667387139246707 -0.17894421337549499 0 0.27667387139246707 -0.17894421337549499 0 0.29636533853419061 -0.18084320761501821 0 0.28512609189239629 -0.1708218993192567 0 0.27573776582566201 -0.15670643055952799 0 0.28193764797745752 -0.15202512143028021 0 0.29410636307742238 -0.16219214541309609 0 0.28512609189239629 -0.1708218993192567 0 0.29410636307742238 -0.16219214541309609 0 0.31001408801308561 -0.17448247474087991 0 0.26742670077740288 -0.1622255910678452 0 0.28512609189239629 -0.1708218993192567 0 0.29410636307742238 -0.16219214541309609 0 0.28512609189239629 -0.1708218993192567 0 0.29410636307742238 -0.16219214541309609 0 0.30717212233261859 -0.14963636790411899 0 0.29410636307742238 -0.16219214541309609 0 0.31504971029686563 -0.16216589080940139 0 0.29410636307742238 -0.16219214541309609 0 0.31001408801308561 -0.17448247474087991 0 0.31504971029686563 -0.16216589080940139 0 0.29410636307742238 -0.16219214541309609 0 0.31504971029686563 -0.16216589080940139 0 0.29636533853419061 -0.18084320761501821 0 0.28512609189239629 -0.1708218993192567 0 0.31001408801308561 -0.17448247474087991 0 0.28512609189239629 -0.1708218993192567 0 0.31001408801308561 -0.17448247474087991 0 0.29633044677016263 -0.195901297387581 0 0.31001408801308561 -0.17448247474087991 0 0.32222933150798722 -0.1865695855245772 0 0.29633044677016263 -0.195901297387581 0 0.29636533853419061 -0.18084320761501821 0 0.31001408801308561 -0.17448247474087991 0 0.31001408801308561 -0.17448247474087991 0 0.33490208413377481 -0.1781430501625024 0 0.31001408801308561 -0.17448247474087991 0 0.32222933150798722 -0.1865695855245772 0 0.33490208413377481 -0.1781430501625024 0 0.31001408801308561 -0.17448247474087991 0 0.3239897349900086 -0.16923276297962259 0 0.33490208413377481 -0.1781430501625024 0 0.31001408801308561 -0.17448247474087991 0 0.31504971029686563 -0.16216589080940139 0 0.3239897349900086 -0.16923276297962259 0 0.31504971029686563 -0.16216589080940139 0 0.33599305751630881 -0.16213963620570679 0 0.31504971029686563 -0.16216589080940139 0 0.33599305751630881 -0.16213963620570679 0 0.32177903056081408 -0.15047849468233479 0 0.31504971029686563 -0.16216589080940139 0 0.3239897349900086 -0.16923276297962259 0 0.33599305751630881 -0.16213963620570679 0 0.33599305751630881 -0.16213963620570679 0 0.33490208413377481 -0.1781430501625024 0 0.34690540666007491 -0.1710499233885866 0 0.3239897349900086 -0.16923276297962259 0 0.33599305751630881 -0.16213963620570679 0 0.33490208413377481 -0.1781430501625024 0 0.33490208413377481 -0.1781430501625024 0 0.34560695199872438 -0.19005754862271201 0 0.33353067179606188 -0.18982317789335329 0 0.32222933150798722 -0.1865695855245772 0 0.33490208413377481 -0.1781430501625024 0 0.33353067179606188 -0.18982317789335329 0 0.32895781439821231 -0.1238583557131271 0 0.32023788158781491 -0.13708059039514181 0 0.33380306993011671 -0.13735144632418769 0 0.32895781439821231 -0.1238583557131271 0 0.31416361058857512 -0.1257411416618846 0 0.32023788158781491 -0.13708059039514181 0 0.30816088505568823 -0.1377125000266935 0 0.31416361058857512 -0.1257411416618846 0 0.32023788158781491 -0.13708059039514181 0 0.32023788158781491 -0.13708059039514181 0 0.32177903056081408 -0.15047849468233479 0 0.33300422268548963 -0.14715074650075091 0 0.30717212233261859 -0.14963636790411899 0 0.32023788158781491 -0.13708059039514181 0 0.32177903056081408 -0.15047849468233479 0 0.30717212233261859 -0.14963636790411899 0 0.32023788158781491 -0.13708059039514181 0 0.30717212233261859 -0.14963636790411899 0 0.31504971029686563 -0.16216589080940139 0 0.32177903056081408 -0.15047849468233479 0 0.33599305751630881 -0.16213963620570679 0 0.32177903056081408 -0.15047849468233479 0 0.33300422268548963 -0.14715074650075091 0 0.33599305751630881 -0.16213963620570679 0 0.34184469136461137 -0.15400459131780189 0 0.33300422268548963 -0.14715074650075091 0 0.34184469136461137 -0.15400459131780189 0 0.34102695255118037 -0.14548713102568411 0 0.33300422268548963 -0.14715074650075091 0 0.34102695255118037 -0.14548713102568411 0 0.33300422268548963 -0.14715074650075091 0 0.33380306993011671 -0.13735144632418769 0 0.34451815611333692 -0.12244443903013021 0 0.32895781439821231 -0.1238583557131271 0 0.34763047166482058 -0.13775577099654959 0 0.32895781439821231 -0.1238583557131271 0 0.33380306993011671 -0.13735144632418769 0 0.34763047166482058 -0.13775577099654959 0 0.32895781439821231 -0.1238583557131271 0 0.34763047166482058 -0.13775577099654959 0 0.32023788158781491 -0.13708059039514181 0 0.33300422268548963 -0.14715074650075091 0 0.33380306993011671 -0.13735144632418769 0 0.34102695255118037 -0.14548713102568411 0 0.33380306993011671 -0.13735144632418769 0 0.34763047166482058 -0.13775577099654959 0 0.34451815611333692 -0.12244443903013021 0 0.34763047166482058 -0.13775577099654959 0 0.35611169577451762 -0.13291884750042329 0 0.34763047166482058 -0.13775577099654959 0 0.35611169577451762 -0.13291884750042329 0 0.36249251937016669 -0.13851173098105801 0 0.34763047166482058 -0.13775577099654959 0 0.36260606054103928 -0.14387930707110819 0 0.36249251937016669 -0.13851173098105801 0 0.34763047166482058 -0.13775577099654959 0 0.36300229719017729 -0.15180929521568651 0 0.36630312893142891 -0.15165318627997221 0 0.34763047166482058 -0.13775577099654959 0 0.36630312893142891 -0.15165318627997221 0 0.34763047166482058 -0.13775577099654959 0 0.36630312893142891 -0.15165318627997221 0 0.36260606054103928 -0.14387930707110819 0 0.34763047166482058 -0.13775577099654959 0 0.34970586770367951 -0.15091934852983979 0 0.36300229719017729 -0.15180929521568651 0 0.34102695255118037 -0.14548713102568411 0 0.34763047166482058 -0.13775577099654959 0 0.34970586770367951 -0.15091934852983979 0 0.34184469136461137 -0.15400459131780189 0 0.34102695255118037 -0.14548713102568411 0 0.34970586770367951 -0.15091934852983979 0 0.34184469136461137 -0.15400459131780189 0 0.34970586770367951 -0.15091934852983979 0 0.35693640473575189 -0.16211338160201219 0 0.34970586770367951 -0.15091934852983979 0 0.35613071560112852 -0.15470157966812739 0 0.35693640473575189 -0.16211338160201219 0 0.34970586770367951 -0.15091934852983979 0 0.35613071560112852 -0.15470157966812739 0 0.36300229719017729 -0.15180929521568651 0 0.35613071560112852 -0.15470157966812739 0 0.36300229719017729 -0.15180929521568651 0 0.36489622701181929 -0.1555148176802521 0 0.36300229719017729 -0.15180929521568651 0 0.36630312893142891 -0.15165318627997221 0 0.36300229719017729 -0.15180929521568651 0 0.36630312893142891 -0.15165318627997221 0 0.36489622701181929 -0.1555148176802521 0 0.36630312893142891 -0.15165318627997221 0 0.36489622701181929 -0.1555148176802521 0 0.3705748087045091 -0.15483245031918569 0 0.36630312893142891 -0.15165318627997221 0 0.3705748087045091 -0.15483245031918569 0 0.38169179162591199 -0.15518408856159679 0 0.36630312893142891 -0.15165318627997221 0 0.3705748087045091 -0.15483245031918569 0 0.36630312893142891 -0.15165318627997221 0 0.36755991562152518 -0.1469017772041471 0 0.37313699566520231 -0.1480168571040065 0 0.36755991562152518 -0.1469017772041471 0 0.37313699566520231 -0.1480168571040065 0 0.36895084966996172 -0.14328651858434571 0 0.37313699566520231 -0.1480168571040065 0 0.37420086480716408 -0.1416071316206837 0 0.36895084966996172 -0.14328651858434571 0 0.36895084966996172 -0.14328651858434571 0 0.36260606054103928 -0.14387930707110819 0 0.36249251937016669 -0.13851173098105801 0 0.36630312893142891 -0.15165318627997221 0 0.36755991562152518 -0.1469017772041471 0 0.36260606054103928 -0.14387930707110819 0 0.36755991562152518 -0.1469017772041471 0 0.36895084966996172 -0.14328651858434571 0 0.36260606054103928 -0.14387930707110819 0 0.35611169577451762 -0.13291884750042329 0 0.36249251937016669 -0.13851173098105801 0 0.36471155533314309 -0.13279719099472551 0 0.36249251937016669 -0.13851173098105801 0 0.37267421445309079 -0.13604810540039131 0 0.36471155533314309 -0.13279719099472551 0 0.36895084966996172 -0.14328651858434571 0 0.36249251937016669 -0.13851173098105801 0 0.37267421445309079 -0.13604810540039131 0 0.37420086480716408 -0.1416071316206837 0 0.36895084966996172 -0.14328651858434571 0 0.37267421445309079 -0.13604810540039131 0 0.36687133745860512 -0.1213659082631299 0 0.37267421445309079 -0.13604810540039131 0 0.37934526714571698 -0.12786193233624291 0 0.36687133745860512 -0.1213659082631299 0 0.37267421445309079 -0.13604810540039131 0 0.36471155533314309 -0.13279719099472551 0 0.36687133745860512 -0.1213659082631299 0 0.35611169577451762 -0.13291884750042329 0 0.36471155533314309 -0.13279719099472551 0 0.33490208413377481 -0.1781430501625024 0 0.34690540666007491 -0.1710499233885866 0 0.35979008025446407 -0.18180362558412499 0 0.33490208413377481 -0.1781430501625024 0 0.35979008025446407 -0.18180362558412499 0 0.34560695199872438 -0.19005754862271201 0 0.33490208413377481 -0.1781430501625024 0 0.35979008025446407 -0.18180362558412499 0 0.33599305751630881 -0.16213963620570679 0 0.35693640473575189 -0.16211338160201219 0 0.33599305751630881 -0.16213963620570679 0 0.34184469136461137 -0.15400459131780189 0 0.35693640473575189 -0.16211338160201219 0 0.33599305751630881 -0.16213963620570679 0 0.34690540666007491 -0.1710499233885866 0 0.35693640473575189 -0.16211338160201219 0 0.34690540666007491 -0.1710499233885866 0 0.35693640473575189 -0.16211338160201219 0 0.35979008025446407 -0.18180362558412499 0 0.35613071560112852 -0.15470157966812739 0 0.35693640473575189 -0.16211338160201219 0 0.36394621224956419 -0.1598639222781538 0 0.35693640473575189 -0.16211338160201219 0 0.36994828377527827 -0.16794445722425241 0 0.35979008025446407 -0.18180362558412499 0 0.35613071560112852 -0.15470157966812739 0 0.36489622701181929 -0.1555148176802521 0 0.36394621224956419 -0.1598639222781538 0 0.35693640473575189 -0.16211338160201219 0 0.36394621224956419 -0.1598639222781538 0 0.36994828377527827 -0.16794445722425241 0 0.36489622701181929 -0.1555148176802521 0 0.36394621224956419 -0.1598639222781538 0 0.3701206054386712 -0.16075078407834481 0 0.36394621224956419 -0.1598639222781538 0 0.3701206054386712 -0.16075078407834481 0 0.36994828377527827 -0.16794445722425241 0 0.36489622701181929 -0.1555148176802521 0 0.3705748087045091 -0.15483245031918569 0 0.3701206054386712 -0.16075078407834481 0 0.3701206054386712 -0.16075078407834481 0 0.36994828377527827 -0.16794445722425241 0 0.37544308960223038 -0.1612723916201502 0 0.3705748087045091 -0.15483245031918569 0 0.3701206054386712 -0.16075078407834481 0 0.37544308960223038 -0.1612723916201502 0 0.35979008025446407 -0.18180362558412499 0 0.38454256259675512 -0.19152135360312181 0 0.37959461904936381 -0.17768443351098989 0 0.36994828377527827 -0.16794445722425241 0 0.35979008025446407 -0.18180362558412499 0 0.37959461904936381 -0.17768443351098989 0 0.35979008025446407 -0.18180362558412499 0 0.3588701023512762 -0.19863102322489029 0 0.38454256259675512 -0.19152135360312181 0 0.36820913577280923 -0.2126592136090513 0 0.3588701023512762 -0.19863102322489029 0 0.38454256259675512 -0.19152135360312181 0 0.34793537609164399 -0.2152770821942504 0 0.3588701023512762 -0.19863102322489029 0 0.34094182145804491 -0.20188686624868879 0 0.36820913577280923 -0.2126592136090513 0 0.34793537609164399 -0.2152770821942504 0 0.3588701023512762 -0.19863102322489029 0 0.35979008025446407 -0.18180362558412499 0 0.3588701023512762 -0.19863102322489029 0 0.34560695199872438 -0.19005754862271201 0 0.3588701023512762 -0.19863102322489029 0 0.34560695199872438 -0.19005754862271201 0 0.34094182145804491 -0.20188686624868879 0 0.34560695199872438 -0.19005754862271201 0 0.33353067179606188 -0.18982317789335329 0 0.34094182145804491 -0.20188686624868879 0 0.32222933150798722 -0.1865695855245772 0 0.33353067179606188 -0.18982317789335329 0 0.32929273892129929 -0.20063857095823109 0 0.33353067179606188 -0.18982317789335329 0 0.32929273892129929 -0.20063857095823109 0 0.34094182145804491 -0.20188686624868879 0 0.34793537609164399 -0.2152770821942504 0 0.34094182145804491 -0.20188686624868879 0 0.33375866396634718 -0.21204088255068851 0 0.33375866396634718 -0.21204088255068851 0 0.31600320587805553 -0.21287234257384771 0 0.33567596498594909 -0.22984338776011351 0 0.32929273892129929 -0.20063857095823109 0 0.34094182145804491 -0.20188686624868879 0 0.33375866396634718 -0.21204088255068851 0 0.32929273892129929 -0.20063857095823109 0 0.33375866396634718 -0.21204088255068851 0 0.31600320587805553 -0.21287234257384771 0 0.32222933150798722 -0.1865695855245772 0 0.32929273892129929 -0.20063857095823109 0 0.31600320587805553 -0.21287234257384771 0 0.32653859469191748 -0.24178225554840641 0 0.31371984494433958 -0.23379526266890979 0 0.33567596498594909 -0.22984338776011351 0 0.32653859469191748 -0.24178225554840641 0 0.31371984494433958 -0.23379526266890979 0 0.30497721120055121 -0.2528550804722447 0 0.31600320587805553 -0.21287234257384771 0 0.33567596498594909 -0.22984338776011351 0 0.31600320587805553 -0.21287234257384771 0 0.31371984494433958 -0.23379526266890979 0 0.33567596498594909 -0.22984338776011351 0 0.34793537609164399 -0.2152770821942504 0 0.33375866396634718 -0.21204088255068851 0 0.33567596498594909 -0.22984338776011351 0 0.32653859469191748 -0.24178225554840641 0 0.34032025475604288 -0.24597905592601871 0 0.32804855968273622 -0.25743919181773389 0 0.32653859469191748 -0.24178225554840641 0 0.33567596498594909 -0.22984338776011351 0 0.34032025475604288 -0.24597905592601871 0 0.33567596498594909 -0.22984338776011351 0 0.34032025475604288 -0.24597905592601871 0 0.35187570894886327 -0.2337970736149807 0 0.34032025475604288 -0.24597905592601871 0 0.35187570894886327 -0.2337970736149807 0 0.36772626503734462 -0.24296258440931301 0 0.36820913577280923 -0.2126592136090513 0 0.34793537609164399 -0.2152770821942504 0 0.35187570894886327 -0.2337970736149807 0 0.34793537609164399 -0.2152770821942504 0 0.33567596498594909 -0.22984338776011351 0 0.35187570894886327 -0.2337970736149807 0 0.36820913577280923 -0.2126592136090513 0 0.35187570894886327 -0.2337970736149807 0 0.36820913577280923 -0.2126592136090513 0 0.36803593291719611 -0.22833018432218519 0 0.38433262190976708 -0.22390186565539591 0 0.36820913577280923 -0.2126592136090513 0 0.35187570894886327 -0.2337970736149807 0 0.36803593291719611 -0.22833018432218519 0 0.36803593291719611 -0.22833018432218519 0 0.36772626503734462 -0.24296258440931301 0 0.38433262190976708 -0.22390186565539591 0 0.35187570894886327 -0.2337970736149807 0 0.36803593291719611 -0.22833018432218519 0 0.36772626503734462 -0.24296258440931301 0 0.36772626503734462 -0.24296258440931301 0 0.38564067262130652 -0.24145240856989039 0 0.38433262190976708 -0.22390186565539591 0 0.38564067262130652 -0.24145240856989039 0 0.40145004411333041 -0.2496888160430551 0 0.40164625255347108 -0.22434503779707851 0 0.36772626503734462 -0.24296258440931301 0 0.38433262190976708 -0.22390186565539591 0 0.38564067262130652 -0.24145240856989039 0 0.40164625255347108 -0.22434503779707851 0 0.38433262190976708 -0.22390186565539591 0 0.36820913577280923 -0.2126592136090513 0 0.38450582476538031 -0.20823089494226191 0 0.38454256259675512 -0.19152135360312181 0 0.36820913577280923 -0.2126592136090513 0 0.38433262190976708 -0.22390186565539591 0 0.38450582476538031 -0.20823089494226191 0 0.38433262190976708 -0.22390186565539591 0 0.38450582476538031 -0.20823089494226191 0 0.4009389787821897 -0.20484114690147881 0 0.38450582476538031 -0.20823089494226191 0 0.38454256259675512 -0.19152135360312181 0 0.4009389787821897 -0.20484114690147881 0 0.36820913577280923 -0.2126592136090513 0 0.38454256259675512 -0.19152135360312181 0 0.38454256259675512 -0.19152135360312181 0 0.40097571661356451 -0.18813160556233871 0 0.4009389787821897 -0.20484114690147881 0 0.38433262190976708 -0.22390186565539591 0 0.4009389787821897 -0.20484114690147881 0 0.40164625255347108 -0.22434503779707851 0 0.38433262190976708 -0.22390186565539591 0 0.4009389787821897 -0.20484114690147881 0 0.4009389787821897 -0.20484114690147881 0 0.42197140069364603 -0.20451959593293789 0 0.41797273543946079 -0.2214307613472668 0 0.40164625255347108 -0.22434503779707851 0 0.4009389787821897 -0.20484114690147881 0 0.41797273543946079 -0.2214307613472668 0 0.40097571661356451 -0.18813160556233871 0 0.4009389787821897 -0.20484114690147881 0 0.41754533565461222 -0.1857804281475616 0 0.4009389787821897 -0.20484114690147881 0 0.42197140069364603 -0.20451959593293789 0 0.41754533565461222 -0.1857804281475616 0 0.4009389787821897 -0.20484114690147881 0 0.41754533565461222 -0.1857804281475616 0 0.43418195274878052 -0.18916072511572829 0 0.42197140069364603 -0.20451959593293789 0 0.41754533565461222 -0.1857804281475616 0 0.43418195274878052 -0.18916072511572829 0 0.42197140069364603 -0.20451959593293789 0 0.43972182083517841 -0.20497935141943099 0 0.42197140069364603 -0.20451959593293789 0 0.43601308236479769 -0.22401782482047161 0 0.41797273543946079 -0.2214307613472668 0 0.42197140069364603 -0.20451959593293789 0 0.43601308236479769 -0.22401782482047161 0 0.43972182083517841 -0.20497935141943099 0 0.43601308236479769 -0.22401782482047161 0 0.41717534153579289 -0.23691120554676501 0 0.41797273543946079 -0.2214307613472668 0 0.43601308236479769 -0.22401782482047161 0 0.4290778299626834 -0.24702053500163029 0 0.41717534153579289 -0.23691120554676501 0 0.40145004411333041 -0.2496888160430551 0 0.40164625255347108 -0.22434503779707851 0 0.41717534153579289 -0.23691120554676501 0 0.4290778299626834 -0.24702053500163029 0 0.41717534153579289 -0.23691120554676501 0 0.41689210478101463 -0.25496425827108782 0 0.40145004411333041 -0.2496888160430551 0 0.41717534153579289 -0.23691120554676501 0 0.41689210478101463 -0.25496425827108782 0 0.40164625255347108 -0.22434503779707851 0 0.41717534153579289 -0.23691120554676501 0 0.41797273543946079 -0.2214307613472668 0 0.38773856045518612 -0.1436095047094976 0 0.40772513449223857 -0.12640229317473009 0 0.38896835962477971 -0.13190306515461811 0 0.38773856045518612 -0.1436095047094976 0 0.40772513449223857 -0.12640229317473009 0 0.38896787802519001 -0.1207049854734311 0 0.38896835962477971 -0.13190306515461811 0 0.40772513449223857 -0.12640229317473009 0 0.40192505034360793 -0.13987640102446561 0 0.38773856045518612 -0.1436095047094976 0 0.40772513449223857 -0.12640229317473009 0 0.38896787802519001 -0.1207049854734311 0 0.38896835962477971 -0.13190306515461811 0 0.37934526714571698 -0.12786193233624291 0 0.37267421445309079 -0.13604810540039131 0 0.37934526714571698 -0.12786193233624291 0 0.38047861840771863 -0.1393443798777575 0 0.37420086480716408 -0.1416071316206837 0 0.37267421445309079 -0.13604810540039131 0 0.38047861840771863 -0.1393443798777575 0 0.38896835962477971 -0.13190306515461811 0 0.38047861840771863 -0.1393443798777575 0 0.38773856045518612 -0.1436095047094976 0 0.38896835962477971 -0.13190306515461811 0 0.37934526714571698 -0.12786193233624291 0 0.38047861840771863 -0.1393443798777575 0 0.36630312893142891 -0.15165318627997221 0 0.37313699566520231 -0.1480168571040065 0 0.39175627258803852 -0.15044940993561889 0 0.36630312893142891 -0.15165318627997221 0 0.39175627258803852 -0.15044940993561889 0 0.38448738444913588 -0.14488404012349629 0 0.37797608634560043 -0.14613286597111111 0 0.39175627258803852 -0.15044940993561889 0 0.36630312893142891 -0.15165318627997221 0 0.38169179162591199 -0.15518408856159679 0 0.39175627258803852 -0.15044940993561889 0 0.37313699566520231 -0.1480168571040065 0 0.37797608634560043 -0.14613286597111111 0 0.39175627258803852 -0.15044940993561889 0 0.38773856045518612 -0.1436095047094976 0 0.38448738444913588 -0.14488404012349629 0 0.39175627258803852 -0.15044940993561889 0 0.38047861840771863 -0.1393443798777575 0 0.38773856045518612 -0.1436095047094976 0 0.38448738444913588 -0.14488404012349629 0 0.38047861840771863 -0.1393443798777575 0 0.38448738444913588 -0.14488404012349629 0 0.37797608634560043 -0.14613286597111111 0 0.37313699566520231 -0.1480168571040065 0 0.37420086480716408 -0.1416071316206837 0 0.37797608634560043 -0.14613286597111111 0 0.37420086480716408 -0.1416071316206837 0 0.38047861840771863 -0.1393443798777575 0 0.37797608634560043 -0.14613286597111111 0 0.38169179162591199 -0.15518408856159679 0 0.39175627258803852 -0.15044940993561889 0 0.39414613950458233 -0.16140920911323539 0 0.39175627258803852 -0.15044940993561889 0 0.39414613950458233 -0.16140920911323539 0 0.41720941624464802 -0.1492456335912643 0 0.40192505034360793 -0.13987640102446561 0 0.39647567435389153 -0.14427130524424761 0 0.41720941624464802 -0.1492456335912643 0 0.39175627258803852 -0.15044940993561889 0 0.41720941624464802 -0.1492456335912643 0 0.39175627258803852 -0.15044940993561889 0 0.39647567435389153 -0.14427130524424761 0 0.41720941624464802 -0.1492456335912643 0 0.40192505034360793 -0.13987640102446561 0 0.38773856045518612 -0.1436095047094976 0 0.39647567435389153 -0.14427130524424761 0 0.38773856045518612 -0.1436095047094976 0 0.39175627258803852 -0.15044940993561889 0 0.39647567435389153 -0.14427130524424761 0 0.40087598942070091 -0.17038349359719249 0 0.39414613950458233 -0.16140920911323539 0 0.38394561079447109 -0.16607588629584311 0 0.40087598942070091 -0.17038349359719249 0 0.39414613950458233 -0.16140920911323539 0 0.41720941624464802 -0.1492456335912643 0 0.38169179162591199 -0.15518408856159679 0 0.39414613950458233 -0.16140920911323539 0 0.38394561079447109 -0.16607588629584311 0 0.40087598942070091 -0.17038349359719249 0 0.38394561079447109 -0.16607588629584311 0 0.37959461904936381 -0.17768443351098989 0 0.3705748087045091 -0.15483245031918569 0 0.38169179162591199 -0.15518408856159679 0 0.37544308960223038 -0.1612723916201502 0 0.38169179162591199 -0.15518408856159679 0 0.37544308960223038 -0.1612723916201502 0 0.38394561079447109 -0.16607588629584311 0 0.36994828377527827 -0.16794445722425241 0 0.38394561079447109 -0.16607588629584311 0 0.37959461904936381 -0.17768443351098989 0 0.36994828377527827 -0.16794445722425241 0 0.37544308960223038 -0.1612723916201502 0 0.38394561079447109 -0.16607588629584311 0 0.38454256259675512 -0.19152135360312181 0 0.40087598942070091 -0.17038349359719249 0 0.37959461904936381 -0.17768443351098989 0 0.38454256259675512 -0.19152135360312181 0 0.40097571661356451 -0.18813160556233871 0 0.40087598942070091 -0.17038349359719249 0 0.38454256259675512 -0.19152135360312181 0 0.40087598942070091 -0.17038349359719249 0 0.40097571661356451 -0.18813160556233871 0 0.40087598942070091 -0.17038349359719249 0 0.41754533565461222 -0.1857804281475616 0 0.40087598942070091 -0.17038349359719249 0 0.41754533565461222 -0.1857804281475616 0 0.41822411837802509 -0.16605516805906281 0 0.43418195274878052 -0.18916072511572829 0 0.41754533565461222 -0.1857804281475616 0 0.43415169252703478 -0.16671970939364439 0 0.41754533565461222 -0.1857804281475616 0 0.43415169252703478 -0.16671970939364439 0 0.41754533565461222 -0.1857804281475616 0 0.43415169252703478 -0.16671970939364439 0 0.41822411837802509 -0.16605516805906281 0 0.42589223999294029 -0.1576182057898674 0 0.43415169252703478 -0.16671970939364439 0 0.43398373282205349 -0.1484523121154982 0 0.42589223999294029 -0.1576182057898674 0 0.43415169252703478 -0.16671970939364439 0 0.41822411837802509 -0.16605516805906281 0 0.40087598942070091 -0.17038349359719249 0 0.41720941624464802 -0.1492456335912643 0 0.40087598942070091 -0.17038349359719249 0 0.41822411837802509 -0.16605516805906281 0 0.41720941624464802 -0.1492456335912643 0 0.42589223999294029 -0.1576182057898674 0 0.41822411837802509 -0.16605516805906281 0 0.41720941624464802 -0.1492456335912643 0 0.40192505034360793 -0.13987640102446561 0 0.41720941624464802 -0.1492456335912643 0 0.41464074220095087 -0.1363824653356904 0 0.41720941624464802 -0.1492456335912643 0 0.42516026708468663 -0.13895606155005519 0 0.41720941624464802 -0.1492456335912643 0 0.42516026708468663 -0.13895606155005519 0 0.41464074220095087 -0.1363824653356904 0 0.42589223999294029 -0.1576182057898674 0 0.41720941624464802 -0.1492456335912643 0 0.43398373282205349 -0.1484523121154982 0 0.41720941624464802 -0.1492456335912643 0 0.43398373282205349 -0.1484523121154982 0 0.41720941624464802 -0.1492456335912643 0 0.43398373282205349 -0.1484523121154982 0 0.42516026708468663 -0.13895606155005519 0 0.43398373282205349 -0.1484523121154982 0 0.42516026708468663 -0.13895606155005519 0 0.43304986969256998 -0.13827979419825759 0 0.43398373282205349 -0.1484523121154982 0 0.43304986969256998 -0.13827979419825759 0 0.44017064890941732 -0.13682632965372679 0 0.42516026708468663 -0.13895606155005519 0 0.43304986969256998 -0.13827979419825759 0 0.43288482995412281 -0.12888447347375009 0 0.43304986969256998 -0.13827979419825759 0 0.43288482995412281 -0.12888447347375009 0 0.44017064890941732 -0.13682632965372679 0 0.42516026708468663 -0.13895606155005519 0 0.43288482995412281 -0.12888447347375009 0 0.421624536452258 -0.12796407503483759 0 0.421624536452258 -0.12796407503483759 0 0.41464074220095087 -0.1363824653356904 0 0.40772513449223857 -0.12640229317473009 0 0.42516026708468663 -0.13895606155005519 0 0.421624536452258 -0.12796407503483759 0 0.41464074220095087 -0.1363824653356904 0 0.40192505034360793 -0.13987640102446561 0 0.41464074220095087 -0.1363824653356904 0 0.40772513449223857 -0.12640229317473009 0 0.46516948817156339 -0.139323830068559 0 0.45651442139283538 -0.13264038282879251 0 0.47020393245064562 -0.12539652889200301 0 0.45777406588341779 -0.1195765590237757 0 0.45651442139283538 -0.13264038282879251 0 0.47020393245064562 -0.12539652889200301 0 0.45651442139283538 -0.13264038282879251 0 0.45295008788994878 -0.13885291283412579 0 0.45637462923642169 -0.14278272966533001 0 0.46516948817156339 -0.139323830068559 0 0.45651442139283538 -0.13264038282879251 0 0.45637462923642169 -0.14278272966533001 0 0.44496682310404811 -0.12396741451712889 0 0.45651442139283538 -0.13264038282879251 0 0.44869532770928072 -0.13619050508093661 0 0.44496682310404811 -0.12396741451712889 0 0.45777406588341779 -0.1195765590237757 0 0.45651442139283538 -0.13264038282879251 0 0.44496682310404811 -0.12396741451712889 0 0.44017064890941732 -0.13682632965372679 0 0.44869532770928072 -0.13619050508093661 0 0.44496682310404811 -0.12396741451712889 0 0.43288482995412281 -0.12888447347375009 0 0.44017064890941732 -0.13682632965372679 0 0.44017064890941732 -0.13682632965372679 0 0.44869532770928072 -0.13619050508093661 0 0.44671231757003121 -0.14276239932647061 0 0.45651442139283538 -0.13264038282879251 0 0.44869532770928072 -0.13619050508093661 0 0.45295008788994878 -0.13885291283412579 0 0.44869532770928072 -0.13619050508093661 0 0.45085766738940319 -0.1420935913253748 0 0.44671231757003121 -0.14276239932647061 0 0.44869532770928072 -0.13619050508093661 0 0.45295008788994878 -0.13885291283412579 0 0.45085766738940319 -0.1420935913253748 0 0.43398373282205349 -0.1484523121154982 0 0.45075804939945868 -0.1476589906397284 0 0.45085766738940319 -0.1420935913253748 0 0.4521169288564697 -0.14609927351756899 0 0.44671231757003121 -0.14276239932647061 0 0.45085766738940319 -0.1420935913253748 0 0.4521169288564697 -0.14609927351756899 0 0.45637462923642169 -0.14278272966533001 0 0.43415169252703478 -0.16671970939364439 0 0.43398373282205349 -0.1484523121154982 0 0.45075804939945868 -0.1476589906397284 0 0.43398373282205349 -0.1484523121154982 0 0.45075804939945868 -0.1476589906397284 0 0.44671231757003121 -0.14276239932647061 0 0.4521169288564697 -0.14609927351756899 0 0.45075804939945868 -0.1476589906397284 0 0.44671231757003121 -0.14276239932647061 0 0.4521169288564697 -0.14609927351756899 0 0.45075804939945868 -0.1476589906397284 0 0.43398373282205349 -0.1484523121154982 0 0.44017064890941732 -0.13682632965372679 0 0.44671231757003121 -0.14276239932647061 0 0.45075804939945868 -0.1476589906397284 0 0.45543211716269938 -0.1548912071291855 0 0.44848973788984048 -0.16019944284887391 0 0.45075804939945868 -0.1476589906397284 0 0.45543211716269938 -0.1548912071291855 0 0.45940277097085358 -0.14725014875082479 0 0.45543211716269938 -0.1548912071291855 0 0.46098623662227961 -0.15292519063305701 0 0.45980762756037502 -0.15868001269222901 0 0.45543211716269938 -0.1548912071291855 0 0.45940277097085358 -0.14725014875082479 0 0.46098623662227961 -0.15292519063305701 0 0.45075804939945868 -0.1476589906397284 0 0.45940277097085358 -0.14725014875082479 0 0.46516948817156339 -0.139323830068559 0 0.45637462923642169 -0.14278272966533001 0 0.45940277097085358 -0.14725014875082479 0 0.4521169288564697 -0.14609927351756899 0 0.45075804939945868 -0.1476589906397284 0 0.45940277097085358 -0.14725014875082479 0 0.4521169288564697 -0.14609927351756899 0 0.45637462923642169 -0.14278272966533001 0 0.45940277097085358 -0.14725014875082479 0 0.45295008788994878 -0.13885291283412579 0 0.45085766738940319 -0.1420935913253748 0 0.45637462923642169 -0.14278272966533001 0 0.46516948817156339 -0.139323830068559 0 0.46621146084104198 -0.14956773348005131 0 0.47465778796527192 -0.14684490999407029 0 0.46516948817156339 -0.139323830068559 0 0.45940277097085358 -0.14725014875082479 0 0.46621146084104198 -0.14956773348005131 0 0.46621146084104198 -0.14956773348005131 0 0.4652070233339472 -0.157035959827376 0 0.4718454579823369 -0.154026361606421 0 0.46621146084104198 -0.14956773348005131 0 0.46098623662227961 -0.15292519063305701 0 0.4652070233339472 -0.157035959827376 0 0.46098623662227961 -0.15292519063305701 0 0.4652070233339472 -0.157035959827376 0 0.45980762756037502 -0.15868001269222901 0 0.45940277097085358 -0.14725014875082479 0 0.46621146084104198 -0.14956773348005131 0 0.46098623662227961 -0.15292519063305701 0 0.4652070233339472 -0.157035959827376 0 0.46286744076032738 -0.16549253384130999 0 0.47045223126953062 -0.16164815024186571 0 0.4652070233339472 -0.157035959827376 0 0.46286744076032738 -0.16549253384130999 0 0.45980762756037502 -0.15868001269222901 0 0.46286744076032738 -0.16549253384130999 0 0.46951150885829501 -0.1680088203879895 0 0.47045223126953062 -0.16164815024186571 0 0.46286744076032738 -0.16549253384130999 0 0.46555055399416778 -0.1770653644366123 0 0.46951150885829501 -0.1680088203879895 0 0.46286744076032738 -0.16549253384130999 0 0.45454531992262109 -0.16305517203021619 0 0.45536489124933111 -0.17385481705334391 0 0.45543211716269938 -0.1548912071291855 0 0.45454531992262109 -0.16305517203021619 0 0.45980762756037502 -0.15868001269222901 0 0.46286744076032738 -0.16549253384130999 0 0.45454531992262109 -0.16305517203021619 0 0.45980762756037502 -0.15868001269222901 0 0.43415169252703478 -0.16671970939364439 0 0.45075804939945868 -0.1476589906397284 0 0.45454531992262109 -0.16305517203021619 0 0.44848973788984048 -0.16019944284887391 0 0.44756151043738818 -0.1686721350515947 0 0.45543211716269938 -0.1548912071291855 0 0.45454531992262109 -0.16305517203021619 0 0.44848973788984048 -0.16019944284887391 0 0.43415169252703478 -0.16671970939364439 0 0.45075804939945868 -0.1476589906397284 0 0.44848973788984048 -0.16019944284887391 0 0.43415169252703478 -0.16671970939364439 0 0.44848973788984048 -0.16019944284887391 0 0.44756151043738818 -0.1686721350515947 0 0.43415169252703478 -0.16671970939364439 0 0.44756151043738818 -0.1686721350515947 0 0.44595221863432999 -0.18016812065101601 0 0.45454531992262109 -0.16305517203021619 0 0.44756151043738818 -0.1686721350515947 0 0.45536489124933111 -0.17385481705334391 0 0.44756151043738818 -0.1686721350515947 0 0.44595221863432999 -0.18016812065101601 0 0.45536489124933111 -0.17385481705334391 0 0.44595221863432999 -0.18016812065101601 0 0.45536489124933111 -0.17385481705334391 0 0.45745658488548041 -0.1909956381018702 0 0.43418195274878052 -0.18916072511572829 0 0.43415169252703478 -0.16671970939364439 0 0.44595221863432999 -0.18016812065101601 0 0.43418195274878052 -0.18916072511572829 0 0.44595221863432999 -0.18016812065101601 0 0.44592354217405772 -0.19309668585923839 0 0.45536489124933111 -0.17385481705334391 0 0.46555055399416778 -0.1770653644366123 0 0.45745658488548041 -0.1909956381018702 0 0.46286744076032738 -0.16549253384130999 0 0.45536489124933111 -0.17385481705334391 0 0.46555055399416778 -0.1770653644366123 0 0.46555055399416778 -0.1770653644366123 0 0.45745658488548041 -0.1909956381018702 0 0.46814575317361068 -0.18902075496499929 0 0.46555055399416778 -0.1770653644366123 0 0.47488627598877481 -0.18091750052182959 0 0.46814575317361068 -0.18902075496499929 0 0.47488627598877481 -0.18091750052182959 0 0.46814575317361068 -0.18902075496499929 0 0.47634529827268551 -0.1895499561854338 0 0.46555055399416778 -0.1770653644366123 0 0.47342070314426932 -0.17351844604803779 0 0.46951150885829501 -0.1680088203879895 0 0.46555055399416778 -0.1770653644366123 0 0.47488627598877481 -0.18091750052182959 0 0.47342070314426932 -0.17351844604803779 0 0.47488627598877481 -0.18091750052182959 0 0.47342070314426932 -0.17351844604803779 0 0.48012836222189259 -0.17450789914843759 0 0.48012836222189259 -0.17450789914843759 0 0.48597687039807258 -0.1825864202493056 0 0.48648208505466473 -0.1730087811035384 0 0.47488627598877481 -0.18091750052182959 0 0.48012836222189259 -0.17450789914843759 0 0.48597687039807258 -0.1825864202493056 0 0.47488627598877481 -0.18091750052182959 0 0.48597687039807258 -0.1825864202493056 0 0.47634529827268551 -0.1895499561854338 0 0.5 -0.17387929514154879 0 0.49468319507837633 -0.16965650610549429 0 0.49190947142339952 -0.19202459910302519 0 0.49468319507837633 -0.16965650610549429 0 0.49190947142339952 -0.19202459910302519 0 0.48597687039807258 -0.1825864202493056 0 0.49468319507837633 -0.16965650610549429 0 0.49190947142339952 -0.19202459910302519 0 0.48597687039807258 -0.1825864202493056 0 0.48648208505466473 -0.1730087811035384 0 0.49468319507837633 -0.16965650610549429 0 0.48648208505466473 -0.1730087811035384 0 0.48513991252031752 -0.16528429891091601 0 0.49468319507837633 -0.16965650610549429 0 0.48513991252031752 -0.16528429891091601 0 0.49468319507837633 -0.16965650610549429 0 0.49332939270463178 -0.1600102340030361 0 0.5 -0.17387929514154879 0 0.49332939270463178 -0.1600102340030361 0 0.5 -0.1483576665936098 0 0.5 -0.17387929514154879 0 0.49468319507837633 -0.16965650610549429 0 0.49332939270463178 -0.1600102340030361 0 0.48513991252031752 -0.16528429891091601 0 0.49332939270463178 -0.1600102340030361 0 0.48383328033249068 -0.15753316587190849 0 0.48513991252031752 -0.16528429891091601 0 0.48383328033249068 -0.15753316587190849 0 0.47709478943198941 -0.15966256650374741 0 0.48513991252031752 -0.16528429891091601 0 0.47709478943198941 -0.15966256650374741 0 0.47702681465821622 -0.16709264574532001 0 0.48383328033249068 -0.15753316587190849 0 0.47709478943198941 -0.15966256650374741 0 0.47849550134649022 -0.15349662699134969 0 0.48012836222189259 -0.17450789914843759 0 0.48513991252031752 -0.16528429891091601 0 0.47702681465821622 -0.16709264574532001 0 0.48012836222189259 -0.17450789914843759 0 0.48648208505466473 -0.1730087811035384 0 0.48513991252031752 -0.16528429891091601 0 0.47342070314426932 -0.17351844604803779 0 0.48012836222189259 -0.17450789914843759 0 0.47702681465821622 -0.16709264574532001 0 0.47342070314426932 -0.17351844604803779 0 0.47702681465821622 -0.16709264574532001 0 0.46951150885829501 -0.1680088203879895 0 0.47702681465821622 -0.16709264574532001 0 0.46951150885829501 -0.1680088203879895 0 0.47045223126953062 -0.16164815024186571 0 0.4652070233339472 -0.157035959827376 0 0.47045223126953062 -0.16164815024186571 0 0.4718454579823369 -0.154026361606421 0 0.47709478943198941 -0.15966256650374741 0 0.47045223126953062 -0.16164815024186571 0 0.4718454579823369 -0.154026361606421 0 0.47709478943198941 -0.15966256650374741 0 0.47702681465821622 -0.16709264574532001 0 0.47045223126953062 -0.16164815024186571 0 0.46516948817156339 -0.139323830068559 0 0.47465778796527192 -0.14684490999407029 0 0.4816025288110326 -0.1366911401945044 0 0.46621146084104198 -0.14956773348005131 0 0.4718454579823369 -0.154026361606421 0 0.47465778796527192 -0.14684490999407029 0 0.4718454579823369 -0.154026361606421 0 0.47465778796527192 -0.14684490999407029 0 0.47849550134649022 -0.15349662699134969 0 0.47709478943198941 -0.15966256650374741 0 0.4718454579823369 -0.154026361606421 0 0.47849550134649022 -0.15349662699134969 0 0.47465778796527192 -0.14684490999407029 0 0.48504619102036189 -0.14941613098060111 0 0.4816025288110326 -0.1366911401945044 0 0.47465778796527192 -0.14684490999407029 0 0.47849550134649022 -0.15349662699134969 0 0.48504619102036189 -0.14941613098060111 0 0.48383328033249068 -0.15753316587190849 0 0.47849550134649022 -0.15349662699134969 0 0.48504619102036189 -0.14941613098060111 0 0.49332939270463178 -0.1600102340030361 0 0.48383328033249068 -0.15753316587190849 0 0.48504619102036189 -0.14941613098060111 0 0.48504619102036189 -0.14941613098060111 0 0.5 -0.1483576665936098 0 0.4816025288110326 -0.1366911401945044 0 0.49332939270463178 -0.1600102340030361 0 0.48504619102036189 -0.14941613098060111 0 0.5 -0.1483576665936098 0 0.5 -0.1228360380456708 0 0.5 -0.1483576665936098 0 0.4816025288110326 -0.1366911401945044 0 0.48382002177701522 -0.1227013099542493 0 0.5 -0.1228360380456708 0 0.4816025288110326 -0.1366911401945044 0 0.48382002177701522 -0.1227013099542493 0 0.4816025288110326 -0.1366911401945044 0 0.47020393245064562 -0.12539652889200301 0 0.46516948817156339 -0.139323830068559 0 0.4816025288110326 -0.1366911401945044 0 0.47020393245064562 -0.12539652889200301 0 0.44909713589793021 -0.23614458736793911 0 0.46911644183317702 -0.22526863973424791 0 0.4544237346258948 -0.2238867324498735 0 0.44909713589793021 -0.23614458736793911 0 0.46911644183317702 -0.22526863973424791 0 0.4670199711534348 -0.2373669376632109 0 0.44909713589793021 -0.23614458736793911 0 0.46911644183317702 -0.22526863973424791 0 0.4544237346258948 -0.2238867324498735 0 0.46164477179460989 -0.21313512344351421 0 0.46911644183317702 -0.22526863973424791 0 0.4670199711534348 -0.2373669376632109 0 0.45748699074700511 -0.24323846191157741 0 0.44909713589793021 -0.23614458736793911 0 0.4670199711534348 -0.2373669376632109 0 0.46867489932131168 -0.24397543042975489 0 0.45748699074700511 -0.24323846191157741 0 0.4670199711534348 -0.2373669376632109 0 0.46867489932131168 -0.24397543042975489 0 0.46867489932131168 -0.24397543042975489 0 0.4555925344803532 -0.25193252229481511 0 0.46867489932131168 -0.24397543042975489 0 0.45748699074700511 -0.24323846191157741 0 0.4555925344803532 -0.25193252229481511 0 0.45748699074700511 -0.24323846191157741 0 0.44675293214547279 -0.24764514414716671 0 0.4555925344803532 -0.25193252229481511 0 0.4290778299626834 -0.24702053500163029 0 0.44909713589793021 -0.23614458736793911 0 0.43601308236479769 -0.22401782482047161 0 0.4290778299626834 -0.24702053500163029 0 0.44909713589793021 -0.23614458736793911 0 0.4290778299626834 -0.24702053500163029 0 0.44909713589793021 -0.23614458736793911 0 0.44675293214547279 -0.24764514414716671 0 0.45748699074700511 -0.24323846191157741 0 0.44909713589793021 -0.23614458736793911 0 0.44675293214547279 -0.24764514414716671 0 0.43601308236479769 -0.22401782482047161 0 0.4544237346258948 -0.2238867324498735 0 0.4491256774590513 -0.21376212422558399 0 0.43601308236479769 -0.22401782482047161 0 0.4544237346258948 -0.2238867324498735 0 0.44909713589793021 -0.23614458736793911 0 0.43601308236479769 -0.22401782482047161 0 0.43972182083517841 -0.20497935141943099 0 0.4491256774590513 -0.21376212422558399 0 0.43972182083517841 -0.20497935141943099 0 0.4491256774590513 -0.21376212422558399 0 0.4538249776747757 -0.2027915889946296 0 0.43418195274878052 -0.18916072511572829 0 0.43972182083517841 -0.20497935141943099 0 0.44592354217405772 -0.19309668585923839 0 0.44592354217405772 -0.19309668585923839 0 0.45745658488548041 -0.1909956381018702 0 0.4538249776747757 -0.2027915889946296 0 0.43972182083517841 -0.20497935141943099 0 0.44592354217405772 -0.19309668585923839 0 0.4538249776747757 -0.2027915889946296 0 0.44595221863432999 -0.18016812065101601 0 0.44592354217405772 -0.19309668585923839 0 0.45745658488548041 -0.1909956381018702 0 0.45745658488548041 -0.1909956381018702 0 0.4538249776747757 -0.2027915889946296 0 0.46981065415282081 -0.19947123090009361 0 0.45745658488548041 -0.1909956381018702 0 0.46814575317361068 -0.18902075496499929 0 0.46981065415282081 -0.19947123090009361 0 0.4538249776747757 -0.2027915889946296 0 0.46164477179460989 -0.21313512344351421 0 0.46981065415282081 -0.19947123090009361 0 0.4544237346258948 -0.2238867324498735 0 0.4491256774590513 -0.21376212422558399 0 0.46164477179460989 -0.21313512344351421 0 0.4491256774590513 -0.21376212422558399 0 0.4538249776747757 -0.2027915889946296 0 0.46164477179460989 -0.21313512344351421 0 0.46164477179460989 -0.21313512344351421 0 0.4742845616896289 -0.21085081092845351 0 0.46981065415282081 -0.19947123090009361 0 0.46164477179460989 -0.21313512344351421 0 0.4742845616896289 -0.21085081092845351 0 0.46911644183317702 -0.22526863973424791 0 0.4742845616896289 -0.21085081092845351 0 0.4891357477684235 -0.2143926921005562 0 0.46911644183317702 -0.22526863973424791 0 0.4742845616896289 -0.21085081092845351 0 0.46981065415282081 -0.19947123090009361 0 0.48288096403378439 -0.20240323837728769 0 0.4742845616896289 -0.21085081092845351 0 0.48288096403378439 -0.20240323837728769 0 0.4891357477684235 -0.2143926921005562 0 0.46814575317361068 -0.18902075496499929 0 0.47634529827268551 -0.1895499561854338 0 0.46981065415282081 -0.19947123090009361 0 0.47634529827268551 -0.1895499561854338 0 0.46981065415282081 -0.19947123090009361 0 0.48332754174745501 -0.19391085028142269 0 0.46981065415282081 -0.19947123090009361 0 0.48288096403378439 -0.20240323837728769 0 0.48332754174745501 -0.19391085028142269 0 0.48597687039807258 -0.1825864202493056 0 0.47634529827268551 -0.1895499561854338 0 0.48332754174745501 -0.19391085028142269 0 0.5 -0.19940092368948781 0 0.49190947142339952 -0.19202459910302519 0 0.49692774042822091 -0.21015951316797171 0 0.5 -0.17387929514154879 0 0.5 -0.19940092368948781 0 0.49190947142339952 -0.19202459910302519 0 0.48288096403378439 -0.20240323837728769 0 0.49190947142339952 -0.19202459910302519 0 0.4891357477684235 -0.2143926921005562 0 0.48597687039807258 -0.1825864202493056 0 0.48332754174745501 -0.19391085028142269 0 0.49190947142339952 -0.19202459910302519 0 0.48288096403378439 -0.20240323837728769 0 0.48332754174745501 -0.19391085028142269 0 0.49190947142339952 -0.19202459910302519 0 0.49190947142339952 -0.19202459910302519 0 0.4891357477684235 -0.2143926921005562 0 0.5 -0.19940092368948781 0 0.49692774042822091 -0.21015951316797171 0 0.50000000000000067 -0.2249225522374268 0 0.49190947142339952 -0.19202459910302519 0 0.4891357477684235 -0.2143926921005562 0 0.49692774042822091 -0.21015951316797171 0 0.4891357477684235 -0.2143926921005562 0 0.49692774042822091 -0.21015951316797171 0 0.50000000000000067 -0.2249225522374268 0 0.4891357477684235 -0.2143926921005562 0 0.49692774042822091 -0.21015951316797171 0 0.4891357477684235 -0.2143926921005562 0 0.4868372355390817 -0.23292854559466611 0 0.4891357477684235 -0.2143926921005562 0 0.50000000000000067 -0.2249225522374268 0 0.4868372355390817 -0.23292854559466611 0 0.50000000000000067 -0.2249225522374268 0 0.4868372355390817 -0.23292854559466611 0 0.4891357477684235 -0.2143926921005562 0 0.47633223221221788 -0.23224665809830561 0 0.46911644183317702 -0.22526863973424791 0 0.4891357477684235 -0.2143926921005562 0 0.4868372355390817 -0.23292854559466611 0 0.47633223221221788 -0.23224665809830561 0 0.4891357477684235 -0.2143926921005562 0 0.46911644183317702 -0.22526863973424791 0 0.4670199711534348 -0.2373669376632109 0 0.47633223221221788 -0.23224665809830561 0 0.46911644183317702 -0.22526863973424791 0 0.46867489932131168 -0.24397543042975489 0 0.4868372355390817 -0.23292854559466611 0 0.48313863766716503 -0.26275508617709509 0 0.46867489932131168 -0.24397543042975489 0 0.4868372355390817 -0.23292854559466611 0 0.46867489932131168 -0.24397543042975489 0 0.4868372355390817 -0.23292854559466611 0 0.47633223221221788 -0.23224665809830561 0 0.4670199711534348 -0.2373669376632109 0 0.46867489932131168 -0.24397543042975489 0 0.47633223221221788 -0.23224665809830561 0 0.4868372355390817 -0.23292854559466611 0 0.48313863766716503 -0.26275508617709509 0 0.50000000000000067 -0.2249225522374268 0 0.4868372355390817 -0.23292854559466611 0 0.49999999999999889 -0.24840549914797311 0 0.4868372355390817 -0.23292854559466611 0 0.49999999999999889 -0.24840549914797311 0 0.48313863766716503 -0.26275508617709509 0 0.49999999999999889 -0.24840549914797311 0 0.5 -0.27748659581670992 0 0.48313863766716503 -0.26275508617709509 0 0.49999999999999889 -0.24840549914797311 0 0.48313863766716503 -0.26275508617709509 0 0.5 -0.27748659581670992 0 0.48313863766716503 -0.26275508617709509 0 0.47990602504593238 -0.28882378974349288 0 0.48313863766716503 -0.26275508617709509 0 0.47990602504593238 -0.28882378974349288 0 0.47509256119521043 -0.26960256814790201 0 0.47990602504593238 -0.28882378974349288 0 0.47509256119521043 -0.26960256814790201 0 0.48313863766716503 -0.26275508617709509 0 0.47990602504593238 -0.28882378974349288 0 0.47509256119521043 -0.26960256814790201 0 0.48313863766716503 -0.26275508617709509 0 0.46867489932131168 -0.24397543042975489 0 0.47509256119521043 -0.26960256814790201 0 0.48313863766716503 -0.26275508617709509 0 0.46867489932131168 -0.24397543042975489 0 0.47509256119521043 -0.26960256814790201 0 0.46867489932131168 -0.24397543042975489 0 0.4555925344803532 -0.25193252229481511 0 0.4608845685754287 -0.26226574080977172 0 0.46867489932131168 -0.24397543042975489 0 0.47509256119521043 -0.26960256814790201 0 0.4608845685754287 -0.26226574080977172 0 0.4608845685754287 -0.26226574080977172 0 0.45040077340535178 -0.27050347686580928 0 0.45234701152513151 -0.26114783853256701 0 0.4555925344803532 -0.25193252229481511 0 0.4608845685754287 -0.26226574080977172 0 0.45234701152513151 -0.26114783853256701 0 0.47509256119521043 -0.26960256814790201 0 0.45643579092402181 -0.28548010777988642 0 0.47509256119521043 -0.26960256814790201 0 0.4608845685754287 -0.26226574080977172 0 0.4580770499152288 -0.2745029891267835 0 0.47509256119521043 -0.26960256814790201 0 0.4580770499152288 -0.2745029891267835 0 0.45643579092402181 -0.28548010777988642 0 0.4580770499152288 -0.2745029891267835 0 0.45540788796665171 -0.28274457620785731 0 0.45643579092402181 -0.28548010777988642 0 0.4580770499152288 -0.2745029891267835 0 0.45024071742470889 -0.27642146494947439 0 0.45540788796665171 -0.28274457620785731 0 0.4608845685754287 -0.26226574080977172 0 0.4580770499152288 -0.2745029891267835 0 0.45040077340535178 -0.27050347686580928 0 0.43937942713585643 -0.27955983608736062 0 0.45540788796665171 -0.28274457620785731 0 0.45040077340535178 -0.27050347686580928 0 0.44438673800001621 -0.27486377776619558 0 0.4413463193266085 -0.26899481355847782 0 0.45024071742470889 -0.27642146494947439 0 0.43937942713585643 -0.27955983608736062 0 0.45540788796665171 -0.28274457620785731 0 0.4580770499152288 -0.2745029891267835 0 0.45040077340535178 -0.27050347686580928 0 0.45024071742470889 -0.27642146494947439 0 0.45040077340535178 -0.27050347686580928 0 0.45024071742470889 -0.27642146494947439 0 0.44438673800001621 -0.27486377776619558 0 0.45024071742470889 -0.27642146494947439 0 0.44438673800001621 -0.27486377776619558 0 0.43937942713585643 -0.27955983608736062 0 0.44438673800001621 -0.27486377776619558 0 0.43949501796783957 -0.27798546909175109 0 0.4413463193266085 -0.26899481355847782 0 0.44438673800001621 -0.27486377776619558 0 0.43949501796783957 -0.27798546909175109 0 0.43937942713585643 -0.27955983608736062 0 0.43949501796783957 -0.27798546909175109 0 0.43937942713585643 -0.27955983608736062 0 0.45040077340535178 -0.27050347686580928 0 0.4413463193266085 -0.26899481355847782 0 0.44251016963939249 -0.25988961415987177 0 0.4290778299626834 -0.24702053500163029 0 0.44675293214547279 -0.24764514414716671 0 0.44251016963939249 -0.25988961415987177 0 0.44675293214547279 -0.24764514414716671 0 0.4555925344803532 -0.25193252229481511 0 0.44251016963939249 -0.25988961415987177 0 0.4555925344803532 -0.25193252229481511 0 0.44251016963939249 -0.25988961415987177 0 0.4555925344803532 -0.25193252229481511 0 0.44251016963939249 -0.25988961415987177 0 0.45234701152513151 -0.26114783853256701 0 0.45040077340535178 -0.27050347686580928 0 0.44251016963939249 -0.25988961415987177 0 0.45234701152513151 -0.26114783853256701 0 0.4481493358266222 -0.30848679276895707 0 0.43777902065283397 -0.30135764741187199 0 0.4550680443550823 -0.30013645195060301 0 0.4481493358266222 -0.30848679276895707 0 0.45673616153024238 -0.3096044328723182 0 0.45121931543447269 -0.31895611259124912 0 0.4481493358266222 -0.30848679276895707 0 0.43777902065283397 -0.30135764741187199 0 0.43677783085869498 -0.31499402445996522 0 0.43937942713585643 -0.27955983608736062 0 0.43777902065283397 -0.30135764741187199 0 0.43777902065283397 -0.30135764741187199 0 0.45643579092402181 -0.28548010777988642 0 0.4550680443550823 -0.30013645195060301 0 0.43777902065283397 -0.30135764741187199 0 0.45643579092402181 -0.28548010777988642 0 0.43937942713585643 -0.27955983608736062 0 0.45540788796665171 -0.28274457620785731 0 0.45643579092402181 -0.28548010777988642 0 0.43937942713585643 -0.27955983608736062 0 0.43777902065283397 -0.30135764741187199 0 0.45643579092402181 -0.28548010777988642 0 0.45643579092402181 -0.28548010777988642 0 0.4550680443550823 -0.30013645195060301 0 0.46990730023812288 -0.30098268980242637 0 0.45643579092402181 -0.28548010777988642 0 0.46990730023812288 -0.30098268980242637 0 0.47990602504593238 -0.28882378974349288 0 0.4550680443550823 -0.30013645195060301 0 0.45673616153024238 -0.3096044328723182 0 0.46990730023812288 -0.30098268980242637 0 0.4481493358266222 -0.30848679276895707 0 0.4550680443550823 -0.30013645195060301 0 0.45673616153024238 -0.3096044328723182 0 0.45673616153024238 -0.3096044328723182 0 0.46990730023812288 -0.30098268980242637 0 0.46562687833612199 -0.3161612720167265 0 0.47990602504593238 -0.28882378974349288 0 0.47663335564593678 -0.31521552251683982 0 0.47990602504593238 -0.28882378974349288 0 0.48576637597183631 -0.31222546206680218 0 0.46990730023812288 -0.30098268980242637 0 0.47663335564593678 -0.31521552251683982 0 0.46562687833612199 -0.3161612720167265 0 0.47990602504593238 -0.28882378974349288 0 0.48576637597183631 -0.31222546206680218 0 0.47663335564593678 -0.31521552251683982 0 0.46990730023812288 -0.30098268980242637 0 0.47990602504593238 -0.28882378974349288 0 0.47663335564593678 -0.31521552251683982 0 0.47509256119521043 -0.26960256814790201 0 0.45643579092402181 -0.28548010777988642 0 0.47990602504593238 -0.28882378974349288 0 0.5 -0.27748659581670992 0 0.47990602504593238 -0.28882378974349288 0 0.5 -0.30656769248544657 0 0.47990602504593238 -0.28882378974349288 0 0.5 -0.30656769248544657 0 0.48576637597183631 -0.31222546206680218 0 0.48576637597183631 -0.31222546206680218 0 0.49162672689773962 -0.33562713439011188 0 0.5 -0.30656769248544657 0 0.48576637597183631 -0.31222546206680218 0 0.4975615845803133 -0.33289003993394428 0 0.5 -0.30656769248544657 0 0.5 -0.33564878915418328 0 0.4975615845803133 -0.33289003993394428 0 0.48576637597183631 -0.31222546206680218 0 0.4975615845803133 -0.33289003993394428 0 0.49162672689773962 -0.33562713439011188 0 0.48576637597183631 -0.31222546206680218 0 0.49162672689773962 -0.33562713439011188 0 0.48184678619036359 -0.32616884356598519 0 0.5 -0.33564878915418328 0 0.4975615845803133 -0.33289003993394428 0 0.49162672689773962 -0.33562713439011188 0 0.4975615845803133 -0.33289003993394428 0 0.49162672689773962 -0.33562713439011188 0 0.49162672689773962 -0.33562713439011188 0 0.47415862135150499 -0.34368324245665022 0 0.48491193757748452 -0.34635298003343518 0 0.49162672689773962 -0.33562713439011188 0 0.47336068624594191 -0.34160725529018687 0 0.48184678619036359 -0.32616884356598519 0 0.47336068624594191 -0.34160725529018687 0 0.47663335564593678 -0.31521552251683982 0 0.49162672689773962 -0.33562713439011188 0 0.47336068624594191 -0.34160725529018687 0 0.47415862135150499 -0.34368324245665022 0 0.47336068624594191 -0.34160725529018687 0 0.46967454574889872 -0.32565691568590382 0 0.4674088108138279 -0.33276739168625102 0 0.49162672689773962 -0.33562713439011188 0 0.47415862135150499 -0.34368324245665022 0 0.47336068624594191 -0.34160725529018687 0 0.47415862135150499 -0.34368324245665022 0 0.46335215826825449 -0.33874699138397518 0 0.47336068624594191 -0.34160725529018687 0 0.47663335564593678 -0.31521552251683982 0 0.48184678619036359 -0.32616884356598519 0 0.47336068624594191 -0.34160725529018687 0 0.46967454574889872 -0.32565691568590382 0 0.47663335564593678 -0.31521552251683982 0 0.46967454574889872 -0.32565691568590382 0 0.47663335564593678 -0.31521552251683982 0 0.46562687833612199 -0.3161612720167265 0 0.48576637597183631 -0.31222546206680218 0 0.47663335564593678 -0.31521552251683982 0 0.48184678619036359 -0.32616884356598519 0 0.48464718275066548 -0.37000042591148991 0 0.49301507150618312 -0.37189770981711351 0 0.48760851842882119 -0.3805090112330145 0 0.48464718275066548 -0.37000042591148991 0 0.49301507150618312 -0.37189770981711351 0 0.48795413870534737 -0.36173576930170293 0 0.49301507150618312 -0.37189770981711351 0 0.49788058915226469 -0.36060018414189771 0 0.48795413870534737 -0.36173576930170293 0 0.49301507150618312 -0.37189770981711351 0 0.5 -0.36472988582291999 0 0.49788058915226469 -0.36060018414189771 0 0.5 -0.33564878915418328 0 0.49162672689773962 -0.33562713439011188 0 0.49788058915226469 -0.36060018414189771 0 0.5 -0.33564878915418328 0 0.5 -0.36472988582291999 0 0.49788058915226469 -0.36060018414189771 0 0.49162672689773962 -0.33562713439011188 0 0.49788058915226469 -0.36060018414189771 0 0.4904180109444129 -0.35232832749545712 0 0.49162672689773962 -0.33562713439011188 0 0.49788058915226469 -0.36060018414189771 0 0.49162672689773962 -0.33562713439011188 0 0.4904180109444129 -0.35232832749545712 0 0.48491193757748452 -0.34635298003343518 0 0.49788058915226469 -0.36060018414189771 0 0.48795413870534737 -0.36173576930170293 0 0.4904180109444129 -0.35232832749545712 0 0.48795413870534737 -0.36173576930170293 0 0.4904180109444129 -0.35232832749545712 0 0.48344439111628068 -0.35377321579152149 0 0.4904180109444129 -0.35232832749545712 0 0.48491193757748452 -0.34635298003343518 0 0.48344439111628068 -0.35377321579152149 0 0.47415862135150499 -0.34368324245665022 0 0.47640683138298417 -0.36160214540198049 0 0.45669051580527081 -0.35173935052318928 0 0.47415862135150499 -0.34368324245665022 0 0.48344439111628068 -0.35377321579152149 0 0.47640683138298417 -0.36160214540198049 0 0.47415862135150499 -0.34368324245665022 0 0.48491193757748452 -0.34635298003343518 0 0.48344439111628068 -0.35377321579152149 0 0.48795413870534737 -0.36173576930170293 0 0.48344439111628068 -0.35377321579152149 0 0.47640683138298417 -0.36160214540198049 0 0.48464718275066548 -0.37000042591148991 0 0.48795413870534737 -0.36173576930170293 0 0.47640683138298417 -0.36160214540198049 0 0.47640683138298417 -0.36160214540198049 0 0.46908166597951451 -0.37460501904918281 0 0.47848205287062279 -0.37470614756839637 0 0.48464718275066548 -0.37000042591148991 0 0.47640683138298417 -0.36160214540198049 0 0.47848205287062279 -0.37470614756839637 0 0.46908166597951451 -0.37460501904918281 0 0.45930975068696622 -0.37243274284069788 0 0.45669051580527081 -0.35173935052318928 0 0.46908166597951451 -0.37460501904918281 0 0.45669051580527081 -0.35173935052318928 0 0.45930975068696622 -0.37243274284069788 0 0.45669051580527081 -0.35173935052318928 0 0.44847442544694838 -0.36532926213325839 0 0.47640683138298417 -0.36160214540198049 0 0.46908166597951451 -0.37460501904918281 0 0.45669051580527081 -0.35173935052318928 0 0.47415862135150499 -0.34368324245665022 0 0.45669051580527081 -0.35173935052318928 0 0.47415862135150499 -0.34368324245665022 0 0.45669051580527081 -0.35173935052318928 0 0.46335215826825449 -0.33874699138397518 0 0.45669051580527081 -0.35173935052318928 0 0.44452919438551691 -0.34618747493383228 0 0.43328752684601668 -0.36253256491250813 0 0.45669051580527081 -0.35173935052318928 0 0.44452919438551691 -0.34618747493383228 0 0.44673417333198262 -0.3333666874915775 0 0.45669051580527081 -0.35173935052318928 0 0.43328752684601668 -0.36253256491250813 0 0.44452919438551691 -0.34618747493383228 0 0.43503267885235641 -0.33876329468623673 0 0.43328752684601668 -0.36253256491250813 0 0.45669051580527081 -0.35173935052318928 0 0.44847442544694838 -0.36532926213325839 0 0.43328752684601668 -0.36253256491250813 0 0.44847442544694838 -0.36532926213325839 0 0.44460990844953979 -0.37461239025663851 0 0.43328752684601668 -0.36253256491250813 0 0.45930975068696622 -0.37243274284069788 0 0.44847442544694838 -0.36532926213325839 0 0.44460990844953979 -0.37461239025663851 0 0.46562687833612199 -0.3161612720167265 0 0.46115270828176919 -0.32758367185036119 0 0.45121931543447269 -0.31895611259124912 0 0.45673616153024238 -0.3096044328723182 0 0.46562687833612199 -0.3161612720167265 0 0.45121931543447269 -0.31895611259124912 0 0.46967454574889872 -0.32565691568590382 0 0.46562687833612199 -0.3161612720167265 0 0.46115270828176919 -0.32758367185036119 0 0.46115270828176919 -0.32758367185036119 0 0.4674088108138279 -0.33276739168625102 0 0.46335215826825449 -0.33874699138397518 0 0.46967454574889872 -0.32565691568590382 0 0.46115270828176919 -0.32758367185036119 0 0.4674088108138279 -0.33276739168625102 0 0.45669051580527081 -0.35173935052318928 0 0.46335215826825449 -0.33874699138397518 0 0.44673417333198262 -0.3333666874915775 0 0.46115270828176919 -0.32758367185036119 0 0.46335215826825449 -0.33874699138397518 0 0.44673417333198262 -0.3333666874915775 0 0.47336068624594191 -0.34160725529018687 0 0.4674088108138279 -0.33276739168625102 0 0.46335215826825449 -0.33874699138397518 0 0.44673417333198262 -0.3333666874915775 0 0.43677783085869498 -0.31499402445996522 0 0.43503267885235641 -0.33876329468623673 0 0.45669051580527081 -0.35173935052318928 0 0.44673417333198262 -0.3333666874915775 0 0.44452919438551691 -0.34618747493383228 0 0.44673417333198262 -0.3333666874915775 0 0.43503267885235641 -0.33876329468623673 0 0.44673417333198262 -0.3333666874915775 0 0.43677783085869498 -0.31499402445996522 0 0.44673417333198262 -0.3333666874915775 0 0.45121931543447269 -0.31895611259124912 0 0.43677783085869498 -0.31499402445996522 0 0.46115270828176919 -0.32758367185036119 0 0.44673417333198262 -0.3333666874915775 0 0.45121931543447269 -0.31895611259124912 0 0.4481493358266222 -0.30848679276895707 0 0.45121931543447269 -0.31895611259124912 0 0.43677783085869498 -0.31499402445996522 0 0.43677783085869498 -0.31499402445996522 0 0.42800695110797649 -0.32359017364295922 0 0.43503267885235641 -0.33876329468623673 0 0.43677783085869498 -0.31499402445996522 0 0.42800695110797649 -0.32359017364295922 0 0.4248240313353227 -0.3123827794862219 0 0.43677783085869498 -0.31499402445996522 0 0.43503267885235641 -0.33876329468623673 0 0.42800695110797649 -0.32359017364295922 0 0.41947117253318988 -0.32199923704192918 0 0.4248240313353227 -0.3123827794862219 0 0.42800695110797649 -0.32359017364295922 0 0.423929041960319 -0.32981153254044249 0 0.41947117253318988 -0.32199923704192918 0 0.43503267885235641 -0.33876329468623673 0 0.423929041960319 -0.32981153254044249 0 0.41929210357627272 -0.33925394697815048 0 0.43503267885235641 -0.33876329468623673 0 0.41929210357627272 -0.33925394697815048 0 0.42191369795179379 -0.34761393021890652 0 0.42800695110797649 -0.32359017364295922 0 0.43503267885235641 -0.33876329468623673 0 0.423929041960319 -0.32981153254044249 0 0.41648467012038543 -0.33035517463873498 0 0.41929210357627272 -0.33925394697815048 0 0.41012349319573788 -0.33599201939161949 0 0.423929041960319 -0.32981153254044249 0 0.41648467012038543 -0.33035517463873498 0 0.41929210357627272 -0.33925394697815048 0 0.41929210357627272 -0.33925394697815048 0 0.41146235460542158 -0.34172801663101549 0 0.41424870034413258 -0.34719658925236602 0 0.41929210357627272 -0.33925394697815048 0 0.41012349319573788 -0.33599201939161949 0 0.41146235460542158 -0.34172801663101549 0 0.41012349319573788 -0.33599201939161949 0 0.41146235460542158 -0.34172801663101549 0 0.40451581098047618 -0.34416153230778829 0 0.41012349319573788 -0.33599201939161949 0 0.40960753933640742 -0.32471913724153301 0 0.40337452199383611 -0.3310102227000421 0 0.41648467012038543 -0.33035517463873498 0 0.41012349319573788 -0.33599201939161949 0 0.40960753933640742 -0.32471913724153301 0 0.40960753933640742 -0.32471913724153301 0 0.41188966107285729 -0.31394667753308941 0 0.41947117253318988 -0.32199923704192918 0 0.40960753933640742 -0.32471913724153301 0 0.41188966107285729 -0.31394667753308941 0 0.40004610660407353 -0.31977683311008082 0 0.41188966107285729 -0.31394667753308941 0 0.41947117253318988 -0.32199923704192918 0 0.4248240313353227 -0.3123827794862219 0 0.41648467012038543 -0.33035517463873498 0 0.40960753933640742 -0.32471913724153301 0 0.41947117253318988 -0.32199923704192918 0 0.423929041960319 -0.32981153254044249 0 0.41648467012038543 -0.33035517463873498 0 0.41947117253318988 -0.32199923704192918 0 0.42411961598993669 -0.36676070976802622 0 0.43228590878381229 -0.37617477504525171 0 0.41968109770174378 -0.37681430329699639 0 0.42411961598993669 -0.36676070976802622 0 0.43228590878381229 -0.37617477504525171 0 0.44460990844953979 -0.37461239025663851 0 0.43328752684601668 -0.36253256491250813 0 0.43228590878381229 -0.37617477504525171 0 0.43328752684601668 -0.36253256491250813 0 0.43228590878381229 -0.37617477504525171 0 0.43328752684601668 -0.36253256491250813 0 0.42411961598993669 -0.36676070976802622 0 0.43228590878381229 -0.37617477504525171 0 0.43328752684601668 -0.36253256491250813 0 0.42411961598993669 -0.36676070976802622 0 0.42263342624904709 -0.35887554818764639 0 0.43328752684601668 -0.36253256491250813 0 0.42411961598993669 -0.36676070976802622 0 0.43503267885235641 -0.33876329468623673 0 0.43328752684601668 -0.36253256491250813 0 0.43503267885235641 -0.33876329468623673 0 0.43328752684601668 -0.36253256491250813 0 0.42636800107948658 -0.3533642211424759 0 0.42636800107948658 -0.3533642211424759 0 0.42191369795179379 -0.34761393021890652 0 0.41775701871169879 -0.35500869134097168 0 0.42636800107948658 -0.3533642211424759 0 0.42263342624904709 -0.35887554818764639 0 0.41775701871169879 -0.35500869134097168 0 0.43328752684601668 -0.36253256491250813 0 0.42636800107948658 -0.3533642211424759 0 0.42263342624904709 -0.35887554818764639 0 0.43503267885235641 -0.33876329468623673 0 0.42636800107948658 -0.3533642211424759 0 0.42191369795179379 -0.34761393021890652 0 0.41929210357627272 -0.33925394697815048 0 0.42191369795179379 -0.34761393021890652 0 0.41424870034413258 -0.34719658925236602 0 0.42191369795179379 -0.34761393021890652 0 0.41424870034413258 -0.34719658925236602 0 0.41775701871169879 -0.35500869134097168 0 0.41645196210846719 -0.357921473166388 0 0.40451581098047618 -0.34416153230778829 0 0.40651109495480259 -0.35013708268096472 0 0.41645196210846719 -0.357921473166388 0 0.40451581098047618 -0.34416153230778829 0 0.41424870034413258 -0.34719658925236602 0 0.41645196210846719 -0.357921473166388 0 0.40451581098047618 -0.34416153230778829 0 0.41146235460542158 -0.34172801663101549 0 0.41424870034413258 -0.34719658925236602 0 0.40451581098047618 -0.34416153230778829 0 0.40651109495480259 -0.35013708268096472 0 0.41645196210846719 -0.357921473166388 0 0.40492515922133121 -0.36301896192762678 0 0.41424870034413258 -0.34719658925236602 0 0.41645196210846719 -0.357921473166388 0 0.41775701871169879 -0.35500869134097168 0 0.41645196210846719 -0.357921473166388 0 0.41775701871169879 -0.35500869134097168 0 0.42263342624904709 -0.35887554818764639 0 0.41645196210846719 -0.357921473166388 0 0.41775701871169879 -0.35500869134097168 0 0.42411961598993669 -0.36676070976802622 0 0.41645196210846719 -0.357921473166388 0 0.42411961598993669 -0.36676070976802622 0 0.41645196210846719 -0.357921473166388 0 0.40946305010165551 -0.37352016507174152 0 0.42411961598993669 -0.36676070976802622 0 0.42263342624904709 -0.35887554818764639 0 0.41645196210846719 -0.357921473166388 0 0.41645196210846719 -0.357921473166388 0 0.40946305010165551 -0.37352016507174152 0 0.40492515922133121 -0.36301896192762678 0 0.41645196210846719 -0.357921473166388 0 0.40946305010165551 -0.37352016507174152 0 0.42411961598993669 -0.36676070976802622 0 0.40946305010165551 -0.37352016507174152 0 0.41968109770174378 -0.37681430329699639 0 0.42411961598993669 -0.36676070976802622 0 0.40946305010165551 -0.37352016507174152 0 0.40651109495480259 -0.35013708268096472 0 0.40492515922133121 -0.36301896192762678 0 0.39018154138920408 -0.36728316559728852 0 0.40075078432096972 -0.37060730585925089 0 0.39018154138920408 -0.36728316559728852 0 0.39843338657168809 -0.37860693084034719 0 0.40946305010165551 -0.37352016507174152 0 0.40075078432096972 -0.37060730585925089 0 0.39843338657168809 -0.37860693084034719 0 0.40946305010165551 -0.37352016507174152 0 0.40075078432096972 -0.37060730585925089 0 0.40492515922133121 -0.36301896192762678 0 0.40075078432096972 -0.37060730585925089 0 0.40492515922133121 -0.36301896192762678 0 0.39018154138920408 -0.36728316559728852 0 0.40651109495480259 -0.35013708268096472 0 0.39018154138920408 -0.36728316559728852 0 0.40651109495480259 -0.35013708268096472 0 0.39585702422131908 -0.35081267718168108 0 0.39018154138920408 -0.36728316559728852 0 0.39585702422131908 -0.35081267718168108 0 0.38630774852822358 -0.35132790227984201 0 0.39018154138920408 -0.36728316559728852 0 0.40651109495480259 -0.35013708268096472 0 0.40451581098047618 -0.34416153230778829 0 0.39585702422131908 -0.35081267718168108 0 0.40451581098047618 -0.34416153230778829 0 0.39585702422131908 -0.35081267718168108 0 0.39171809698704579 -0.34245018596799598 0 0.39585702422131908 -0.35081267718168108 0 0.38630774852822358 -0.35132790227984201 0 0.39171809698704579 -0.34245018596799598 0 0.38630774852822358 -0.35132790227984201 0 0.39018154138920408 -0.36728316559728852 0 0.37397294860501351 -0.35847288680401979 0 0.38630774852822358 -0.35132790227984201 0 0.37922858481904009 -0.33814019247242699 0 0.37397294860501351 -0.35847288680401979 0 0.38630774852822358 -0.35132790227984201 0 0.39171809698704579 -0.34245018596799598 0 0.37922858481904009 -0.33814019247242699 0 0.39018154138920408 -0.36728316559728852 0 0.37385198782360568 -0.38442924851361221 0 0.37397294860501351 -0.35847288680401979 0 0.40004610660407353 -0.31977683311008082 0 0.38377072110625332 -0.31564846042765088 0 0.40015624107540643 -0.3033888669011971 0 0.40004610660407353 -0.31977683311008082 0 0.39257965985248489 -0.33040159144918879 0 0.38377072110625332 -0.31564846042765088 0 0.40004610660407353 -0.31977683311008082 0 0.40337452199383611 -0.3310102227000421 0 0.39257965985248489 -0.33040159144918879 0 0.40960753933640742 -0.32471913724153301 0 0.40004610660407353 -0.31977683311008082 0 0.40337452199383611 -0.3310102227000421 0 0.40451581098047618 -0.34416153230778829 0 0.40337452199383611 -0.3310102227000421 0 0.39257965985248489 -0.33040159144918879 0 0.41012349319573788 -0.33599201939161949 0 0.40451581098047618 -0.34416153230778829 0 0.40337452199383611 -0.3310102227000421 0 0.40451581098047618 -0.34416153230778829 0 0.39257965985248489 -0.33040159144918879 0 0.40451581098047618 -0.34416153230778829 0 0.39171809698704579 -0.34245018596799598 0 0.39257965985248489 -0.33040159144918879 0 0.39171809698704579 -0.34245018596799598 0 0.39257965985248489 -0.33040159144918879 0 0.37922858481904009 -0.33814019247242699 0 0.37922858481904009 -0.33814019247242699 0 0.38377072110625332 -0.31564846042765088 0 0.36666880277812419 -0.32315945937756302 0 0.39257965985248489 -0.33040159144918879 0 0.37922858481904009 -0.33814019247242699 0 0.38377072110625332 -0.31564846042765088 0 0.38377072110625332 -0.31564846042765088 0 0.40015624107540643 -0.3033888669011971 0 0.38589213705519088 -0.28909234175657428 0 0.38377072110625332 -0.31564846042765088 0 0.38589213705519088 -0.28909234175657428 0 0.36621558639610707 -0.29670670523029219 0 0.41188966107285729 -0.31394667753308941 0 0.40004610660407353 -0.31977683311008082 0 0.40015624107540643 -0.3033888669011971 0 0.40015624107540643 -0.3033888669011971 0 0.38589213705519088 -0.28909234175657428 0 0.41319876528096372 -0.28971552401168721 0 0.38589213705519088 -0.28909234175657428 0 0.40995958747887801 -0.27371432511264798 0 0.41319876528096372 -0.28971552401168721 0 0.36772626503734462 -0.24296258440931301 0 0.38564067262130652 -0.24145240856989039 0 0.3805397478218997 -0.26786881413793562 0 0.38564067262130652 -0.24145240856989039 0 0.40145004411333041 -0.2496888160430551 0 0.3805397478218997 -0.26786881413793562 0 0.40145004411333041 -0.2496888160430551 0 0.3805397478218997 -0.26786881413793562 0 0.40995958747887801 -0.27371432511264798 0 0.3805397478218997 -0.26786881413793562 0 0.40995958747887801 -0.27371432511264798 0 0.38589213705519088 -0.28909234175657428 0 0.3805397478218997 -0.26786881413793562 0 0.40995958747887801 -0.27371432511264798 0 0.43937942713585643 -0.27955983608736062 0 0.40995958747887801 -0.27371432511264798 0 0.41319876528096372 -0.28971552401168721 0 0.40995958747887801 -0.27371432511264798 0 0.41689210478101463 -0.25496425827108782 0 0.42734222398294891 -0.26633088853206333 0 0.40145004411333041 -0.2496888160430551 0 0.40995958747887801 -0.27371432511264798 0 0.41689210478101463 -0.25496425827108782 0 0.4290778299626834 -0.24702053500163029 0 0.41689210478101463 -0.25496425827108782 0 0.42734222398294891 -0.26633088853206333 0 0.4290778299626834 -0.24702053500163029 0 0.44251016963939249 -0.25988961415987177 0 0.42734222398294891 -0.26633088853206333 0 0.4413463193266085 -0.26899481355847782 0 0.44251016963939249 -0.25988961415987177 0 0.42734222398294891 -0.26633088853206333 0 0.43937942713585643 -0.27955983608736062 0 0.40995958747887801 -0.27371432511264798 0 0.42734222398294891 -0.26633088853206333 0 0.43937942713585643 -0.27955983608736062 0 0.40995958747887801 -0.27371432511264798 0 0.43949501796783957 -0.27798546909175109 0 0.4413463193266085 -0.26899481355847782 0 0.42734222398294891 -0.26633088853206333 0 0.43949501796783957 -0.27798546909175109 0 0.43937942713585643 -0.27955983608736062 0 0.42734222398294891 -0.26633088853206333 0 0.43937942713585643 -0.27955983608736062 0 0.43777902065283397 -0.30135764741187199 0 0.4267719321731559 -0.29652991423363928 0 0.43937942713585643 -0.27955983608736062 0 0.4267719321731559 -0.29652991423363928 0 0.41319876528096372 -0.28971552401168721 0 0.43777902065283397 -0.30135764741187199 0 0.4267719321731559 -0.29652991423363928 0 0.43203649480658451 -0.30624473024487142 0 0.43777902065283397 -0.30135764741187199 0 0.43203649480658451 -0.30624473024487142 0 0.43677783085869498 -0.31499402445996522 0 0.43203649480658451 -0.30624473024487142 0 0.43677783085869498 -0.31499402445996522 0 0.43203649480658451 -0.30624473024487142 0 0.4248240313353227 -0.3123827794862219 0 0.43777902065283397 -0.30135764741187199 0 0.43677783085869498 -0.31499402445996522 0 0.43203649480658451 -0.30624473024487142 0 0.43777902065283397 -0.30135764741187199 0 0.43677783085869498 -0.31499402445996522 0 0.43203649480658451 -0.30624473024487142 0 0.4248240313353227 -0.3123827794862219 0 0.41807212433344038 -0.30351543424291738 0 0.43203649480658451 -0.30624473024487142 0 0.4248240313353227 -0.3123827794862219 0 0.4267719321731559 -0.29652991423363928 0 0.43203649480658451 -0.30624473024487142 0 0.41807212433344038 -0.30351543424291738 0 0.4267719321731559 -0.29652991423363928 0 0.43203649480658451 -0.30624473024487142 0 0.40015624107540643 -0.3033888669011971 0 0.41807212433344038 -0.30351543424291738 0 0.41319876528096372 -0.28971552401168721 0 0.41188966107285729 -0.31394667753308941 0 0.40015624107540643 -0.3033888669011971 0 0.41807212433344038 -0.30351543424291738 0 0.41188966107285729 -0.31394667753308941 0 0.4248240313353227 -0.3123827794862219 0 0.41807212433344038 -0.30351543424291738 0 0.4267719321731559 -0.29652991423363928 0 0.41807212433344038 -0.30351543424291738 0 0.41319876528096372 -0.28971552401168721 0 0.44370936576187869 -0.4837142423338322 0 0.5 -0.5 0 0.42444705137464461 -0.50000000000000067 0 0.44370936576187869 -0.4837142423338322 0 0.44684119417862761 -0.46319076339292931 0 0.42891603062373118 -0.46584047369806508 0 0.44370936576187869 -0.4837142423338322 0 0.46267703774992402 -0.47641128073011968 0 0.44684119417862761 -0.46319076339292931 0 0.44370936576187869 -0.4837142423338322 0 0.46267703774992402 -0.47641128073011968 0 0.5 -0.5 0 0.5 -0.5 0 0.48112830297905712 -0.4658602685706319 0 0.5 -0.45542097794741421 0 0.46267703774992402 -0.47641128073011968 0 0.5 -0.5 0 0.48112830297905712 -0.4658602685706319 0 0.48112830297905712 -0.4658602685706319 0 0.4741905835647271 -0.44914154814014418 0 0.46465957066904018 -0.4559746209768587 0 0.48112830297905712 -0.4658602685706319 0 0.48499845469951108 -0.44507965110874831 0 0.4741905835647271 -0.44914154814014418 0 0.5 -0.45542097794741421 0 0.48499845469951108 -0.44507965110874831 0 0.50000000000000089 -0.42289207916039318 0 0.46267703774992402 -0.47641128073011968 0 0.48112830297905712 -0.4658602685706319 0 0.46465957066904018 -0.4559746209768587 0 0.48112830297905712 -0.4658602685706319 0 0.5 -0.45542097794741421 0 0.48499845469951108 -0.44507965110874831 0 0.48499845469951108 -0.44507965110874831 0 0.47624617010912579 -0.4406443163639957 0 0.48051438069473629 -0.43151264375504811 0 0.48499845469951108 -0.44507965110874831 0 0.4741905835647271 -0.44914154814014418 0 0.47624617010912579 -0.4406443163639957 0 0.4741905835647271 -0.44914154814014418 0 0.47624617010912579 -0.4406443163639957 0 0.46664210358815639 -0.43553796122359778 0 0.46096282809302452 -0.45102498187392981 0 0.45728518074326441 -0.4338403707355985 0 0.46257879193824042 -0.43348008930546073 0 0.46096282809302452 -0.45102498187392981 0 0.45205200021069508 -0.44384708219408808 0 0.45728518074326441 -0.4338403707355985 0 0.46096282809302452 -0.45102498187392981 0 0.45728518074326441 -0.4338403707355985 0 0.4741905835647271 -0.44914154814014418 0 0.46465957066904018 -0.4559746209768587 0 0.46664210358815639 -0.43553796122359778 0 0.46465957066904018 -0.4559746209768587 0 0.46664210358815639 -0.43553796122359778 0 0.46096282809302452 -0.45102498187392981 0 0.46465957066904018 -0.4559746209768587 0 0.46664210358815639 -0.43553796122359778 0 0.46096282809302452 -0.45102498187392981 0 0.46664210358815639 -0.43553796122359778 0 0.46257879193824042 -0.43348008930546073 0 0.46096282809302452 -0.45102498187392981 0 0.45189665069435991 -0.45320178437969011 0 0.45205200021069508 -0.44384708219408808 0 0.46267703774992402 -0.47641128073011968 0 0.46465957066904018 -0.4559746209768587 0 0.45598681997939 -0.45859673341666268 0 0.46267703774992402 -0.47641128073011968 0 0.46465957066904018 -0.4559746209768587 0 0.46267703774992402 -0.47641128073011968 0 0.45598681997939 -0.45859673341666268 0 0.44684119417862761 -0.46319076339292931 0 0.46096282809302452 -0.45102498187392981 0 0.45598681997939 -0.45859673341666268 0 0.45189665069435991 -0.45320178437969011 0 0.46096282809302452 -0.45102498187392981 0 0.46465957066904018 -0.4559746209768587 0 0.45598681997939 -0.45859673341666268 0 0.45598681997939 -0.45859673341666268 0 0.45189665069435991 -0.45320178437969011 0 0.44684119417862761 -0.46319076339292931 0 0.45189665069435991 -0.45320178437969011 0 0.44684119417862761 -0.46319076339292931 0 0.44364041101006257 -0.44934936102084022 0 0.44684119417862761 -0.46319076339292931 0 0.44364041101006257 -0.44934936102084022 0 0.43624020198791241 -0.45722673704030081 0 0.45205200021069508 -0.44384708219408808 0 0.45728518074326441 -0.4338403707355985 0 0.43556770761648678 -0.43531845478613068 0 0.44364041101006257 -0.44934936102084022 0 0.45205200021069508 -0.44384708219408808 0 0.43556770761648678 -0.43531845478613068 0 0.45189665069435991 -0.45320178437969011 0 0.44364041101006257 -0.44934936102084022 0 0.45205200021069508 -0.44384708219408808 0 0.45728518074326441 -0.4338403707355985 0 0.43556770761648678 -0.43531845478613068 0 0.4416413427450025 -0.41843139091837628 0 0.45728518074326441 -0.4338403707355985 0 0.43556770761648678 -0.43531845478613068 0 0.4416413427450025 -0.41843139091837628 0 0.45241339979653289 -0.41107590933986837 0 0.43505988716910637 -0.40676688008979223 0 0.45241339979653289 -0.41107590933986837 0 0.43505988716910637 -0.40676688008979223 0 0.4416413427450025 -0.41843139091837628 0 0.45241339979653289 -0.41107590933986837 0 0.45728518074326441 -0.4338403707355985 0 0.45241339979653289 -0.41107590933986837 0 0.46862463650727187 -0.4151013014703368 0 0.45241339979653289 -0.41107590933986837 0 0.46862463650727187 -0.4151013014703368 0 0.46022199264152852 -0.40104029527252422 0 0.45241339979653289 -0.41107590933986837 0 0.46862463650727187 -0.4151013014703368 0 0.45728518074326441 -0.4338403707355985 0 0.46862463650727187 -0.4151013014703368 0 0.45728518074326441 -0.4338403707355985 0 0.46257879193824042 -0.43348008930546073 0 0.46862463650727187 -0.4151013014703368 0 0.46664210358815639 -0.43553796122359778 0 0.45241339979653289 -0.41107590933986837 0 0.45728518074326441 -0.4338403707355985 0 0.46862463650727187 -0.4151013014703368 0 0.46664210358815639 -0.43553796122359778 0 0.46257879193824042 -0.43348008930546073 0 0.45728518074326441 -0.4338403707355985 0 0.46257879193824042 -0.43348008930546073 0 0.46664210358815639 -0.43553796122359778 0 0.47502335976095011 -0.4252871491910869 0 0.48051438069473629 -0.43151264375504811 0 0.46862463650727187 -0.4151013014703368 0 0.46664210358815639 -0.43553796122359778 0 0.47502335976095011 -0.4252871491910869 0 0.47624617010912579 -0.4406443163639957 0 0.46664210358815639 -0.43553796122359778 0 0.48051438069473629 -0.43151264375504811 0 0.47502335976095011 -0.4252871491910869 0 0.48051438069473629 -0.43151264375504811 0 0.48431231825363641 -0.41899669031536502 0 0.48051438069473629 -0.43151264375504811 0 0.50000000000000089 -0.42289207916039318 0 0.48431231825363641 -0.41899669031536502 0 0.48499845469951108 -0.44507965110874831 0 0.48051438069473629 -0.43151264375504811 0 0.50000000000000089 -0.42289207916039318 0 0.50000000000000089 -0.42289207916039318 0 0.48431231825363641 -0.41899669031536502 0 0.48877302024125108 -0.40511903564161111 0 0.50000000000000089 -0.42289207916039318 0 0.48877302024125108 -0.40511903564161111 0 0.5 -0.39381098249165658 0 0.50000000000000089 -0.42289207916039318 0 0.48431231825363641 -0.41899669031536502 0 0.46862463650727187 -0.4151013014703368 0 0.48431231825363641 -0.41899669031536502 0 0.46862463650727187 -0.4151013014703368 0 0.4701645225695692 -0.39922760413573022 0 0.46862463650727187 -0.4151013014703368 0 0.47800239092349228 -0.40754992740376572 0 0.4701645225695692 -0.39922760413573022 0 0.46862463650727187 -0.4151013014703368 0 0.47502335976095011 -0.4252871491910869 0 0.48431231825363641 -0.41899669031536502 0 0.47800239092349228 -0.40754992740376572 0 0.48431231825363641 -0.41899669031536502 0 0.48877302024125108 -0.40511903564161111 0 0.46862463650727187 -0.4151013014703368 0 0.47800239092349228 -0.40754992740376572 0 0.48431231825363641 -0.41899669031536502 0 0.4701645225695692 -0.39922760413573022 0 0.48147281615375809 -0.39747068757517628 0 0.47170440863186591 -0.38335390680112341 0 0.47800239092349228 -0.40754992740376572 0 0.4701645225695692 -0.39922760413573022 0 0.48147281615375809 -0.39747068757517628 0 0.4701645225695692 -0.39922760413573022 0 0.47170440863186591 -0.38335390680112341 0 0.47800239092349228 -0.40754992740376572 0 0.48147281615375809 -0.39747068757517628 0 0.48877302024125108 -0.40511903564161111 0 0.48147281615375809 -0.39747068757517628 0 0.48877302024125108 -0.40511903564161111 0 0.488648981673245 -0.39113873576262748 0 0.48877302024125108 -0.40511903564161111 0 0.488648981673245 -0.39113873576262748 0 0.5 -0.39381098249165658 0 0.49301507150618312 -0.37189770981711351 0 0.5 -0.36472988582291999 0 0.5 -0.39381098249165658 0 0.49301507150618312 -0.37189770981711351 0 0.5 -0.39381098249165658 0 0.48760851842882119 -0.3805090112330145 0 0.488648981673245 -0.39113873576262748 0 0.48760851842882119 -0.3805090112330145 0 0.4815007195267379 -0.38319265155913751 0 0.488648981673245 -0.39113873576262748 0 0.5 -0.39381098249165658 0 0.48760851842882119 -0.3805090112330145 0 0.46908166597951451 -0.37460501904918281 0 0.48147281615375809 -0.39747068757517628 0 0.4815007195267379 -0.38319265155913751 0 0.47848205287062279 -0.37470614756839637 0 0.48760851842882119 -0.3805090112330145 0 0.4815007195267379 -0.38319265155913751 0 0.48464718275066548 -0.37000042591148991 0 0.47848205287062279 -0.37470614756839637 0 0.48760851842882119 -0.3805090112330145 0 0.46908166597951451 -0.37460501904918281 0 0.48147281615375809 -0.39747068757517628 0 0.46908166597951451 -0.37460501904918281 0 0.48147281615375809 -0.39747068757517628 0 0.47170440863186591 -0.38335390680112341 0 0.48147281615375809 -0.39747068757517628 0 0.488648981673245 -0.39113873576262748 0 0.4815007195267379 -0.38319265155913751 0 0.46908166597951451 -0.37460501904918281 0 0.47848205287062279 -0.37470614756839637 0 0.4815007195267379 -0.38319265155913751 0 0.45930975068696622 -0.37243274284069788 0 0.44767025154583201 -0.38891251233416368 0 0.45930975068696622 -0.37243274284069788 0 0.46200064592652301 -0.38203766602153799 0 0.44767025154583201 -0.38891251233416368 0 0.46908166597951451 -0.37460501904918281 0 0.47170440863186591 -0.38335390680112341 0 0.46200064592652301 -0.38203766602153799 0 0.46908166597951451 -0.37460501904918281 0 0.45930975068696622 -0.37243274284069788 0 0.46200064592652301 -0.38203766602153799 0 0.46200064592652301 -0.38203766602153799 0 0.46223715278843602 -0.39088414908252239 0 0.44767025154583201 -0.38891251233416368 0 0.47170440863186591 -0.38335390680112341 0 0.46200064592652301 -0.38203766602153799 0 0.46223715278843602 -0.39088414908252239 0 0.46862463650727187 -0.4151013014703368 0 0.4701645225695692 -0.39922760413573022 0 0.46022199264152852 -0.40104029527252422 0 0.4701645225695692 -0.39922760413573022 0 0.46223715278843602 -0.39088414908252239 0 0.46022199264152852 -0.40104029527252422 0 0.45241339979653289 -0.41107590933986837 0 0.46022199264152852 -0.40104029527252422 0 0.44767025154583201 -0.38891251233416368 0 0.4701645225695692 -0.39922760413573022 0 0.47170440863186591 -0.38335390680112341 0 0.46223715278843602 -0.39088414908252239 0 0.46223715278843602 -0.39088414908252239 0 0.46022199264152852 -0.40104029527252422 0 0.44767025154583201 -0.38891251233416368 0 0.45241339979653289 -0.41107590933986837 0 0.44767025154583201 -0.38891251233416368 0 0.45241339979653289 -0.41107590933986837 0 0.44798697432721313 -0.39427489215817391 0 0.44767025154583201 -0.38891251233416368 0 0.45241339979653289 -0.41107590933986837 0 0.44798697432721313 -0.39427489215817391 0 0.43505988716910637 -0.40676688008979223 0 0.44572476475901512 -0.39166702723300911 0 0.44798697432721313 -0.39427489215817391 0 0.44767025154583201 -0.38891251233416368 0 0.44572476475901512 -0.39166702723300911 0 0.44798697432721313 -0.39427489215817391 0 0.44572476475901512 -0.39166702723300911 0 0.43505988716910637 -0.40676688008979223 0 0.44572476475901512 -0.39166702723300911 0 0.44798697432721313 -0.39427489215817391 0 0.43505988716910637 -0.40676688008979223 0 0.44572476475901512 -0.39166702723300911 0 0.44767025154583201 -0.38891251233416368 0 0.43228590878381229 -0.37617477504525171 0 0.45930975068696622 -0.37243274284069788 0 0.44460990844953979 -0.37461239025663851 0 0.44767025154583201 -0.38891251233416368 0 0.44572476475901512 -0.39166702723300911 0 0.43228590878381229 -0.37617477504525171 0 0.44460990844953979 -0.37461239025663851 0 0.44767025154583201 -0.38891251233416368 0 0.43228590878381229 -0.37617477504525171 0 0.44460990844953979 -0.37461239025663851 0 0.44767025154583201 -0.38891251233416368 0 0.44572476475901512 -0.39166702723300911 0 0.44767025154583201 -0.38891251233416368 0 0.43228590878381229 -0.37617477504525171 0 0.43012970272604412 -0.40554267209055361 0 0.42035379551396451 -0.38776757216906532 0 0.43228590878381229 -0.37617477504525171 0 0.42035379551396451 -0.38776757216906532 0 0.41968109770174378 -0.37681430329699639 0 0.43228590878381229 -0.37617477504525171 0 0.43012970272604412 -0.40554267209055361 0 0.43012970272604412 -0.40554267209055361 0 0.41761449747875212 -0.39608689165152577 0 0.42035379551396451 -0.38776757216906532 0 0.44572476475901512 -0.39166702723300911 0 0.43228590878381229 -0.37617477504525171 0 0.43012970272604412 -0.40554267209055361 0 0.44572476475901512 -0.39166702723300911 0 0.43012970272604412 -0.40554267209055361 0 0.43505988716910637 -0.40676688008979223 0 0.43012970272604412 -0.40554267209055361 0 0.43505988716910637 -0.40676688008979223 0 0.43012970272604412 -0.40554267209055361 0 0.41761449747875212 -0.39608689165152577 0 0.40938474730910562 -0.40039151787744159 0 0.43012970272604412 -0.40554267209055361 0 0.40938474730910562 -0.40039151787744159 0 0.41761449747875212 -0.39608689165152577 0 0.41204587410473947 -0.39187131601518599 0 0.42035379551396451 -0.38776757216906532 0 0.43012970272604412 -0.40554267209055361 0 0.40938474730910562 -0.40039151787744159 0 0.41736062338974939 -0.41096131877153652 0 0.40938474730910562 -0.40039151787744159 0 0.41204587410473947 -0.39187131601518599 0 0.40064542030869171 -0.39320040862637068 0 0.41761449747875212 -0.39608689165152577 0 0.40938474730910562 -0.40039151787744159 0 0.41204587410473947 -0.39187131601518599 0 0.41204587410473947 -0.39187131601518599 0 0.41243784754615898 -0.38463475303587202 0 0.40064542030869171 -0.39320040862637068 0 0.40946305010165551 -0.37352016507174152 0 0.41243784754615898 -0.38463475303587202 0 0.40064542030869171 -0.39320040862637068 0 0.41204587410473947 -0.39187131601518599 0 0.41243784754615898 -0.38463475303587202 0 0.42035379551396451 -0.38776757216906532 0 0.41243784754615898 -0.38463475303587202 0 0.42035379551396451 -0.38776757216906532 0 0.41968109770174378 -0.37681430329699639 0 0.40946305010165551 -0.37352016507174152 0 0.41243784754615898 -0.38463475303587202 0 0.41968109770174378 -0.37681430329699639 0 0.40946305010165551 -0.37352016507174152 0 0.40064542030869171 -0.39320040862637068 0 0.40946305010165551 -0.37352016507174152 0 0.39843338657168809 -0.37860693084034719 0 0.39018154138920408 -0.36728316559728852 0 0.39843338657168809 -0.37860693084034719 0 0.38900463666157431 -0.38730867386871309 0 0.40946305010165551 -0.37352016507174152 0 0.39843338657168809 -0.37860693084034719 0 0.40064542030869171 -0.39320040862637068 0 0.39843338657168809 -0.37860693084034719 0 0.38900463666157431 -0.38730867386871309 0 0.40064542030869171 -0.39320040862637068 0 0.39018154138920408 -0.36728316559728852 0 0.37385198782360568 -0.38442924851361221 0 0.39018154138920408 -0.36728316559728852 0 0.38900463666157431 -0.38730867386871309 0 0.37385198782360568 -0.38442924851361221 0 0.38900463666157431 -0.38730867386871309 0 0.37994075659129789 -0.40144317374313437 0 0.37385198782360568 -0.38442924851361221 0 0.38900463666157431 -0.38730867386871309 0 0.37994075659129789 -0.40144317374313437 0 0.39035465101932287 -0.39870822710480452 0 0.37994075659129789 -0.40144317374313437 0 0.39035465101932287 -0.39870822710480452 0 0.39182779051572791 -0.41288065218100012 0 0.39035465101932287 -0.39870822710480452 0 0.40064542030869171 -0.39320040862637068 0 0.39182779051572791 -0.41288065218100012 0 0.40938474730910562 -0.40039151787744159 0 0.40064542030869171 -0.39320040862637068 0 0.40437218113761642 -0.40969687999366922 0 0.40064542030869171 -0.39320040862637068 0 0.40437218113761642 -0.40969687999366922 0 0.39182779051572791 -0.41288065218100012 0 0.40064542030869171 -0.39320040862637068 0 0.39182779051572791 -0.41288065218100012 0 0.38900463666157431 -0.38730867386871309 0 0.39035465101932287 -0.39870822710480452 0 0.40064542030869171 -0.39320040862637068 0 0.40437218113761642 -0.40969687999366922 0 0.4022205695683746 -0.41967368680598161 0 0.39182779051572791 -0.41288065218100012 0 0.40437218113761642 -0.40969687999366922 0 0.4022205695683746 -0.41967368680598161 0 0.41126528490124559 -0.4173074964383815 0 0.4022205695683746 -0.41967368680598161 0 0.39182779051572791 -0.41288065218100012 0 0.39410702365670602 -0.4264980122023676 0 0.39182779051572791 -0.41288065218100012 0 0.38301016072276411 -0.43256089573562939 0 0.37317101036670208 -0.41623422010918693 0 0.37994075659129789 -0.40144317374313437 0 0.39182779051572791 -0.41288065218100012 0 0.37317101036670208 -0.41623422010918693 0 0.38301016072276411 -0.43256089573562939 0 0.39142035942140141 -0.43832310872812752 0 0.36899048435309351 -0.43984967861958912 0 0.39182779051572791 -0.41288065218100012 0 0.38301016072276411 -0.43256089573562939 0 0.39182779051572791 -0.41288065218100012 0 0.38301016072276411 -0.43256089573562939 0 0.39410702365670602 -0.4264980122023676 0 0.38301016072276411 -0.43256089573562939 0 0.39410702365670602 -0.4264980122023676 0 0.39142035942140141 -0.43832310872812752 0 0.39410702365670602 -0.4264980122023676 0 0.40205623805526242 -0.42905171756109961 0 0.39142035942140141 -0.43832310872812752 0 0.40205623805526242 -0.42905171756109961 0 0.41385023448970931 -0.43679653883666703 0 0.39142035942140141 -0.43832310872812752 0 0.4022205695683746 -0.41967368680598161 0 0.39410702365670602 -0.4264980122023676 0 0.40205623805526242 -0.42905171756109961 0 0.4022205695683746 -0.41967368680598161 0 0.40205623805526242 -0.42905171756109961 0 0.41037128851749821 -0.42515277708078691 0 0.41385023448970931 -0.43679653883666703 0 0.4164609727589863 -0.42098344785382852 0 0.42945743249672819 -0.41469910814177008 0 0.40205623805526242 -0.42905171756109961 0 0.41385023448970931 -0.43679653883666703 0 0.41037128851749821 -0.42515277708078691 0 0.41385023448970931 -0.43679653883666703 0 0.42945743249672819 -0.41469910814177008 0 0.41385023448970931 -0.43679653883666703 0 0.41037128851749821 -0.42515277708078691 0 0.4164609727589863 -0.42098344785382852 0 0.41037128851749821 -0.42515277708078691 0 0.41126528490124559 -0.4173074964383815 0 0.4164609727589863 -0.42098344785382852 0 0.4022205695683746 -0.41967368680598161 0 0.41037128851749821 -0.42515277708078691 0 0.41126528490124559 -0.4173074964383815 0 0.40938474730910562 -0.40039151787744159 0 0.40437218113761642 -0.40969687999366922 0 0.41736062338974939 -0.41096131877153652 0 0.40437218113761642 -0.40969687999366922 0 0.41126528490124559 -0.4173074964383815 0 0.41736062338974939 -0.41096131877153652 0 0.41126528490124559 -0.4173074964383815 0 0.41736062338974939 -0.41096131877153652 0 0.4164609727589863 -0.42098344785382852 0 0.41736062338974939 -0.41096131877153652 0 0.4164609727589863 -0.42098344785382852 0 0.42945743249672819 -0.41469910814177008 0 0.43012970272604412 -0.40554267209055361 0 0.41736062338974939 -0.41096131877153652 0 0.42945743249672819 -0.41469910814177008 0 0.42945743249672819 -0.41469910814177008 0 0.43505988716910637 -0.40676688008979223 0 0.4416413427450025 -0.41843139091837628 0 0.43505988716910637 -0.40676688008979223 0 0.4339258780509912 -0.41596114320206451 0 0.43012970272604412 -0.40554267209055361 0 0.42945743249672819 -0.41469910814177008 0 0.43505988716910637 -0.40676688008979223 0 0.42945743249672819 -0.41469910814177008 0 0.43505988716910637 -0.40676688008979223 0 0.4339258780509912 -0.41596114320206451 0 0.43012970272604412 -0.40554267209055361 0 0.42945743249672819 -0.41469910814177008 0 0.42945743249672819 -0.41469910814177008 0 0.4339258780509912 -0.41596114320206451 0 0.43404621419405109 -0.42476086837008142 0 0.4416413427450025 -0.41843139091837628 0 0.4339258780509912 -0.41596114320206451 0 0.43404621419405109 -0.42476086837008142 0 0.41385023448970931 -0.43679653883666703 0 0.43556770761648678 -0.43531845478613068 0 0.43404621419405109 -0.42476086837008142 0 0.4416413427450025 -0.41843139091837628 0 0.43556770761648678 -0.43531845478613068 0 0.43404621419405109 -0.42476086837008142 0 0.41385023448970931 -0.43679653883666703 0 0.42945743249672819 -0.41469910814177008 0 0.43404621419405109 -0.42476086837008142 0 0.41385023448970931 -0.43679653883666703 0 0.43556770761648678 -0.43531845478613068 0 0.44364041101006257 -0.44934936102084022 0 0.43556770761648678 -0.43531845478613068 0 0.42556317213922817 -0.45052635004936847 0 0.41385023448970931 -0.43679653883666703 0 0.43556770761648678 -0.43531845478613068 0 0.42556317213922817 -0.45052635004936847 0 0.44364041101006257 -0.44934936102084022 0 0.42556317213922817 -0.45052635004936847 0 0.43624020198791241 -0.45722673704030081 0 0.44684119417862761 -0.46319076339292931 0 0.43624020198791241 -0.45722673704030081 0 0.42891603062373118 -0.46584047369806508 0 0.42556317213922817 -0.45052635004936847 0 0.43624020198791241 -0.45722673704030081 0 0.42891603062373118 -0.46584047369806508 0 0.42556317213922817 -0.45052635004936847 0 0.42891603062373118 -0.46584047369806508 0 0.4158431578867976 -0.4564996553500893 0 0.42891603062373118 -0.46584047369806508 0 0.4158431578867976 -0.4564996553500893 0 0.40948620656065621 -0.4669494932260243 0 0.4158431578867976 -0.4564996553500893 0 0.40948620656065621 -0.4669494932260243 0 0.40654314419291648 -0.45510371320115972 0 0.42556317213922817 -0.45052635004936847 0 0.4158431578867976 -0.4564996553500893 0 0.40870723591745628 -0.44407824657582867 0 0.4158431578867976 -0.4564996553500893 0 0.40654314419291648 -0.45510371320115972 0 0.40870723591745628 -0.44407824657582867 0 0.41385023448970931 -0.43679653883666703 0 0.42556317213922817 -0.45052635004936847 0 0.40870723591745628 -0.44407824657582867 0 0.41385023448970931 -0.43679653883666703 0 0.40870723591745628 -0.44407824657582867 0 0.40870723591745628 -0.44407824657582867 0 0.39829212608181658 -0.44821065156341511 0 0.39142035942140141 -0.43832310872812752 0 0.41385023448970931 -0.43679653883666703 0 0.40870723591745628 -0.44407824657582867 0 0.39142035942140141 -0.43832310872812752 0 0.41385023448970931 -0.43679653883666703 0 0.39142035942140141 -0.43832310872812752 0 0.40654314419291648 -0.45510371320115972 0 0.40870723591745628 -0.44407824657582867 0 0.39829212608181658 -0.44821065156341511 0 0.39829212608181658 -0.44821065156341511 0 0.39101103661365338 -0.44794715753542841 0 0.39516327970667581 -0.45634903079283817 0 0.39829212608181658 -0.44821065156341511 0 0.39101103661365338 -0.44794715753542841 0 0.39142035942140141 -0.43832310872812752 0 0.39142035942140141 -0.43832310872812752 0 0.36899048435309351 -0.43984967861958912 0 0.39142035942140141 -0.43832310872812752 0 0.38138346195355238 -0.45010263748342338 0 0.36899048435309351 -0.43984967861958912 0 0.39101103661365338 -0.44794715753542841 0 0.38138346195355238 -0.45010263748342338 0 0.39516327970667581 -0.45634903079283817 0 0.39101103661365338 -0.44794715753542841 0 0.39142035942140141 -0.43832310872812752 0 0.38138346195355238 -0.45010263748342338 0 0.38138346195355238 -0.45010263748342338 0 0.38153542537292928 -0.47379522065179958 0 0.36933500383099371 -0.45252330312828409 0 0.38138346195355238 -0.45010263748342338 0 0.39516327970667581 -0.45634903079283817 0 0.38153542537292928 -0.47379522065179958 0 0.39516327970667581 -0.45634903079283817 0 0.397294037503512 -0.47099783874914058 0 0.38153542537292928 -0.47379522065179958 0 0.40948620656065621 -0.4669494932260243 0 0.40654314419291648 -0.45510371320115972 0 0.39516327970667581 -0.45634903079283817 0 0.40654314419291648 -0.45510371320115972 0 0.39829212608181658 -0.44821065156341511 0 0.39516327970667581 -0.45634903079283817 0 0.40948620656065621 -0.4669494932260243 0 0.39516327970667581 -0.45634903079283817 0 0.397294037503512 -0.47099783874914058 0 0.38153542537292928 -0.47379522065179958 0 0.40299123837378681 -0.48689761032590029 0 0.397294037503512 -0.47099783874914058 0 0.38153542537292928 -0.47379522065179958 0 0.40299123837378681 -0.48689761032590029 0 0.40948620656065621 -0.4669494932260243 0 0.397294037503512 -0.47099783874914058 0 0.40299123837378681 -0.48689761032590029 0 0.38153542537292928 -0.47379522065179958 0 0.39512835668358542 -0.5 0 0.36580966199252629 -0.5 0 0.38153542537292928 -0.47379522065179958 0 0.39512835668358542 -0.5 0 0.40299123837378681 -0.48689761032590029 0 0.40299123837378681 -0.48689761032590029 0 0.42444705137464461 -0.50000000000000067 0 0.39512835668358542 -0.5 0 0.40299123837378681 -0.48689761032590029 0 0.42444705137464461 -0.50000000000000067 0 0.40299123837378681 -0.48689761032590029 0 0.41928301325933542 -0.48044791323326358 0 0.42444705137464461 -0.50000000000000067 0 0.40948620656065621 -0.4669494932260243 0 0.40299123837378681 -0.48689761032590029 0 0.41928301325933542 -0.48044791323326358 0 0.42891603062373118 -0.46584047369806508 0 0.40948620656065621 -0.4669494932260243 0 0.41928301325933542 -0.48044791323326358 0 0.44370936576187869 -0.4837142423338322 0 0.42891603062373118 -0.46584047369806508 0 0.41928301325933542 -0.48044791323326358 0 0.44370936576187869 -0.4837142423338322 0 0.41928301325933542 -0.48044791323326358 0 0.42444705137464461 -0.50000000000000067 0 0.32113155348993022 -0.49379209140262492 0 0.33649096730146721 -0.49999999999999778 0 0.31218993028024461 -0.49999999999999889 0 0.32113155348993022 -0.49379209140262492 0 0.30577213967839428 -0.48758418280524879 0 0.31218993028024461 -0.49999999999999889 0 0.32113155348993022 -0.49379209140262492 0 0.30577213967839428 -0.48758418280524879 0 0.32113155348993022 -0.49379209140262492 0 0.31469988314009772 -0.48088824964053911 0 0.30577213967839428 -0.48758418280524879 0 0.32113155348993022 -0.49379209140262492 0 0.31469988314009772 -0.48088824964053911 0 0.32263696497667599 -0.4778515402647332 0 0.32113155348993022 -0.49379209140262492 0 0.32263696497667599 -0.4778515402647332 0 0.33717511296088309 -0.48037856661235517 0 0.32263696497667599 -0.4778515402647332 0 0.33092760904807511 -0.47084493682604661 0 0.32051595564553481 -0.46213557307089598 0 0.31469988314009772 -0.48088824964053911 0 0.32051595564553481 -0.46213557307089598 0 0.30344280190995448 -0.48307786065918767 0 0.31469988314009772 -0.48088824964053911 0 0.32263696497667599 -0.4778515402647332 0 0.32051595564553481 -0.46213557307089598 0 0.33092760904807511 -0.47084493682604661 0 0.33717511296088309 -0.48037856661235517 0 0.34338240260920633 -0.46301406735620171 0 0.32263696497667599 -0.4778515402647332 0 0.33092760904807511 -0.47084493682604661 0 0.33717511296088309 -0.48037856661235517 0 0.33717511296088309 -0.48037856661235517 0 0.33649096730146721 -0.49999999999999778 0 0.35660222299772382 -0.48025463479056152 0 0.32113155348993022 -0.49379209140262492 0 0.33717511296088309 -0.48037856661235517 0 0.33649096730146721 -0.49999999999999778 0 0.32113155348993022 -0.49379209140262492 0 0.33649096730146721 -0.49999999999999778 0 0.33649096730146721 -0.49999999999999778 0 0.36580966199252629 -0.5 0 0.35660222299772382 -0.48025463479056152 0 0.38153542537292928 -0.47379522065179958 0 0.36580966199252629 -0.5 0 0.35660222299772382 -0.48025463479056152 0 0.38153542537292928 -0.47379522065179958 0 0.35660222299772382 -0.48025463479056152 0 0.36007961237207198 -0.46069283097769892 0 0.33717511296088309 -0.48037856661235517 0 0.35660222299772382 -0.48025463479056152 0 0.34338240260920633 -0.46301406735620171 0 0.35660222299772382 -0.48025463479056152 0 0.36007961237207198 -0.46069283097769892 0 0.34338240260920633 -0.46301406735620171 0 0.36007961237207198 -0.46069283097769892 0 0.35503790245424671 -0.45103508788360608 0 0.34338240260920633 -0.46301406735620171 0 0.35503790245424671 -0.45103508788360608 0 0.34061719587497769 -0.45175085246087188 0 0.34338240260920633 -0.46301406735620171 0 0.38153542537292928 -0.47379522065179958 0 0.36007961237207198 -0.46069283097769892 0 0.38153542537292928 -0.47379522065179958 0 0.36007961237207198 -0.46069283097769892 0 0.36933500383099371 -0.45252330312828409 0 0.36007961237207198 -0.46069283097769892 0 0.36933500383099371 -0.45252330312828409 0 0.35503790245424671 -0.45103508788360608 0 0.38138346195355238 -0.45010263748342338 0 0.36899048435309351 -0.43984967861958912 0 0.36933500383099371 -0.45252330312828409 0 0.36899048435309351 -0.43984967861958912 0 0.36933500383099371 -0.45252330312828409 0 0.35503790245424671 -0.45103508788360608 0 0.36899048435309351 -0.43984967861958912 0 0.35503790245424671 -0.45103508788360608 0 0.3465606092847856 -0.44137624851105062 0 0.36899048435309351 -0.43984967861958912 0 0.3465606092847856 -0.44137624851105062 0 0.36899048435309351 -0.43984967861958912 0 0.3465606092847856 -0.44137624851105062 0 0.35728273636068358 -0.43337210477931237 0 0.35503790245424671 -0.45103508788360608 0 0.3465606092847856 -0.44137624851105062 0 0.34061719587497769 -0.45175085246087188 0 0.3465606092847856 -0.44137624851105062 0 0.3375891093811153 -0.4411932854826045 0 0.34061719587497769 -0.45175085246087188 0 0.3375891093811153 -0.4411932854826045 0 0.34061719587497769 -0.45175085246087188 0 0.32051595564553481 -0.46213557307089598 0 0.3375891093811153 -0.4411932854826045 0 0.32051595564553481 -0.46213557307089598 0 0.32754989683014701 -0.4383348660762722 0 0.3375891093811153 -0.4411932854826045 0 0.32051595564553481 -0.46213557307089598 0 0.33092760904807511 -0.47084493682604661 0 0.34338240260920633 -0.46301406735620171 0 0.32051595564553481 -0.46213557307089598 0 0.34061719587497769 -0.45175085246087188 0 0.34338240260920633 -0.46301406735620171 0 0.32051595564553481 -0.46213557307089598 0 0.32051595564553481 -0.46213557307089598 0 0.31635692447741459 -0.44186271952063733 0 0.31051457828522783 -0.45147981807794041 0 0.32051595564553481 -0.46213557307089598 0 0.31635692447741459 -0.44186271952063733 0 0.32754989683014701 -0.4383348660762722 0 0.31635692447741459 -0.44186271952063733 0 0.32620329326344932 -0.42738598766280161 0 0.30965292378217601 -0.42732567206423427 0 0.32620329326344932 -0.42738598766280161 0 0.32129013956454089 -0.41098705074526909 0 0.30965292378217601 -0.42732567206423427 0 0.31635692447741459 -0.44186271952063733 0 0.32754989683014701 -0.4383348660762722 0 0.32620329326344932 -0.42738598766280161 0 0.32620329326344932 -0.42738598766280161 0 0.32129013956454089 -0.41098705074526909 0 0.34119288069240911 -0.41872141434625959 0 0.32129013956454089 -0.41098705074526909 0 0.34119288069240911 -0.41872141434625959 0 0.33976110356497191 -0.40109978759347259 0 0.3375891093811153 -0.4411932854826045 0 0.33743948865676332 -0.42917731029245021 0 0.3546622631166958 -0.42025099789431292 0 0.32620329326344932 -0.42738598766280161 0 0.34119288069240911 -0.41872141434625959 0 0.33743948865676332 -0.42917731029245021 0 0.32754989683014701 -0.4383348660762722 0 0.32620329326344932 -0.42738598766280161 0 0.33743948865676332 -0.42917731029245021 0 0.3375891093811153 -0.4411932854826045 0 0.32754989683014701 -0.4383348660762722 0 0.33743948865676332 -0.42917731029245021 0 0.34119288069240911 -0.41872141434625959 0 0.33743948865676332 -0.42917731029245021 0 0.3546622631166958 -0.42025099789431292 0 0.3375891093811153 -0.4411932854826045 0 0.3546622631166958 -0.42025099789431292 0 0.3465606092847856 -0.44137624851105062 0 0.3375891093811153 -0.4411932854826045 0 0.3546622631166958 -0.42025099789431292 0 0.3465606092847856 -0.44137624851105062 0 0.35728273636068358 -0.43337210477931237 0 0.3546622631166958 -0.42025099789431292 0 0.38301016072276411 -0.43256089573562939 0 0.3686902495030196 -0.42839164965396309 0 0.37317101036670208 -0.41623422010918693 0 0.36899048435309351 -0.43984967861958912 0 0.35728273636068358 -0.43337210477931237 0 0.3686902495030196 -0.42839164965396309 0 0.35728273636068358 -0.43337210477931237 0 0.3686902495030196 -0.42839164965396309 0 0.3546622631166958 -0.42025099789431292 0 0.38301016072276411 -0.43256089573562939 0 0.36899048435309351 -0.43984967861958912 0 0.3686902495030196 -0.42839164965396309 0 0.37994075659129789 -0.40144317374313437 0 0.37317101036670208 -0.41623422010918693 0 0.35752243425800739 -0.4015753314299359 0 0.3686902495030196 -0.42839164965396309 0 0.37317101036670208 -0.41623422010918693 0 0.3546622631166958 -0.42025099789431292 0 0.37317101036670208 -0.41623422010918693 0 0.3546622631166958 -0.42025099789431292 0 0.35752243425800739 -0.4015753314299359 0 0.34119288069240911 -0.41872141434625959 0 0.3546622631166958 -0.42025099789431292 0 0.35752243425800739 -0.4015753314299359 0 0.34119288069240911 -0.41872141434625959 0 0.35752243425800739 -0.4015753314299359 0 0.33976110356497191 -0.40109978759347259 0 0.34119288069240911 -0.41872141434625959 0 0.35752243425800739 -0.4015753314299359 0 0.35752243425800739 -0.4015753314299359 0 0.34755644708554068 -0.38211137580744298 0 0.33976110356497191 -0.40109978759347259 0 0.35752243425800739 -0.4015753314299359 0 0.37385198782360568 -0.38442924851361221 0 0.37994075659129789 -0.40144317374313437 0 0.35752243425800739 -0.4015753314299359 0 0.37385198782360568 -0.38442924851361221 0 0.35752243425800739 -0.4015753314299359 0 0.37385198782360568 -0.38442924851361221 0 0.34755644708554068 -0.38211137580744298 0 0.37385198782360568 -0.38442924851361221 0 0.34755644708554068 -0.38211137580744298 0 0.35650977778267212 -0.36523534710079952 0 0.34755644708554068 -0.38211137580744298 0 0.33379599458344678 -0.37632974734058872 0 0.32688571379704923 -0.38874658626392089 0 0.32129013956454089 -0.41098705074526909 0 0.33976110356497191 -0.40109978759347259 0 0.32688571379704923 -0.38874658626392089 0 0.34755644708554068 -0.38211137580744298 0 0.33976110356497191 -0.40109978759347259 0 0.32688571379704923 -0.38874658626392089 0 0.32129013956454089 -0.41098705074526909 0 0.32688571379704923 -0.38874658626392089 0 0.30468516988510058 -0.3990339025407551 0 0.32688571379704923 -0.38874658626392089 0 0.31152605544784828 -0.3808918842038681 0 0.30468516988510058 -0.3990339025407551 0 0.32688571379704923 -0.38874658626392089 0 0.31152605544784828 -0.3808918842038681 0 0.32281821185704801 -0.37150446847007668 0 0.33379599458344678 -0.37632974734058872 0 0.32688571379704923 -0.38874658626392089 0 0.32281821185704801 -0.37150446847007668 0 0.31152605544784828 -0.3808918842038681 0 0.30468516988510058 -0.3990339025407551 0 0.29552909642767727 -0.37779451384413493 0 0.30468516988510058 -0.3990339025407551 0 0.28203204616305932 -0.39490402704966271 0 0.28588749470629637 -0.41187444943065282 0 0.28203204616305932 -0.39490402704966271 0 0.29552909642767727 -0.37779451384413493 0 0.27520374824171129 -0.38159703559754871 0 0.30468516988510058 -0.3990339025407551 0 0.28203204616305932 -0.39490402704966271 0 0.29552909642767727 -0.37779451384413493 0 0.28203204616305932 -0.39490402704966271 0 0.29552909642767727 -0.37779451384413493 0 0.25751977044882668 -0.37994004927490899 0 0.2630273831736325 -0.39597679476505032 0 0.27520374824171129 -0.38159703559754871 0 0.25751977044882668 -0.37994004927490899 0 0.2630273831736325 -0.39597679476505032 0 0.25751977044882668 -0.37994004927490899 0 0.2630273831736325 -0.39597679476505032 0 0.2367090688434226 -0.39587575270045849 0 0.2630273831736325 -0.39597679476505032 0 0.26743205015505372 -0.41341168758305008 0 0.2630273831736325 -0.39597679476505032 0 0.26743205015505372 -0.41341168758305008 0 0.26530871911821952 -0.4093039047598318 0 0.25373450766085731 -0.40612635718347578 0 0.2630273831736325 -0.39597679476505032 0 0.2367090688434226 -0.39587575270045849 0 0.25373450766085731 -0.40612635718347578 0 0.2630273831736325 -0.39597679476505032 0 0.26530871911821952 -0.4093039047598318 0 0.28203204616305932 -0.39490402704966271 0 0.26743205015505372 -0.41341168758305008 0 0.28203204616305932 -0.39490402704966271 0 0.2630273831736325 -0.39597679476505032 0 0.26743205015505372 -0.41341168758305008 0 0.28203204616305932 -0.39490402704966271 0 0.27520374824171129 -0.38159703559754871 0 0.2630273831736325 -0.39597679476505032 0 0.28203204616305932 -0.39490402704966271 0 0.26743205015505372 -0.41341168758305008 0 0.28588749470629637 -0.41187444943065282 0 0.26743205015505372 -0.41341168758305008 0 0.27214949366041219 -0.42253802401606749 0 0.28588749470629637 -0.41187444943065282 0 0.26743205015505372 -0.41341168758305008 0 0.25919867273847869 -0.42384871470180319 0 0.27214949366041219 -0.42253802401606749 0 0.26743205015505372 -0.41341168758305008 0 0.27214949366041219 -0.42253802401606749 0 0.26743205015505372 -0.41341168758305008 0 0.26530871911821952 -0.4093039047598318 0 0.25373450766085731 -0.40612635718347578 0 0.26530871911821952 -0.4093039047598318 0 0.25868629140633581 -0.41380717158287861 0 0.26743205015505372 -0.41341168758305008 0 0.26530871911821952 -0.4093039047598318 0 0.25868629140633581 -0.41380717158287861 0 0.26743205015505372 -0.41341168758305008 0 0.25919867273847869 -0.42384871470180319 0 0.26743205015505372 -0.41341168758305008 0 0.25868629140633581 -0.41380717158287861 0 0.25919867273847869 -0.42384871470180319 0 0.25868629140633581 -0.41380717158287861 0 0.25919867273847869 -0.42384871470180319 0 0.24494107576267621 -0.41566816210915991 0 0.25373450766085731 -0.40612635718347578 0 0.25868629140633581 -0.41380717158287861 0 0.24494107576267621 -0.41566816210915991 0 0.25919867273847869 -0.42384871470180319 0 0.2481195038739103 -0.43253413450948919 0 0.24494107576267621 -0.41566816210915991 0 0.25919867273847869 -0.42384871470180319 0 0.26299867143852002 -0.43541774817571188 0 0.2481195038739103 -0.43253413450948919 0 0.25919867273847869 -0.42384871470180319 0 0.26299867143852002 -0.43541774817571188 0 0.27214949366041219 -0.42253802401606749 0 0.27214949366041219 -0.42253802401606749 0 0.28363969072716039 -0.44476688674516052 0 0.26299867143852002 -0.43541774817571188 0 0.27214949366041219 -0.42253802401606749 0 0.28074666600132647 -0.44757076899195419 0 0.27214949366041219 -0.42253802401606749 0 0.28074666600132647 -0.44757076899195419 0 0.27214949366041219 -0.42253802401606749 0 0.29228294337649752 -0.42720623169375532 0 0.28363969072716039 -0.44476688674516052 0 0.27214949366041219 -0.42253802401606749 0 0.29228294337649752 -0.42720623169375532 0 0.28588749470629637 -0.41187444943065282 0 0.29228294337649752 -0.42720623169375532 0 0.28588749470629637 -0.41187444943065282 0 0.30148156197771492 -0.41475919802104561 0 0.32129013956454089 -0.41098705074526909 0 0.30148156197771492 -0.41475919802104561 0 0.30965292378217601 -0.42732567206423427 0 0.32129013956454089 -0.41098705074526909 0 0.30468516988510058 -0.3990339025407551 0 0.30148156197771492 -0.41475919802104561 0 0.30468516988510058 -0.3990339025407551 0 0.28588749470629637 -0.41187444943065282 0 0.30148156197771492 -0.41475919802104561 0 0.29228294337649752 -0.42720623169375532 0 0.30148156197771492 -0.41475919802104561 0 0.30965292378217601 -0.42732567206423427 0 0.29228294337649752 -0.42720623169375532 0 0.30965292378217601 -0.42732567206423427 0 0.30221792486898152 -0.44252135079567118 0 0.31635692447741459 -0.44186271952063733 0 0.30965292378217601 -0.42732567206423427 0 0.30221792486898152 -0.44252135079567118 0 0.30221792486898152 -0.44252135079567118 0 0.31051457828522783 -0.45147981807794041 0 0.30296750814898021 -0.45939962892455721 0 0.31635692447741459 -0.44186271952063733 0 0.30221792486898152 -0.44252135079567118 0 0.31051457828522783 -0.45147981807794041 0 0.32051595564553481 -0.46213557307089598 0 0.31051457828522783 -0.45147981807794041 0 0.30296750814898021 -0.45939962892455721 0 0.32051595564553481 -0.46213557307089598 0 0.30296750814898021 -0.45939962892455721 0 0.30344280190995448 -0.48307786065918767 0 0.30296750814898021 -0.45939962892455721 0 0.29512988779390992 -0.46699574947425282 0 0.28074666600132647 -0.44757076899195419 0 0.27554559483929519 -0.46444278740413991 0 0.28934383834223859 -0.47260351396784173 0 0.29512988779390992 -0.46699574947425282 0 0.28074666600132647 -0.44757076899195419 0 0.28934383834223859 -0.47260351396784173 0 0.30296750814898021 -0.45939962892455721 0 0.29512988779390992 -0.46699574947425282 0 0.28363969072716039 -0.44476688674516052 0 0.28074666600132647 -0.44757076899195419 0 0.28934383834223859 -0.47260351396784173 0 0.29512988779390992 -0.46699574947425282 0 0.28363969072716039 -0.44476688674516052 0 0.29228294337649752 -0.42720623169375532 0 0.30221792486898152 -0.44252135079567118 0 0.28363969072716039 -0.44476688674516052 0 0.30221792486898152 -0.44252135079567118 0 0.30296750814898021 -0.45939962892455721 0 0.28363969072716039 -0.44476688674516052 0 0.29512988779390992 -0.46699574947425282 0 0.28363969072716039 -0.44476688674516052 0 0.28074666600132647 -0.44757076899195419 0 0.26299867143852002 -0.43541774817571188 0 0.28074666600132647 -0.44757076899195419 0 0.2568051087683223 -0.44954582835982948 0 0.27214949366041219 -0.42253802401606749 0 0.28363969072716039 -0.44476688674516052 0 0.28074666600132647 -0.44757076899195419 0 0.26299867143852002 -0.43541774817571188 0 0.2568051087683223 -0.44954582835982948 0 0.2481195038739103 -0.43253413450948919 0 0.2568051087683223 -0.44954582835982948 0 0.26022972114081128 -0.46917702384374821 0 0.23718882707015049 -0.45986444420057693 0 0.2568051087683223 -0.44954582835982948 0 0.27554559483929519 -0.46444278740413991 0 0.26022972114081128 -0.46917702384374821 0 0.28074666600132647 -0.44757076899195419 0 0.2568051087683223 -0.44954582835982948 0 0.27554559483929519 -0.46444278740413991 0 0.27554559483929519 -0.46444278740413991 0 0.26022972114081128 -0.46917702384374821 0 0.2832706152114719 -0.47848960348692038 0 0.26022972114081128 -0.46917702384374821 0 0.2832706152114719 -0.47848960348692038 0 0.26022972114081128 -0.46917702384374821 0 0.27217348211217651 -0.48924480174345941 0 0.2832706152114719 -0.47848960348692038 0 0.27217348211217651 -0.48924480174345941 0 0.2832706152114719 -0.47848960348692038 0 0.26022972114081128 -0.46917702384374821 0 0.25699751373479041 -0.48468891969039768 0 0.27217348211217651 -0.48924480174345941 0 0.26022972114081128 -0.46917702384374821 0 0.25699751373479041 -0.48468891969039768 0 0.24003257050845569 -0.47824744288084031 0 0.25699751373479041 -0.48468891969039768 0 0.26107634901288129 -0.49999999999999872 0 0.2367528177561086 -0.5 0 0.25699751373479041 -0.48468891969039768 0 0.26107634901288129 -0.49999999999999872 0 0.27217348211217651 -0.48924480174345941 0 0.26107634901288129 -0.49999999999999872 0 0.27217348211217651 -0.48924480174345941 0 0.28964706516044131 -0.50000000000000178 0 0.26107634901288129 -0.49999999999999872 0 0.27217348211217651 -0.48924480174345941 0 0.27217348211217651 -0.48924480174345941 0 0.28676301480932292 -0.4884328713003086 0 0.2832706152114719 -0.47848960348692038 0 0.27217348211217651 -0.48924480174345941 0 0.28964706516044131 -0.50000000000000178 0 0.28676301480932292 -0.4884328713003086 0 0.28964706516044131 -0.50000000000000178 0 0.29605384254050188 -0.49214131281863538 0 0.28964706516044131 -0.50000000000000178 0 0.29605384254050188 -0.49214131281863538 0 0.29875280696237549 -0.50000000000000822 0 0.28964706516044131 -0.50000000000000178 0 0.29605384254050188 -0.49214131281863538 0 0.28676301480932292 -0.4884328713003086 0 0.29605384254050188 -0.49214131281863538 0 0.29267006902202741 -0.48228863845252512 0 0.30125684053156249 -0.48575920662210298 0 0.29605384254050188 -0.49214131281863538 0 0.28676301480932292 -0.4884328713003086 0 0.29267006902202741 -0.48228863845252512 0 0.29605384254050188 -0.49214131281863538 0 0.29267006902202741 -0.48228863845252512 0 0.2832706152114719 -0.47848960348692038 0 0.28934383834223859 -0.47260351396784173 0 0.29267006902202741 -0.48228863845252512 0 0.28676301480932292 -0.4884328713003086 0 0.2832706152114719 -0.47848960348692038 0 0.29267006902202741 -0.48228863845252512 0 0.2832706152114719 -0.47848960348692038 0 0.29267006902202741 -0.48228863845252512 0 0.27554559483929519 -0.46444278740413991 0 0.2832706152114719 -0.47848960348692038 0 0.28934383834223859 -0.47260351396784173 0 0.2832706152114719 -0.47848960348692038 0 0.28934383834223859 -0.47260351396784173 0 0.29512988779390992 -0.46699574947425282 0 0.28934383834223859 -0.47260351396784173 0 0.296368687519938 -0.4781449938351825 0 0.29512988779390992 -0.46699574947425282 0 0.28934383834223859 -0.47260351396784173 0 0.29267006902202741 -0.48228863845252512 0 0.296368687519938 -0.4781449938351825 0 0.30125684053156249 -0.48575920662210298 0 0.28934383834223859 -0.47260351396784173 0 0.29267006902202741 -0.48228863845252512 0 0.296368687519938 -0.4781449938351825 0 0.28934383834223859 -0.47260351396784173 0 0.29267006902202741 -0.48228863845252512 0 0.296368687519938 -0.4781449938351825 0 0.30344280190995448 -0.48307786065918767 0 0.30125684053156249 -0.48575920662210298 0 0.32051595564553481 -0.46213557307089598 0 0.30344280190995448 -0.48307786065918767 0 0.29512988779390992 -0.46699574947425282 0 0.30344280190995448 -0.48307786065918767 0 0.30296750814898021 -0.45939962892455721 0 0.29512988779390992 -0.46699574947425282 0 0.30344280190995448 -0.48307786065918767 0 0.29267006902202741 -0.48228863845252512 0 0.30125684053156249 -0.48575920662210298 0 0.29512988779390992 -0.46699574947425282 0 0.296368687519938 -0.4781449938351825 0 0.30344280190995448 -0.48307786065918767 0 0.31469988314009772 -0.48088824964053911 0 0.30344280190995448 -0.48307786065918767 0 0.30577213967839428 -0.48758418280524879 0 0.30577213967839428 -0.48758418280524879 0 0.31218993028024461 -0.49999999999999889 0 0.30293342321303701 -0.49417141565156719 0 0.30577213967839428 -0.48758418280524879 0 0.31218993028024461 -0.49999999999999889 0 0.29605384254050188 -0.49214131281863538 0 0.29875280696237549 -0.50000000000000822 0 0.31218993028024461 -0.49999999999999889 0 0.29875280696237549 -0.50000000000000822 0 0.30293342321303701 -0.49417141565156719 0 0.29605384254050188 -0.49214131281863538 0 0.29875280696237549 -0.50000000000000822 0 0.30293342321303701 -0.49417141565156719 0 0.29605384254050188 -0.49214131281863538 0 0.30125684053156249 -0.48575920662210298 0 0.29605384254050188 -0.49214131281863538 0 0.30293342321303701 -0.49417141565156719 0 0.30125684053156249 -0.48575920662210298 0 0.30577213967839428 -0.48758418280524879 0 0.30293342321303701 -0.49417141565156719 0 0.30125684053156249 -0.48575920662210298 0 0.30344280190995448 -0.48307786065918767 0 0.30577213967839428 -0.48758418280524879 0 0.30125684053156249 -0.48575920662210298 0 0.30577213967839428 -0.48758418280524879 0 0.30125684053156249 -0.48575920662210298 0 0.30344280190995448 -0.48307786065918767 0 0.30577213967839428 -0.48758418280524879 0 0.30344280190995448 -0.48307786065918767 0 0.30125684053156249 -0.48575920662210298 0 0.33287547634843467 -0.28296419864986028 0 0.3322013403271753 -0.30146510882465682 0 0.34474323983768751 -0.29381883163466821 0 0.3322013403271753 -0.30146510882465682 0 0.34447642320665223 -0.31335337403921698 0 0.32566049203155167 -0.31478541675757682 0 0.3322013403271753 -0.30146510882465682 0 0.34474323983768751 -0.29381883163466821 0 0.34447642320665223 -0.31335337403921698 0 0.3322013403271753 -0.30146510882465682 0 0.31463104453194751 -0.30390509413649047 0 0.32566049203155167 -0.31478541675757682 0 0.33287547634843467 -0.28296419864986028 0 0.31463104453194751 -0.30390509413649047 0 0.31234754982338703 -0.29305977092780588 0 0.33287547634843467 -0.28296419864986028 0 0.3322013403271753 -0.30146510882465682 0 0.31463104453194751 -0.30390509413649047 0 0.33287547634843467 -0.28296419864986028 0 0.31463104453194751 -0.30390509413649047 0 0.33287547634843467 -0.28296419864986028 0 0.31529684357293802 -0.28237627665094489 0 0.31234754982338703 -0.29305977092780588 0 0.31529684357293802 -0.28237627665094489 0 0.31329344756690702 -0.26711813877997381 0 0.33054322991604562 -0.2710793788378727 0 0.33287547634843467 -0.28296419864986028 0 0.31529684357293802 -0.28237627665094489 0 0.33054322991604562 -0.2710793788378727 0 0.31529684357293802 -0.28237627665094489 0 0.33054322991604562 -0.2710793788378727 0 0.32804855968273622 -0.25743919181773389 0 0.30497721120055121 -0.2528550804722447 0 0.31329344756690702 -0.26711813877997381 0 0.32804855968273622 -0.25743919181773389 0 0.33054322991604562 -0.2710793788378727 0 0.31329344756690702 -0.26711813877997381 0 0.32804855968273622 -0.25743919181773389 0 0.30497721120055121 -0.2528550804722447 0 0.32653859469191748 -0.24178225554840641 0 0.32804855968273622 -0.25743919181773389 0 0.30497721120055121 -0.2528550804722447 0 0.32804855968273622 -0.25743919181773389 0 0.35111990816492011 -0.26202330316322842 0 0.34032025475604288 -0.24597905592601871 0 0.32804855968273622 -0.25743919181773389 0 0.35111990816492011 -0.26202330316322842 0 0.32804855968273622 -0.25743919181773389 0 0.33054322991604562 -0.2710793788378727 0 0.35111990816492011 -0.26202330316322842 0 0.33287547634843467 -0.28296419864986028 0 0.35111990816492011 -0.26202330316322842 0 0.33287547634843467 -0.28296419864986028 0 0.33054322991604562 -0.2710793788378727 0 0.35111990816492011 -0.26202330316322842 0 0.38589213705519088 -0.28909234175657428 0 0.3805397478218997 -0.26786881413793562 0 0.35457124964797337 -0.2818113526830528 0 0.33287547634843467 -0.28296419864986028 0 0.35111990816492011 -0.26202330316322842 0 0.35457124964797337 -0.2818113526830528 0 0.34032025475604288 -0.24597905592601871 0 0.36772626503734462 -0.24296258440931301 0 0.35111990816492011 -0.26202330316322842 0 0.3805397478218997 -0.26786881413793562 0 0.35111990816492011 -0.26202330316322842 0 0.36772626503734462 -0.24296258440931301 0 0.3805397478218997 -0.26786881413793562 0 0.35111990816492011 -0.26202330316322842 0 0.36772626503734462 -0.24296258440931301 0 0.35111990816492011 -0.26202330316322842 0 0.3805397478218997 -0.26786881413793562 0 0.35111990816492011 -0.26202330316322842 0 0.35457124964797337 -0.2818113526830528 0 0.38589213705519088 -0.28909234175657428 0 0.36621558639610707 -0.29670670523029219 0 0.35457124964797337 -0.2818113526830528 0 0.33287547634843467 -0.28296419864986028 0 0.35457124964797337 -0.2818113526830528 0 0.34474323983768751 -0.29381883163466821 0 0.36621558639610707 -0.29670670523029219 0 0.35457124964797337 -0.2818113526830528 0 0.34474323983768751 -0.29381883163466821 0 0.36621558639610707 -0.29670670523029219 0 0.34474323983768751 -0.29381883163466821 0 0.34447642320665223 -0.31335337403921698 0 0.36621558639610707 -0.29670670523029219 0 0.34447642320665223 -0.31335337403921698 0 0.36621558639610707 -0.29670670523029219 0 0.36666880277812419 -0.32315945937756302 0 0.34447642320665223 -0.31335337403921698 0 0.38377072110625332 -0.31564846042765088 0 0.36621558639610707 -0.29670670523029219 0 0.36666880277812419 -0.32315945937756302 0 0.37922858481904009 -0.33814019247242699 0 0.36666880277812419 -0.32315945937756302 0 0.35962341124259928 -0.34627775305619313 0 0.36666880277812419 -0.32315945937756302 0 0.35273767537858852 -0.33076995437709861 0 0.35962341124259928 -0.34627775305619313 0 0.35273767537858852 -0.33076995437709861 0 0.35962341124259928 -0.34627775305619313 0 0.33950637002605161 -0.34216423707299681 0 0.35273767537858852 -0.33076995437709861 0 0.34447642320665223 -0.31335337403921698 0 0.33950637002605161 -0.34216423707299681 0 0.36666880277812419 -0.32315945937756302 0 0.35273767537858852 -0.33076995437709861 0 0.34447642320665223 -0.31335337403921698 0 0.37385198782360568 -0.38442924851361221 0 0.37397294860501351 -0.35847288680401979 0 0.35650977778267212 -0.36523534710079952 0 0.37397294860501351 -0.35847288680401979 0 0.35962341124259928 -0.34627775305619313 0 0.35650977778267212 -0.36523534710079952 0 0.37922858481904009 -0.33814019247242699 0 0.37397294860501351 -0.35847288680401979 0 0.35962341124259928 -0.34627775305619313 0 0.35962341124259928 -0.34627775305619313 0 0.34839079116136812 -0.35415847401272582 0 0.35650977778267212 -0.36523534710079952 0 0.35962341124259928 -0.34627775305619313 0 0.34839079116136812 -0.35415847401272582 0 0.33950637002605161 -0.34216423707299681 0 0.34755644708554068 -0.38211137580744298 0 0.35650977778267212 -0.36523534710079952 0 0.33792360559414952 -0.36295655882091399 0 0.34839079116136812 -0.35415847401272582 0 0.35650977778267212 -0.36523534710079952 0 0.33792360559414952 -0.36295655882091399 0 0.34755644708554068 -0.38211137580744298 0 0.33379599458344678 -0.37632974734058872 0 0.33792360559414952 -0.36295655882091399 0 0.33379599458344678 -0.37632974734058872 0 0.33792360559414952 -0.36295655882091399 0 0.32281821185704801 -0.37150446847007668 0 0.33792360559414952 -0.36295655882091399 0 0.32261623090853497 -0.35181930019849528 0 0.33950637002605161 -0.34216423707299681 0 0.34839079116136812 -0.35415847401272582 0 0.33792360559414952 -0.36295655882091399 0 0.33950637002605161 -0.34216423707299681 0 0.32261623090853497 -0.35181930019849528 0 0.32281821185704801 -0.37150446847007668 0 0.30902614669229528 -0.36068500063860709 0 0.33792360559414952 -0.36295655882091399 0 0.32261623090853497 -0.35181930019849528 0 0.32281821185704801 -0.37150446847007668 0 0.31152605544784828 -0.3808918842038681 0 0.32281821185704801 -0.37150446847007668 0 0.30902614669229528 -0.36068500063860709 0 0.34447642320665223 -0.31335337403921698 0 0.32273726001719732 -0.33000004284814188 0 0.32566049203155167 -0.31478541675757682 0 0.34447642320665223 -0.31335337403921698 0 0.32273726001719732 -0.33000004284814188 0 0.32261623090853497 -0.35181930019849528 0 0.33950637002605161 -0.34216423707299681 0 0.32273726001719732 -0.33000004284814188 0 0.34447642320665223 -0.31335337403921698 0 0.33950637002605161 -0.34216423707299681 0 0.32273726001719732 -0.33000004284814188 0 0.32261623090853497 -0.35181930019849528 0 0.32273726001719732 -0.33000004284814188 0 0.30099809682774231 -0.34664671165706668 0 0.32273726001719732 -0.33000004284814188 0 0.32566049203155167 -0.31478541675757682 0 0.29638661271546018 -0.3248459896231205 0 0.31463104453194751 -0.30390509413649047 0 0.32566049203155167 -0.31478541675757682 0 0.29638661271546018 -0.3248459896231205 0 0.31463104453194751 -0.30390509413649047 0 0.29638661271546018 -0.3248459896231205 0 0.32273726001719732 -0.33000004284814188 0 0.30099809682774231 -0.34664671165706668 0 0.32273726001719732 -0.33000004284814188 0 0.29638661271546018 -0.3248459896231205 0 0.30099809682774231 -0.34664671165706668 0 0.29638661271546018 -0.3248459896231205 0 0.2781421808989728 -0.34578688510975081 0 0.29638661271546018 -0.3248459896231205 0 0.2781421808989728 -0.34578688510975081 0 0.27883661956948708 -0.32472843038324067 0 0.29638661271546018 -0.3248459896231205 0 0.30099809682774231 -0.34664671165706668 0 0.2781421808989728 -0.34578688510975081 0 0.28961499958680043 -0.3137187911144122 0 0.27883661956948708 -0.32472843038324067 0 0.28109113642841388 -0.30772119245850299 0 0.29638661271546018 -0.3248459896231205 0 0.28961499958680043 -0.3137187911144122 0 0.29877147786950953 -0.30752253334616031 0 0.29638661271546018 -0.3248459896231205 0 0.28961499958680043 -0.3137187911144122 0 0.27883661956948708 -0.32472843038324067 0 0.29552909642767727 -0.37779451384413493 0 0.30902614669229528 -0.36068500063860709 0 0.31152605544784828 -0.3808918842038681 0 0.29552909642767727 -0.37779451384413493 0 0.30902614669229528 -0.36068500063860709 0 0.29552909642767727 -0.37779451384413493 0 0.30902614669229528 -0.36068500063860709 0 0.29563675255400579 -0.36232754770674541 0 0.30902614669229528 -0.36068500063860709 0 0.30099809682774231 -0.34664671165706668 0 0.29563675255400579 -0.36232754770674541 0 0.32261623090853497 -0.35181930019849528 0 0.30902614669229528 -0.36068500063860709 0 0.30099809682774231 -0.34664671165706668 0 0.30099809682774231 -0.34664671165706668 0 0.29563675255400579 -0.36232754770674541 0 0.27925893363828741 -0.36329338046599152 0 0.30099809682774231 -0.34664671165706668 0 0.27925893363828741 -0.36329338046599152 0 0.30099809682774231 -0.34664671165706668 0 0.27925893363828741 -0.36329338046599152 0 0.2781421808989728 -0.34578688510975081 0 0.29552909642767727 -0.37779451384413493 0 0.29563675255400579 -0.36232754770674541 0 0.27925893363828741 -0.36329338046599152 0 0.29552909642767727 -0.37779451384413493 0 0.27520374824171129 -0.38159703559754871 0 0.27925893363828741 -0.36329338046599152 0 0.25751977044882668 -0.37994004927490899 0 0.27925893363828741 -0.36329338046599152 0 0.27520374824171129 -0.38159703559754871 0 0.25751977044882668 -0.37994004927490899 0 0.27925893363828741 -0.36329338046599152 0 0.2781421808989728 -0.34578688510975081 0 0.25989774908248542 -0.36672778059638089 0 0.27925893363828741 -0.36329338046599152 0 0.2781421808989728 -0.34578688510975081 0 0.25989774908248542 -0.36672778059638089 0 0.2781421808989728 -0.34578688510975081 0 0.26174241296488659 -0.35020247779822022 0 0.25989774908248542 -0.36672778059638089 0 0.25024355751676147 -0.35875359685824942 0 0.26174241296488659 -0.35020247779822022 0 0.25462234269919831 -0.34307915854549148 0 0.25024355751676147 -0.35875359685824942 0 0.26174241296488659 -0.35020247779822022 0 0.25989774908248542 -0.36672778059638089 0 0.25751977044882668 -0.37994004927490899 0 0.25024355751676147 -0.35875359685824942 0 0.25989774908248542 -0.36672778059638089 0 0.25751977044882668 -0.37994004927490899 0 0.25024355751676147 -0.35875359685824942 0 0.25751977044882668 -0.37994004927490899 0 0.27925893363828741 -0.36329338046599152 0 0.25989774908248542 -0.36672778059638089 0 0.26213181562699739 -0.32176921045298879 0 0.28109113642841388 -0.30772119245850299 0 0.27883661956948708 -0.32472843038324067 0 0.26213181562699739 -0.32176921045298879 0 0.28109113642841388 -0.30772119245850299 0 0.27883661956948708 -0.32472843038324067 0 0.26394778610261799 -0.33499527121522332 0 0.26213181562699739 -0.32176921045298879 0 0.2781421808989728 -0.34578688510975081 0 0.27883661956948708 -0.32472843038324067 0 0.26394778610261799 -0.33499527121522332 0 0.2781421808989728 -0.34578688510975081 0 0.26174241296488659 -0.35020247779822022 0 0.26394778610261799 -0.33499527121522332 0 0.26394778610261799 -0.33499527121522332 0 0.25462234269919831 -0.34307915854549148 0 0.24916096160718529 -0.32518887195593121 0 0.26174241296488659 -0.35020247779822022 0 0.26394778610261799 -0.33499527121522332 0 0.25462234269919831 -0.34307915854549148 0 0.26213181562699739 -0.32176921045298879 0 0.251795934735139 -0.31069853026311312 0 0.26791242886860089 -0.30504950414253701 0 0.26394778610261799 -0.33499527121522332 0 0.26213181562699739 -0.32176921045298879 0 0.24916096160718529 -0.32518887195593121 0 0.26213181562699739 -0.32176921045298879 0 0.251795934735139 -0.31069853026311312 0 0.24916096160718529 -0.32518887195593121 0 0.251795934735139 -0.31069853026311312 0 0.26791242886860089 -0.30504950414253701 0 0.251795934735139 -0.31069853026311312 0 0.25248024006429781 -0.29365343996160131 0 0.26791242886860089 -0.30504950414253701 0 0.25248024006429781 -0.29365343996160131 0 0.26488645732446148 -0.28459528868877898 0 0.26791242886860089 -0.30504950414253701 0 0.25248024006429781 -0.29365343996160131 0 0.26488645732446148 -0.28459528868877898 0 0.25284739391620198 -0.27543482908196121 0 0.26488645732446148 -0.28459528868877898 0 0.26791242886860089 -0.30504950414253701 0 0.26488645732446148 -0.28459528868877898 0 0.27761548841115502 -0.28904637588173782 0 0.26791242886860089 -0.30504950414253701 0 0.26488645732446148 -0.28459528868877898 0 0.27761548841115502 -0.28904637588173782 0 0.27410765074654031 -0.27639260685060379 0 0.27761548841115502 -0.28904637588173782 0 0.28699458522542548 -0.27839632127090802 0 0.27410765074654031 -0.27639260685060379 0 0.26791242886860089 -0.30504950414253701 0 0.28397559752373402 -0.29934477148265842 0 0.27761548841115502 -0.28904637588173782 0 0.26791242886860089 -0.30504950414253701 0 0.28397559752373402 -0.29934477148265842 0 0.26213181562699739 -0.32176921045298879 0 0.26791242886860089 -0.30504950414253701 0 0.28109113642841388 -0.30772119245850299 0 0.26791242886860089 -0.30504950414253701 0 0.28109113642841388 -0.30772119245850299 0 0.28397559752373402 -0.29934477148265842 0 0.28109113642841388 -0.30772119245850299 0 0.28397559752373402 -0.29934477148265842 0 0.30005045722983043 -0.29367317446401731 0 0.28109113642841388 -0.30772119245850299 0 0.29298915135113163 -0.30377580976103652 0 0.30005045722983043 -0.29367317446401731 0 0.28961499958680043 -0.3137187911144122 0 0.28109113642841388 -0.30772119245850299 0 0.29298915135113163 -0.30377580976103652 0 0.28109113642841388 -0.30772119245850299 0 0.30005045722983043 -0.29367317446401731 0 0.28961499958680043 -0.3137187911144122 0 0.29298915135113163 -0.30377580976103652 0 0.29877147786950953 -0.30752253334616031 0 0.28397559752373402 -0.29934477148265842 0 0.29240245419787181 -0.29174757023327008 0 0.30005045722983043 -0.29367317446401731 0 0.28397559752373402 -0.29934477148265842 0 0.30005045722983043 -0.29367317446401731 0 0.27761548841115502 -0.28904637588173782 0 0.28397559752373402 -0.29934477148265842 0 0.28784024074507908 -0.28889550894984062 0 0.28397559752373402 -0.29934477148265842 0 0.28784024074507908 -0.28889550894984062 0 0.29240245419787181 -0.29174757023327008 0 0.27761548841115502 -0.28904637588173782 0 0.28784024074507908 -0.28889550894984062 0 0.28699458522542548 -0.27839632127090802 0 0.28784024074507908 -0.28889550894984062 0 0.2977435212928437 -0.28507682603656431 0 0.28699458522542548 -0.27839632127090802 0 0.28784024074507908 -0.28889550894984062 0 0.29240245419787181 -0.29174757023327008 0 0.2977435212928437 -0.28507682603656431 0 0.29240245419787181 -0.29174757023327008 0 0.30005045722983043 -0.29367317446401731 0 0.2977435212928437 -0.28507682603656431 0 0.31529684357293802 -0.28237627665094489 0 0.30005045722983043 -0.29367317446401731 0 0.2977435212928437 -0.28507682603656431 0 0.31529684357293802 -0.28237627665094489 0 0.30005045722983043 -0.29367317446401731 0 0.30005045722983043 -0.29367317446401731 0 0.31234754982338703 -0.29305977092780588 0 0.30487734994211019 -0.29963401529123418 0 0.31529684357293802 -0.28237627665094489 0 0.30005045722983043 -0.29367317446401731 0 0.31234754982338703 -0.29305977092780588 0 0.31463104453194751 -0.30390509413649047 0 0.31234754982338703 -0.29305977092780588 0 0.30487734994211019 -0.29963401529123418 0 0.31463104453194751 -0.30390509413649047 0 0.30487734994211019 -0.29963401529123418 0 0.29877147786950953 -0.30752253334616031 0 0.31463104453194751 -0.30390509413649047 0 0.29638661271546018 -0.3248459896231205 0 0.29877147786950953 -0.30752253334616031 0 0.30487734994211019 -0.29963401529123418 0 0.29877147786950953 -0.30752253334616031 0 0.29941276422506968 -0.29963110923543163 0 0.29298915135113163 -0.30377580976103652 0 0.29877147786950953 -0.30752253334616031 0 0.29941276422506968 -0.29963110923543163 0 0.29298915135113163 -0.30377580976103652 0 0.30005045722983043 -0.29367317446401731 0 0.29941276422506968 -0.29963110923543163 0 0.30005045722983043 -0.29367317446401731 0 0.30487734994211019 -0.29963401529123418 0 0.29941276422506968 -0.29963110923543163 0 0.31329344756690702 -0.26711813877997381 0 0.30497721120055121 -0.2528550804722447 0 0.29377511039261289 -0.26420190764757712 0 0.31329344756690702 -0.26711813877997381 0 0.30171634050648671 -0.27558238163062981 0 0.29377511039261289 -0.26420190764757712 0 0.31529684357293802 -0.28237627665094489 0 0.2977435212928437 -0.28507682603656431 0 0.30171634050648671 -0.27558238163062981 0 0.31529684357293802 -0.28237627665094489 0 0.31329344756690702 -0.26711813877997381 0 0.30171634050648671 -0.27558238163062981 0 0.30171634050648671 -0.27558238163062981 0 0.28699458522542548 -0.27839632127090802 0 0.29377511039261289 -0.26420190764757712 0 0.2977435212928437 -0.28507682603656431 0 0.30171634050648671 -0.27558238163062981 0 0.28699458522542548 -0.27839632127090802 0 0.28699458522542548 -0.27839632127090802 0 0.29377511039261289 -0.26420190764757712 0 0.27918123699133729 -0.26578397517657287 0 0.28190586271836621 -0.2482709691267555 0 0.29377511039261289 -0.26420190764757712 0 0.27918123699133729 -0.26578397517657287 0 0.28190586271836621 -0.2482709691267555 0 0.30497721120055121 -0.2528550804722447 0 0.28190586271836621 -0.2482709691267555 0 0.30497721120055121 -0.2528550804722447 0 0.29377511039261289 -0.26420190764757712 0 0.28190586271836621 -0.2482709691267555 0 0.27918123699133729 -0.26578397517657287 0 0.26186048578032223 -0.26414107323502112 0 0.28190586271836621 -0.2482709691267555 0 0.2588345142361817 -0.2436868577812632 0 0.26186048578032223 -0.26414107323502112 0 0.26488645732446148 -0.28459528868877898 0 0.27410765074654031 -0.27639260685060379 0 0.26186048578032223 -0.26414107323502112 0 0.27410765074654031 -0.27639260685060379 0 0.27918123699133729 -0.26578397517657287 0 0.26186048578032223 -0.26414107323502112 0 0.28699458522542548 -0.27839632127090802 0 0.27410765074654031 -0.27639260685060379 0 0.27918123699133729 -0.26578397517657287 0 0.26488645732446148 -0.28459528868877898 0 0.26186048578032223 -0.26414107323502112 0 0.26488645732446148 -0.28459528868877898 0 0.25284739391620198 -0.27543482908196121 0 0.26186048578032223 -0.26414107323502112 0 0.25284739391620198 -0.27543482908196121 0 0.25936642890186462 -0.26386281258213418 0 0.26186048578032223 -0.26414107323502112 0 0.25284739391620198 -0.27543482908196121 0 0.25936642890186462 -0.26386281258213418 0 0.24862729915749579 -0.26799640040896178 0 0.2588345142361817 -0.2436868577812632 0 0.26186048578032223 -0.26414107323502112 0 0.25936642890186462 -0.26386281258213418 0 0.2410233639488048 -0.25093728896802481 0 0.2588345142361817 -0.2436868577812632 0 0.26186048578032223 -0.26414107323502112 0 0.25386491405316808 -0.25320302537436762 0 0.25936642890186462 -0.26386281258213418 0 0.25386491405316808 -0.25320302537436762 0 0.2410233639488048 -0.25093728896802481 0 0.25936642890186462 -0.26386281258213418 0 0.26186048578032223 -0.26414107323502112 0 0.25386491405316808 -0.25320302537436762 0 0.25386491405316808 -0.25320302537436762 0 0.2410233639488048 -0.25093728896802481 0 0.248249871547954 -0.24759895791751499 0 0.25936642890186462 -0.26386281258213418 0 0.2413363261183534 -0.26114454491766959 0 0.24862729915749579 -0.26799640040896178 0 0.25936642890186462 -0.26386281258213418 0 0.2413363261183534 -0.26114454491766959 0 0.2410233639488048 -0.25093728896802481 0 0.2413363261183534 -0.26114454491766959 0 0.2410233639488048 -0.25093728896802481 0 0.22711589257641071 -0.25335285928093709 0 0.25284739391620198 -0.27543482908196121 0 0.24095904769356311 -0.27154341505408219 0 0.23938971559857181 -0.28407480721286782 0 0.25284739391620198 -0.27543482908196121 0 0.24862729915749579 -0.26799640040896178 0 0.24095904769356311 -0.27154341505408219 0 0.2413363261183534 -0.26114454491766959 0 0.24862729915749579 -0.26799640040896178 0 0.24095904769356311 -0.27154341505408219 0 0.24095904769356311 -0.27154341505408219 0 0.22001418284766011 -0.27073346688236738 0 0.23938971559857181 -0.28407480721286782 0 0.22001418284766011 -0.27073346688236738 0 0.22598343150357331 -0.28811437695090669 0 0.23938971559857181 -0.28407480721286782 0 0.22001418284766011 -0.27073346688236738 0 0.22598343150357331 -0.28811437695090669 0 0.2130020925068514 -0.26392059180315408 0 0.22598343150357331 -0.28811437695090669 0 0.2413363261183534 -0.26114454491766959 0 0.24095904769356311 -0.27154341505408219 0 0.22001418284766011 -0.27073346688236738 0 0.22001418284766011 -0.27073346688236738 0 0.2130020925068514 -0.26392059180315408 0 0.22598343150357331 -0.28811437695090669 0 0.2413363261183534 -0.26114454491766959 0 0.22001418284766011 -0.27073346688236738 0 0.22711589257641071 -0.25335285928093709 0 0.22001418284766011 -0.27073346688236738 0 0.22711589257641071 -0.25335285928093709 0 0.21217570844517189 -0.2479098543110872 0 0.2130020925068514 -0.26392059180315408 0 0.2003490685008141 -0.239614051120212 0 0.2130020925068514 -0.26392059180315408 0 0.19955191484755719 -0.25437948978255043 0 0.2003490685008141 -0.239614051120212 0 0.22001418284766011 -0.27073346688236738 0 0.21217570844517189 -0.2479098543110872 0 0.2130020925068514 -0.26392059180315408 0 0.21217570844517189 -0.2479098543110872 0 0.2003490685008141 -0.239614051120212 0 0.22001418284766011 -0.27073346688236738 0 0.2130020925068514 -0.26392059180315408 0 0.21217570844517189 -0.2479098543110872 0 0.2130020925068514 -0.26392059180315408 0 0.19955191484755719 -0.25437948978255043 0 0.20097726814946529 -0.26381764304839178 0 0.2130020925068514 -0.26392059180315408 0 0.20861578881423881 -0.28089012174631328 0 0.20479964816511129 -0.27137830593382323 0 0.2130020925068514 -0.26392059180315408 0 0.21541086396031511 -0.28478173943078372 0 0.22598343150357331 -0.28811437695090669 0 0.2130020925068514 -0.26392059180315408 0 0.20861578881423881 -0.28089012174631328 0 0.21541086396031511 -0.28478173943078372 0 0.20861578881423881 -0.28089012174631328 0 0.20479964816511129 -0.27137830593382323 0 0.20036860841802431 -0.2780222368190241 0 0.2130020925068514 -0.26392059180315408 0 0.20479964816511129 -0.27137830593382323 0 0.20097726814946529 -0.26381764304839178 0 0.20479964816511129 -0.27137830593382323 0 0.19695788230031169 -0.27033206419566191 0 0.20036860841802431 -0.2780222368190241 0 0.20479964816511129 -0.27137830593382323 0 0.19695788230031169 -0.27033206419566191 0 0.20097726814946529 -0.26381764304839178 0 0.19695788230031169 -0.27033206419566191 0 0.20036860841802431 -0.2780222368190241 0 0.19204252494330151 -0.28021322630166268 0 0.19695788230031169 -0.27033206419566191 0 0.19204252494330151 -0.28021322630166268 0 0.18640464510418839 -0.26862340597334849 0 0.19695788230031169 -0.27033206419566191 0 0.19057480292749479 -0.25907776352676981 0 0.18640464510418839 -0.26862340597334849 0 0.19057480292749479 -0.25907776352676981 0 0.19955191484755719 -0.25437948978255043 0 0.18732608264644859 -0.24487867245661959 0 0.19057480292749479 -0.25907776352676981 0 0.19955191484755719 -0.25437948978255043 0 0.20097726814946529 -0.26381764304839178 0 0.19695788230031169 -0.27033206419566191 0 0.19057480292749479 -0.25907776352676981 0 0.20097726814946529 -0.26381764304839178 0 0.20113609037812721 -0.29769186977347117 0 0.1939698785977918 -0.30371104797886711 0 0.19454308446111651 -0.29507504790601219 0 0.20113609037812721 -0.29769186977347117 0 0.1939698785977918 -0.30371104797886711 0 0.2032444598693309 -0.30664453513954171 0 0.1939698785977918 -0.30371104797886711 0 0.2032444598693309 -0.30664453513954171 0 0.1976932521318884 -0.31319252368022432 0 0.1939698785977918 -0.30371104797886711 0 0.1976932521318884 -0.31319252368022432 0 0.19034471972985781 -0.31285352258883042 0 0.1939698785977918 -0.30371104797886711 0 0.19034471972985781 -0.31285352258883042 0 0.1840048819817004 -0.30583057407500941 0 0.18762603597817701 -0.29725680039985442 0 0.1939698785977918 -0.30371104797886711 0 0.19454308446111651 -0.29507504790601219 0 0.18762603597817701 -0.29725680039985442 0 0.1939698785977918 -0.30371104797886711 0 0.1840048819817004 -0.30583057407500941 0 0.19454308446111651 -0.29507504790601219 0 0.19055621948432799 -0.28941805546020821 0 0.1994271978671584 -0.28729746591765992 0 0.18762603597817701 -0.29725680039985442 0 0.19454308446111651 -0.29507504790601219 0 0.19055621948432799 -0.28941805546020821 0 0.19204252494330151 -0.28021322630166268 0 0.19055621948432799 -0.28941805546020821 0 0.18545756951011841 -0.28495775396898249 0 0.19204252494330151 -0.28021322630166268 0 0.19055621948432799 -0.28941805546020821 0 0.1994271978671584 -0.28729746591765992 0 0.20036860841802431 -0.2780222368190241 0 0.19204252494330151 -0.28021322630166268 0 0.1994271978671584 -0.28729746591765992 0 0.20861578881423881 -0.28089012174631328 0 0.20036860841802431 -0.2780222368190241 0 0.1994271978671584 -0.28729746591765992 0 0.20113609037812721 -0.29769186977347117 0 0.1994271978671584 -0.28729746591765992 0 0.20760405633473769 -0.28905265442628703 0 0.20113609037812721 -0.29769186977347117 0 0.19454308446111651 -0.29507504790601219 0 0.1994271978671584 -0.28729746591765992 0 0.20760405633473769 -0.28905265442628703 0 0.21370317942365599 -0.29375629698556499 0 0.20885391875059989 -0.30030404513533621 0 0.20113609037812721 -0.29769186977347117 0 0.20760405633473769 -0.28905265442628703 0 0.20885391875059989 -0.30030404513533621 0 0.20861578881423881 -0.28089012174631328 0 0.20760405633473769 -0.28905265442628703 0 0.21541086396031511 -0.28478173943078372 0 0.20861578881423881 -0.28089012174631328 0 0.1994271978671584 -0.28729746591765992 0 0.20760405633473769 -0.28905265442628703 0 0.20760405633473769 -0.28905265442628703 0 0.21541086396031511 -0.28478173943078372 0 0.21370317942365599 -0.29375629698556499 0 0.21541086396031511 -0.28478173943078372 0 0.21370317942365599 -0.29375629698556499 0 0.22058785825412941 -0.29252904812913688 0 0.21370317942365599 -0.29375629698556499 0 0.22031747412363889 -0.3023229922895917 0 0.22058785825412941 -0.29252904812913688 0 0.21370317942365599 -0.29375629698556499 0 0.20885391875059989 -0.30030404513533621 0 0.22031747412363889 -0.3023229922895917 0 0.20885391875059989 -0.30030404513533621 0 0.2118191961334385 -0.30818140712808367 0 0.22031747412363889 -0.3023229922895917 0 0.20113609037812721 -0.29769186977347117 0 0.20885391875059989 -0.30030404513533621 0 0.2032444598693309 -0.30664453513954171 0 0.2032444598693309 -0.30664453513954171 0 0.2118191961334385 -0.30818140712808367 0 0.20700714424726899 -0.31785534868826087 0 0.20885391875059989 -0.30030404513533621 0 0.2032444598693309 -0.30664453513954171 0 0.2118191961334385 -0.30818140712808367 0 0.2118191961334385 -0.30818140712808367 0 0.22031747412363889 -0.3023229922895917 0 0.21953045725615669 -0.31305604062377179 0 0.2278526572501485 -0.29355707945364767 0 0.23569113165264041 -0.3163806920249268 0 0.22031747412363889 -0.3023229922895917 0 0.23569113165264041 -0.3163806920249268 0 0.21953045725615669 -0.31305604062377179 0 0.22031747412363889 -0.3023229922895917 0 0.2278526572501485 -0.29355707945364767 0 0.23569113165264041 -0.3163806920249268 0 0.21541086396031511 -0.28478173943078372 0 0.22598343150357331 -0.28811437695090669 0 0.22058785825412941 -0.29252904812913688 0 0.22031747412363889 -0.3023229922895917 0 0.22058785825412941 -0.29252904812913688 0 0.2278526572501485 -0.29355707945364767 0 0.22598343150357331 -0.28811437695090669 0 0.22058785825412941 -0.29252904812913688 0 0.2278526572501485 -0.29355707945364767 0 0.22598343150357331 -0.28811437695090669 0 0.2278526572501485 -0.29355707945364767 0 0.22598343150357331 -0.28811437695090669 0 0.2278526572501485 -0.29355707945364767 0 0.23938971559857181 -0.28407480721286782 0 0.25248024006429781 -0.29365343996160131 0 0.25284739391620198 -0.27543482908196121 0 0.23938971559857181 -0.28407480721286782 0 0.2278526572501485 -0.29355707945364767 0 0.23938971559857181 -0.28407480721286782 0 0.24218477181955919 -0.29952661284354681 0 0.25248024006429781 -0.29365343996160131 0 0.23938971559857181 -0.28407480721286782 0 0.24218477181955919 -0.29952661284354681 0 0.2278526572501485 -0.29355707945364767 0 0.24218477181955919 -0.29952661284354681 0 0.23569113165264041 -0.3163806920249268 0 0.251795934735139 -0.31069853026311312 0 0.24218477181955919 -0.29952661284354681 0 0.23569113165264041 -0.3163806920249268 0 0.251795934735139 -0.31069853026311312 0 0.25248024006429781 -0.29365343996160131 0 0.24218477181955919 -0.29952661284354681 0 0.251795934735139 -0.31069853026311312 0 0.23569113165264041 -0.3163806920249268 0 0.251795934735139 -0.31069853026311312 0 0.23569113165264041 -0.3163806920249268 0 0.24916096160718529 -0.32518887195593121 0 0.23569113165264041 -0.3163806920249268 0 0.24296734458469921 -0.3375671444415887 0 0.23569113165264041 -0.3163806920249268 0 0.24296734458469921 -0.3375671444415887 0 0.2288380306023873 -0.32991246594780899 0 0.23569113165264041 -0.3163806920249268 0 0.24916096160718529 -0.32518887195593121 0 0.24296734458469921 -0.3375671444415887 0 0.25462234269919831 -0.34307915854549148 0 0.24916096160718529 -0.32518887195593121 0 0.24296734458469921 -0.3375671444415887 0 0.24296734458469921 -0.3375671444415887 0 0.2288380306023873 -0.32991246594780899 0 0.22538352111952009 -0.34244561626660819 0 0.2288380306023873 -0.32991246594780899 0 0.21802827142865289 -0.32261257380919212 0 0.21813312074457 -0.33481867887668632 0 0.2288380306023873 -0.32991246594780899 0 0.22538352111952009 -0.34244561626660819 0 0.21813312074457 -0.33481867887668632 0 0.23569113165264041 -0.3163806920249268 0 0.21953045725615669 -0.31305604062377179 0 0.21802827142865289 -0.32261257380919212 0 0.23569113165264041 -0.3163806920249268 0 0.21802827142865289 -0.32261257380919212 0 0.23569113165264041 -0.3163806920249268 0 0.2288380306023873 -0.32991246594780899 0 0.21802827142865289 -0.32261257380919212 0 0.25751977044882668 -0.37994004927490899 0 0.25024355751676147 -0.35875359685824942 0 0.23665846062229501 -0.37026942362144238 0 0.25024355751676147 -0.35875359685824942 0 0.23665846062229501 -0.37026942362144238 0 0.23508941125361699 -0.35285553036943118 0 0.25024355751676147 -0.35875359685824942 0 0.25462234269919831 -0.34307915854549148 0 0.24296734458469921 -0.3375671444415887 0 0.24296734458469921 -0.3375671444415887 0 0.22538352111952009 -0.34244561626660819 0 0.23508941125361699 -0.35285553036943118 0 0.25024355751676147 -0.35875359685824942 0 0.24296734458469921 -0.3375671444415887 0 0.23508941125361699 -0.35285553036943118 0 0.25024355751676147 -0.35875359685824942 0 0.24296734458469921 -0.3375671444415887 0 0.22538352111952009 -0.34244561626660819 0 0.21976358988358949 -0.3585365425529522 0 0.2126997924727814 -0.34474087825959793 0 0.22538352111952009 -0.34244561626660819 0 0.23508941125361699 -0.35285553036943118 0 0.21976358988358949 -0.3585365425529522 0 0.23665846062229501 -0.37026942362144238 0 0.23508941125361699 -0.35285553036943118 0 0.21976358988358949 -0.3585365425529522 0 0.23665846062229501 -0.37026942362144238 0 0.21976358988358949 -0.3585365425529522 0 0.22062536578755509 -0.37565506997265341 0 0.21976358988358949 -0.3585365425529522 0 0.20567750639269419 -0.36935434590611538 0 0.22062536578755509 -0.37565506997265341 0 0.21976358988358949 -0.3585365425529522 0 0.20567750639269419 -0.36935434590611538 0 0.20690561546934741 -0.35426122569846918 0 0.21976358988358949 -0.3585365425529522 0 0.20690561546934741 -0.35426122569846918 0 0.2126997924727814 -0.34474087825959793 0 0.20690561546934741 -0.35426122569846918 0 0.2126997924727814 -0.34474087825959793 0 0.19961996038625329 -0.34724105368082242 0 0.19961996038625329 -0.34724105368082242 0 0.19254524014826241 -0.35675668296910862 0 0.1802331657413675 -0.34606462137671162 0 0.20690561546934741 -0.35426122569846918 0 0.19961996038625329 -0.34724105368082242 0 0.19254524014826241 -0.35675668296910862 0 0.20567750639269419 -0.36935434590611538 0 0.19254524014826241 -0.35675668296910862 0 0.19188758048418481 -0.36801345372850658 0 0.20567750639269419 -0.36935434590611538 0 0.20690561546934741 -0.35426122569846918 0 0.19254524014826241 -0.35675668296910862 0 0.19254524014826241 -0.35675668296910862 0 0.19188758048418481 -0.36801345372850658 0 0.1823863104271769 -0.3609210963115026 0 0.20567750639269419 -0.36935434590611538 0 0.19188758048418481 -0.36801345372850658 0 0.19828686110003629 -0.38270063493905121 0 0.21802827142865289 -0.32261257380919212 0 0.20036541120466539 -0.32884445559345732 0 0.20700714424726899 -0.31785534868826087 0 0.21802827142865289 -0.32261257380919212 0 0.20036541120466539 -0.32884445559345732 0 0.21953045725615669 -0.31305604062377179 0 0.20700714424726899 -0.31785534868826087 0 0.21802827142865289 -0.32261257380919212 0 0.2118191961334385 -0.30818140712808367 0 0.21953045725615669 -0.31305604062377179 0 0.20700714424726899 -0.31785534868826087 0 0.21802827142865289 -0.32261257380919212 0 0.20571598809950811 -0.33438186010022442 0 0.20036541120466539 -0.32884445559345732 0 0.21802827142865289 -0.32261257380919212 0 0.21813312074457 -0.33481867887668632 0 0.20571598809950811 -0.33438186010022442 0 0.2126997924727814 -0.34474087825959793 0 0.21813312074457 -0.33481867887668632 0 0.20571598809950811 -0.33438186010022442 0 0.22538352111952009 -0.34244561626660819 0 0.2126997924727814 -0.34474087825959793 0 0.21813312074457 -0.33481867887668632 0 0.2126997924727814 -0.34474087825959793 0 0.19961996038625329 -0.34724105368082242 0 0.20571598809950811 -0.33438186010022442 0 0.20571598809950811 -0.33438186010022442 0 0.20036541120466539 -0.32884445559345732 0 0.18690099453240139 -0.33185770914016782 0 0.20571598809950811 -0.33438186010022442 0 0.18690099453240139 -0.33185770914016782 0 0.1802331657413675 -0.34606462137671162 0 0.20571598809950811 -0.33438186010022442 0 0.1802331657413675 -0.34606462137671162 0 0.19961996038625329 -0.34724105368082242 0 0.20571598809950811 -0.33438186010022442 0 0.1802331657413675 -0.34606462137671162 0 0.20036541120466539 -0.32884445559345732 0 0.18951784861712409 -0.32264232724817188 0 0.18690099453240139 -0.33185770914016782 0 0.20036541120466539 -0.32884445559345732 0 0.18951784861712409 -0.32264232724817188 0 0.1974931586802644 -0.32128075110143361 0 0.20700714424726899 -0.31785534868826087 0 0.20036541120466539 -0.32884445559345732 0 0.1974931586802644 -0.32128075110143361 0 0.20700714424726899 -0.31785534868826087 0 0.1974931586802644 -0.32128075110143361 0 0.1976932521318884 -0.31319252368022432 0 0.2032444598693309 -0.30664453513954171 0 0.20700714424726899 -0.31785534868826087 0 0.1976932521318884 -0.31319252368022432 0 0.18951784861712409 -0.32264232724817188 0 0.1974931586802644 -0.32128075110143361 0 0.19034471972985781 -0.31285352258883042 0 0.1974931586802644 -0.32128075110143361 0 0.1976932521318884 -0.31319252368022432 0 0.19034471972985781 -0.31285352258883042 0 0.18951784861712409 -0.32264232724817188 0 0.19034471972985781 -0.31285352258883042 0 0.18113017095247469 -0.31394878286892641 0 0.18951784861712409 -0.32264232724817188 0 0.18113017095247469 -0.31394878286892641 0 0.17812192748163849 -0.32362371695768621 0 0.18113017095247469 -0.31394878286892641 0 0.1722004198849714 -0.31715402581631852 0 0.1720794884251442 -0.30848612811116177 0 0.18113017095247469 -0.31394878286892641 0 0.1722004198849714 -0.31715402581631852 0 0.17812192748163849 -0.32362371695768621 0 0.1722004198849714 -0.31715402581631852 0 0.17812192748163849 -0.32362371695768621 0 0.16695494358661411 -0.32381522032506871 0 0.18951784861712409 -0.32264232724817188 0 0.17812192748163849 -0.32362371695768621 0 0.18690099453240139 -0.33185770914016782 0 0.17812192748163849 -0.32362371695768621 0 0.18690099453240139 -0.33185770914016782 0 0.1674516260501048 -0.33558927356475587 0 0.18690099453240139 -0.33185770914016782 0 0.1674516260501048 -0.33558927356475587 0 0.1802331657413675 -0.34606462137671162 0 0.1674516260501048 -0.33558927356475587 0 0.1594892321584766 -0.32615719136923071 0 0.15121887851891669 -0.33819217026302639 0 0.1674516260501048 -0.33558927356475587 0 0.1594892321584766 -0.32615719136923071 0 0.16695494358661411 -0.32381522032506871 0 0.1594892321584766 -0.32615719136923071 0 0.1627155689789852 -0.31589628081874949 0 0.16695494358661411 -0.32381522032506871 0 0.1627155689789852 -0.31589628081874949 0 0.14910514365776201 -0.31729301187455278 0 0.15874987329490639 -0.3044838646736735 0 0.1594892321584766 -0.32615719136923071 0 0.1627155689789852 -0.31589628081874949 0 0.14910514365776201 -0.31729301187455278 0 0.1722004198849714 -0.31715402581631852 0 0.1627155689789852 -0.31589628081874949 0 0.1720794884251442 -0.30848612811116177 0 0.1722004198849714 -0.31715402581631852 0 0.1627155689789852 -0.31589628081874949 0 0.16695494358661411 -0.32381522032506871 0 0.17812192748163849 -0.32362371695768621 0 0.1674516260501048 -0.33558927356475587 0 0.16695494358661411 -0.32381522032506871 0 0.19188758048418481 -0.36801345372850658 0 0.17577255819971541 -0.37150734610532571 0 0.1823863104271769 -0.3609210963115026 0 0.19188758048418481 -0.36801345372850658 0 0.17577255819971541 -0.37150734610532571 0 0.18422598956108069 -0.37934420106258693 0 0.17577255819971541 -0.37150734610532571 0 0.1823863104271769 -0.3609210963115026 0 0.17149300756235439 -0.3622633773778603 0 0.1823863104271769 -0.3609210963115026 0 0.1802331657413675 -0.34606462137671162 0 0.17149300756235439 -0.3622633773778603 0 0.19254524014826241 -0.35675668296910862 0 0.1823863104271769 -0.3609210963115026 0 0.1802331657413675 -0.34606462137671162 0 0.1674516260501048 -0.33558927356475587 0 0.1547503433832268 -0.35774738265319889 0 0.15121887851891669 -0.33819217026302639 0 0.1674516260501048 -0.33558927356475587 0 0.1802331657413675 -0.34606462137671162 0 0.1547503433832268 -0.35774738265319889 0 0.1802331657413675 -0.34606462137671162 0 0.17149300756235439 -0.3622633773778603 0 0.1547503433832268 -0.35774738265319889 0 0.1802331657413675 -0.34606462137671162 0 0.1547503433832268 -0.35774738265319889 0 0.17149300756235439 -0.3622633773778603 0 0.1547503433832268 -0.35774738265319889 0 0.16512202603054871 -0.37658319321514272 0 0.17577255819971541 -0.37150734610532571 0 0.17149300756235439 -0.3622633773778603 0 0.16512202603054871 -0.37658319321514272 0 0.17577255819971541 -0.37150734610532571 0 0.16512202603054871 -0.37658319321514272 0 0.1547503433832268 -0.35774738265319889 0 0.13822905937819749 -0.35707687370562602 0 0.12926752102508621 -0.36943014392968621 0 0.1547503433832268 -0.35774738265319889 0 0.12926752102508621 -0.36943014392968621 0 0.14162110461793001 -0.37318671329940412 0 0.1547503433832268 -0.35774738265319889 0 0.12926752102508621 -0.36943014392968621 0 0.14162110461793001 -0.37318671329940412 0 0.1547503433832268 -0.35774738265319889 0 0.16512202603054871 -0.37658319321514272 0 0.14162110461793001 -0.37318671329940412 0 0.16512202603054871 -0.37658319321514272 0 0.1547503433832268 -0.35774738265319889 0 0.14450129859459171 -0.3490572339459061 0 0.15121887851891669 -0.33819217026302639 0 0.1547503433832268 -0.35774738265319889 0 0.14450129859459171 -0.3490572339459061 0 0.13822905937819749 -0.35707687370562602 0 0.1338069130980255 -0.34321250916177309 0 0.1181201832053116 -0.36979023338366418 0 0.13822905937819749 -0.35707687370562602 0 0.12765341836113189 -0.36790127123697119 0 0.1338069130980255 -0.34321250916177309 0 0.14450129859459171 -0.3490572339459061 0 0.13822905937819749 -0.35707687370562602 0 0.1338069130980255 -0.34321250916177309 0 0.14162110461793001 -0.37318671329940412 0 0.1181201832053116 -0.36979023338366418 0 0.12765341836113189 -0.36790127123697119 0 0.1338069130980255 -0.34321250916177309 0 0.1181201832053116 -0.36979023338366418 0 0.14162110461793001 -0.37318671329940412 0 0.12926752102508621 -0.36943014392968621 0 0.1181201832053116 -0.36979023338366418 0 0.14162110461793001 -0.37318671329940412 0 0.12863898027407339 -0.38132733139719399 0 0.1181201832053116 -0.36979023338366418 0 0.13822905937819749 -0.35707687370562602 0 0.12926752102508621 -0.36943014392968621 0 0.12765341836113189 -0.36790127123697119 0 0.12926752102508621 -0.36943014392968621 0 0.12765341836113189 -0.36790127123697119 0 0.1181201832053116 -0.36979023338366418 0 0.14910514365776201 -0.31729301187455278 0 0.1393945894287674 -0.32393840314404621 0 0.15874987329490639 -0.3044838646736735 0 0.1594892321584766 -0.32615719136923071 0 0.14910514365776201 -0.31729301187455278 0 0.15121887851891669 -0.33819217026302639 0 0.1393945894287674 -0.32393840314404621 0 0.15874987329490639 -0.3044838646736735 0 0.14910514365776201 -0.31729301187455278 0 0.1338069130980255 -0.34321250916177309 0 0.14910514365776201 -0.31729301187455278 0 0.15121887851891669 -0.33819217026302639 0 0.1338069130980255 -0.34321250916177309 0 0.14910514365776201 -0.31729301187455278 0 0.1338069130980255 -0.34321250916177309 0 0.1393945894287674 -0.32393840314404621 0 0.14450129859459171 -0.3490572339459061 0 0.15121887851891669 -0.33819217026302639 0 0.1338069130980255 -0.34321250916177309 0 0.1393945894287674 -0.32393840314404621 0 0.1200393055626284 -0.34339294161441891 0 0.1338069130980255 -0.34321250916177309 0 0.1393945894287674 -0.32393840314404621 0 0.1200393055626284 -0.34339294161441891 0 0.1393945894287674 -0.32393840314404621 0 0.120507696502126 -0.32247851038484909 0 0.1200393055626284 -0.34339294161441891 0 0.1393945894287674 -0.32393840314404621 0 0.1325618261011792 -0.31207738376634558 0 0.120507696502126 -0.32247851038484909 0 0.1393945894287674 -0.32393840314404621 0 0.1325618261011792 -0.31207738376634558 0 0.1433375452335541 -0.3067430443627826 0 0.1325618261011792 -0.31207738376634558 0 0.13588700658824679 -0.29897932800342192 0 0.1215294505641293 -0.30580642579184553 0 0.13588700658824679 -0.29897932800342192 0 0.12730577058144149 -0.28824347989175031 0 0.1215294505641293 -0.30580642579184553 0 0.1325618261011792 -0.31207738376634558 0 0.13588700658824679 -0.29897932800342192 0 0.1433375452335541 -0.3067430443627826 0 0.1393945894287674 -0.32393840314404621 0 0.1433375452335541 -0.3067430443627826 0 0.15874987329490639 -0.3044838646736735 0 0.13588700658824679 -0.29897932800342192 0 0.1433375452335541 -0.3067430443627826 0 0.15009443075467099 -0.29423624222642558 0 0.1433375452335541 -0.3067430443627826 0 0.15009443075467099 -0.29423624222642558 0 0.15874987329490639 -0.3044838646736735 0 0.13588700658824679 -0.29897932800342192 0 0.15009443075467099 -0.29423624222642558 0 0.14337654501709671 -0.28032943002417071 0 0.15009443075467099 -0.29423624222642558 0 0.14337654501709671 -0.28032943002417071 0 0.1568652624911886 -0.28154410095320409 0 0.13588700658824679 -0.29897932800342192 0 0.12730577058144149 -0.28824347989175031 0 0.14337654501709671 -0.28032943002417071 0 0.12730577058144149 -0.28824347989175031 0 0.1309291350045334 -0.27290905829767792 0 0.1175165463410221 -0.28051123308882409 0 0.12730577058144149 -0.28824347989175031 0 0.1309291350045334 -0.27290905829767792 0 0.14337654501709671 -0.28032943002417071 0 0.1309291350045334 -0.27290905829767792 0 0.14664436711036541 -0.25872622771332449 0 0.14337654501709671 -0.28032943002417071 0 0.1309291350045334 -0.27290905829767792 0 0.14664436711036541 -0.25872622771332449 0 0.1236085809504273 -0.25715862254038452 0 0.14664436711036541 -0.25872622771332449 0 0.1236085809504273 -0.25715862254038452 0 0.145063193367304 -0.24036260392927239 0 0.14664436711036541 -0.25872622771332449 0 0.1714317246741858 -0.25411726442123789 0 0.145063193367304 -0.24036260392927239 0 0.14664436711036541 -0.25872622771332449 0 0.14337654501709671 -0.28032943002417071 0 0.1565378746497893 -0.2686176211759338 0 0.14337654501709671 -0.28032943002417071 0 0.1565378746497893 -0.2686176211759338 0 0.1568652624911886 -0.28154410095320409 0 0.1565378746497893 -0.2686176211759338 0 0.1673860278467921 -0.27293131361193701 0 0.1568652624911886 -0.28154410095320409 0 0.1673860278467921 -0.27293131361193701 0 0.1568652624911886 -0.28154410095320409 0 0.16941260880326101 -0.28162737067654331 0 0.1565378746497893 -0.2686176211759338 0 0.1673860278467921 -0.27293131361193701 0 0.1714317246741858 -0.25411726442123789 0 0.14664436711036541 -0.25872622771332449 0 0.1565378746497893 -0.2686176211759338 0 0.1714317246741858 -0.25411726442123789 0 0.19057480292749479 -0.25907776352676981 0 0.1714317246741858 -0.25411726442123789 0 0.18640464510418839 -0.26862340597334849 0 0.19057480292749479 -0.25907776352676981 0 0.1714317246741858 -0.25411726442123789 0 0.18732608264644859 -0.24487867245661959 0 0.1714317246741858 -0.25411726442123789 0 0.18640464510418839 -0.26862340597334849 0 0.18255571433628559 -0.27910333780723201 0 0.1673860278467921 -0.27293131361193701 0 0.1714317246741858 -0.25411726442123789 0 0.18255571433628559 -0.27910333780723201 0 0.1714317246741858 -0.25411726442123789 0 0.18255571433628559 -0.27910333780723201 0 0.1673860278467921 -0.27293131361193701 0 0.18255571433628559 -0.27910333780723201 0 0.16941260880326101 -0.28162737067654331 0 0.19204252494330151 -0.28021322630166268 0 0.18640464510418839 -0.26862340597334849 0 0.18255571433628559 -0.27910333780723201 0 0.19204252494330151 -0.28021322630166268 0 0.18255571433628559 -0.27910333780723201 0 0.18545756951011841 -0.28495775396898249 0 0.1781051571610453 -0.28502932620330079 0 0.17887899820675721 -0.29872716250241588 0 0.15874987329490639 -0.3044838646736735 0 0.19055621948432799 -0.28941805546020821 0 0.18545756951011841 -0.28495775396898249 0 0.1840282316256312 -0.29102482407250879 0 0.18545756951011841 -0.28495775396898249 0 0.1781051571610453 -0.28502932620330079 0 0.1840282316256312 -0.29102482407250879 0 0.18255571433628559 -0.27910333780723201 0 0.18545756951011841 -0.28495775396898249 0 0.1781051571610453 -0.28502932620330079 0 0.18255571433628559 -0.27910333780723201 0 0.1781051571610453 -0.28502932620330079 0 0.16941260880326101 -0.28162737067654331 0 0.18762603597817701 -0.29725680039985442 0 0.1840282316256312 -0.29102482407250879 0 0.17887899820675721 -0.29872716250241588 0 0.18762603597817701 -0.29725680039985442 0 0.19055621948432799 -0.28941805546020821 0 0.1840282316256312 -0.29102482407250879 0 0.1781051571610453 -0.28502932620330079 0 0.1840282316256312 -0.29102482407250879 0 0.17887899820675721 -0.29872716250241588 0 0.18762603597817701 -0.29725680039985442 0 0.1840048819817004 -0.30583057407500941 0 0.17887899820675721 -0.29872716250241588 0 0.19034471972985781 -0.31285352258883042 0 0.18113017095247469 -0.31394878286892641 0 0.1840048819817004 -0.30583057407500941 0 0.18113017095247469 -0.31394878286892641 0 0.1840048819817004 -0.30583057407500941 0 0.1720794884251442 -0.30848612811116177 0 0.1840048819817004 -0.30583057407500941 0 0.1720794884251442 -0.30848612811116177 0 0.17887899820675721 -0.29872716250241588 0 0.1720794884251442 -0.30848612811116177 0 0.17887899820675721 -0.29872716250241588 0 0.15874987329490639 -0.3044838646736735 0 0.1627155689789852 -0.31589628081874949 0 0.1720794884251442 -0.30848612811116177 0 0.15874987329490639 -0.3044838646736735 0 0.1781051571610453 -0.28502932620330079 0 0.15874987329490639 -0.3044838646736735 0 0.15009443075467099 -0.29423624222642558 0 0.15874987329490639 -0.3044838646736735 0 0.16215088218099319 -0.28952877480704231 0 0.1781051571610453 -0.28502932620330079 0 0.16215088218099319 -0.28952877480704231 0 0.16941260880326101 -0.28162737067654331 0 0.1781051571610453 -0.28502932620330079 0 0.15874987329490639 -0.3044838646736735 0 0.16215088218099319 -0.28952877480704231 0 0.16215088218099319 -0.28952877480704231 0 0.1568652624911886 -0.28154410095320409 0 0.16941260880326101 -0.28162737067654331 0 0.15009443075467099 -0.29423624222642558 0 0.16215088218099319 -0.28952877480704231 0 0.1568652624911886 -0.28154410095320409 0 0.20026752087094959 -0.49293340993331919 0 0.20393437874456621 -0.47935403617364181 0 0.1838583013651785 -0.48967701808682113 0 0.20393437874456621 -0.47935403617364181 0 0.1838583013651785 -0.48967701808682113 0 0.20026752087094959 -0.49293340993331919 0 0.18810575524256329 -0.5 0 0.2124292864993359 -0.5 0 0.20026752087094959 -0.49293340993331919 0 0.18810575524256329 -0.5 0 0.1838583013651785 -0.48967701808682113 0 0.20393437874456621 -0.47935403617364181 0 0.1858202554942909 -0.47343799205048659 0 0.1838583013651785 -0.48967701808682113 0 0.20393437874456621 -0.47935403617364181 0 0.2003919421766632 -0.46200199695999228 0 0.1858202554942909 -0.47343799205048659 0 0.20393437874456621 -0.47935403617364181 0 0.22401045612395379 -0.4690310542604626 0 0.2003919421766632 -0.46200199695999228 0 0.20393437874456621 -0.47935403617364181 0 0.2250160872249197 -0.48672321528985663 0 0.22401045612395379 -0.4690310542604626 0 0.20393437874456621 -0.47935403617364181 0 0.22401045612395379 -0.4690310542604626 0 0.20393437874456621 -0.47935403617364181 0 0.2124292864993359 -0.5 0 0.2250160872249197 -0.48672321528985663 0 0.20026752087094959 -0.49293340993331919 0 0.20393437874456621 -0.47935403617364181 0 0.2124292864993359 -0.5 0 0.2250160872249197 -0.48672321528985663 0 0.2367528177561086 -0.5 0 0.24003257050845569 -0.47824744288084031 0 0.2124292864993359 -0.5 0 0.2250160872249197 -0.48672321528985663 0 0.2367528177561086 -0.5 0 0.25699751373479041 -0.48468891969039768 0 0.2367528177561086 -0.5 0 0.24003257050845569 -0.47824744288084031 0 0.26022972114081128 -0.46917702384374821 0 0.24003257050845569 -0.47824744288084031 0 0.23718882707015049 -0.45986444420057693 0 0.24003257050845569 -0.47824744288084031 0 0.22401045612395379 -0.4690310542604626 0 0.23718882707015049 -0.45986444420057693 0 0.2250160872249197 -0.48672321528985663 0 0.24003257050845569 -0.47824744288084031 0 0.22401045612395379 -0.4690310542604626 0 0.22401045612395379 -0.4690310542604626 0 0.23718882707015049 -0.45986444420057693 0 0.21414793299948959 -0.45055186455740548 0 0.23718882707015049 -0.45986444420057693 0 0.21414793299948959 -0.45055186455740548 0 0.26022972114081128 -0.46917702384374821 0 0.23718882707015049 -0.45986444420057693 0 0.2568051087683223 -0.44954582835982948 0 0.23329052016909799 -0.44322399093298798 0 0.2481195038739103 -0.43253413450948919 0 0.2568051087683223 -0.44954582835982948 0 0.23718882707015049 -0.45986444420057693 0 0.23329052016909799 -0.44322399093298798 0 0.23718882707015049 -0.45986444420057693 0 0.23329052016909799 -0.44322399093298798 0 0.21414793299948959 -0.45055186455740548 0 0.23329052016909799 -0.44322399093298798 0 0.21414793299948959 -0.45055186455740548 0 0.21362436201255869 -0.42912319890726719 0 0.21414793299948959 -0.45055186455740548 0 0.19110703892882869 -0.4412392849142342 0 0.21362436201255869 -0.42912319890726719 0 0.22401045612395379 -0.4690310542604626 0 0.21414793299948959 -0.45055186455740548 0 0.2003919421766632 -0.46200199695999228 0 0.2003919421766632 -0.46200199695999228 0 0.19110703892882869 -0.4412392849142342 0 0.18333159076885 -0.45839774980372372 0 0.2003919421766632 -0.46200199695999228 0 0.18333159076885 -0.45839774980372372 0 0.1858202554942909 -0.47343799205048659 0 0.21414793299948959 -0.45055186455740548 0 0.2003919421766632 -0.46200199695999228 0 0.19110703892882869 -0.4412392849142342 0 0.21414793299948959 -0.45055186455740548 0 0.19110703892882869 -0.4412392849142342 0 0.19110703892882869 -0.4412392849142342 0 0.19192172534233229 -0.42085027370452632 0 0.21362436201255869 -0.42912319890726719 0 0.19192172534233229 -0.42085027370452632 0 0.20719250238054909 -0.40936046892385519 0 0.19506815377962269 -0.40076749672031819 0 0.19192172534233229 -0.42085027370452632 0 0.19506815377962269 -0.40076749672031819 0 0.17600662340017359 -0.41062228809021051 0 0.20719250238054909 -0.40936046892385519 0 0.21362436201255869 -0.42912319890726719 0 0.2249277019954157 -0.41100591184545299 0 0.19192172534233229 -0.42085027370452632 0 0.20719250238054909 -0.40936046892385519 0 0.21362436201255869 -0.42912319890726719 0 0.21362436201255869 -0.42912319890726719 0 0.23158425963679111 -0.42686333055944847 0 0.2249277019954157 -0.41100591184545299 0 0.23329052016909799 -0.44322399093298798 0 0.21362436201255869 -0.42912319890726719 0 0.23158425963679111 -0.42686333055944847 0 0.23158425963679111 -0.42686333055944847 0 0.2481195038739103 -0.43253413450948919 0 0.24494107576267621 -0.41566816210915991 0 0.23329052016909799 -0.44322399093298798 0 0.23158425963679111 -0.42686333055944847 0 0.2481195038739103 -0.43253413450948919 0 0.24494107576267621 -0.41566816210915991 0 0.2249277019954157 -0.41100591184545299 0 0.2367090688434226 -0.39587575270045849 0 0.23158425963679111 -0.42686333055944847 0 0.24494107576267621 -0.41566816210915991 0 0.2249277019954157 -0.41100591184545299 0 0.2249277019954157 -0.41100591184545299 0 0.2367090688434226 -0.39587575270045849 0 0.21286013905659371 -0.39089419400482017 0 0.25373450766085731 -0.40612635718347578 0 0.24494107576267621 -0.41566816210915991 0 0.2367090688434226 -0.39587575270045849 0 0.25751977044882668 -0.37994004927490899 0 0.23665846062229501 -0.37026942362144238 0 0.2367090688434226 -0.39587575270045849 0 0.25751977044882668 -0.37994004927490899 0 0.2367090688434226 -0.39587575270045849 0 0.2367090688434226 -0.39587575270045849 0 0.22062536578755509 -0.37565506997265341 0 0.21286013905659371 -0.39089419400482017 0 0.23665846062229501 -0.37026942362144238 0 0.2367090688434226 -0.39587575270045849 0 0.22062536578755509 -0.37565506997265341 0 0.20567750639269419 -0.36935434590611538 0 0.21286013905659371 -0.39089419400482017 0 0.19828686110003629 -0.38270063493905121 0 0.20567750639269419 -0.36935434590611538 0 0.22062536578755509 -0.37565506997265341 0 0.21286013905659371 -0.39089419400482017 0 0.20719250238054909 -0.40936046892385519 0 0.21286013905659371 -0.39089419400482017 0 0.19506815377962269 -0.40076749672031819 0 0.20719250238054909 -0.40936046892385519 0 0.2249277019954157 -0.41100591184545299 0 0.21286013905659371 -0.39089419400482017 0 0.19506815377962269 -0.40076749672031819 0 0.19828686110003629 -0.38270063493905121 0 0.1839471019421792 -0.3893178709093586 0 0.21286013905659371 -0.39089419400482017 0 0.19506815377962269 -0.40076749672031819 0 0.19828686110003629 -0.38270063493905121 0 0.19188758048418481 -0.36801345372850658 0 0.1839471019421792 -0.3893178709093586 0 0.19188758048418481 -0.36801345372850658 0 0.19828686110003629 -0.38270063493905121 0 0.1839471019421792 -0.3893178709093586 0 0.17577255819971541 -0.37150734610532571 0 0.18422598956108069 -0.37934420106258693 0 0.16512202603054871 -0.37658319321514272 0 0.17460771070609649 -0.3847566970305159 0 0.18422598956108069 -0.37934420106258693 0 0.16512202603054871 -0.37658319321514272 0 0.19188758048418481 -0.36801345372850658 0 0.18422598956108069 -0.37934420106258693 0 0.1839471019421792 -0.3893178709093586 0 0.17460771070609649 -0.3847566970305159 0 0.1839471019421792 -0.3893178709093586 0 0.16643549414097231 -0.39492300661669649 0 0.18422598956108069 -0.37934420106258693 0 0.16512202603054871 -0.37658319321514272 0 0.17460771070609649 -0.3847566970305159 0 0.18422598956108069 -0.37934420106258693 0 0.1839471019421792 -0.3893178709093586 0 0.1839471019421792 -0.3893178709093586 0 0.16643549414097231 -0.39492300661669649 0 0.17600662340017359 -0.41062228809021051 0 0.19506815377962269 -0.40076749672031819 0 0.1839471019421792 -0.3893178709093586 0 0.17600662340017359 -0.41062228809021051 0 0.1839471019421792 -0.3893178709093586 0 0.17600662340017359 -0.41062228809021051 0 0.16643549414097231 -0.39492300661669649 0 0.14849981153214409 -0.40272984387120703 0 0.16032949275323469 -0.41366537179521962 0 0.17460771070609649 -0.3847566970305159 0 0.16643549414097231 -0.39492300661669649 0 0.16512202603054871 -0.37658319321514272 0 0.16643549414097231 -0.39492300661669649 0 0.16512202603054871 -0.37658319321514272 0 0.14615901608537599 -0.38562061385242591 0 0.14162110461793001 -0.37318671329940412 0 0.16512202603054871 -0.37658319321514272 0 0.14615901608537599 -0.38562061385242591 0 0.16512202603054871 -0.37658319321514272 0 0.14615901608537599 -0.38562061385242591 0 0.14615901608537599 -0.38562061385242591 0 0.12719600614020271 -0.39465803448970799 0 0.14615901608537599 -0.38562061385242591 0 0.12863898027407339 -0.38132733139719399 0 0.12719600614020271 -0.39465803448970799 0 0.14162110461793001 -0.37318671329940412 0 0.14615901608537599 -0.38562061385242591 0 0.12863898027407339 -0.38132733139719399 0 0.14615901608537599 -0.38562061385242591 0 0.12719600614020271 -0.39465803448970799 0 0.14849981153214409 -0.40272984387120703 0 0.16643549414097231 -0.39492300661669649 0 0.14615901608537599 -0.38562061385242591 0 0.14849981153214409 -0.40272984387120703 0 0.14849981153214409 -0.40272984387120703 0 0.14211870724715431 -0.42143937007704918 0 0.16032949275323469 -0.41366537179521962 0 0.14211870724715431 -0.42143937007704918 0 0.13101726418437129 -0.42452314002274699 0 0.1161712696361405 -0.41095203488303589 0 0.12719600614020271 -0.39465803448970799 0 0.14849981153214409 -0.40272984387120703 0 0.14211870724715431 -0.42143937007704918 0 0.14211870724715431 -0.42143937007704918 0 0.1161712696361405 -0.41095203488303589 0 0.12719600614020271 -0.39465803448970799 0 0.14211870724715431 -0.42143937007704918 0 0.1161712696361405 -0.41095203488303589 0 0.13101726418437129 -0.42452314002274699 0 0.14586325873260239 -0.43809424516245782 0 0.1296899879080784 -0.43802172412330831 0 0.14211870724715431 -0.42143937007704918 0 0.13101726418437129 -0.42452314002274699 0 0.14586325873260239 -0.43809424516245782 0 0.13101726418437129 -0.42452314002274699 0 0.1296899879080784 -0.43802172412330831 0 0.11723635786112389 -0.42499087894466769 0 0.13101726418437129 -0.42452314002274699 0 0.14586325873260239 -0.43809424516245782 0 0.14211870724715431 -0.42143937007704918 0 0.16806614485816809 -0.43192670527106242 0 0.14586325873260239 -0.43809424516245782 0 0.14211870724715431 -0.42143937007704918 0 0.16806614485816809 -0.43192670527106242 0 0.14211870724715431 -0.42143937007704918 0 0.16806614485816809 -0.43192670527106242 0 0.16032949275323469 -0.41366537179521962 0 0.16643549414097231 -0.39492300661669649 0 0.16032949275323469 -0.41366537179521962 0 0.17600662340017359 -0.41062228809021051 0 0.16806614485816809 -0.43192670527106242 0 0.16032949275323469 -0.41366537179521962 0 0.17600662340017359 -0.41062228809021051 0 0.16806614485816809 -0.43192670527106242 0 0.17600662340017359 -0.41062228809021051 0 0.19192172534233229 -0.42085027370452632 0 0.16806614485816809 -0.43192670527106242 0 0.17600662340017359 -0.41062228809021051 0 0.19110703892882869 -0.4412392849142342 0 0.19192172534233229 -0.42085027370452632 0 0.16806614485816809 -0.43192670527106242 0 0.19110703892882869 -0.4412392849142342 0 0.16806614485816809 -0.43192670527106242 0 0.19110703892882869 -0.4412392849142342 0 0.1735157636885199 -0.44949052875253709 0 0.18333159076885 -0.45839774980372372 0 0.19110703892882869 -0.4412392849142342 0 0.16806614485816809 -0.43192670527106242 0 0.1735157636885199 -0.44949052875253709 0 0.18333159076885 -0.45839774980372372 0 0.17597730115244961 -0.46646520558597659 0 0.1858202554942909 -0.47343799205048659 0 0.18333159076885 -0.45839774980372372 0 0.17597730115244961 -0.46646520558597659 0 0.17166203257392859 -0.45912478844037391 0 0.1735157636885199 -0.44949052875253709 0 0.18333159076885 -0.45839774980372372 0 0.17166203257392859 -0.45912478844037391 0 0.1735157636885199 -0.44949052875253709 0 0.17166203257392859 -0.45912478844037391 0 0.16442526919519221 -0.45506225594636518 0 0.17166203257392859 -0.45912478844037391 0 0.16442526919519221 -0.45506225594636518 0 0.1642168453302999 -0.46106723202193289 0 0.17597730115244961 -0.46646520558597659 0 0.17166203257392859 -0.45912478844037391 0 0.16728846707037329 -0.46611096087050391 0 0.17166203257392859 -0.45912478844037391 0 0.1642168453302999 -0.46106723202193289 0 0.16728846707037329 -0.46611096087050391 0 0.15999595011005929 -0.46562580088228361 0 0.15792274556946351 -0.45914159023490209 0 0.15201280064291109 -0.46345771635839961 0 0.16728846707037329 -0.46611096087050391 0 0.15999595011005929 -0.46562580088228361 0 0.1639278802391653 -0.47224005239722883 0 0.1642168453302999 -0.46106723202193289 0 0.15999595011005929 -0.46562580088228361 0 0.15792274556946351 -0.45914159023490209 0 0.1642168453302999 -0.46106723202193289 0 0.16728846707037329 -0.46611096087050391 0 0.15999595011005929 -0.46562580088228361 0 0.16442526919519221 -0.45506225594636518 0 0.15792274556946351 -0.45914159023490209 0 0.16070925328083421 -0.45166535030216792 0 0.16442526919519221 -0.45506225594636518 0 0.16070925328083421 -0.45166535030216792 0 0.16442526919519221 -0.45506225594636518 0 0.1642168453302999 -0.46106723202193289 0 0.15792274556946351 -0.45914159023490209 0 0.15792274556946351 -0.45914159023490209 0 0.16070925328083421 -0.45166535030216792 0 0.16806614485816809 -0.43192670527106242 0 0.1735157636885199 -0.44949052875253709 0 0.16070925328083421 -0.45166535030216792 0 0.16806614485816809 -0.43192670527106242 0 0.16070925328083421 -0.45166535030216792 0 0.14586325873260239 -0.43809424516245782 0 0.16806614485816809 -0.43192670527106242 0 0.16070925328083421 -0.45166535030216792 0 0.1735157636885199 -0.44949052875253709 0 0.16442526919519221 -0.45506225594636518 0 0.16070925328083421 -0.45166535030216792 0 0.14586325873260239 -0.43809424516245782 0 0.13487887301356441 -0.450553639635137 0 0.1484283202327705 -0.45379495508178691 0 0.16070925328083421 -0.45166535030216792 0 0.14586325873260239 -0.43809424516245782 0 0.1484283202327705 -0.45379495508178691 0 0.16070925328083421 -0.45166535030216792 0 0.14586325873260239 -0.43809424516245782 0 0.14586325873260239 -0.43809424516245782 0 0.13487887301356441 -0.450553639635137 0 0.1296899879080784 -0.43802172412330831 0 0.13487887301356441 -0.450553639635137 0 0.1296899879080784 -0.43802172412330831 0 0.1169135074936455 -0.44257529231244969 0 0.13487887301356441 -0.450553639635137 0 0.1247656323052575 -0.46373510600350509 0 0.1169135074936455 -0.44257529231244969 0 0.13487887301356441 -0.450553639635137 0 0.14209006462444981 -0.46588837376461001 0 0.1247656323052575 -0.46373510600350509 0 0.14209006462444981 -0.46588837376461001 0 0.1484283202327705 -0.45379495508178691 0 0.15201280064291109 -0.46345771635839961 0 0.13487887301356441 -0.450553639635137 0 0.14209006462444981 -0.46588837376461001 0 0.1484283202327705 -0.45379495508178691 0 0.15792274556946351 -0.45914159023490209 0 0.1484283202327705 -0.45379495508178691 0 0.15201280064291109 -0.46345771635839961 0 0.15792274556946351 -0.45914159023490209 0 0.16070925328083421 -0.45166535030216792 0 0.1484283202327705 -0.45379495508178691 0 0.14209006462444981 -0.46588837376461001 0 0.15201280064291109 -0.46345771635839961 0 0.1546069618081429 -0.47173725341073491 0 0.15999595011005929 -0.46562580088228361 0 0.15201280064291109 -0.46345771635839961 0 0.1546069618081429 -0.47173725341073491 0 0.14209006462444981 -0.46588837376461001 0 0.1546069618081429 -0.47173725341073491 0 0.1485913726595883 -0.48260733686320639 0 0.14209006462444981 -0.46588837376461001 0 0.1485913726595883 -0.48260733686320639 0 0.13244943259684391 -0.47838346675639293 0 0.1546069618081429 -0.47173725341073491 0 0.1485913726595883 -0.48260733686320639 0 0.1623496663935069 -0.4797457503517526 0 0.14209006462444981 -0.46588837376461001 0 0.13244943259684391 -0.47838346675639293 0 0.1247656323052575 -0.46373510600350509 0 0.1485913726595883 -0.48260733686320639 0 0.13244943259684391 -0.47838346675639293 0 0.13535367278981389 -0.5 0 0.13244943259684391 -0.47838346675639293 0 0.13535367278981389 -0.5 0 0.1127808110391384 -0.47955710516631361 0 0.1485913726595883 -0.48260733686320639 0 0.13535367278981389 -0.5 0 0.1637822239857907 -0.50000000000000022 0 0.1485913726595883 -0.48260733686320639 0 0.1637822239857907 -0.50000000000000022 0 0.1623496663935069 -0.4797457503517526 0 0.1637822239857907 -0.50000000000000022 0 0.1623496663935069 -0.4797457503517526 0 0.1719662370844198 -0.48523316918166282 0 0.1546069618081429 -0.47173725341073491 0 0.1623496663935069 -0.4797457503517526 0 0.1639278802391653 -0.47224005239722883 0 0.15999595011005929 -0.46562580088228361 0 0.1546069618081429 -0.47173725341073491 0 0.1639278802391653 -0.47224005239722883 0 0.16728846707037329 -0.46611096087050391 0 0.1639278802391653 -0.47224005239722883 0 0.171784159854805 -0.47525453676479462 0 0.1623496663935069 -0.4797457503517526 0 0.1639278802391653 -0.47224005239722883 0 0.171784159854805 -0.47525453676479462 0 0.17597730115244961 -0.46646520558597659 0 0.16728846707037329 -0.46611096087050391 0 0.171784159854805 -0.47525453676479462 0 0.1623496663935069 -0.4797457503517526 0 0.171784159854805 -0.47525453676479462 0 0.1719662370844198 -0.48523316918166282 0 0.171784159854805 -0.47525453676479462 0 0.17835723844967349 -0.48090067902094119 0 0.1719662370844198 -0.48523316918166282 0 0.17835723844967349 -0.48090067902094119 0 0.1858202554942909 -0.47343799205048659 0 0.1838583013651785 -0.48967701808682113 0 0.17597730115244961 -0.46646520558597659 0 0.171784159854805 -0.47525453676479462 0 0.1858202554942909 -0.47343799205048659 0 0.171784159854805 -0.47525453676479462 0 0.17835723844967349 -0.48090067902094119 0 0.1858202554942909 -0.47343799205048659 0 0.18810575524256329 -0.5 0 0.1637822239857907 -0.50000000000000022 0 0.1838583013651785 -0.48967701808682113 0 0.1637822239857907 -0.50000000000000022 0 0.1838583013651785 -0.48967701808682113 0 0.1637822239857907 -0.50000000000000022 0 0.1838583013651785 -0.48967701808682113 0 0.1719662370844198 -0.48523316918166282 0 0.17835723844967349 -0.48090067902094119 0 0.1838583013651785 -0.48967701808682113 0 0.1719662370844198 -0.48523316918166282 0 0.073070433338257551 -0.47873564893238152 0 0.078496570397860288 -0.5 0 0.05845417767607361 -0.48463107608411637 0 0.073070433338257551 -0.47873564893238152 0 0.075409496325465633 -0.46212416935461348 0 0.057768779777330158 -0.46707651523008281 0 0.073070433338257551 -0.47873564893238152 0 0.057768779777330158 -0.46707651523008281 0 0.05845417767607361 -0.48463107608411637 0 0.073070433338257551 -0.47873564893238152 0 0.092347068030706941 -0.47089921874521928 0 0.078496570397860288 -0.5 0 0.073070433338257551 -0.47873564893238152 0 0.092347068030706941 -0.47089921874521928 0 0.075409496325465633 -0.46212416935461348 0 0.092347068030706941 -0.47089921874521928 0 0.078496570397860288 -0.5 0 0.10692512159383701 -0.5 0 0.13535367278981389 -0.5 0 0.10692512159383701 -0.5 0 0.1127808110391384 -0.47955710516631361 0 0.13244943259684391 -0.47838346675639293 0 0.1127808110391384 -0.47955710516631361 0 0.1247656323052575 -0.46373510600350509 0 0.092347068030706941 -0.47089921874521928 0 0.10692512159383701 -0.5 0 0.1127808110391384 -0.47955710516631361 0 0.092347068030706941 -0.47089921874521928 0 0.1127808110391384 -0.47955710516631361 0 0.1075947620623838 -0.46211841692474431 0 0.092347068030706941 -0.47089921874521928 0 0.1075947620623838 -0.46211841692474431 0 0.09513833862519458 -0.44969134289070339 0 0.1127808110391384 -0.47955710516631361 0 0.1075947620623838 -0.46211841692474431 0 0.1247656323052575 -0.46373510600350509 0 0.1075947620623838 -0.46211841692474431 0 0.1247656323052575 -0.46373510600350509 0 0.1169135074936455 -0.44257529231244969 0 0.1169135074936455 -0.44257529231244969 0 0.09513833862519458 -0.44969134289070339 0 0.097929609219682218 -0.42848346703618762 0 0.09513833862519458 -0.44969134289070339 0 0.097929609219682218 -0.42848346703618762 0 0.1075947620623838 -0.46211841692474431 0 0.1169135074936455 -0.44257529231244969 0 0.09513833862519458 -0.44969134289070339 0 0.09513833862519458 -0.44969134289070339 0 0.084700295630410233 -0.43683235784464458 0 0.097929609219682218 -0.42848346703618762 0 0.09513833862519458 -0.44969134289070339 0 0.071228813054464352 -0.44398501683151159 0 0.084700295630410233 -0.43683235784464458 0 0.09513833862519458 -0.44969134289070339 0 0.075409496325465633 -0.46212416935461348 0 0.071228813054464352 -0.44398501683151159 0 0.092347068030706941 -0.47089921874521928 0 0.09513833862519458 -0.44969134289070339 0 0.075409496325465633 -0.46212416935461348 0 0.092347068030706941 -0.47089921874521928 0 0.09513833862519458 -0.44969134289070339 0 0.075409496325465633 -0.46212416935461348 0 0.057368656952596367 -0.45152174485674862 0 0.057768779777330158 -0.46707651523008281 0 0.075409496325465633 -0.46212416935461348 0 0.071228813054464352 -0.44398501683151159 0 0.057368656952596367 -0.45152174485674862 0 0.071228813054464352 -0.44398501683151159 0 0.073627145377643116 -0.42018796508463852 0 0.046533410941114448 -0.43310033898760358 0 0.071228813054464352 -0.44398501683151159 0 0.073627145377643116 -0.42018796508463852 0 0.084700295630410233 -0.43683235784464458 0 0.073627145377643116 -0.42018796508463852 0 0.080208772890473762 -0.40710833104840122 0 0.057024021365513163 -0.40743222090557851 0 0.080208772890473762 -0.40710833104840122 0 0.09487810519847148 -0.41006014975352217 0 0.098129538465647204 -0.40365999760745702 0 0.073627145377643116 -0.42018796508463852 0 0.09487810519847148 -0.41006014975352217 0 0.073627145377643116 -0.42018796508463852 0 0.097929609219682218 -0.42848346703618762 0 0.09487810519847148 -0.41006014975352217 0 0.073627145377643116 -0.42018796508463852 0 0.080208772890473762 -0.40710833104840122 0 0.09487810519847148 -0.41006014975352217 0 0.073627145377643116 -0.42018796508463852 0 0.084700295630410233 -0.43683235784464458 0 0.097929609219682218 -0.42848346703618762 0 0.097929609219682218 -0.42848346703618762 0 0.11723635786112389 -0.42499087894466769 0 0.10719182902066821 -0.41540014779509971 0 0.1169135074936455 -0.44257529231244969 0 0.097929609219682218 -0.42848346703618762 0 0.11723635786112389 -0.42499087894466769 0 0.1296899879080784 -0.43802172412330831 0 0.1169135074936455 -0.44257529231244969 0 0.11723635786112389 -0.42499087894466769 0 0.13101726418437129 -0.42452314002274699 0 0.11723635786112389 -0.42499087894466769 0 0.1161712696361405 -0.41095203488303589 0 0.13101726418437129 -0.42452314002274699 0 0.1161712696361405 -0.41095203488303589 0 0.11723635786112389 -0.42499087894466769 0 0.1161712696361405 -0.41095203488303589 0 0.10719182902066821 -0.41540014779509971 0 0.1161712696361405 -0.41095203488303589 0 0.10363681828551891 -0.40588590871067443 0 0.1161712696361405 -0.41095203488303589 0 0.10823299619502889 -0.40369545512698879 0 0.097929609219682218 -0.42848346703618762 0 0.10719182902066821 -0.41540014779509971 0 0.1007208798141708 -0.40727559118167178 0 0.1161712696361405 -0.41095203488303589 0 0.10719182902066821 -0.41540014779509971 0 0.10363681828551891 -0.40588590871067443 0 0.10719182902066821 -0.41540014779509971 0 0.1007208798141708 -0.40727559118167178 0 0.10363681828551891 -0.40588590871067443 0 0.097929609219682218 -0.42848346703618762 0 0.1007208798141708 -0.40727559118167178 0 0.09487810519847148 -0.41006014975352217 0 0.097929609219682218 -0.42848346703618762 0 0.1007208798141708 -0.40727559118167178 0 0.1161712696361405 -0.41095203488303589 0 0.10363681828551891 -0.40588590871067443 0 0.10823299619502889 -0.40369545512698879 0 0.1007208798141708 -0.40727559118167178 0 0.10363681828551891 -0.40588590871067443 0 0.1007208798141708 -0.40727559118167178 0 0.09487810519847148 -0.41006014975352217 0 0.098129538465647204 -0.40365999760745702 0 0.1007208798141708 -0.40727559118167178 0 0.09487810519847148 -0.41006014975352217 0 0.09487810519847148 -0.41006014975352217 0 0.098129538465647204 -0.40365999760745702 0 0.098129538465647204 -0.40365999760745702 0 0.1019482162252506 -0.39795037624576618 0 0.089125186878567658 -0.38622851558442062 0 0.10104182476265521 -0.40483707424351761 0 0.1019482162252506 -0.39795037624576618 0 0.10104182476265521 -0.40483707424351761 0 0.098129538465647204 -0.40365999760745702 0 0.1019482162252506 -0.39795037624576618 0 0.098129538465647204 -0.40365999760745702 0 0.1019482162252506 -0.39795037624576618 0 0.1007208798141708 -0.40727559118167178 0 0.10104182476265521 -0.40483707424351761 0 0.1007208798141708 -0.40727559118167178 0 0.10104182476265521 -0.40483707424351761 0 0.098129538465647204 -0.40365999760745702 0 0.10104182476265521 -0.40483707424351761 0 0.098129538465647204 -0.40365999760745702 0 0.1019482162252506 -0.39795037624576618 0 0.089125186878567658 -0.38622851558442062 0 0.1019482162252506 -0.39795037624576618 0 0.1100985913215472 -0.38338106196076849 0 0.1019482162252506 -0.39795037624576618 0 0.112265974637329 -0.39382296713900838 0 0.1100985913215472 -0.38338106196076849 0 0.10104182476265521 -0.40483707424351761 0 0.1019482162252506 -0.39795037624576618 0 0.10363681828551891 -0.40588590871067443 0 0.1019482162252506 -0.39795037624576618 0 0.10823299619502889 -0.40369545512698879 0 0.112265974637329 -0.39382296713900838 0 0.1019482162252506 -0.39795037624576618 0 0.10363681828551891 -0.40588590871067443 0 0.10823299619502889 -0.40369545512698879 0 0.10104182476265521 -0.40483707424351761 0 0.10363681828551891 -0.40588590871067443 0 0.1007208798141708 -0.40727559118167178 0 0.10104182476265521 -0.40483707424351761 0 0.10363681828551891 -0.40588590871067443 0 0.1019482162252506 -0.39795037624576618 0 0.10823299619502889 -0.40369545512698879 0 0.10363681828551891 -0.40588590871067443 0 0.10823299619502889 -0.40369545512698879 0 0.12719600614020271 -0.39465803448970799 0 0.1161712696361405 -0.41095203488303589 0 0.10823299619502889 -0.40369545512698879 0 0.12719600614020271 -0.39465803448970799 0 0.10823299619502889 -0.40369545512698879 0 0.112265974637329 -0.39382296713900838 0 0.12719600614020271 -0.39465803448970799 0 0.10823299619502889 -0.40369545512698879 0 0.12863898027407339 -0.38132733139719399 0 0.12719600614020271 -0.39465803448970799 0 0.1100985913215472 -0.38338106196076849 0 0.12863898027407339 -0.38132733139719399 0 0.1100985913215472 -0.38338106196076849 0 0.1181201832053116 -0.36979023338366418 0 0.12719600614020271 -0.39465803448970799 0 0.112265974637329 -0.39382296713900838 0 0.1100985913215472 -0.38338106196076849 0 0.1100985913215472 -0.38338106196076849 0 0.1181201832053116 -0.36979023338366418 0 0.1019482162252506 -0.39795037624576618 0 0.089125186878567658 -0.38622851558442062 0 0.105510907726501 -0.37088129909655521 0 0.1019482162252506 -0.39795037624576618 0 0.1100985913215472 -0.38338106196076849 0 0.105510907726501 -0.37088129909655521 0 0.1019482162252506 -0.39795037624576618 0 0.105510907726501 -0.37088129909655521 0 0.089125186878567658 -0.38622851558442062 0 0.073931734491721357 -0.39387982258447612 0 0.076593634650974934 -0.37477310164822852 0 0.089125186878567658 -0.38622851558442062 0 0.105510907726501 -0.37088129909655521 0 0.076593634650974934 -0.37477310164822852 0 0.089125186878567658 -0.38622851558442062 0 0.076593634650974934 -0.37477310164822852 0 0.080208772890473762 -0.40710833104840122 0 0.098129538465647204 -0.40365999760745702 0 0.073931734491721357 -0.39387982258447612 0 0.098129538465647204 -0.40365999760745702 0 0.089125186878567658 -0.38622851558442062 0 0.073931734491721357 -0.39387982258447612 0 0.098129538465647204 -0.40365999760745702 0 0.073931734491721357 -0.39387982258447612 0 0.080208772890473762 -0.40710833104840122 0 0.073931734491721357 -0.39387982258447612 0 0.057024021365513163 -0.40743222090557851 0 0.048904888335917419 -0.378499564142811 0 0.076593634650974934 -0.37477310164822852 0 0.062874476639315169 -0.38281038801839218 0 0.048904888335917419 -0.378499564142811 0 0.076593634650974934 -0.37477310164822852 0 0.073931734491721357 -0.39387982258447612 0 0.062874476639315169 -0.38281038801839218 0 0.076593634650974934 -0.37477310164822852 0 0.073931734491721357 -0.39387982258447612 0 0.049733930517795621 -0.38409964756149512 0 0.048904888335917419 -0.378499564142811 0 0.076593634650974934 -0.37477310164822852 0 0.058462305323978288 -0.37211492778553129 0 0.073931734491721357 -0.39387982258447612 0 0.062874476639315169 -0.38281038801839218 0 0.049733930517795621 -0.38409964756149512 0 0.062874476639315169 -0.38281038801839218 0 0.049733930517795621 -0.38409964756149512 0 0.048904888335917419 -0.378499564142811 0 0.049733930517795621 -0.38409964756149512 0 0.040623614457678633 -0.39839907575569489 0 0.057024021365513163 -0.40743222090557851 0 0.073931734491721357 -0.39387982258447612 0 0.049733930517795621 -0.38409964756149512 0 0.057024021365513163 -0.40743222090557851 0 0.040623614457678633 -0.39839907575569489 0 0.034106010074993282 -0.38815381988321251 0 0.023439598357667041 -0.39889735355275202 0 0.040623614457678633 -0.39839907575569489 0 0.023439598357667041 -0.39889735355275202 0 0.03881451197242404 -0.41341233687543638 0 0.049733930517795621 -0.38409964756149512 0 0.040623614457678633 -0.39839907575569489 0 0.034106010074993282 -0.38815381988321251 0 0.049733930517795621 -0.38409964756149512 0 0.037864236724251571 -0.36975774022554803 0 0.025536126543869379 -0.37431947253851461 0 0.049733930517795621 -0.38409964756149512 0 0.034106010074993282 -0.38815381988321251 0 0.025536126543869379 -0.37431947253851461 0 0.049733930517795621 -0.38409964756149512 0 0.025536126543869379 -0.37431947253851461 0 0.049733930517795621 -0.38409964756149512 0 0.048904888335917419 -0.378499564142811 0 0.037864236724251571 -0.36975774022554803 0 0.014444515454358429 -0.39211495719389922 0 0.019205478723194551 -0.37176077573438321 0 0.023439598357667041 -0.39889735355275202 0 0.025536126543869379 -0.37431947253851461 0 0.014444515454358429 -0.39211495719389922 0 0.023439598357667041 -0.39889735355275202 0 0.025536126543869379 -0.37431947253851461 0 0.034106010074993282 -0.38815381988321251 0 0.023439598357667041 -0.39889735355275202 0 0.025536126543869379 -0.37431947253851461 0 0.014444515454358429 -0.39211495719389922 0 0.019205478723194551 -0.37176077573438321 0 0.025536126543869379 -0.37431947253851461 0 0.0043911497260468446 -0.38601267381842841 0 0.014444515454358429 -0.39211495719389922 0 0.019205478723194551 -0.37176077573438321 0 0.001646805659493981 -0.38483714105840322 0 0.0096835521855221027 -0.41246913865341522 0 0.014444515454358429 -0.39211495719389922 0 0.0096835521855221027 -0.41246913865341522 0 0.0043911497260468446 -0.38601267381842841 0 0.014444515454358429 -0.39211495719389922 0 0.0096835521855221027 -0.41246913865341522 0 0.0043911497260468446 -0.38601267381842841 0 0.001646805659493981 -0.38483714105840322 0 0.0096835521855221027 -0.41246913865341522 0 -0.0041048790184469277 -0.39962520101249083 0 0.001646805659493981 -0.38483714105840322 0 0.0096835521855221027 -0.41246913865341522 0 0.014444515454358429 -0.39211495719389922 0 0.023439598357667041 -0.39889735355275202 0 0.0096835521855221027 -0.41246913865341522 0 0.023439598357667041 -0.39889735355275202 0 0.02134307017146491 -0.42347523456698949 0 0.023439598357667041 -0.39889735355275202 0 0.02134307017146491 -0.42347523456698949 0 0.03881451197242404 -0.41341233687543638 0 0.023439598357667041 -0.39889735355275202 0 0.0096835521855221027 -0.41246913865341522 0 0.02134307017146491 -0.42347523456698949 0 0.0096835521855221027 -0.41246913865341522 0 0.0057006365014656019 -0.4294969928907908 0 0.0096835521855221027 -0.41246913865341522 0 0.014561614345053649 -0.42924092577199169 0 0.0096835521855221027 -0.41246913865341522 0 0.014561614345053649 -0.42924092577199169 0 0.02134307017146491 -0.42347523456698949 0 -0.0022572301893488398 -0.42507109376321661 0 0.0096835521855221027 -0.41246913865341522 0 0.0057006365014656019 -0.4294969928907908 0 0.0096835521855221027 -0.41246913865341522 0 0.0057006365014656019 -0.4294969928907908 0 0.014561614345053649 -0.42924092577199169 0 -0.0042305411252634593 -0.43622662998366918 0 0.0057006365014656019 -0.4294969928907908 0 0.00171772081740895 -0.44652484712816631 0 0.0057006365014656019 -0.4294969928907908 0 0.014561614345053649 -0.42924092577199169 0 0.01042503180928246 -0.43953933179801169 0 0.02134307017146491 -0.42347523456698949 0 0.031532667397397199 -0.42900015583014939 0 0.03881451197242404 -0.41341233687543638 0 0.014561614345053649 -0.42924092577199169 0 0.02134307017146491 -0.42347523456698949 0 0.01943967650458547 -0.44601271289056821 0 0.02134307017146491 -0.42347523456698949 0 0.031532667397397199 -0.42900015583014939 0 0.01943967650458547 -0.44601271289056821 0 0.031532667397397199 -0.42900015583014939 0 0.046533410941114448 -0.43310033898760358 0 0.03881451197242404 -0.41341233687543638 0 0.031532667397397199 -0.42900015583014939 0 0.046533410941114448 -0.43310033898760358 0 0.01943967650458547 -0.44601271289056821 0 0.040623614457678633 -0.39839907575569489 0 0.03881451197242404 -0.41341233687543638 0 0.057024021365513163 -0.40743222090557851 0 0.073627145377643116 -0.42018796508463852 0 0.046533410941114448 -0.43310033898760358 0 0.057024021365513163 -0.40743222090557851 0 0.046533410941114448 -0.43310033898760358 0 0.03881451197242404 -0.41341233687543638 0 0.057024021365513163 -0.40743222090557851 0 0.073627145377643116 -0.42018796508463852 0 0.046533410941114448 -0.43310033898760358 0 0.071228813054464352 -0.44398501683151159 0 0.046533410941114448 -0.43310033898760358 0 0.057368656952596367 -0.45152174485674862 0 0.046533410941114448 -0.43310033898760358 0 0.057368656952596367 -0.45152174485674862 0 0.040613790701459977 -0.45642735440822207 0 0.057368656952596367 -0.45152174485674862 0 0.057768779777330158 -0.46707651523008281 0 0.040613790701459977 -0.45642735440822207 0 0.057768779777330158 -0.46707651523008281 0 0.040613790701459977 -0.45642735440822207 0 0.038676566236585483 -0.47951952959162369 0 0.040613790701459977 -0.45642735440822207 0 0.02389565379654807 -0.46133328489270597 0 0.038676566236585483 -0.47951952959162369 0 0.046533410941114448 -0.43310033898760358 0 0.040613790701459977 -0.45642735440822207 0 0.01943967650458547 -0.44601271289056821 0 0.046533410941114448 -0.43310033898760358 0 0.01943967650458547 -0.44601271289056821 0 0.014561614345053649 -0.42924092577199169 0 0.01943967650458547 -0.44601271289056821 0 -0.0025303026137990241 -0.45648319955166389 0 0.01943967650458547 -0.44601271289056821 0 0.0057006365014656019 -0.4294969928907908 0 0.00171772081740895 -0.44652484712816631 0 -0.0025303026137990241 -0.45648319955166389 0 0.01943967650458547 -0.44601271289056821 0 0.00171772081740895 -0.44652484712816631 0 0.01943967650458547 -0.44601271289056821 0 0.01042503180928246 -0.43953933179801169 0 0.00171772081740895 -0.44652484712816631 0 0.0057006365014656019 -0.4294969928907908 0 0.01042503180928246 -0.43953933179801169 0 0.00171772081740895 -0.44652484712816631 0 0.014561614345053649 -0.42924092577199169 0 0.01943967650458547 -0.44601271289056821 0 0.01042503180928246 -0.43953933179801169 0 0.0040988649333950026 -0.46829310919736061 0 0.011217524791310661 -0.45774681119615612 0 0.02389565379654807 -0.46133328489270597 0 -0.0025303026137990241 -0.45648319955166389 0 0.01943967650458547 -0.44601271289056821 0 0.011217524791310661 -0.45774681119615612 0 -0.0025303026137990241 -0.45648319955166389 0 0.0040988649333950026 -0.46829310919736061 0 0.011217524791310661 -0.45774681119615612 0 0.040613790701459977 -0.45642735440822207 0 0.01943967650458547 -0.44601271289056821 0 0.02389565379654807 -0.46133328489270597 0 0.01943967650458547 -0.44601271289056821 0 0.011217524791310661 -0.45774681119615612 0 0.02389565379654807 -0.46133328489270597 0 0.01943967650458547 -0.44601271289056821 0 0.02389565379654807 -0.46133328489270597 0 0.02389565379654807 -0.46133328489270597 0 0.020705059816987701 -0.47798527747527342 0 0.038676566236585483 -0.47951952959162369 0 0.0040988649333950026 -0.46829310919736061 0 0.02389565379654807 -0.46133328489270597 0 0.020705059816987701 -0.47798527747527342 0 0.0040988649333950026 -0.46829310919736061 0 0.020705059816987701 -0.47798527747527342 0 0.0051058715143244091 -0.48400014151992721 0 -0.0067890831900702109 -0.5 0 0.0051058715143244091 -0.48400014151992721 0 0.021639468005906659 -0.5 0 0.020705059816987701 -0.47798527747527342 0 0.021639468005906659 -0.5 0 0.038676566236585483 -0.47951952959162369 0 0.020705059816987701 -0.47798527747527342 0 0.0051058715143244091 -0.48400014151992721 0 0.021639468005906659 -0.5 0 0.021639468005906659 -0.5 0 0.038676566236585483 -0.47951952959162369 0 0.050068019201883418 -0.5 0 0.057768779777330158 -0.46707651523008281 0 0.038676566236585483 -0.47951952959162369 0 0.05845417767607361 -0.48463107608411637 0 0.078496570397860288 -0.5 0 0.05845417767607361 -0.48463107608411637 0 0.050068019201883418 -0.5 0 0.038676566236585483 -0.47951952959162369 0 0.05845417767607361 -0.48463107608411637 0 0.050068019201883418 -0.5 0 0.085455007581776127 -0.29586016929336251 0 0.080061439098210146 -0.28509934182814489 0 0.078119068029299396 -0.3012518696473962 0 0.085455007581776127 -0.29586016929336251 0 0.080061439098210146 -0.28509934182814489 0 0.093463361073207282 -0.29046496947182759 0 0.085455007581776127 -0.29586016929336251 0 0.093463361073207282 -0.29046496947182759 0 0.090176162126387682 -0.30662449622608151 0 0.081270183801995383 -0.30874320447738779 0 0.078119068029299396 -0.3012518696473962 0 0.075289796640420403 -0.31073386802634029 0 0.090176162126387682 -0.30662449622608151 0 0.081270183801995383 -0.30874320447738779 0 0.081322651547647756 -0.31732212993717579 0 0.081270183801995383 -0.30874320447738779 0 0.075289796640420403 -0.31073386802634029 0 0.081322651547647756 -0.31732212993717579 0 0.090176162126387682 -0.30662449622608151 0 0.081270183801995383 -0.30874320447738779 0 0.078119068029299396 -0.3012518696473962 0 0.085455007581776127 -0.29586016929336251 0 0.090176162126387682 -0.30662449622608151 0 0.078119068029299396 -0.3012518696473962 0 0.080061439098210146 -0.28509934182814489 0 0.063893539201460015 -0.30903476849004169 0 0.058383740239566252 -0.30241875673659108 0 0.080061439098210146 -0.28509934182814489 0 0.078119068029299396 -0.3012518696473962 0 0.063893539201460015 -0.30903476849004169 0 0.080061439098210146 -0.28509934182814489 0 0.063893539201460015 -0.30903476849004169 0 0.075289796640420403 -0.31073386802634029 0 0.063893539201460015 -0.30903476849004169 0 0.07179847372997393 -0.31756724933163782 0 0.078119068029299396 -0.3012518696473962 0 0.075289796640420403 -0.31073386802634029 0 0.063893539201460015 -0.30903476849004169 0 0.080061439098210146 -0.28509934182814489 0 0.070164511893494208 -0.28235137093015777 0 0.058383740239566252 -0.30241875673659108 0 0.070164511893494208 -0.28235137093015777 0 0.057841212927466627 -0.29705851357344548 0 0.070164511893494208 -0.28235137093015777 0 0.068630908827712112 -0.27067344111079389 0 0.055343476813300853 -0.27238054321032579 0 0.068630908827712112 -0.27067344111079389 0 0.066527835744532998 -0.26031762201582292 0 0.08248781085952045 -0.26764422828686918 0 0.080061439098210146 -0.28509934182814489 0 0.070164511893494208 -0.28235137093015777 0 0.08248781085952045 -0.26764422828686918 0 0.068630908827712112 -0.27067344111079389 0 0.066527835744532998 -0.26031762201582292 0 0.055343476813300853 -0.27238054321032579 0 0.070164511893494208 -0.28235137093015777 0 0.068630908827712112 -0.27067344111079389 0 0.08248781085952045 -0.26764422828686918 0 0.070164511893494208 -0.28235137093015777 0 0.08248781085952045 -0.26764422828686918 0 0.066527835744532998 -0.26031762201582292 0 0.052845740699136931 -0.24770257284720601 0 0.07067708693901821 -0.24308696522950921 0 0.08248781085952045 -0.26764422828686918 0 0.07067708693901821 -0.24308696522950921 0 0.066527835744532998 -0.26031762201582292 0 0.08248781085952045 -0.26764422828686918 0 0.07067708693901821 -0.24308696522950921 0 0.083496080913533416 -0.25035656083119062 0 0.08248781085952045 -0.26764422828686918 0 0.07067708693901821 -0.24308696522950921 0 0.093519011585101702 -0.25447912996010402 0 0.08248781085952045 -0.26764422828686918 0 0.098356501161812784 -0.27111030947609122 0 0.083496080913533416 -0.25035656083119062 0 0.093519011585101702 -0.25447912996010402 0 0.08248781085952045 -0.26764422828686918 0 0.093519011585101702 -0.25447912996010402 0 0.08248781085952045 -0.26764422828686918 0 0.093463361073207282 -0.29046496947182759 0 0.08248781085952045 -0.26764422828686918 0 0.093463361073207282 -0.29046496947182759 0 0.08248781085952045 -0.26764422828686918 0 0.098356501161812784 -0.27111030947609122 0 0.080061439098210146 -0.28509934182814489 0 0.093463361073207282 -0.29046496947182759 0 0.08248781085952045 -0.26764422828686918 0 0.098356501161812784 -0.27111030947609122 0 0.1088617144009341 -0.27100159245184169 0 0.1071119356960827 -0.25837861341271551 0 0.098356501161812784 -0.27111030947609122 0 0.1088617144009341 -0.27100159245184169 0 0.10530914618166221 -0.28304036471870903 0 0.093519011585101702 -0.25447912996010402 0 0.098356501161812784 -0.27111030947609122 0 0.1071119356960827 -0.25837861341271551 0 0.093519011585101702 -0.25447912996010402 0 0.1071119356960827 -0.25837861341271551 0 0.10455021231068271 -0.24131403163333859 0 0.1088617144009341 -0.27100159245184169 0 0.1071119356960827 -0.25837861341271551 0 0.1236085809504273 -0.25715862254038452 0 0.1071119356960827 -0.25837861341271551 0 0.1236085809504273 -0.25715862254038452 0 0.10455021231068271 -0.24131403163333859 0 0.1309291350045334 -0.27290905829767792 0 0.1236085809504273 -0.25715862254038452 0 0.1175165463410221 -0.28051123308882409 0 0.1088617144009341 -0.27100159245184169 0 0.1236085809504273 -0.25715862254038452 0 0.1175165463410221 -0.28051123308882409 0 0.1088617144009341 -0.27100159245184169 0 0.1175165463410221 -0.28051123308882409 0 0.10530914618166221 -0.28304036471870903 0 0.12730577058144149 -0.28824347989175031 0 0.11129467749436731 -0.29417951804345388 0 0.1215294505641293 -0.30580642579184553 0 0.12730577058144149 -0.28824347989175031 0 0.1175165463410221 -0.28051123308882409 0 0.11129467749436731 -0.29417951804345388 0 0.1175165463410221 -0.28051123308882409 0 0.11129467749436731 -0.29417951804345388 0 0.10530914618166221 -0.28304036471870903 0 0.093463361073207282 -0.29046496947182759 0 0.098356501161812784 -0.27111030947609122 0 0.10530914618166221 -0.28304036471870903 0 0.093463361073207282 -0.29046496947182759 0 0.11129467749436731 -0.29417951804345388 0 0.10530914618166221 -0.28304036471870903 0 0.093463361073207282 -0.29046496947182759 0 0.11129467749436731 -0.29417951804345388 0 0.1044389112868943 -0.31328571065678601 0 0.093463361073207282 -0.29046496947182759 0 0.1044389112868943 -0.31328571065678601 0 0.093463361073207282 -0.29046496947182759 0 0.090176162126387682 -0.30662449622608151 0 0.1044389112868943 -0.31328571065678601 0 0.11129467749436731 -0.29417951804345388 0 0.1215294505641293 -0.30580642579184553 0 0.1044389112868943 -0.31328571065678601 0 0.120507696502126 -0.32247851038484909 0 0.1048174984154516 -0.33330584835514881 0 0.1044389112868943 -0.31328571065678601 0 0.1215294505641293 -0.30580642579184553 0 0.120507696502126 -0.32247851038484909 0 0.1044389112868943 -0.31328571065678601 0 0.1325618261011792 -0.31207738376634558 0 0.1215294505641293 -0.30580642579184553 0 0.120507696502126 -0.32247851038484909 0 0.120507696502126 -0.32247851038484909 0 0.1200393055626284 -0.34339294161441891 0 0.1048174984154516 -0.33330584835514881 0 0.1200393055626284 -0.34339294161441891 0 0.1048174984154516 -0.33330584835514881 0 0.10767674256268341 -0.34629405994851942 0 0.1048174984154516 -0.33330584835514881 0 0.10767674256268341 -0.34629405994851942 0 0.096743590690289955 -0.34498253458249689 0 0.1048174984154516 -0.33330584835514881 0 0.096743590690289955 -0.34498253458249689 0 0.091047603842862562 -0.33506523578881819 0 0.1048174984154516 -0.33330584835514881 0 0.092978575573574682 -0.32343769522953131 0 0.091047603842862562 -0.33506523578881819 0 0.090176162126387682 -0.30662449622608151 0 0.1044389112868943 -0.31328571065678601 0 0.092978575573574682 -0.32343769522953131 0 0.1048174984154516 -0.33330584835514881 0 0.1044389112868943 -0.31328571065678601 0 0.092978575573574682 -0.32343769522953131 0 0.11594920247021689 -0.36947647153855662 0 0.1169579882332225 -0.360575815212135 0 0.10068402169648941 -0.36284748008479162 0 0.11594920247021689 -0.36947647153855662 0 0.105510907726501 -0.37088129909655521 0 0.1100985913215472 -0.38338106196076849 0 0.11594920247021689 -0.36947647153855662 0 0.105510907726501 -0.37088129909655521 0 0.1100985913215472 -0.38338106196076849 0 0.11594920247021689 -0.36947647153855662 0 0.1181201832053116 -0.36979023338366418 0 0.11594920247021689 -0.36947647153855662 0 0.1181201832053116 -0.36979023338366418 0 0.12765341836113189 -0.36790127123697119 0 0.1181201832053116 -0.36979023338366418 0 0.11594920247021689 -0.36947647153855662 0 0.1181201832053116 -0.36979023338366418 0 0.1169579882332225 -0.360575815212135 0 0.1200393055626284 -0.34339294161441891 0 0.11706847547621479 -0.35389991928717068 0 0.10068402169648941 -0.36284748008479162 0 0.1200393055626284 -0.34339294161441891 0 0.10767674256268341 -0.34629405994851942 0 0.10068402169648941 -0.36284748008479162 0 0.1169579882332225 -0.360575815212135 0 0.11706847547621479 -0.35389991928717068 0 0.10068402169648941 -0.36284748008479162 0 0.1338069130980255 -0.34321250916177309 0 0.1200393055626284 -0.34339294161441891 0 0.11706847547621479 -0.35389991928717068 0 0.1200393055626284 -0.34339294161441891 0 0.10068402169648941 -0.36284748008479162 0 0.1338069130980255 -0.34321250916177309 0 0.1181201832053116 -0.36979023338366418 0 0.1169579882332225 -0.360575815212135 0 0.1338069130980255 -0.34321250916177309 0 0.1169579882332225 -0.360575815212135 0 0.11706847547621479 -0.35389991928717068 0 0.10767674256268341 -0.34629405994851942 0 0.09900379480168349 -0.35229763872537351 0 0.10068402169648941 -0.36284748008479162 0 0.10767674256268341 -0.34629405994851942 0 0.096743590690289955 -0.34498253458249689 0 0.09900379480168349 -0.35229763872537351 0 0.096743590690289955 -0.34498253458249689 0 0.09900379480168349 -0.35229763872537351 0 0.090910824257271219 -0.35506648028568621 0 0.09900379480168349 -0.35229763872537351 0 0.10068402169648941 -0.36284748008479162 0 0.090910824257271219 -0.35506648028568621 0 0.11594920247021689 -0.36947647153855662 0 0.10068402169648941 -0.36284748008479162 0 0.089978841386046324 -0.36572309488246219 0 0.11594920247021689 -0.36947647153855662 0 0.105510907726501 -0.37088129909655521 0 0.089978841386046324 -0.36572309488246219 0 0.11594920247021689 -0.36947647153855662 0 0.089978841386046324 -0.36572309488246219 0 0.10068402169648941 -0.36284748008479162 0 0.089978841386046324 -0.36572309488246219 0 0.090910824257271219 -0.35506648028568621 0 0.089978841386046324 -0.36572309488246219 0 0.082101488478333165 -0.36107965710954332 0 0.063886483515375847 -0.3631571682375595 0 0.105510907726501 -0.37088129909655521 0 0.076593634650974934 -0.37477310164822852 0 0.105510907726501 -0.37088129909655521 0 0.089978841386046324 -0.36572309488246219 0 0.076593634650974934 -0.37477310164822852 0 0.089978841386046324 -0.36572309488246219 0 0.082101488478333165 -0.36107965710954332 0 0.090910824257271219 -0.35506648028568621 0 0.082101488478333165 -0.36107965710954332 0 0.080592554939378808 -0.35269507797250249 0 0.090910824257271219 -0.35506648028568621 0 0.082101488478333165 -0.36107965710954332 0 0.080592554939378808 -0.35269507797250249 0 0.073934700805627168 -0.35767963749308712 0 0.080592554939378808 -0.35269507797250249 0 0.090910824257271219 -0.35506648028568621 0 0.086434644937555774 -0.34521972894034719 0 0.096743590690289955 -0.34498253458249689 0 0.090910824257271219 -0.35506648028568621 0 0.086434644937555774 -0.34521972894034719 0 0.080592554939378808 -0.35269507797250249 0 0.086434644937555774 -0.34521972894034719 0 0.078207704043473686 -0.34578955538206502 0 0.078207704043473686 -0.34578955538206502 0 0.073209842423410304 -0.35110762412078028 0 0.070353299160983318 -0.34529818863168182 0 0.080592554939378808 -0.35269507797250249 0 0.078207704043473686 -0.34578955538206502 0 0.073209842423410304 -0.35110762412078028 0 0.066829985065993899 -0.35056214765272359 0 0.061489070141403833 -0.35259822927782603 0 0.06245696078116194 -0.34449856472480239 0 0.070353299160983318 -0.34529818863168182 0 0.066829985065993899 -0.35056214765272359 0 0.06245696078116194 -0.34449856472480239 0 0.073209842423410304 -0.35110762412078028 0 0.070353299160983318 -0.34529818863168182 0 0.066829985065993899 -0.35056214765272359 0 0.066829985065993899 -0.35056214765272359 0 0.069340810525005028 -0.3546211375926227 0 0.0656251773174817 -0.35531003769611491 0 0.065739314760775852 -0.3589403473673547 0 0.068582812462210957 -0.35716895386185737 0 0.073934700805627168 -0.35767963749308712 0 0.073209842423410304 -0.35110762412078028 0 0.066829985065993899 -0.35056214765272359 0 0.069340810525005028 -0.3546211375926227 0 0.066829985065993899 -0.35056214765272359 0 0.0656251773174817 -0.35531003769611491 0 0.061489070141403833 -0.35259822927782603 0 0.0656251773174817 -0.35531003769611491 0 0.061769070949500723 -0.35796941042430502 0 0.061489070141403833 -0.35259822927782603 0 0.065739314760775852 -0.3589403473673547 0 0.062686164771323008 -0.35998905892828192 0 0.061769070949500723 -0.35796941042430502 0 0.0656251773174817 -0.35531003769611491 0 0.065739314760775852 -0.3589403473673547 0 0.061769070949500723 -0.35796941042430502 0 0.069340810525005028 -0.3546211375926227 0 0.0656251773174817 -0.35531003769611491 0 0.068582812462210957 -0.35716895386185737 0 0.0656251773174817 -0.35531003769611491 0 0.065739314760775852 -0.3589403473673547 0 0.068582812462210957 -0.35716895386185737 0 0.069340810525005028 -0.3546211375926227 0 0.068582812462210957 -0.35716895386185737 0 0.073934700805627168 -0.35767963749308712 0 0.073209842423410304 -0.35110762412078028 0 0.069340810525005028 -0.3546211375926227 0 0.073934700805627168 -0.35767963749308712 0 0.080592554939378808 -0.35269507797250249 0 0.073209842423410304 -0.35110762412078028 0 0.073934700805627168 -0.35767963749308712 0 0.089978841386046324 -0.36572309488246219 0 0.063886483515375847 -0.3631571682375595 0 0.076593634650974934 -0.37477310164822852 0 0.082101488478333165 -0.36107965710954332 0 0.073934700805627168 -0.35767963749308712 0 0.063886483515375847 -0.3631571682375595 0 0.089978841386046324 -0.36572309488246219 0 0.063886483515375847 -0.3631571682375595 0 0.076593634650974934 -0.37477310164822852 0 0.058462305323978288 -0.37211492778553129 0 0.061946253383696401 -0.36750373048466339 0 0.065739314760775852 -0.3589403473673547 0 0.073934700805627168 -0.35767963749308712 0 0.063886483515375847 -0.3631571682375595 0 0.065739314760775852 -0.3589403473673547 0 0.063886483515375847 -0.3631571682375595 0 0.062686164771323008 -0.35998905892828192 0 0.063886483515375847 -0.3631571682375595 0 0.062686164771323008 -0.35998905892828192 0 0.061761192713854433 -0.36239265941446758 0 0.063886483515375847 -0.3631571682375595 0 0.06199037063444094 -0.36393960088971378 0 0.061761192713854433 -0.36239265941446758 0 0.063886483515375847 -0.3631571682375595 0 0.061946253383696401 -0.36750373048466339 0 0.06199037063444094 -0.36393960088971378 0 0.063886483515375847 -0.3631571682375595 0 0.076593634650974934 -0.37477310164822852 0 0.063886483515375847 -0.3631571682375595 0 0.076593634650974934 -0.37477310164822852 0 0.061946253383696401 -0.36750373048466339 0 0.090176162126387682 -0.30662449622608151 0 0.081322651547647756 -0.31732212993717579 0 0.092978575573574682 -0.32343769522953131 0 0.084389001513107118 -0.3276848375850101 0 0.081322651547647756 -0.31732212993717579 0 0.075696650886043729 -0.32651468945772838 0 0.084389001513107118 -0.3276848375850101 0 0.081322651547647756 -0.31732212993717579 0 0.092978575573574682 -0.32343769522953131 0 0.084389001513107118 -0.3276848375850101 0 0.092978575573574682 -0.32343769522953131 0 0.091047603842862562 -0.33506523578881819 0 0.086434644937555774 -0.34521972894034719 0 0.091047603842862562 -0.33506523578881819 0 0.080899525715406817 -0.33608443751179701 0 0.096743590690289955 -0.34498253458249689 0 0.086434644937555774 -0.34521972894034719 0 0.091047603842862562 -0.33506523578881819 0 0.086434644937555774 -0.34521972894034719 0 0.078207704043473686 -0.34578955538206502 0 0.080899525715406817 -0.33608443751179701 0 0.084389001513107118 -0.3276848375850101 0 0.091047603842862562 -0.33506523578881819 0 0.080899525715406817 -0.33608443751179701 0 0.084389001513107118 -0.3276848375850101 0 0.080899525715406817 -0.33608443751179701 0 0.075696650886043729 -0.32651468945772838 0 0.070624072065203894 -0.33709901449696439 0 0.065030379446627151 -0.32613513620752488 0 0.075696650886043729 -0.32651468945772838 0 0.080899525715406817 -0.33608443751179701 0 0.070624072065203894 -0.33709901449696439 0 0.075696650886043729 -0.32651468945772838 0 0.078207704043473686 -0.34578955538206502 0 0.080899525715406817 -0.33608443751179701 0 0.070624072065203894 -0.33709901449696439 0 0.078207704043473686 -0.34578955538206502 0 0.070353299160983318 -0.34529818863168182 0 0.070624072065203894 -0.33709901449696439 0 0.070353299160983318 -0.34529818863168182 0 0.070624072065203894 -0.33709901449696439 0 0.06245696078116194 -0.34449856472480239 0 0.070624072065203894 -0.33709901449696439 0 0.058835826489667578 -0.33684513128692922 0 0.06245696078116194 -0.34449856472480239 0 0.070624072065203894 -0.33709901449696439 0 0.065030379446627151 -0.32613513620752488 0 0.058835826489667578 -0.33684513128692922 0 0.063893539201460015 -0.30903476849004169 0 0.065030379446627151 -0.32613513620752488 0 0.07179847372997393 -0.31756724933163782 0 0.065030379446627151 -0.32613513620752488 0 0.075696650886043729 -0.32651468945772838 0 0.07179847372997393 -0.31756724933163782 0 0.081322651547647756 -0.31732212993717579 0 0.075696650886043729 -0.32651468945772838 0 0.07179847372997393 -0.31756724933163782 0 0.075289796640420403 -0.31073386802634029 0 0.081322651547647756 -0.31732212993717579 0 0.07179847372997393 -0.31756724933163782 0 0.063893539201460015 -0.30903476849004169 0 0.051408964861674032 -0.31810863663925748 0 0.047725639304710042 -0.33297019515193838 0 0.063893539201460015 -0.30903476849004169 0 0.065030379446627151 -0.32613513620752488 0 0.047725639304710042 -0.33297019515193838 0 0.063893539201460015 -0.30903476849004169 0 0.047725639304710042 -0.33297019515193838 0 0.051408964861674032 -0.31810863663925748 0 0.059091302084589133 -0.30940956338844922 0 0.05224159638175746 -0.31073395933003228 0 0.051408964861674032 -0.31810863663925748 0 0.045807490750626047 -0.31300824658848903 0 0.05224159638175746 -0.31073395933003228 0 0.047725639304710042 -0.33297019515193838 0 0.050530766731644972 -0.34484425485651821 0 0.042611345290952958 -0.35124346458998718 0 0.065030379446627151 -0.32613513620752488 0 0.058835826489667578 -0.33684513128692922 0 0.047725639304710042 -0.33297019515193838 0 0.058835826489667578 -0.33684513128692922 0 0.06245696078116194 -0.34449856472480239 0 0.050530766731644972 -0.34484425485651821 0 0.058835826489667578 -0.33684513128692922 0 0.047725639304710042 -0.33297019515193838 0 0.050530766731644972 -0.34484425485651821 0 0.047725639304710042 -0.33297019515193838 0 0.027498054380200209 -0.35131952947206058 0 0.02945998221653125 -0.32831958640560682 0 0.039813597272668463 -0.31761911533699783 0 0.02945998221653125 -0.32831958640560682 0 0.031421910052862011 -0.30531964333915312 0 0.047725639304710042 -0.33297019515193838 0 0.039813597272668463 -0.31761911533699783 0 0.02945998221653125 -0.32831958640560682 0 0.051408964861674032 -0.31810863663925748 0 0.039813597272668463 -0.31761911533699783 0 0.045807490750626047 -0.31300824658848903 0 0.051408964861674032 -0.31810863663925748 0 0.047725639304710042 -0.33297019515193838 0 0.039813597272668463 -0.31761911533699783 0 0.048904888335917419 -0.378499564142811 0 0.052166624199168003 -0.37184598822334308 0 0.058462305323978288 -0.37211492778553129 0 0.048904888335917419 -0.378499564142811 0 0.047237109325004127 -0.37135660615718619 0 0.052166624199168003 -0.37184598822334308 0 0.047237109325004127 -0.37135660615718619 0 0.050955698222628222 -0.36820555015559142 0 0.052166624199168003 -0.37184598822334308 0 0.047237109325004127 -0.37135660615718619 0 0.050955698222628222 -0.36820555015559142 0 0.045992889919039728 -0.36637798902056551 0 0.050955698222628222 -0.36820555015559142 0 0.052166624199168003 -0.37184598822334308 0 0.055273119788311918 -0.36905329287559568 0 0.050955698222628222 -0.36820555015559142 0 0.055273119788311918 -0.36905329287559568 0 0.054420545493077337 -0.36455766914364179 0 0.058462305323978288 -0.37211492778553129 0 0.061946253383696401 -0.36750373048466339 0 0.05817077029281599 -0.36835071393681967 0 0.05817077029281599 -0.36835071393681967 0 0.055273119788311918 -0.36905329287559568 0 0.057479085129015138 -0.36525507112311278 0 0.052166624199168003 -0.37184598822334308 0 0.058462305323978288 -0.37211492778553129 0 0.055273119788311918 -0.36905329287559568 0 0.058462305323978288 -0.37211492778553129 0 0.05817077029281599 -0.36835071393681967 0 0.055273119788311918 -0.36905329287559568 0 0.055273119788311918 -0.36905329287559568 0 0.057479085129015138 -0.36525507112311278 0 0.054420545493077337 -0.36455766914364179 0 0.057479085129015138 -0.36525507112311278 0 0.057649633264475211 -0.36298718070676539 0 0.054420545493077337 -0.36455766914364179 0 0.057479085129015138 -0.36525507112311278 0 0.059820113158237688 -0.36234859885894821 0 0.057649633264475211 -0.36298718070676539 0 0.061946253383696401 -0.36750373048466339 0 0.05817077029281599 -0.36835071393681967 0 0.057479085129015138 -0.36525507112311278 0 0.061946253383696401 -0.36750373048466339 0 0.057479085129015138 -0.36525507112311278 0 0.06050190683735289 -0.36479183773212032 0 0.057479085129015138 -0.36525507112311278 0 0.06050190683735289 -0.36479183773212032 0 0.059820113158237688 -0.36234859885894821 0 0.06050190683735289 -0.36479183773212032 0 0.06199037063444094 -0.36393960088971378 0 0.059820113158237688 -0.36234859885894821 0 0.061946253383696401 -0.36750373048466339 0 0.06050190683735289 -0.36479183773212032 0 0.06199037063444094 -0.36393960088971378 0 0.062686164771323008 -0.35998905892828192 0 0.060989425353614277 -0.36079561191179788 0 0.061761192713854433 -0.36239265941446758 0 0.062686164771323008 -0.35998905892828192 0 0.060989425353614277 -0.36079561191179788 0 0.061769070949500723 -0.35796941042430502 0 0.06199037063444094 -0.36393960088971378 0 0.061761192713854433 -0.36239265941446758 0 0.059820113158237688 -0.36234859885894821 0 0.060989425353614277 -0.36079561191179788 0 0.061761192713854433 -0.36239265941446758 0 0.059820113158237688 -0.36234859885894821 0 0.060989425353614277 -0.36079561191179788 0 0.059820113158237688 -0.36234859885894821 0 0.057918466467158293 -0.36087563412126122 0 0.060989425353614277 -0.36079561191179788 0 0.057918466467158293 -0.36087563412126122 0 0.058354656356000227 -0.35872258695163822 0 0.057918466467158293 -0.36087563412126122 0 0.055023231971992763 -0.35869345956852838 0 0.058354656356000227 -0.35872258695163822 0 0.059820113158237688 -0.36234859885894821 0 0.057918466467158293 -0.36087563412126122 0 0.057649633264475211 -0.36298718070676539 0 0.057918466467158293 -0.36087563412126122 0 0.057649633264475211 -0.36298718070676539 0 0.05567373869862955 -0.36170636672988898 0 0.057649633264475211 -0.36298718070676539 0 0.05567373869862955 -0.36170636672988898 0 0.054420545493077337 -0.36455766914364179 0 0.057918466467158293 -0.36087563412126122 0 0.05567373869862955 -0.36170636672988898 0 0.055023231971992763 -0.35869345956852838 0 0.05567373869862955 -0.36170636672988898 0 0.052589025763652673 -0.36132578468962029 0 0.055023231971992763 -0.35869345956852838 0 0.05567373869862955 -0.36170636672988898 0 0.052589025763652673 -0.36132578468962029 0 0.054420545493077337 -0.36455766914364179 0 0.050955698222628222 -0.36820555015559142 0 0.054420545493077337 -0.36455766914364179 0 0.050761607874317563 -0.36412838290565192 0 0.052589025763652673 -0.36132578468962029 0 0.054420545493077337 -0.36455766914364179 0 0.050761607874317563 -0.36412838290565192 0 0.050955698222628222 -0.36820555015559142 0 0.050761607874317563 -0.36412838290565192 0 0.045992889919039728 -0.36637798902056551 0 0.050761607874317563 -0.36412838290565192 0 0.048294863213153703 -0.36089654813883132 0 0.045992889919039728 -0.36637798902056551 0 0.052589025763652673 -0.36132578468962029 0 0.048294863213153703 -0.36089654813883132 0 0.051360167330745082 -0.35797228165117989 0 0.052589025763652673 -0.36132578468962029 0 0.050761607874317563 -0.36412838290565192 0 0.048294863213153703 -0.36089654813883132 0 0.048294863213153703 -0.36089654813883132 0 0.047765503999318358 -0.35560467565350368 0 0.051360167330745082 -0.35797228165117989 0 0.047765503999318358 -0.35560467565350368 0 0.05269265103767419 -0.35326944890188888 0 0.051360167330745082 -0.35797228165117989 0 0.05269265103767419 -0.35326944890188888 0 0.051360167330745082 -0.35797228165117989 0 0.055023231971992763 -0.35869345956852838 0 0.052589025763652673 -0.36132578468962029 0 0.051360167330745082 -0.35797228165117989 0 0.055023231971992763 -0.35869345956852838 0 0.05269265103767419 -0.35326944890188888 0 0.055023231971992763 -0.35869345956852838 0 0.057373210376917921 -0.35482887412368569 0 0.055023231971992763 -0.35869345956852838 0 0.058354656356000227 -0.35872258695163822 0 0.057373210376917921 -0.35482887412368569 0 0.060989425353614277 -0.36079561191179788 0 0.058354656356000227 -0.35872258695163822 0 0.061769070949500723 -0.35796941042430502 0 0.058354656356000227 -0.35872258695163822 0 0.061769070949500723 -0.35796941042430502 0 0.057373210376917921 -0.35482887412368569 0 0.061769070949500723 -0.35796941042430502 0 0.061489070141403833 -0.35259822927782603 0 0.057373210376917921 -0.35482887412368569 0 0.05269265103767419 -0.35326944890188888 0 0.057373210376917921 -0.35482887412368569 0 0.056744782535091229 -0.34953672289422522 0 0.061489070141403833 -0.35259822927782603 0 0.057373210376917921 -0.35482887412368569 0 0.056744782535091229 -0.34953672289422522 0 0.061489070141403833 -0.35259822927782603 0 0.06245696078116194 -0.34449856472480239 0 0.056744782535091229 -0.34953672289422522 0 0.06245696078116194 -0.34449856472480239 0 0.056744782535091229 -0.34953672289422522 0 0.050530766731644972 -0.34484425485651821 0 0.047765503999318358 -0.35560467565350368 0 0.05269265103767419 -0.35326944890188888 0 0.050530766731644972 -0.34484425485651821 0 0.047765503999318358 -0.35560467565350368 0 0.050530766731644972 -0.34484425485651821 0 0.042611345290952958 -0.35124346458998718 0 0.05269265103767419 -0.35326944890188888 0 0.056744782535091229 -0.34953672289422522 0 0.050530766731644972 -0.34484425485651821 0 0.047725639304710042 -0.33297019515193838 0 0.042611345290952958 -0.35124346458998718 0 0.031557739407960063 -0.35690562181383512 0 0.047725639304710042 -0.33297019515193838 0 0.031557739407960063 -0.35690562181383512 0 0.047725639304710042 -0.33297019515193838 0 0.031557739407960063 -0.35690562181383512 0 0.027498054380200209 -0.35131952947206058 0 0.042611345290952958 -0.35124346458998718 0 0.031557739407960063 -0.35690562181383512 0 0.039403257907624417 -0.35951530232273948 0 0.042611345290952958 -0.35124346458998718 0 0.044228805467738101 -0.35804783424644532 0 0.039403257907624417 -0.35951530232273948 0 0.047765503999318358 -0.35560467565350368 0 0.042611345290952958 -0.35124346458998718 0 0.044228805467738101 -0.35804783424644532 0 0.048294863213153703 -0.36089654813883132 0 0.047765503999318358 -0.35560467565350368 0 0.044228805467738101 -0.35804783424644532 0 0.031557739407960063 -0.35690562181383512 0 0.037864236724251571 -0.36975774022554803 0 0.025536126543869379 -0.37431947253851461 0 0.043069056927641028 -0.36297918052716449 0 0.039403257907624417 -0.35951530232273948 0 0.037864236724251571 -0.36975774022554803 0 0.043069056927641028 -0.36297918052716449 0 0.045992889919039728 -0.36637798902056551 0 0.037864236724251571 -0.36975774022554803 0 0.048294863213153703 -0.36089654813883132 0 0.044228805467738101 -0.35804783424644532 0 0.043069056927641028 -0.36297918052716449 0 0.048294863213153703 -0.36089654813883132 0 0.043069056927641028 -0.36297918052716449 0 0.045992889919039728 -0.36637798902056551 0 0.044228805467738101 -0.35804783424644532 0 0.043069056927641028 -0.36297918052716449 0 0.039403257907624417 -0.35951530232273948 0 0.031557739407960063 -0.35690562181383512 0 0.039403257907624417 -0.35951530232273948 0 0.037864236724251571 -0.36975774022554803 0 0.048904888335917419 -0.378499564142811 0 0.047237109325004127 -0.37135660615718619 0 0.037864236724251571 -0.36975774022554803 0 0.047237109325004127 -0.37135660615718619 0 0.045992889919039728 -0.36637798902056551 0 0.037864236724251571 -0.36975774022554803 0 0.031557739407960063 -0.35690562181383512 0 0.025536126543869379 -0.37431947253851461 0 0.027498054380200209 -0.35131952947206058 0 0.025536126543869379 -0.37431947253851461 0 0.027498054380200209 -0.35131952947206058 0 0.025536126543869379 -0.37431947253851461 0 0.02210357885883163 -0.35937075028833021 0 0.027498054380200209 -0.35131952947206058 0 0.019205478723194551 -0.37176077573438321 0 0.025536126543869379 -0.37431947253851461 0 0.02210357885883163 -0.35937075028833021 0 0.019205478723194551 -0.37176077573438321 0 0.025536126543869379 -0.37431947253851461 0 0.019205478723194551 -0.37176077573438321 0 0.02210357885883163 -0.35937075028833021 0 0.019205478723194551 -0.37176077573438321 0 0.02210357885883163 -0.35937075028833021 0 0.0126899906124527 -0.36262209970231801 0 0.02210357885883163 -0.35937075028833021 0 0.016718487122297201 -0.34830032583056519 0 0.0097827461618649782 -0.35549261565588092 0 0.02210357885883163 -0.35937075028833021 0 0.027498054380200209 -0.35131952947206058 0 0.016718487122297201 -0.34830032583056519 0 0.016718487122297201 -0.34830032583056519 0 0.0075018999811672458 -0.34405555802444521 0 0.0097827461618649782 -0.35549261565588092 0 -0.0049525976164628283 -0.34999319935167172 0 0.0075018999811672458 -0.34405555802444521 0 0.0097827461618649782 -0.35549261565588092 0 -0.0049525976164628283 -0.34999319935167172 0 -0.00033184129408025948 -0.36386425713067733 0 0.0097827461618649782 -0.35549261565588092 0 0.02210357885883163 -0.35937075028833021 0 0.0097827461618649782 -0.35549261565588092 0 0.0126899906124527 -0.36262209970231801 0 -0.00033184129408025948 -0.36386425713067733 0 0.0043911497260468446 -0.38601267381842841 0 0.019205478723194551 -0.37176077573438321 0 -0.00033184129408025948 -0.36386425713067733 0 0.019205478723194551 -0.37176077573438321 0 -0.00033184129408025948 -0.36386425713067733 0 0.019205478723194551 -0.37176077573438321 0 0.0126899906124527 -0.36262209970231801 0 -0.00033184129408025948 -0.36386425713067733 0 0.0097827461618649782 -0.35549261565588092 0 0.0126899906124527 -0.36262209970231801 0 0.02945998221653125 -0.32831958640560682 0 0.031421910052862011 -0.30531964333915312 0 0.02945998221653125 -0.32831958640560682 0 0.01670615622942196 -0.33126317571210928 0 0.031421910052862011 -0.30531964333915312 0 0.01670615622942196 -0.33126317571210928 0 0.0040743483248141601 -0.30826203170374838 0 0.031421910052862011 -0.30531964333915312 0 0.027498054380200209 -0.35131952947206058 0 0.016718487122297201 -0.34830032583056519 0 0.01670615622942196 -0.33126317571210928 0 0.027498054380200209 -0.35131952947206058 0 0.02945998221653125 -0.32831958640560682 0 0.027498054380200209 -0.35131952947206058 0 0.02945998221653125 -0.32831958640560682 0 0.01670615622942196 -0.33126317571210928 0 -0.001743670801821866 -0.33028792556549919 0 -0.0049525976164628283 -0.34999319935167172 0 0.0075018999811672458 -0.34405555802444521 0 0.016718487122297201 -0.34830032583056519 0 0.0075018999811672458 -0.34405555802444521 0 0.01670615622942196 -0.33126317571210928 0 -0.001743670801821866 -0.33028792556549919 0 0.0075018999811672458 -0.34405555802444521 0 0.01670615622942196 -0.33126317571210928 0 -0.001743670801821866 -0.33028792556549919 0 0.01670615622942196 -0.33126317571210928 0 0.0040743483248141601 -0.30826203170374838 0 -0.0085119016488805193 -0.29377413922613499 0 0.0040743483248141601 -0.30826203170374838 0 0.0084698857587562834 -0.28707911448009588 0 0.0040743483248141601 -0.30826203170374838 0 0.0084698857587562834 -0.28707911448009588 0 0.020706644999883381 -0.29463757594776618 0 0.0084698857587562834 -0.28707911448009588 0 0.020706644999883381 -0.29463757594776618 0 0.024749729403946499 -0.27906340391540663 0 0.020706644999883381 -0.29463757594776618 0 0.032577334475676407 -0.29177444791952328 0 0.024749729403946499 -0.27906340391540663 0 0.0040743483248141601 -0.30826203170374838 0 0.031421910052862011 -0.30531964333915312 0 0.0040743483248141601 -0.30826203170374838 0 0.020706644999883381 -0.29463757594776618 0 0.031421910052862011 -0.30531964333915312 0 0.020706644999883381 -0.29463757594776618 0 0.031421910052862011 -0.30531964333915312 0 0.032577334475676407 -0.29177444791952328 0 0.031421910052862011 -0.30531964333915312 0 0.041550106642612439 -0.29692749236016652 0 0.052851005576133002 -0.30301403664709847 0 0.031421910052862011 -0.30531964333915312 0 0.052851005576133002 -0.30301403664709847 0 0.039813597272668463 -0.31761911533699783 0 0.045807490750626047 -0.31300824658848903 0 0.031421910052862011 -0.30531964333915312 0 0.045807490750626047 -0.31300824658848903 0 0.031421910052862011 -0.30531964333915312 0 0.049838120936923212 -0.30660973973591987 0 0.031421910052862011 -0.30531964333915312 0 0.049838120936923212 -0.30660973973591987 0 0.052851005576133002 -0.30301403664709847 0 0.031421910052862011 -0.30531964333915312 0 0.032577334475676407 -0.29177444791952328 0 0.031421910052862011 -0.30531964333915312 0 0.041550106642612439 -0.29692749236016652 0 0.032577334475676407 -0.29177444791952328 0 0.041550106642612439 -0.29692749236016652 0 0.032577334475676407 -0.29177444791952328 0 0.042425427582327098 -0.29023429418062191 0 0.032577334475676407 -0.29177444791952328 0 0.038872722793853093 -0.28029332705855259 0 0.024749729403946499 -0.27906340391540663 0 0.032577334475676407 -0.29177444791952328 0 0.042425427582327098 -0.29023429418062191 0 0.038872722793853093 -0.28029332705855259 0 0.042425427582327098 -0.29023429418062191 0 0.048075035137259671 -0.28289776870139938 0 0.038872722793853093 -0.28029332705855259 0 0.042425427582327098 -0.29023429418062191 0 0.048474855526063343 -0.29429503971443488 0 0.048075035137259671 -0.28289776870139938 0 0.041550106642612439 -0.29692749236016652 0 0.042425427582327098 -0.29023429418062191 0 0.048474855526063343 -0.29429503971443488 0 0.070164511893494208 -0.28235137093015777 0 0.057841212927466627 -0.29705851357344548 0 0.058383740239566252 -0.30241875673659108 0 0.048474855526063343 -0.29429503971443488 0 0.048075035137259671 -0.28289776870139938 0 0.057841212927466627 -0.29705851357344548 0 0.057841212927466627 -0.29705851357344548 0 0.055343476813300853 -0.27238054321032579 0 0.048075035137259671 -0.28289776870139938 0 0.057841212927466627 -0.29705851357344548 0 0.055343476813300853 -0.27238054321032579 0 0.070164511893494208 -0.28235137093015777 0 0.057841212927466627 -0.29705851357344548 0 0.055343476813300853 -0.27238054321032579 0 0.057841212927466627 -0.29705851357344548 0 0.052851005576133002 -0.30301403664709847 0 0.057841212927466627 -0.29705851357344548 0 0.058383740239566252 -0.30241875673659108 0 0.058383740239566252 -0.30241875673659108 0 0.052851005576133002 -0.30301403664709847 0 0.058383740239566252 -0.30241875673659108 0 0.055062103274974912 -0.30653361029804632 0 0.052851005576133002 -0.30301403664709847 0 0.057841212927466627 -0.29705851357344548 0 0.058383740239566252 -0.30241875673659108 0 0.052851005576133002 -0.30301403664709847 0 0.063893539201460015 -0.30903476849004169 0 0.058383740239566252 -0.30241875673659108 0 0.059091302084589133 -0.30940956338844922 0 0.063893539201460015 -0.30903476849004169 0 0.051408964861674032 -0.31810863663925748 0 0.059091302084589133 -0.30940956338844922 0 0.058383740239566252 -0.30241875673659108 0 0.059091302084589133 -0.30940956338844922 0 0.059091302084589133 -0.30940956338844922 0 0.055062103274974912 -0.30653361029804632 0 0.05224159638175746 -0.31073395933003228 0 0.058383740239566252 -0.30241875673659108 0 0.059091302084589133 -0.30940956338844922 0 0.055062103274974912 -0.30653361029804632 0 0.055062103274974912 -0.30653361029804632 0 0.05224159638175746 -0.31073395933003228 0 0.049838120936923212 -0.30660973973591987 0 0.055062103274974912 -0.30653361029804632 0 0.049838120936923212 -0.30660973973591987 0 0.052851005576133002 -0.30301403664709847 0 0.049838120936923212 -0.30660973973591987 0 0.052851005576133002 -0.30301403664709847 0 0.045807490750626047 -0.31300824658848903 0 0.05224159638175746 -0.31073395933003228 0 0.049838120936923212 -0.30660973973591987 0 0.048474855526063343 -0.29429503971443488 0 0.057841212927466627 -0.29705851357344548 0 0.052851005576133002 -0.30301403664709847 0 0.041550106642612439 -0.29692749236016652 0 0.048474855526063343 -0.29429503971443488 0 0.052851005576133002 -0.30301403664709847 0 0.055343476813300853 -0.27238054321032579 0 0.04495669355221539 -0.26477063385234212 0 0.052845740699136931 -0.24770257284720601 0 0.055343476813300853 -0.27238054321032579 0 0.052845740699136931 -0.24770257284720601 0 0.066527835744532998 -0.26031762201582292 0 0.055343476813300853 -0.27238054321032579 0 0.052845740699136931 -0.24770257284720601 0 0.048075035137259671 -0.28289776870139938 0 0.055343476813300853 -0.27238054321032579 0 0.04495669355221539 -0.26477063385234212 0 0.048075035137259671 -0.28289776870139938 0 0.038872722793853093 -0.28029332705855259 0 0.04495669355221539 -0.26477063385234212 0 0.038872722793853093 -0.28029332705855259 0 0.034511505437869072 -0.27014321244615003 0 0.04495669355221539 -0.26477063385234212 0 0.038872722793853093 -0.28029332705855259 0 0.034511505437869072 -0.27014321244615003 0 0.024749729403946499 -0.27906340391540663 0 0.034484842913020647 -0.25242739573662337 0 0.04495669355221539 -0.26477063385234212 0 0.052845740699136931 -0.24770257284720601 0 0.034511505437869072 -0.27014321244615003 0 0.034484842913020647 -0.25242739573662337 0 0.02552659450680236 -0.26191295643611179 0 0.034511505437869072 -0.27014321244615003 0 0.034484842913020647 -0.25242739573662337 0 0.04495669355221539 -0.26477063385234212 0 0.034484842913020647 -0.25242739573662337 0 0.02552659450680236 -0.26191295643611179 0 0.016403316260732 -0.24995610664742421 0 0.02552659450680236 -0.26191295643611179 0 0.012212418410231719 -0.26833218537318138 0 0.016403316260732 -0.24995610664742421 0 0.034511505437869072 -0.27014321244615003 0 0.02552659450680236 -0.26191295643611179 0 0.024749729403946499 -0.27906340391540663 0 0.02552659450680236 -0.26191295643611179 0 0.024749729403946499 -0.27906340391540663 0 0.012212418410231719 -0.26833218537318138 0 0.0084698857587562834 -0.28707911448009588 0 0.024749729403946499 -0.27906340391540663 0 0.012212418410231719 -0.26833218537318138 0 -0.0068501675742808736 -0.27356972209169111 0 0.0084698857587562834 -0.28707911448009588 0 0.012212418410231719 -0.26833218537318138 0 -0.0068501675742808736 -0.27356972209169111 0 0.012212418410231719 -0.26833218537318138 0 0.0019676702201415958 -0.25752768517786101 0 0.012212418410231719 -0.26833218537318138 0 0.0019676702201415958 -0.25752768517786101 0 0.016403316260732 -0.24995610664742421 0 -0.001425766107822968 -0.2385087359652546 0 0.0019676702201415958 -0.25752768517786101 0 0.016403316260732 -0.24995610664742421 0 -0.001425766107822968 -0.2385087359652546 0 0.011503738758248731 -0.2324374826769422 0 0.016403316260732 -0.24995610664742421 0 -0.001425766107822968 -0.2385087359652546 0 -0.0022972425086637831 -0.21563977589084049 0 0.011503738758248731 -0.2324374826769422 0 -0.0022972425086637831 -0.21563977589084049 0 0.011503738758248731 -0.2324374826769422 0 0.017546419608799789 -0.22070117072257539 0 0.017546419608799789 -0.22070117072257539 0 0.02729196653819858 -0.23738162415861611 0 0.034765406155225227 -0.2234173259639417 0 0.011503738758248731 -0.2324374826769422 0 0.017546419608799789 -0.22070117072257539 0 0.02729196653819858 -0.23738162415861611 0 0.017546419608799789 -0.22070117072257539 0 0.027502289496581959 -0.2138705924344626 0 0.034765406155225227 -0.2234173259639417 0 0.034484842913020647 -0.25242739573662337 0 0.02729196653819858 -0.23738162415861611 0 0.016403316260732 -0.24995610664742421 0 0.011503738758248731 -0.2324374826769422 0 0.02729196653819858 -0.23738162415861611 0 0.016403316260732 -0.24995610664742421 0 -0.0022972425086637831 -0.21563977589084049 0 -0.0036465812241667779 -0.18931108225399881 0 0.0088365019890831731 -0.20386931882147161 0 -0.0036465812241667779 -0.18931108225399881 0 0.01129710900053809 -0.19059964746801619 0 0.0088365019890831731 -0.20386931882147161 0 0.01129710900053809 -0.19059964746801619 0 0.0088365019890831731 -0.20386931882147161 0 0.021282805068908551 -0.20309491777192709 0 -0.0022972425086637831 -0.21563977589084049 0 0.017546419608799789 -0.22070117072257539 0 0.0088365019890831731 -0.20386931882147161 0 0.017546419608799789 -0.22070117072257539 0 0.027502289496581959 -0.2138705924344626 0 0.021282805068908551 -0.20309491777192709 0 0.017546419608799789 -0.22070117072257539 0 0.0088365019890831731 -0.20386931882147161 0 0.021282805068908551 -0.20309491777192709 0 0.027502289496581959 -0.2138705924344626 0 0.030587605784571759 -0.2064947702625351 0 0.021282805068908551 -0.20309491777192709 0 0.030587605784571759 -0.2064947702625351 0 0.021282805068908551 -0.20309491777192709 0 0.031378425566610968 -0.19841679172295401 0 0.021282805068908551 -0.20309491777192709 0 0.025074747783813939 -0.1894908183482624 0 0.031378425566610968 -0.19841679172295401 0 0.025074747783813939 -0.1894908183482624 0 0.03328286017390325 -0.19119517120399271 0 0.032400657481605352 -0.18353716648777371 0 0.025074747783813939 -0.1894908183482624 0 0.03328286017390325 -0.19119517120399271 0 0.031378425566610968 -0.19841679172295401 0 0.01129710900053809 -0.19059964746801619 0 0.021282805068908551 -0.20309491777192709 0 0.025074747783813939 -0.1894908183482624 0 0.038562449282376302 -0.18856737755128561 0 0.042920524792964439 -0.19558973529633361 0 0.047055639098014038 -0.1939724391147892 0 0.038562449282376302 -0.18856737755128561 0 0.038703204426949633 -0.19678162399701099 0 0.042920524792964439 -0.19558973529633361 0 0.038562449282376302 -0.18856737755128561 0 0.03328286017390325 -0.19119517120399271 0 0.038703204426949633 -0.19678162399701099 0 0.038562449282376302 -0.18856737755128561 0 0.03328286017390325 -0.19119517120399271 0 0.032400657481605352 -0.18353716648777371 0 0.030587605784571759 -0.2064947702625351 0 0.031378425566610968 -0.19841679172295401 0 0.036986409896071118 -0.20342825278452281 0 0.03328286017390325 -0.19119517120399271 0 0.038703204426949633 -0.19678162399701099 0 0.031378425566610968 -0.19841679172295401 0 0.038703204426949633 -0.19678162399701099 0 0.031378425566610968 -0.19841679172295401 0 0.036986409896071118 -0.20342825278452281 0 0.038703204426949633 -0.19678162399701099 0 0.042431062686673161 -0.20028060369761569 0 0.036986409896071118 -0.20342825278452281 0 0.042431062686673161 -0.20028060369761569 0 0.042850012243637173 -0.2064202508962466 0 0.047850268470809088 -0.1983466321209664 0 0.038703204426949633 -0.19678162399701099 0 0.042431062686673161 -0.20028060369761569 0 0.042920524792964439 -0.19558973529633361 0 0.042431062686673161 -0.20028060369761569 0 0.042920524792964439 -0.19558973529633361 0 0.047850268470809088 -0.1983466321209664 0 0.042920524792964439 -0.19558973529633361 0 0.047850268470809088 -0.1983466321209664 0 0.047055639098014038 -0.1939724391147892 0 0.042850012243637173 -0.2064202508962466 0 0.043714548527863148 -0.21503994793105349 0 0.047850268470809088 -0.1983466321209664 0 0.042431062686673161 -0.20028060369761569 0 0.042850012243637173 -0.2064202508962466 0 0.036986409896071118 -0.20342825278452281 0 0.042850012243637173 -0.2064202508962466 0 0.036986409896071118 -0.20342825278452281 0 0.035968148667984021 -0.21217547613077439 0 0.027502289496581959 -0.2138705924344626 0 0.030587605784571759 -0.2064947702625351 0 0.035968148667984021 -0.21217547613077439 0 0.030587605784571759 -0.2064947702625351 0 0.036986409896071118 -0.20342825278452281 0 0.035968148667984021 -0.21217547613077439 0 0.035968148667984021 -0.21217547613077439 0 0.043714548527863148 -0.21503994793105349 0 0.034765406155225227 -0.2234173259639417 0 0.027502289496581959 -0.2138705924344626 0 0.035968148667984021 -0.21217547613077439 0 0.034765406155225227 -0.2234173259639417 0 0.042850012243637173 -0.2064202508962466 0 0.035968148667984021 -0.21217547613077439 0 0.043714548527863148 -0.21503994793105349 0 0.058866363018516117 -0.2185297021721492 0 0.047850268470809088 -0.1983466321209664 0 0.050348004584973009 -0.2230246024840862 0 0.043714548527863148 -0.21503994793105349 0 0.047850268470809088 -0.1983466321209664 0 0.050348004584973009 -0.2230246024840862 0 0.047850268470809088 -0.1983466321209664 0 0.050348004584973009 -0.2230246024840862 0 0.058866363018516117 -0.2185297021721492 0 0.047055639098014038 -0.1939724391147892 0 0.058866363018516117 -0.2185297021721492 0 0.059316559042391637 -0.20436871363304179 0 0.047055639098014038 -0.1939724391147892 0 0.058866363018516117 -0.2185297021721492 0 0.047850268470809088 -0.1983466321209664 0 0.047055639098014038 -0.1939724391147892 0 0.059316559042391637 -0.20436871363304179 0 0.057609148399220253 -0.19619208721742351 0 0.047055639098014038 -0.1939724391147892 0 0.059316559042391637 -0.20436871363304179 0 0.057609148399220253 -0.19619208721742351 0 0.063531703337976503 -0.20216940318803739 0 0.057609148399220253 -0.19619208721742351 0 0.063705659082333624 -0.19352183156133021 0 0.063531703337976503 -0.20216940318803739 0 0.057609148399220253 -0.19619208721742351 0 0.051634467694274162 -0.18950190880559181 0 0.057702272552410207 -0.187468916734047 0 0.057609148399220253 -0.19619208721742351 0 0.063705659082333624 -0.19352183156133021 0 0.057702272552410207 -0.187468916734047 0 0.063705659082333624 -0.19352183156133021 0 0.063913690382049415 -0.1867017220366137 0 0.057702272552410207 -0.187468916734047 0 0.051634467694274162 -0.18950190880559181 0 0.052976516990435582 -0.18579268394732279 0 0.057702272552410207 -0.187468916734047 0 0.051634467694274162 -0.18950190880559181 0 0.047055639098014038 -0.1939724391147892 0 0.049537310498244357 -0.18475289705325371 0 0.057609148399220253 -0.19619208721742351 0 0.051634467694274162 -0.18950190880559181 0 0.047055639098014038 -0.1939724391147892 0 0.034484842913020647 -0.25242739573662337 0 0.02729196653819858 -0.23738162415861611 0 0.03994719217811088 -0.2367907042380947 0 0.034484842913020647 -0.25242739573662337 0 0.03994719217811088 -0.2367907042380947 0 0.052845740699136931 -0.24770257284720601 0 0.02729196653819858 -0.23738162415861611 0 0.03994719217811088 -0.2367907042380947 0 0.034765406155225227 -0.2234173259639417 0 0.043714548527863148 -0.21503994793105349 0 0.034765406155225227 -0.2234173259639417 0 0.050348004584973009 -0.2230246024840862 0 0.03994719217811088 -0.2367907042380947 0 0.034765406155225227 -0.2234173259639417 0 0.050348004584973009 -0.2230246024840862 0 0.058866363018516117 -0.2185297021721492 0 0.050348004584973009 -0.2230246024840862 0 0.058569941378762841 -0.23383593717085149 0 0.058569941378762841 -0.23383593717085149 0 0.052845740699136931 -0.24770257284720601 0 0.07067708693901821 -0.24308696522950921 0 0.050348004584973009 -0.2230246024840862 0 0.058569941378762841 -0.23383593717085149 0 0.052845740699136931 -0.24770257284720601 0 0.03994719217811088 -0.2367907042380947 0 0.050348004584973009 -0.2230246024840862 0 0.052845740699136931 -0.24770257284720601 0 0.050348004584973009 -0.2230246024840862 0 0.052845740699136931 -0.24770257284720601 0 0.07067708693901821 -0.24308696522950921 0 0.087300414270493287 -0.23621591984828 0 0.073810044291303833 -0.22527459157334531 0 0.083496080913533416 -0.25035656083119062 0 0.093519011585101702 -0.25447912996010402 0 0.087300414270493287 -0.23621591984828 0 0.083496080913533416 -0.25035656083119062 0 0.07067708693901821 -0.24308696522950921 0 0.087300414270493287 -0.23621591984828 0 0.087300414270493287 -0.23621591984828 0 0.073810044291303833 -0.22527459157334531 0 0.082686415870260238 -0.21756043414397849 0 0.087300414270493287 -0.23621591984828 0 0.082686415870260238 -0.21756043414397849 0 0.099772196785810674 -0.22574879128380859 0 0.058866363018516117 -0.2185297021721492 0 0.07067708693901821 -0.24308696522950921 0 0.058866363018516117 -0.2185297021721492 0 0.058569941378762841 -0.23383593717085149 0 0.07067708693901821 -0.24308696522950921 0 0.058866363018516117 -0.2185297021721492 0 0.07067708693901821 -0.24308696522950921 0 0.073810044291303833 -0.22527459157334531 0 0.058866363018516117 -0.2185297021721492 0 0.073810044291303833 -0.22527459157334531 0 0.069519941358231307 -0.21097993647280969 0 0.058866363018516117 -0.2185297021721492 0 0.059316559042391637 -0.20436871363304179 0 0.069519941358231307 -0.21097993647280969 0 0.069519941358231307 -0.21097993647280969 0 0.078815905603784875 -0.2012806296072252 0 0.082686415870260238 -0.21756043414397849 0 0.059316559042391637 -0.20436871363304179 0 0.069519941358231307 -0.21097993647280969 0 0.063531703337976503 -0.20216940318803739 0 0.069519941358231307 -0.21097993647280969 0 0.063531703337976503 -0.20216940318803739 0 0.070501199751772742 -0.19790749220436071 0 0.069519941358231307 -0.21097993647280969 0 0.070501199751772742 -0.19790749220436071 0 0.078815905603784875 -0.2012806296072252 0 0.073810044291303833 -0.22527459157334531 0 0.069519941358231307 -0.21097993647280969 0 0.082686415870260238 -0.21756043414397849 0 0.069841847198591461 -0.1885946527054862 0 0.063705659082333624 -0.19352183156133021 0 0.070501199751772742 -0.19790749220436071 0 0.069841847198591461 -0.1885946527054862 0 0.063705659082333624 -0.19352183156133021 0 0.063913690382049415 -0.1867017220366137 0 0.063705659082333624 -0.19352183156133021 0 0.063531703337976503 -0.20216940318803739 0 0.070501199751772742 -0.19790749220436071 0 0.070501199751772742 -0.19790749220436071 0 0.077592141929718694 -0.19089849969127581 0 0.078815905603784875 -0.2012806296072252 0 0.069841847198591461 -0.1885946527054862 0 0.070501199751772742 -0.19790749220436071 0 0.077592141929718694 -0.19089849969127581 0 0.078815905603784875 -0.2012806296072252 0 0.090158925707272103 -0.18975049663898541 0 0.091527877809569377 -0.20750892759338721 0 0.077592141929718694 -0.19089849969127581 0 0.078815905603784875 -0.2012806296072252 0 0.090158925707272103 -0.18975049663898541 0 0.078815905603784875 -0.2012806296072252 0 0.091527877809569377 -0.20750892759338721 0 0.082686415870260238 -0.21756043414397849 0 0.091527877809569377 -0.20750892759338721 0 0.082686415870260238 -0.21756043414397849 0 0.099772196785810674 -0.22574879128380859 0 0.091527877809569377 -0.20750892759338721 0 0.10900165601868229 -0.21233524507994 0 0.099772196785810674 -0.22574879128380859 0 0.090158925707272103 -0.18975049663898541 0 0.091527877809569377 -0.20750892759338721 0 0.10900165601868229 -0.21233524507994 0 0.090158925707272103 -0.18975049663898541 0 0.10900165601868229 -0.21233524507994 0 0.1091149537726108 -0.19031859724296379 0 0.090158925707272103 -0.18975049663898541 0 0.10900165601868229 -0.21233524507994 0 0.10900165601868229 -0.21233524507994 0 0.1091149537726108 -0.19031859724296379 0 0.12543738258814249 -0.19963659942699391 0 0.1091149537726108 -0.19031859724296379 0 0.12403819291028111 -0.18380360999721981 0 0.12543738258814249 -0.19963659942699391 0 0.10900165601868229 -0.21233524507994 0 0.1369097148349768 -0.21706249100099759 0 0.12543738258814249 -0.19963659942699391 0 0.10455021231068271 -0.24131403163333859 0 0.099772196785810674 -0.22574879128380859 0 0.12784438633009251 -0.2349199935208946 0 0.10900165601868229 -0.21233524507994 0 0.12784438633009251 -0.2349199935208946 0 0.1369097148349768 -0.21706249100099759 0 0.10900165601868229 -0.21233524507994 0 0.12784438633009251 -0.2349199935208946 0 0.10900165601868229 -0.21233524507994 0 0.099772196785810674 -0.22574879128380859 0 0.12784438633009251 -0.2349199935208946 0 0.1236085809504273 -0.25715862254038452 0 0.10455021231068271 -0.24131403163333859 0 0.12784438633009251 -0.2349199935208946 0 0.093519011585101702 -0.25447912996010402 0 0.087300414270493287 -0.23621591984828 0 0.10455021231068271 -0.24131403163333859 0 0.087300414270493287 -0.23621591984828 0 0.10455021231068271 -0.24131403163333859 0 0.099772196785810674 -0.22574879128380859 0 0.093519011585101702 -0.25447912996010402 0 0.10455021231068271 -0.24131403163333859 0 0.1011568964037072 -0.1538063213664396 0 0.1017771206471027 -0.13853432656927189 0 0.1144511230365485 -0.1461212361755857 0 0.1011568964037072 -0.1538063213664396 0 0.1017771206471027 -0.13853432656927189 0 0.088918005228860897 -0.14819092448199531 0 0.1017771206471027 -0.13853432656927189 0 0.089424410757421052 -0.13401395264206439 0 0.098171288762488984 -0.12099091530457209 0 0.1017771206471027 -0.13853432656927189 0 0.1137478430876453 -0.12985953023292521 0 0.098171288762488984 -0.12099091530457209 0 0.1017771206471027 -0.13853432656927189 0 0.1137478430876453 -0.12985953023292521 0 0.1144511230365485 -0.1461212361755857 0 0.1137478430876453 -0.12985953023292521 0 0.1248239659577738 -0.13700605534960969 0 0.1144511230365485 -0.1461212361755857 0 0.1137478430876453 -0.12985953023292521 0 0.1248239659577738 -0.13700605534960969 0 0.1289918112778406 -0.1223255163205285 0 0.1144511230365485 -0.1461212361755857 0 0.1141935186866615 -0.16222810283574271 0 0.125510316736793 -0.15294552589947011 0 0.1248239659577738 -0.13700605534960969 0 0.1144511230365485 -0.1461212361755857 0 0.125510316736793 -0.15294552589947011 0 0.1011568964037072 -0.1538063213664396 0 0.1144511230365485 -0.1461212361755857 0 0.1141935186866615 -0.16222810283574271 0 0.1141935186866615 -0.16222810283574271 0 0.12826344566929751 -0.1672781285469806 0 0.125510316736793 -0.15294552589947011 0 0.1141935186866615 -0.16222810283574271 0 0.1193316438546304 -0.1734454542743224 0 0.12826344566929751 -0.1672781285469806 0 0.1141935186866615 -0.16222810283574271 0 0.1193316438546304 -0.1734454542743224 0 0.10911592210982229 -0.17645927759007429 0 0.12403819291028111 -0.18380360999721981 0 0.1193316438546304 -0.1734454542743224 0 0.12826344566929751 -0.1672781285469806 0 0.12403819291028111 -0.18380360999721981 0 0.1193316438546304 -0.1734454542743224 0 0.10911592210982229 -0.17645927759007429 0 0.1091149537726108 -0.19031859724296379 0 0.12403819291028111 -0.18380360999721981 0 0.10911592210982229 -0.17645927759007429 0 0.090158925707272103 -0.18975049663898541 0 0.1091149537726108 -0.19031859724296379 0 0.098410900821044547 -0.17992257776077181 0 0.1091149537726108 -0.19031859724296379 0 0.10911592210982229 -0.17645927759007429 0 0.098410900821044547 -0.17992257776077181 0 0.10911592210982229 -0.17645927759007429 0 0.098410900821044547 -0.17992257776077181 0 0.097744151935697327 -0.16775037825323691 0 0.098410900821044547 -0.17992257776077181 0 0.097744151935697327 -0.16775037825323691 0 0.085920550579820273 -0.17533413907859879 0 0.1011568964037072 -0.1538063213664396 0 0.1141935186866615 -0.16222810283574271 0 0.097744151935697327 -0.16775037825323691 0 0.1141935186866615 -0.16222810283574271 0 0.10911592210982229 -0.17645927759007429 0 0.097744151935697327 -0.16775037825323691 0 0.1011568964037072 -0.1538063213664396 0 0.097744151935697327 -0.16775037825323691 0 0.090649539084807815 -0.15887137580806829 0 0.097744151935697327 -0.16775037825323691 0 0.090649539084807815 -0.15887137580806829 0 0.083489055950224655 -0.1664149392853301 0 0.097744151935697327 -0.16775037825323691 0 0.083489055950224655 -0.1664149392853301 0 0.085920550579820273 -0.17533413907859879 0 0.085920550579820273 -0.17533413907859879 0 0.071316195395861953 -0.16716574819803101 0 0.083489055950224655 -0.1664149392853301 0 0.085920550579820273 -0.17533413907859879 0 0.071316195395861953 -0.16716574819803101 0 0.090649539084807815 -0.15887137580806829 0 0.083489055950224655 -0.1664149392853301 0 0.081939585905548978 -0.15819431565333941 0 0.083489055950224655 -0.1664149392853301 0 0.081939585905548978 -0.15819431565333941 0 0.075647895007541141 -0.16221912603343039 0 0.090158925707272103 -0.18975049663898541 0 0.085920550579820273 -0.17533413907859879 0 0.071316195395861953 -0.16716574819803101 0 0.090158925707272103 -0.18975049663898541 0 0.071316195395861953 -0.16716574819803101 0 0.090158925707272103 -0.18975049663898541 0 0.074672878817104646 -0.18017288477969881 0 0.071316195395861953 -0.16716574819803101 0 0.090158925707272103 -0.18975049663898541 0 0.098410900821044547 -0.17992257776077181 0 0.085920550579820273 -0.17533413907859879 0 0.077592141929718694 -0.19089849969127581 0 0.090158925707272103 -0.18975049663898541 0 0.074672878817104646 -0.18017288477969881 0 0.069841847198591461 -0.1885946527054862 0 0.077592141929718694 -0.19089849969127581 0 0.074672878817104646 -0.18017288477969881 0 0.069841847198591461 -0.1885946527054862 0 0.074672878817104646 -0.18017288477969881 0 0.067898957861152048 -0.1817373408926834 0 0.074672878817104646 -0.18017288477969881 0 0.069887798942485757 -0.1780828155390399 0 0.067898957861152048 -0.1817373408926834 0 0.074672878817104646 -0.18017288477969881 0 0.070479150957026629 -0.17402514314115061 0 0.070575003344567011 -0.17141223109339471 0 0.074672878817104646 -0.18017288477969881 0 0.070575003344567011 -0.17141223109339471 0 0.071316195395861953 -0.16716574819803101 0 0.074672878817104646 -0.18017288477969881 0 0.070479150957026629 -0.17402514314115061 0 0.069887798942485757 -0.1780828155390399 0 0.070479150957026629 -0.17402514314115061 0 0.068006590192410954 -0.17249573251523209 0 0.066500208134659747 -0.17639589334262681 0 0.068006590192410954 -0.17249573251523209 0 0.066500208134659747 -0.17639589334262681 0 0.065072820048966723 -0.17172761992572311 0 0.070479150957026629 -0.17402514314115061 0 0.068006590192410954 -0.17249573251523209 0 0.070575003344567011 -0.17141223109339471 0 0.066500208134659747 -0.17639589334262681 0 0.065072820048966723 -0.17172761992572311 0 0.060716782291083973 -0.1751967687391045 0 0.066500208134659747 -0.17639589334262681 0 0.061114004859865977 -0.18136366647029051 0 0.060716782291083973 -0.1751967687391045 0 0.070479150957026629 -0.17402514314115061 0 0.069887798942485757 -0.1780828155390399 0 0.066500208134659747 -0.17639589334262681 0 0.069887798942485757 -0.1780828155390399 0 0.066500208134659747 -0.17639589334262681 0 0.067898957861152048 -0.1817373408926834 0 0.067898957861152048 -0.1817373408926834 0 0.063913690382049415 -0.1867017220366137 0 0.061114004859865977 -0.18136366647029051 0 0.066500208134659747 -0.17639589334262681 0 0.067898957861152048 -0.1817373408926834 0 0.061114004859865977 -0.18136366647029051 0 0.069841847198591461 -0.1885946527054862 0 0.067898957861152048 -0.1817373408926834 0 0.063913690382049415 -0.1867017220366137 0 0.075647895007541141 -0.16221912603343039 0 0.069943071852055186 -0.1596019233124629 0 0.075254090601104245 -0.15233446658573349 0 0.081939585905548978 -0.15819431565333941 0 0.075647895007541141 -0.16221912603343039 0 0.075254090601104245 -0.15233446658573349 0 0.071632055474391734 -0.163478279192281 0 0.075647895007541141 -0.16221912603343039 0 0.069943071852055186 -0.1596019233124629 0 0.071632055474391734 -0.163478279192281 0 0.069523736764027927 -0.16268056648414389 0 0.069943071852055186 -0.1596019233124629 0 0.083489055950224655 -0.1664149392853301 0 0.075647895007541141 -0.16221912603343039 0 0.071316195395861953 -0.16716574819803101 0 0.070575003344567011 -0.17141223109339471 0 0.071316195395861953 -0.16716574819803101 0 0.069477869729629937 -0.16891784892923051 0 0.071632055474391734 -0.163478279192281 0 0.075647895007541141 -0.16221912603343039 0 0.071316195395861953 -0.16716574819803101 0 0.071632055474391734 -0.163478279192281 0 0.071316195395861953 -0.16716574819803101 0 0.069523736764027927 -0.16268056648414389 0 0.071316195395861953 -0.16716574819803101 0 0.067849010187340852 -0.16804394714847659 0 0.064247378184382697 -0.16573340458441979 0 0.068006590192410954 -0.17249573251523209 0 0.070575003344567011 -0.17141223109339471 0 0.068017441624621922 -0.16974928031825989 0 0.070575003344567011 -0.17141223109339471 0 0.069477869729629937 -0.16891784892923051 0 0.068017441624621922 -0.16974928031825989 0 0.071316195395861953 -0.16716574819803101 0 0.069477869729629937 -0.16891784892923051 0 0.067849010187340852 -0.16804394714847659 0 0.069477869729629937 -0.16891784892923051 0 0.067849010187340852 -0.16804394714847659 0 0.068017441624621922 -0.16974928031825989 0 0.067849010187340852 -0.16804394714847659 0 0.068017441624621922 -0.16974928031825989 0 0.065738499815744214 -0.1687737626695546 0 0.068006590192410954 -0.17249573251523209 0 0.068017441624621922 -0.16974928031825989 0 0.065072820048966723 -0.17172761992572311 0 0.068017441624621922 -0.16974928031825989 0 0.065072820048966723 -0.17172761992572311 0 0.065738499815744214 -0.1687737626695546 0 0.065072820048966723 -0.17172761992572311 0 0.065738499815744214 -0.1687737626695546 0 0.06350584903340889 -0.16861456137089381 0 0.065072820048966723 -0.17172761992572311 0 0.06350584903340889 -0.16861456137089381 0 0.06165751297866804 -0.1709985602289206 0 0.067849010187340852 -0.16804394714847659 0 0.065738499815744214 -0.1687737626695546 0 0.064247378184382697 -0.16573340458441979 0 0.065738499815744214 -0.1687737626695546 0 0.06350584903340889 -0.16861456137089381 0 0.064247378184382697 -0.16573340458441979 0 0.06350584903340889 -0.16861456137089381 0 0.064247378184382697 -0.16573340458441979 0 0.060792558107785853 -0.16826998956963801 0 0.071316195395861953 -0.16716574819803101 0 0.066128419791206622 -0.16158476779983669 0 0.069523736764027927 -0.16268056648414389 0 0.066128419791206622 -0.16158476779983669 0 0.069523736764027927 -0.16268056648414389 0 0.069943071852055186 -0.1596019233124629 0 0.066128419791206622 -0.16158476779983669 0 0.069943071852055186 -0.1596019233124629 0 0.063194398549827835 -0.15767809989947479 0 0.069943071852055186 -0.1596019233124629 0 0.063194398549827835 -0.15767809989947479 0 0.066569105323723718 -0.15289498451621661 0 0.066569105323723718 -0.15289498451621661 0 0.067318790238479823 -0.14232776497509581 0 0.075254090601104245 -0.15233446658573349 0 0.063194398549827835 -0.15767809989947479 0 0.066569105323723718 -0.15289498451621661 0 0.058565079848170887 -0.15222187295306891 0 0.066569105323723718 -0.15289498451621661 0 0.067318790238479823 -0.14232776497509581 0 0.061583386156611047 -0.14800828318126799 0 0.067318790238479823 -0.14232776497509581 0 0.075254090601104245 -0.15233446658573349 0 0.078157844020382755 -0.1380817384870619 0 0.069943071852055186 -0.1596019233124629 0 0.066569105323723718 -0.15289498451621661 0 0.075254090601104245 -0.15233446658573349 0 0.081939585905548978 -0.15819431565333941 0 0.075254090601104245 -0.15233446658573349 0 0.088918005228860897 -0.14819092448199531 0 0.075254090601104245 -0.15233446658573349 0 0.088918005228860897 -0.14819092448199531 0 0.078157844020382755 -0.1380817384870619 0 0.1011568964037072 -0.1538063213664396 0 0.090649539084807815 -0.15887137580806829 0 0.088918005228860897 -0.14819092448199531 0 0.090649539084807815 -0.15887137580806829 0 0.081939585905548978 -0.15819431565333941 0 0.088918005228860897 -0.14819092448199531 0 0.089424410757421052 -0.13401395264206439 0 0.080097795128269977 -0.12427185836742061 0 0.098171288762488984 -0.12099091530457209 0 0.1017771206471027 -0.13853432656927189 0 0.088918005228860897 -0.14819092448199531 0 0.089424410757421052 -0.13401395264206439 0 0.088918005228860897 -0.14819092448199531 0 0.089424410757421052 -0.13401395264206439 0 0.078157844020382755 -0.1380817384870619 0 0.089424410757421052 -0.13401395264206439 0 0.078157844020382755 -0.1380817384870619 0 0.080097795128269977 -0.12427185836742061 0 0.078157844020382755 -0.1380817384870619 0 0.066458555107577061 -0.13111656362198379 0 0.080097795128269977 -0.12427185836742061 0 0.067318790238479823 -0.14232776497509581 0 0.078157844020382755 -0.1380817384870619 0 0.066458555107577061 -0.13111656362198379 0 0.067318790238479823 -0.14232776497509581 0 0.066458555107577061 -0.13111656362198379 0 0.05543473153420575 -0.1397547143034128 0 0.066458555107577061 -0.13111656362198379 0 0.054421500445741303 -0.12596373135642 0 0.05543473153420575 -0.1397547143034128 0 0.054421500445741303 -0.12596373135642 0 0.05543473153420575 -0.1397547143034128 0 0.042304222696807572 -0.13084831086893309 0 0.05543473153420575 -0.1397547143034128 0 0.045836975905200548 -0.14206399957385379 0 0.042304222696807572 -0.13084831086893309 0 0.05543473153420575 -0.1397547143034128 0 0.061583386156611047 -0.14800828318126799 0 0.055087500122368641 -0.14909928084343721 0 0.063194398549827835 -0.15767809989947479 0 0.058565079848170887 -0.15222187295306891 0 0.045361483314134379 -0.15264896667596711 0 0.067318790238479823 -0.14232776497509581 0 0.05543473153420575 -0.1397547143034128 0 0.061583386156611047 -0.14800828318126799 0 0.066569105323723718 -0.15289498451621661 0 0.061583386156611047 -0.14800828318126799 0 0.058565079848170887 -0.15222187295306891 0 0.061583386156611047 -0.14800828318126799 0 0.058565079848170887 -0.15222187295306891 0 0.055087500122368641 -0.14909928084343721 0 0.055087500122368641 -0.14909928084343721 0 0.050430172718977317 -0.14589174034916769 0 0.045361483314134379 -0.15264896667596711 0 0.058565079848170887 -0.15222187295306891 0 0.055087500122368641 -0.14909928084343721 0 0.045361483314134379 -0.15264896667596711 0 0.05543473153420575 -0.1397547143034128 0 0.055087500122368641 -0.14909928084343721 0 0.050430172718977317 -0.14589174034916769 0 0.050430172718977317 -0.14589174034916769 0 0.045836975905200548 -0.14206399957385379 0 0.045361483314134379 -0.15264896667596711 0 0.05543473153420575 -0.1397547143034128 0 0.050430172718977317 -0.14589174034916769 0 0.045836975905200548 -0.14206399957385379 0 0.045361483314134379 -0.15264896667596711 0 0.040070625388445212 -0.1586439650109584 0 0.02735132385660868 -0.15007991036825649 0 0.045836975905200548 -0.14206399957385379 0 0.045361483314134379 -0.15264896667596711 0 0.036248963170685752 -0.13942766029734241 0 0.045361483314134379 -0.15264896667596711 0 0.019406771232406989 -0.13813218515390319 0 0.045361483314134379 -0.15264896667596711 0 0.036248963170685752 -0.13942766029734241 0 0.019406771232406989 -0.13813218515390319 0 0.036248963170685752 -0.13942766029734241 0 0.042304222696807572 -0.13084831086893309 0 0.029723015665660549 -0.13188000705937691 0 0.042304222696807572 -0.13084831086893309 0 0.029723015665660549 -0.13188000705937691 0 0.033390132817925043 -0.1219845859994375 0 0.045836975905200548 -0.14206399957385379 0 0.036248963170685752 -0.13942766029734241 0 0.042304222696807572 -0.13084831086893309 0 0.047055639098014038 -0.1939724391147892 0 0.049537310498244357 -0.18475289705325371 0 0.045174425171285067 -0.17989004114019361 0 0.049537310498244357 -0.18475289705325371 0 0.049502510493395373 -0.1779108948018501 0 0.045174425171285067 -0.17989004114019361 0 0.049537310498244357 -0.18475289705325371 0 0.054366374859687712 -0.18200786380049361 0 0.049502510493395373 -0.1779108948018501 0 0.049537310498244357 -0.18475289705325371 0 0.054366374859687712 -0.18200786380049361 0 0.052976516990435582 -0.18579268394732279 0 0.051634467694274162 -0.18950190880559181 0 0.049537310498244357 -0.18475289705325371 0 0.052976516990435582 -0.18579268394732279 0 0.054366374859687712 -0.18200786380049361 0 0.052976516990435582 -0.18579268394732279 0 0.057702272552410207 -0.187468916734047 0 0.054366374859687712 -0.18200786380049361 0 0.057702272552410207 -0.187468916734047 0 0.061114004859865977 -0.18136366647029051 0 0.063913690382049415 -0.1867017220366137 0 0.057702272552410207 -0.187468916734047 0 0.061114004859865977 -0.18136366647029051 0 0.054366374859687712 -0.18200786380049361 0 0.061114004859865977 -0.18136366647029051 0 0.057539735097732053 -0.17848804964589521 0 0.054366374859687712 -0.18200786380049361 0 0.057539735097732053 -0.17848804964589521 0 0.054309361942183658 -0.17544102259727071 0 0.057539735097732053 -0.17848804964589521 0 0.060716782291083973 -0.1751967687391045 0 0.054309361942183658 -0.17544102259727071 0 0.061114004859865977 -0.18136366647029051 0 0.057539735097732053 -0.17848804964589521 0 0.060716782291083973 -0.1751967687391045 0 0.065072820048966723 -0.17172761992572311 0 0.060716782291083973 -0.1751967687391045 0 0.06165751297866804 -0.1709985602289206 0 0.060716782291083973 -0.1751967687391045 0 0.058199555412094733 -0.1711838615392435 0 0.06165751297866804 -0.1709985602289206 0 0.060716782291083973 -0.1751967687391045 0 0.054309361942183658 -0.17544102259727071 0 0.058199555412094733 -0.1711838615392435 0 0.054309361942183658 -0.17544102259727071 0 0.049502510493395373 -0.1779108948018501 0 0.049329399489413242 -0.17178021784280309 0 0.054309361942183658 -0.17544102259727071 0 0.049329399489413242 -0.17178021784280309 0 0.053942195009806043 -0.16872651082000459 0 0.054366374859687712 -0.18200786380049361 0 0.054309361942183658 -0.17544102259727071 0 0.049502510493395373 -0.1779108948018501 0 0.049502510493395373 -0.1779108948018501 0 0.049329399489413242 -0.17178021784280309 0 0.044531750589259601 -0.17339879867364541 0 0.071316195395861953 -0.16716574819803101 0 0.064247378184382697 -0.16573340458441979 0 0.045361483314134379 -0.15264896667596711 0 0.066128419791206622 -0.16158476779983669 0 0.063194398549827835 -0.15767809989947479 0 0.045361483314134379 -0.15264896667596711 0 0.064247378184382697 -0.16573340458441979 0 0.045361483314134379 -0.15264896667596711 0 0.058216632039929918 -0.16434156441173681 0 0.071316195395861953 -0.16716574819803101 0 0.045361483314134379 -0.15264896667596711 0 0.071316195395861953 -0.16716574819803101 0 0.066128419791206622 -0.16158476779983669 0 0.045361483314134379 -0.15264896667596711 0 0.049329399489413242 -0.17178021784280309 0 0.050264807411237032 -0.16762646824731431 0 0.045252228623185092 -0.1661952419355695 0 0.050264807411237032 -0.16762646824731431 0 0.051014644863934172 -0.1633724950634706 0 0.045252228623185092 -0.1661952419355695 0 0.053942195009806043 -0.16872651082000459 0 0.051014644863934172 -0.1633724950634706 0 0.054578547373692513 -0.16365536584139539 0 0.050264807411237032 -0.16762646824731431 0 0.053942195009806043 -0.16872651082000459 0 0.051014644863934172 -0.1633724950634706 0 0.049329399489413242 -0.17178021784280309 0 0.050264807411237032 -0.16762646824731431 0 0.053942195009806043 -0.16872651082000459 0 0.054309361942183658 -0.17544102259727071 0 0.053942195009806043 -0.16872651082000459 0 0.058199555412094733 -0.1711838615392435 0 0.053942195009806043 -0.16872651082000459 0 0.058199555412094733 -0.1711838615392435 0 0.057145897588661808 -0.16723545843640361 0 0.058199555412094733 -0.1711838615392435 0 0.060792558107785853 -0.16826998956963801 0 0.057145897588661808 -0.16723545843640361 0 0.058199555412094733 -0.1711838615392435 0 0.060792558107785853 -0.16826998956963801 0 0.06165751297866804 -0.1709985602289206 0 0.06350584903340889 -0.16861456137089381 0 0.060792558107785853 -0.16826998956963801 0 0.06165751297866804 -0.1709985602289206 0 0.064247378184382697 -0.16573340458441979 0 0.060792558107785853 -0.16826998956963801 0 0.058216632039929918 -0.16434156441173681 0 0.060792558107785853 -0.16826998956963801 0 0.058216632039929918 -0.16434156441173681 0 0.057145897588661808 -0.16723545843640361 0 0.058216632039929918 -0.16434156441173681 0 0.057145897588661808 -0.16723545843640361 0 0.054578547373692513 -0.16365536584139539 0 0.053942195009806043 -0.16872651082000459 0 0.057145897588661808 -0.16723545843640361 0 0.054578547373692513 -0.16365536584139539 0 0.045361483314134379 -0.15264896667596711 0 0.051014644863934172 -0.1633724950634706 0 0.045424745547424712 -0.1602151671714914 0 0.045361483314134379 -0.15264896667596711 0 0.058216632039929918 -0.16434156441173681 0 0.054578547373692513 -0.16365536584139539 0 0.045361483314134379 -0.15264896667596711 0 0.051014644863934172 -0.1633724950634706 0 0.054578547373692513 -0.16365536584139539 0 0.051014644863934172 -0.1633724950634706 0 0.045424745547424712 -0.1602151671714914 0 0.045252228623185092 -0.1661952419355695 0 0.045361483314134379 -0.15264896667596711 0 0.045424745547424712 -0.1602151671714914 0 0.040070625388445212 -0.1586439650109584 0 0.045424745547424712 -0.1602151671714914 0 0.040070625388445212 -0.1586439650109584 0 0.045252228623185092 -0.1661952419355695 0 0.040070625388445212 -0.1586439650109584 0 0.035244915177511979 -0.16941517605742931 0 0.027318727136446841 -0.16195169576244001 0 0.040070625388445212 -0.1586439650109584 0 0.035244915177511979 -0.16941517605742931 0 0.045252228623185092 -0.1661952419355695 0 0.035244915177511979 -0.16941517605742931 0 0.045252228623185092 -0.1661952419355695 0 0.044531750589259601 -0.17339879867364541 0 0.049329399489413242 -0.17178021784280309 0 0.045252228623185092 -0.1661952419355695 0 0.044531750589259601 -0.17339879867364541 0 0.038562449282376302 -0.18856737755128561 0 0.047055639098014038 -0.1939724391147892 0 0.035244915177511979 -0.16941517605742931 0 0.047055639098014038 -0.1939724391147892 0 0.035244915177511979 -0.16941517605742931 0 0.045174425171285067 -0.17989004114019361 0 0.038562449282376302 -0.18856737755128561 0 0.035244915177511979 -0.16941517605742931 0 0.032400657481605352 -0.18353716648777371 0 0.047055639098014038 -0.1939724391147892 0 0.035244915177511979 -0.16941517605742931 0 0.035244915177511979 -0.16941517605742931 0 0.044531750589259601 -0.17339879867364541 0 0.045174425171285067 -0.17989004114019361 0 0.049502510493395373 -0.1779108948018501 0 0.044531750589259601 -0.17339879867364541 0 0.045174425171285067 -0.17989004114019361 0 0.025074747783813939 -0.1894908183482624 0 0.025870367421762391 -0.17755854670470961 0 0.01519861233689525 -0.17818919576554049 0 0.01129710900053809 -0.19059964746801619 0 0.025074747783813939 -0.1894908183482624 0 0.01519861233689525 -0.17818919576554049 0 0.025074747783813939 -0.1894908183482624 0 0.032400657481605352 -0.18353716648777371 0 0.025870367421762391 -0.17755854670470961 0 0.035244915177511979 -0.16941517605742931 0 0.032400657481605352 -0.18353716648777371 0 0.025870367421762391 -0.17755854670470961 0 0.025870367421762391 -0.17755854670470961 0 0.021432904328985449 -0.16716037686454219 0 0.01519861233689525 -0.17818919576554049 0 0.040070625388445212 -0.1586439650109584 0 0.027318727136446841 -0.16195169576244001 0 0.01252646365084472 -0.15258726511682991 0 0.035244915177511979 -0.16941517605742931 0 0.021432904328985449 -0.16716037686454219 0 0.027318727136446841 -0.16195169576244001 0 0.035244915177511979 -0.16941517605742931 0 0.025870367421762391 -0.17755854670470961 0 0.021432904328985449 -0.16716037686454219 0 0.021432904328985449 -0.16716037686454219 0 0.027318727136446841 -0.16195169576244001 0 0.01252646365084472 -0.15258726511682991 0 0.021432904328985449 -0.16716037686454219 0 0.0084008210962419824 -0.16510625821470359 0 0.01252646365084472 -0.15258726511682991 0 -0.0021876112663072578 -0.15798446653076381 0 0.0084008210962419824 -0.16510625821470359 0 0.01252646365084472 -0.15258726511682991 0 -0.0021876112663072578 -0.15798446653076381 0 -0.0043931643207690656 -0.1666921578166749 0 0.0084008210962419824 -0.16510625821470359 0 -0.0043931643207690656 -0.1666921578166749 0 0.0084008210962419824 -0.16510625821470359 0 0.002600368018374051 -0.1781835494704333 0 0.021432904328985449 -0.16716037686454219 0 0.0084008210962419824 -0.16510625821470359 0 0.01519861233689525 -0.17818919576554049 0 0.0084008210962419824 -0.16510625821470359 0 0.01519861233689525 -0.17818919576554049 0 0.002600368018374051 -0.1781835494704333 0 -0.0036465812241667779 -0.18931108225399881 0 0.01129710900053809 -0.19059964746801619 0 0.002600368018374051 -0.1781835494704333 0 0.01129710900053809 -0.19059964746801619 0 0.01519861233689525 -0.17818919576554049 0 0.002600368018374051 -0.1781835494704333 0 0.016883338936998941 -0.12754347663212681 0 0.029723015665660549 -0.13188000705937691 0 0.033390132817925043 -0.1219845859994375 0 0.036248963170685752 -0.13942766029734241 0 0.019406771232406989 -0.13813218515390319 0 0.029723015665660549 -0.13188000705937691 0 0.019406771232406989 -0.13813218515390319 0 0.016883338936998941 -0.12754347663212681 0 0.014246622273538709 -0.14197376867321229 0 0.019406771232406989 -0.13813218515390319 0 0.016883338936998941 -0.12754347663212681 0 0.029723015665660549 -0.13188000705937691 0 0.040070625388445212 -0.1586439650109584 0 0.02735132385660868 -0.15007991036825649 0 0.01252646365084472 -0.15258726511682991 0 0.040070625388445212 -0.1586439650109584 0 0.01252646365084472 -0.15258726511682991 0 0.045361483314134379 -0.15264896667596711 0 0.019406771232406989 -0.13813218515390319 0 0.02735132385660868 -0.15007991036825649 0 0.02735132385660868 -0.15007991036825649 0 0.01828596575015223 -0.14615992265588049 0 0.01252646365084472 -0.15258726511682991 0 0.019406771232406989 -0.13813218515390319 0 0.02735132385660868 -0.15007991036825649 0 0.01828596575015223 -0.14615992265588049 0 0.019406771232406989 -0.13813218515390319 0 0.01828596575015223 -0.14615992265588049 0 0.014246622273538709 -0.14197376867321229 0 0.014246622273538709 -0.14197376867321229 0 0.01252646365084472 -0.15258726511682991 0 0.0041305717972906809 -0.1454459938073209 0 0.01828596575015223 -0.14615992265588049 0 0.014246622273538709 -0.14197376867321229 0 0.01252646365084472 -0.15258726511682991 0 -0.01501769808675628 -0.146530565222703 0 0.01252646365084472 -0.15258726511682991 0 0.0041305717972906809 -0.1454459938073209 0 0.016883338936998941 -0.12754347663212681 0 0.014246622273538709 -0.14197376867321229 0 0.0041305717972906809 -0.1454459938073209 0 -0.0019404310547477179 -0.13265418859280839 0 0.016883338936998941 -0.12754347663212681 0 0.01113683597726017 -0.1187778119629132 0 -0.0019404310547477179 -0.13265418859280839 0 0.016883338936998941 -0.12754347663212681 0 0.0041305717972906809 -0.1454459938073209 0 0.016883338936998941 -0.12754347663212681 0 0.0041305717972906809 -0.1454459938073209 0 -0.0019404310547477179 -0.13265418859280839 0 0.01113683597726017 -0.1187778119629132 0 -0.0018458120868778921 -0.12033927360542369 0 -0.0019404310547477179 -0.13265418859280839 0 0.01113683597726017 -0.1187778119629132 0 -0.0018458120868778921 -0.12033927360542369 0 0.0023032816237074918 -0.11206378985153879 0 0.01113683597726017 -0.1187778119629132 0 0.01113683597726017 -0.1187778119629132 0 0.017541704532181238 -0.1128678186016884 0 0.01091261934755698 -0.1080402885406771 0 0.0023032816237074918 -0.11206378985153879 0 0.01113683597726017 -0.1187778119629132 0 0.01091261934755698 -0.1080402885406771 0 0.016883338936998941 -0.12754347663212681 0 0.01113683597726017 -0.1187778119629132 0 0.017541704532181238 -0.1128678186016884 0 0.016883338936998941 -0.12754347663212681 0 0.029636106076707198 -0.1096409594569327 0 0.033390132817925043 -0.1219845859994375 0 0.016883338936998941 -0.12754347663212681 0 0.017541704532181238 -0.1128678186016884 0 0.029636106076707198 -0.1096409594569327 0 0.016883338936998941 -0.12754347663212681 0 0.029636106076707198 -0.1096409594569327 0 0.029636106076707198 -0.1096409594569327 0 0.019139622322382921 -0.10033655641579201 0 0.02666186248244095 -0.09245131528586463 0 0.019139622322382921 -0.10033655641579201 0 0.010934851748465041 -0.093164188289987279 0 0.02666186248244095 -0.09245131528586463 0 0.017541704532181238 -0.1128678186016884 0 0.019139622322382921 -0.10033655641579201 0 0.01091261934755698 -0.1080402885406771 0 0.017541704532181238 -0.1128678186016884 0 0.029636106076707198 -0.1096409594569327 0 0.019139622322382921 -0.10033655641579201 0 0.019139622322382921 -0.10033655641579201 0 0.0087961792751421186 -0.10002296672827921 0 0.010934851748465041 -0.093164188289987279 0 0.0087961792751421186 -0.10002296672827921 0 0.0064508281501982631 -0.094927844536138881 0 0.010934851748465041 -0.093164188289987279 0 0.019139622322382921 -0.10033655641579201 0 0.0087961792751421186 -0.10002296672827921 0 0.01091261934755698 -0.1080402885406771 0 0.0087961792751421186 -0.10002296672827921 0 0.01091261934755698 -0.1080402885406771 0 0.0039195102152264436 -0.1047884258796013 0 0.0023032816237074918 -0.11206378985153879 0 0.01091261934755698 -0.1080402885406771 0 0.0039195102152264436 -0.1047884258796013 0 -0.00333287263979966 -0.1047378732862483 0 0.0039195102152264436 -0.1047884258796013 0 0.001920944264520855 -0.098683782423694716 0 -0.00333287263979966 -0.1047378732862483 0 0.0023032816237074918 -0.11206378985153879 0 0.0039195102152264436 -0.1047884258796013 0 0.0087961792751421186 -0.10002296672827921 0 0.0039195102152264436 -0.1047884258796013 0 0.001920944264520855 -0.098683782423694716 0 0.0087961792751421186 -0.10002296672827921 0 0.0064508281501982631 -0.094927844536138881 0 0.001920944264520855 -0.098683782423694716 0 0.0064508281501982631 -0.094927844536138881 0 0.001920944264520855 -0.098683782423694716 0 0.001469916082576286 -0.092579802972193065 0 0.001469916082576286 -0.092579802972193065 0 0.0077268746433823404 -0.090281485065366485 0 0.0014602778350073331 -0.087593538843067337 0 0.0077268746433823404 -0.090281485065366485 0 0.002424066089086858 -0.079267165279983537 0 0.013558213437179511 -0.06793076601033099 0 0.0077268746433823404 -0.090281485065366485 0 0.013558213437179511 -0.06793076601033099 0 0.0077268746433823404 -0.090281485065366485 0 0.013558213437179511 -0.06793076601033099 0 0.0169665229126864 -0.078305033604958746 0 0.0064508281501982631 -0.094927844536138881 0 0.001469916082576286 -0.092579802972193065 0 0.0077268746433823404 -0.090281485065366485 0 0.0077268746433823404 -0.090281485065366485 0 0.0014602778350073331 -0.087593538843067337 0 0.002424066089086858 -0.079267165279983537 0 0.0077268746433823404 -0.090281485065366485 0 0.01517333064109362 -0.085748816678112336 0 0.0169665229126864 -0.078305033604958746 0 0.01517333064109362 -0.085748816678112336 0 0.010934851748465041 -0.093164188289987279 0 0.02021371582507217 -0.087596796919793052 0 0.0064508281501982631 -0.094927844536138881 0 0.0077268746433823404 -0.090281485065366485 0 0.010934851748465041 -0.093164188289987279 0 0.0077268746433823404 -0.090281485065366485 0 0.01517333064109362 -0.085748816678112336 0 0.010934851748465041 -0.093164188289987279 0 0.0019642167837423809 -0.068240051189366921 0 0.013558213437179511 -0.06793076601033099 0 0.0058110199031525924 -0.058921762985332339 0 -0.0039602916157648153 -0.062265683657639848 0 0.0019642167837423809 -0.068240051189366921 0 0.0058110199031525924 -0.058921762985332339 0 0.002424066089086858 -0.079267165279983537 0 0.0019642167837423809 -0.068240051189366921 0 0.013558213437179511 -0.06793076601033099 0 0.019574936676218579 -0.068338401279855798 0 0.042671588693483427 -0.061555417581623369 0 0.013558213437179511 -0.06793076601033099 0 0.019574936676218579 -0.068338401279855798 0 0.02723165451374442 -0.056730241791898263 0 0.019574936676218579 -0.068338401279855798 0 0.023404894745223861 -0.077643341875654331 0 0.0169665229126864 -0.078305033604958746 0 0.013558213437179511 -0.06793076601033099 0 0.019574936676218579 -0.068338401279855798 0 0.0169665229126864 -0.078305033604958746 0 0.019574936676218579 -0.068338401279855798 0 0.023404894745223861 -0.077643341875654331 0 0.033597977925983513 -0.075639772355069329 0 0.010934851748465041 -0.093164188289987279 0 0.02666186248244095 -0.09245131528586463 0 0.010934851748465041 -0.093164188289987279 0 0.02021371582507217 -0.087596796919793052 0 0.02666186248244095 -0.09245131528586463 0 0.01517333064109362 -0.085748816678112336 0 0.02021371582507217 -0.087596796919793052 0 0.020441373122225021 -0.081956362613028105 0 0.01517333064109362 -0.085748816678112336 0 0.0169665229126864 -0.078305033604958746 0 0.020441373122225021 -0.081956362613028105 0 0.023404894745223861 -0.077643341875654331 0 0.0169665229126864 -0.078305033604958746 0 0.020441373122225021 -0.081956362613028105 0 0.02021371582507217 -0.087596796919793052 0 0.020441373122225021 -0.081956362613028105 0 0.02785716113113625 -0.084663301731972895 0 0.023404894745223861 -0.077643341875654331 0 0.02785716113113625 -0.084663301731972895 0 0.033597977925983513 -0.075639772355069329 0 0.023404894745223861 -0.077643341875654331 0 0.020441373122225021 -0.081956362613028105 0 0.02785716113113625 -0.084663301731972895 0 0.02021371582507217 -0.087596796919793052 0 0.02785716113113625 -0.084663301731972895 0 0.02666186248244095 -0.09245131528586463 0 0.02785716113113625 -0.084663301731972895 0 0.042388873216416739 -0.091738442281739455 0 0.033597977925983513 -0.075639772355069329 0 0.02666186248244095 -0.09245131528586463 0 0.042388873216416739 -0.091738442281739455 0 0.02785716113113625 -0.084663301731972895 0 0.02666186248244095 -0.09245131528586463 0 0.042388873216416739 -0.091738442281739455 0 0.042388873216416739 -0.091738442281739455 0 0.033597977925983513 -0.075639772355069329 0 0.043799114968079422 -0.075202324882172392 0 0.019574936676218579 -0.068338401279855798 0 0.033597977925983513 -0.075639772355069329 0 0.042671588693483427 -0.061555417581623369 0 0.033597977925983513 -0.075639772355069329 0 0.043799114968079422 -0.075202324882172392 0 0.042671588693483427 -0.061555417581623369 0 0.056538020036433961 -0.071875667310257393 0 0.042671588693483427 -0.061555417581623369 0 0.065768240710748271 -0.054772433883390953 0 0.043799114968079422 -0.075202324882172392 0 0.056538020036433961 -0.071875667310257393 0 0.042671588693483427 -0.061555417581623369 0 0.042388873216416739 -0.091738442281739455 0 0.06820452824267087 -0.090568271811125978 0 0.042388873216416739 -0.091738442281739455 0 0.056538020036433961 -0.071875667310257393 0 0.042388873216416739 -0.091738442281739455 0 0.056538020036433961 -0.071875667310257393 0 0.06820452824267087 -0.090568271811125978 0 0.042388873216416739 -0.091738442281739455 0 0.043799114968079422 -0.075202324882172392 0 0.056538020036433961 -0.071875667310257393 0 0.042388873216416739 -0.091738442281739455 0 0.060176683531039193 -0.10363744764324601 0 0.06820452824267087 -0.090568271811125978 0 0.042388873216416739 -0.091738442281739455 0 0.060176683531039193 -0.10363744764324601 0 0.046004160942114188 -0.1136308516839781 0 0.054421500445741303 -0.12596373135642 0 0.046004160942114188 -0.1136308516839781 0 0.063320669278382841 -0.1162995742424921 0 0.054421500445741303 -0.12596373135642 0 0.042304222696807572 -0.13084831086893309 0 0.046004160942114188 -0.1136308516839781 0 0.060176683531039193 -0.10363744764324601 0 0.046004160942114188 -0.1136308516839781 0 0.063320669278382841 -0.1162995742424921 0 0.066458555107577061 -0.13111656362198379 0 0.054421500445741303 -0.12596373135642 0 0.063320669278382841 -0.1162995742424921 0 0.042304222696807572 -0.13084831086893309 0 0.046004160942114188 -0.1136308516839781 0 0.033390132817925043 -0.1219845859994375 0 0.029636106076707198 -0.1096409594569327 0 0.046004160942114188 -0.1136308516839781 0 0.033390132817925043 -0.1219845859994375 0 0.029636106076707198 -0.1096409594569327 0 0.042388873216416739 -0.091738442281739455 0 0.029636106076707198 -0.1096409594569327 0 0.042388873216416739 -0.091738442281739455 0 0.046004160942114188 -0.1136308516839781 0 0.029636106076707198 -0.1096409594569327 0 0.02666186248244095 -0.09245131528586463 0 0.042388873216416739 -0.091738442281739455 0 0.017048673377461451 0.0079426142550743165 0 0.03105222981857109 -0.0008786088452242824 0 0.01429713295265852 -0.0083895552418190803 0 0.03105222981857109 -0.0008786088452242824 0 0.01429713295265852 -0.0083895552418190803 0 0.025220891024773869 -0.023229327900259961 0 0.03105222981857109 -0.0008786088452242824 0 0.025220891024773869 -0.023229327900259961 0 -0.0060991833155395643 -8.9340787780604891e-05 0 0.01429713295265852 -0.0083895552418190803 0 0.002201472470244434 -0.02866876371560861 0 -0.0060991833155395643 -8.9340787780604891e-05 0 0.017048673377461451 0.0079426142550743165 0 0.01429713295265852 -0.0083895552418190803 0 0.01429713295265852 -0.0083895552418190803 0 0.002201472470244434 -0.02866876371560861 0 0.025220891024773869 -0.023229327900259961 0 0.025220891024773869 -0.023229327900259961 0 0.01938955223097668 -0.045580046955295522 0 0.025220891024773869 -0.023229327900259961 0 0.01938955223097668 -0.045580046955295522 0 0.040963981530863891 -0.040246577132385573 0 -0.0016479949996232549 -0.050446966672088263 0 0.002201472470244434 -0.02866876371560861 0 0.01938955223097668 -0.045580046955295522 0 0.002201472470244434 -0.02866876371560861 0 0.025220891024773869 -0.023229327900259961 0 0.01938955223097668 -0.045580046955295522 0 -0.0016479949996232549 -0.050446966672088263 0 0.01938955223097668 -0.045580046955295522 0 0.0058110199031525924 -0.058921762985332339 0 0.013558213437179511 -0.06793076601033099 0 0.01938955223097668 -0.045580046955295522 0 0.0058110199031525924 -0.058921762985332339 0 -0.0016479949996232549 -0.050446966672088263 0 -0.0039602916157648153 -0.062265683657639848 0 0.0058110199031525924 -0.058921762985332339 0 0.019574936676218579 -0.068338401279855798 0 0.02723165451374442 -0.056730241791898263 0 0.042671588693483427 -0.061555417581623369 0 0.01938955223097668 -0.045580046955295522 0 0.02723165451374442 -0.056730241791898263 0 0.040963981530863891 -0.040246577132385573 0 0.013558213437179511 -0.06793076601033099 0 0.01938955223097668 -0.045580046955295522 0 0.013558213437179511 -0.06793076601033099 0 0.01938955223097668 -0.045580046955295522 0 0.02723165451374442 -0.056730241791898263 0 0.02723165451374442 -0.056730241791898263 0 0.042671588693483427 -0.061555417581623369 0 0.040963981530863891 -0.040246577132385573 0 0.042671588693483427 -0.061555417581623369 0 0.051737769131590103 -0.049712003238049689 0 0.040963981530863891 -0.040246577132385573 0 0.042671588693483427 -0.061555417581623369 0 0.065768240710748271 -0.054772433883390953 0 0.042671588693483427 -0.061555417581623369 0 0.051737769131590103 -0.049712003238049689 0 0.065768240710748271 -0.054772433883390953 0 0.051737769131590103 -0.049712003238049689 0 0.063275139558610166 -0.039704218150388902 0 0.065768240710748271 -0.054772433883390953 0 0.040963981530863891 -0.040246577132385573 0 0.05587219637096387 -0.025288950404922021 0 0.063275139558610166 -0.039704218150388902 0 0.051737769131590103 -0.049712003238049689 0 0.040963981530863891 -0.040246577132385573 0 0.063275139558610166 -0.039704218150388902 0 0.025220891024773869 -0.023229327900259961 0 0.040963981530863891 -0.040246577132385573 0 0.040919859200706343 -0.019335726893473161 0 0.040963981530863891 -0.040246577132385573 0 0.040919859200706343 -0.019335726893473161 0 0.05587219637096387 -0.025288950404922021 0 0.040919859200706343 -0.019335726893473161 0 0.05587219637096387 -0.025288950404922021 0 0.051489997258358969 -0.0070351701845739372 0 0.066317762399445576 0.0043892815254785167 0 0.051489997258358969 -0.0070351701845739372 0 0.065271272437265757 -0.01311543587553401 0 0.05587219637096387 -0.025288950404922021 0 0.051489997258358969 -0.0070351701845739372 0 0.065271272437265757 -0.01311543587553401 0 0.03105222981857109 -0.0008786088452242824 0 0.040919859200706343 -0.019335726893473161 0 0.051489997258358969 -0.0070351701845739372 0 0.03105222981857109 -0.0008786088452242824 0 0.025220891024773869 -0.023229327900259961 0 0.040919859200706343 -0.019335726893473161 0 0.086626109984082864 0.0087739812618877148 0 0.081532356514722987 -0.0108093011453232 0 0.10448182883083849 -0.0074166645345203897 0 0.066317762399445576 0.0043892815254785167 0 0.081532356514722987 -0.0108093011453232 0 0.066317762399445576 0.0043892815254785167 0 0.081532356514722987 -0.0108093011453232 0 0.065271272437265757 -0.01311543587553401 0 0.081532356514722987 -0.0108093011453232 0 0.065271272437265757 -0.01311543587553401 0 0.075260468039929362 -0.02715253992957525 0 0.05587219637096387 -0.025288950404922021 0 0.065271272437265757 -0.01311543587553401 0 0.075260468039929362 -0.02715253992957525 0 0.05587219637096387 -0.025288950404922021 0 0.075260468039929362 -0.02715253992957525 0 0.063275139558610166 -0.039704218150388902 0 0.081532356514722987 -0.0108093011453232 0 0.075260468039929362 -0.02715253992957525 0 0.096746950630000356 -0.026007883816124878 0 0.081532356514722987 -0.0108093011453232 0 0.096746950630000356 -0.026007883816124878 0 0.075260468039929362 -0.02715253992957525 0 0.088864892728013123 -0.047989450185158523 0 0.096746950630000356 -0.026007883816124878 0 0.075260468039929362 -0.02715253992957525 0 0.063275139558610166 -0.039704218150388902 0 0.088864892728013123 -0.047989450185158523 0 0.063275139558610166 -0.039704218150388902 0 0.065768240710748271 -0.054772433883390953 0 0.088864892728013123 -0.047989450185158523 0 0.065768240710748271 -0.054772433883390953 0 0.088864892728013123 -0.047989450185158523 0 0.065768240710748271 -0.054772433883390953 0 0.088864892728013123 -0.047989450185158523 0 0.077400551832562059 -0.071473110907876697 0 0.088864892728013123 -0.047989450185158523 0 0.077400551832562059 -0.071473110907876697 0 0.095989445844817015 -0.067524072237136218 0 0.088864892728013123 -0.047989450185158523 0 0.1080951308722238 -0.057542540594520908 0 0.111961544745278 -0.041206466486926267 0 0.088864892728013123 -0.047989450185158523 0 0.1080951308722238 -0.057542540594520908 0 0.095989445844817015 -0.067524072237136218 0 0.1080951308722238 -0.057542540594520908 0 0.111961544745278 -0.041206466486926267 0 0.1269044467054426 -0.056133642924397389 0 0.111961544745278 -0.041206466486926267 0 0.1269044467054426 -0.056133642924397389 0 0.111961544745278 -0.041206466486926267 0 0.13528509547928569 -0.034356847576989979 0 0.1269044467054426 -0.056133642924397389 0 0.111961544745278 -0.041206466486926267 0 0.1138213933762605 -0.024950050510490009 0 0.13528509547928569 -0.034356847576989979 0 0.111961544745278 -0.041206466486926267 0 0.13528509547928569 -0.034356847576989979 0 0.088864892728013123 -0.047989450185158523 0 0.111961544745278 -0.041206466486926267 0 0.088864892728013123 -0.047989450185158523 0 0.111961544745278 -0.041206466486926267 0 0.096746950630000356 -0.026007883816124878 0 0.111961544745278 -0.041206466486926267 0 0.096746950630000356 -0.026007883816124878 0 0.096746950630000356 -0.026007883816124878 0 0.1138213933762605 -0.024950050510490009 0 0.10448182883083849 -0.0074166645345203897 0 0.111961544745278 -0.041206466486926267 0 0.096746950630000356 -0.026007883816124878 0 0.1138213933762605 -0.024950050510490009 0 0.1138213933762605 -0.024950050510490009 0 0.10448182883083849 -0.0074166645345203897 0 0.12568763314203429 -0.01463695139876758 0 0.1138213933762605 -0.024950050510490009 0 0.12568763314203429 -0.01463695139876758 0 0.13528509547928569 -0.034356847576989979 0 0.12313387866373759 0.0035515711970952281 0 0.10448182883083849 -0.0074166645345203897 0 0.12568763314203429 -0.01463695139876758 0 0.081532356514722987 -0.0108093011453232 0 0.096746950630000356 -0.026007883816124878 0 0.10448182883083849 -0.0074166645345203897 0 0.080965185975611309 -0.10595009819689449 0 0.06820452824267087 -0.090568271811125978 0 0.094020183268924973 -0.089398101340509975 0 0.080965185975611309 -0.10595009819689449 0 0.080097795128269977 -0.12427185836742061 0 0.098171288762488984 -0.12099091530457209 0 0.080965185975611309 -0.10595009819689449 0 0.080097795128269977 -0.12427185836742061 0 0.063320669278382841 -0.1162995742424921 0 0.066458555107577061 -0.13111656362198379 0 0.080097795128269977 -0.12427185836742061 0 0.063320669278382841 -0.1162995742424921 0 0.060176683531039193 -0.10363744764324601 0 0.080965185975611309 -0.10595009819689449 0 0.06820452824267087 -0.090568271811125978 0 0.060176683531039193 -0.10363744764324601 0 0.080965185975611309 -0.10595009819689449 0 0.063320669278382841 -0.1162995742424921 0 0.056538020036433961 -0.071875667310257393 0 0.065768240710748271 -0.054772433883390953 0 0.077400551832562059 -0.071473110907876697 0 0.056538020036433961 -0.071875667310257393 0 0.06820452824267087 -0.090568271811125978 0 0.077400551832562059 -0.071473110907876697 0 0.077400551832562059 -0.071473110907876697 0 0.094020183268924973 -0.089398101340509975 0 0.095989445844817015 -0.067524072237136218 0 0.06820452824267087 -0.090568271811125978 0 0.077400551832562059 -0.071473110907876697 0 0.094020183268924973 -0.089398101340509975 0 0.06820452824267087 -0.090568271811125978 0 0.094020183268924973 -0.089398101340509975 0 0.094020183268924973 -0.089398101340509975 0 0.1116218941018939 -0.07504326293644098 0 0.10721525088973891 -0.099484712002166881 0 0.094020183268924973 -0.089398101340509975 0 0.095989445844817015 -0.067524072237136218 0 0.1116218941018939 -0.07504326293644098 0 0.1080951308722238 -0.057542540594520908 0 0.095989445844817015 -0.067524072237136218 0 0.1116218941018939 -0.07504326293644098 0 0.1116218941018939 -0.07504326293644098 0 0.12813498646188751 -0.078276512586333544 0 0.1269044467054426 -0.056133642924397389 0 0.1080951308722238 -0.057542540594520908 0 0.1116218941018939 -0.07504326293644098 0 0.1269044467054426 -0.056133642924397389 0 0.1116218941018939 -0.07504326293644098 0 0.1229756392986403 -0.09491515814787381 0 0.12813498646188751 -0.078276512586333544 0 0.1116218941018939 -0.07504326293644098 0 0.1229756392986403 -0.09491515814787381 0 0.10721525088973891 -0.099484712002166881 0 0.1229756392986403 -0.09491515814787381 0 0.11543151493603999 -0.11369447820245809 0 0.12979043803620549 -0.10745303533373191 0 0.1229756392986403 -0.09491515814787381 0 0.10721525088973891 -0.099484712002166881 0 0.11543151493603999 -0.11369447820245809 0 0.080965185975611309 -0.10595009819689449 0 0.094020183268924973 -0.089398101340509975 0 0.10721525088973891 -0.099484712002166881 0 0.080965185975611309 -0.10595009819689449 0 0.10721525088973891 -0.099484712002166881 0 0.098171288762488984 -0.12099091530457209 0 0.1137478430876453 -0.12985953023292521 0 0.098171288762488984 -0.12099091530457209 0 0.11543151493603999 -0.11369447820245809 0 0.10721525088973891 -0.099484712002166881 0 0.098171288762488984 -0.12099091530457209 0 0.11543151493603999 -0.11369447820245809 0 0.1137478430876453 -0.12985953023292521 0 0.11543151493603999 -0.11369447820245809 0 0.1289918112778406 -0.1223255163205285 0 0.11543151493603999 -0.11369447820245809 0 0.1289918112778406 -0.1223255163205285 0 0.12979043803620549 -0.10745303533373191 0 0.1289918112778406 -0.1223255163205285 0 0.1403014630052184 -0.11323443280349869 0 0.12979043803620549 -0.10745303533373191 0 0.1289918112778406 -0.1223255163205285 0 0.1403014630052184 -0.11323443280349869 0 0.14247126911296351 -0.12285343516881959 0 0.1403014630052184 -0.11323443280349869 0 0.14247126911296351 -0.12285343516881959 0 0.15240429848654821 -0.1164025836975978 0 0.1403014630052184 -0.11323443280349869 0 0.15240429848654821 -0.1164025836975978 0 0.1480167272440662 -0.1092987776898009 0 0.15240429848654821 -0.1164025836975978 0 0.15589834833160529 -0.1059360926721391 0 0.1480167272440662 -0.1092987776898009 0 0.14247126911296351 -0.12285343516881959 0 0.15240429848654821 -0.1164025836975978 0 0.154547146583079 -0.1287000322213063 0 0.14994643246473299 -0.09824140109616919 0 0.15217050038854149 -0.091008666392005666 0 0.15862268311440861 -0.096742849603013686 0 0.14994643246473299 -0.09824140109616919 0 0.15589834833160529 -0.1059360926721391 0 0.15862268311440861 -0.096742849603013686 0 0.14994643246473299 -0.09824140109616919 0 0.15589834833160529 -0.1059360926721391 0 0.1480167272440662 -0.1092987776898009 0 0.1403014630052184 -0.11323443280349869 0 0.1480167272440662 -0.1092987776898009 0 0.14013423387368629 -0.1010732486105131 0 0.14994643246473299 -0.09824140109616919 0 0.1480167272440662 -0.1092987776898009 0 0.14013423387368629 -0.1010732486105131 0 0.14994643246473299 -0.09824140109616919 0 0.14013423387368629 -0.1010732486105131 0 0.14473662352031419 -0.090487779444962363 0 0.14013423387368629 -0.1010732486105131 0 0.13473947513773729 -0.090697794675587542 0 0.14473662352031419 -0.090487779444962363 0 0.14013423387368629 -0.1010732486105131 0 0.13190994658656741 -0.098534809191926587 0 0.13473947513773729 -0.090697794675587542 0 0.1403014630052184 -0.11323443280349869 0 0.14013423387368629 -0.1010732486105131 0 0.12979043803620549 -0.10745303533373191 0 0.14013423387368629 -0.1010732486105131 0 0.12979043803620549 -0.10745303533373191 0 0.13190994658656741 -0.098534809191926587 0 0.1229756392986403 -0.09491515814787381 0 0.12979043803620549 -0.10745303533373191 0 0.13190994658656741 -0.098534809191926587 0 0.1229756392986403 -0.09491515814787381 0 0.13190994658656741 -0.098534809191926587 0 0.13473947513773729 -0.090697794675587542 0 0.1229756392986403 -0.09491515814787381 0 0.12813498646188751 -0.078276512586333544 0 0.13473947513773729 -0.090697794675587542 0 0.12813498646188751 -0.078276512586333544 0 0.14004298920060509 -0.082821242417059182 0 0.13473947513773729 -0.090697794675587542 0 0.14004298920060509 -0.082821242417059182 0 0.13473947513773729 -0.090697794675587542 0 0.14473662352031419 -0.090487779444962363 0 0.12813498646188751 -0.078276512586333544 0 0.1418473486656075 -0.071060819361868227 0 0.1269044467054426 -0.056133642924397389 0 0.12813498646188751 -0.078276512586333544 0 0.14004298920060509 -0.082821242417059182 0 0.1418473486656075 -0.071060819361868227 0 0.1418473486656075 -0.071060819361868227 0 0.1269044467054426 -0.056133642924397389 0 0.1418473486656075 -0.071060819361868227 0 0.16023184502020571 -0.068157067835945245 0 0.15639510972772089 -0.076208614908978539 0 0.1418473486656075 -0.071060819361868227 0 0.14314350517334751 -0.054484290632537687 0 0.15075360677176691 -0.062193503524066447 0 0.1418473486656075 -0.071060819361868227 0 0.16023184502020571 -0.068157067835945245 0 0.15075360677176691 -0.062193503524066447 0 0.1418473486656075 -0.071060819361868227 0 0.15679025062577259 -0.085987995799338857 0 0.15639510972772089 -0.076208614908978539 0 0.14004298920060509 -0.082821242417059182 0 0.14473662352031419 -0.090487779444962363 0 0.15062424376388611 -0.084528470415305659 0 0.14004298920060509 -0.082821242417059182 0 0.1418473486656075 -0.071060819361868227 0 0.15062424376388611 -0.084528470415305659 0 0.1418473486656075 -0.071060819361868227 0 0.15679025062577259 -0.085987995799338857 0 0.1418473486656075 -0.071060819361868227 0 0.15062424376388611 -0.084528470415305659 0 0.15679025062577259 -0.085987995799338857 0 0.15062424376388611 -0.084528470415305659 0 0.15679025062577259 -0.085987995799338857 0 0.15062424376388611 -0.084528470415305659 0 0.15217050038854149 -0.091008666392005666 0 0.15679025062577259 -0.085987995799338857 0 0.15217050038854149 -0.091008666392005666 0 0.15679025062577259 -0.085987995799338857 0 0.15862268311440861 -0.096742849603013686 0 0.14473662352031419 -0.090487779444962363 0 0.15062424376388611 -0.084528470415305659 0 0.15217050038854149 -0.091008666392005666 0 0.14994643246473299 -0.09824140109616919 0 0.14473662352031419 -0.090487779444962363 0 0.15217050038854149 -0.091008666392005666 0 0.15679025062577259 -0.085987995799338857 0 0.18398055966288171 -0.092424081118131066 0 0.15679025062577259 -0.085987995799338857 0 0.16671099459929789 -0.079628576638761869 0 0.18398055966288171 -0.092424081118131066 0 0.15679025062577259 -0.085987995799338857 0 0.16671099459929789 -0.079628576638761869 0 0.15639510972772089 -0.076208614908978539 0 0.16671099459929789 -0.079628576638761869 0 0.16023184502020571 -0.068157067835945245 0 0.15639510972772089 -0.076208614908978539 0 0.16671099459929789 -0.079628576638761869 0 0.16023184502020571 -0.068157067835945245 0 0.1748320685718362 -0.071167471450110265 0 0.16023184502020571 -0.068157067835945245 0 0.1748320685718362 -0.071167471450110265 0 0.17157413278379441 -0.057712343572744233 0 0.1748320685718362 -0.071167471450110265 0 0.17157413278379441 -0.057712343572744233 0 0.1885141879162221 -0.062017504627634903 0 0.16671099459929789 -0.079628576638761869 0 0.1748320685718362 -0.071167471450110265 0 0.17877629269690001 -0.079983162786514531 0 0.1748320685718362 -0.071167471450110265 0 0.17877629269690001 -0.079983162786514531 0 0.18958154795358431 -0.076712521939054951 0 0.1748320685718362 -0.071167471450110265 0 0.1885141879162221 -0.062017504627634903 0 0.18958154795358431 -0.076712521939054951 0 0.18398055966288171 -0.092424081118131066 0 0.17877629269690001 -0.079983162786514531 0 0.18958154795358431 -0.076712521939054951 0 0.16671099459929789 -0.079628576638761869 0 0.18398055966288171 -0.092424081118131066 0 0.17877629269690001 -0.079983162786514531 0 0.18398055966288171 -0.092424081118131066 0 0.17434308061064879 -0.103522353640919 0 0.19287413620928259 -0.10541563622677989 0 0.17434308061064879 -0.103522353640919 0 0.1745310528687942 -0.11503823840734249 0 0.1918959105955253 -0.12105671148249909 0 0.18202227944144739 -0.1234139502597154 0 0.1745310528687942 -0.11503823840734249 0 0.1918959105955253 -0.12105671148249909 0 0.17434308061064879 -0.103522353640919 0 0.1918959105955253 -0.12105671148249909 0 0.19287413620928259 -0.10541563622677989 0 0.17434308061064879 -0.103522353640919 0 0.1918959105955253 -0.12105671148249909 0 0.18202227944144739 -0.1234139502597154 0 0.1745310528687942 -0.11503823840734249 0 0.1747385376149875 -0.12655378813818349 0 0.1745310528687942 -0.11503823840734249 0 0.16416899245404831 -0.1228192078679623 0 0.1635766047281865 -0.1115104783574416 0 0.17434308061064879 -0.103522353640919 0 0.1745310528687942 -0.11503823840734249 0 0.1635766047281865 -0.1115104783574416 0 0.1745310528687942 -0.11503823840734249 0 0.16416899245404831 -0.1228192078679623 0 0.1747385376149875 -0.12655378813818349 0 0.15240429848654821 -0.1164025836975978 0 0.16416899245404831 -0.1228192078679623 0 0.154547146583079 -0.1287000322213063 0 0.15240429848654821 -0.1164025836975978 0 0.16416899245404831 -0.1228192078679623 0 0.1635766047281865 -0.1115104783574416 0 0.15240429848654821 -0.1164025836975978 0 0.15589834833160529 -0.1059360926721391 0 0.1635766047281865 -0.1115104783574416 0 0.15679025062577259 -0.085987995799338857 0 0.17434308061064879 -0.103522353640919 0 0.15589834833160529 -0.1059360926721391 0 0.1635766047281865 -0.1115104783574416 0 0.16282334395168929 -0.1034204655888115 0 0.15679025062577259 -0.085987995799338857 0 0.17434308061064879 -0.103522353640919 0 0.15862268311440861 -0.096742849603013686 0 0.15679025062577259 -0.085987995799338857 0 0.18398055966288171 -0.092424081118131066 0 0.17434308061064879 -0.103522353640919 0 0.17434308061064879 -0.103522353640919 0 0.16282334395168929 -0.1034204655888115 0 0.15862268311440861 -0.096742849603013686 0 0.15589834833160529 -0.1059360926721391 0 0.16282334395168929 -0.1034204655888115 0 0.15862268311440861 -0.096742849603013686 0 0.17434308061064879 -0.103522353640919 0 0.1635766047281865 -0.1115104783574416 0 0.16282334395168929 -0.1034204655888115 0 0.15764205944865481 0.0083270856753996751 0 0.1443933526966239 -0.0053404741926335233 0 0.16310660367626731 -0.0083879180435666549 0 0.1443933526966239 -0.0053404741926335233 0 0.14725571598030371 -0.022230186072689642 0 0.16310660367626731 -0.0083879180435666549 0 0.1443933526966239 -0.0053404741926335233 0 0.12568763314203429 -0.01463695139876758 0 0.14725571598030371 -0.022230186072689642 0 0.12313387866373759 0.0035515711970952281 0 0.1443933526966239 -0.0053404741926335233 0 0.12568763314203429 -0.01463695139876758 0 0.12568763314203429 -0.01463695139876758 0 0.14725571598030371 -0.022230186072689642 0 0.13528509547928569 -0.034356847576989979 0 0.14725571598030371 -0.022230186072689642 0 0.1522640421807947 -0.039526996854409038 0 0.1636337674136932 -0.026896440100121939 0 0.1522640421807947 -0.039526996854409038 0 0.13528509547928569 -0.034356847576989979 0 0.14314350517334751 -0.054484290632537687 0 0.14725571598030371 -0.022230186072689642 0 0.1522640421807947 -0.039526996854409038 0 0.13528509547928569 -0.034356847576989979 0 0.1418473486656075 -0.071060819361868227 0 0.1269044467054426 -0.056133642924397389 0 0.14314350517334751 -0.054484290632537687 0 0.13528509547928569 -0.034356847576989979 0 0.1269044467054426 -0.056133642924397389 0 0.14314350517334751 -0.054484290632537687 0 0.1522640421807947 -0.039526996854409038 0 0.14314350517334751 -0.054484290632537687 0 0.1577917282279068 -0.05507183626591465 0 0.14314350517334751 -0.054484290632537687 0 0.15075360677176691 -0.062193503524066447 0 0.1577917282279068 -0.05507183626591465 0 0.16023184502020571 -0.068157067835945245 0 0.15075360677176691 -0.062193503524066447 0 0.1577917282279068 -0.05507183626591465 0 0.16023184502020571 -0.068157067835945245 0 0.1577917282279068 -0.05507183626591465 0 0.17157413278379441 -0.057712343572744233 0 0.1577917282279068 -0.05507183626591465 0 0.17157413278379441 -0.057712343572744233 0 0.16682285693809659 -0.042357593699179852 0 0.17157413278379441 -0.057712343572744233 0 0.181252110028499 -0.047502587557680498 0 0.1885141879162221 -0.062017504627634903 0 0.17157413278379441 -0.057712343572744233 0 0.181252110028499 -0.047502587557680498 0 0.16682285693809659 -0.042357593699179852 0 0.181252110028499 -0.047502587557680498 0 0.16682285693809659 -0.042357593699179852 0 0.18170927019942229 -0.029814765715255102 0 0.181252110028499 -0.047502587557680498 0 0.18170927019942229 -0.029814765715255102 0 0.19447828237594511 -0.040314725759720851 0 0.16682285693809659 -0.042357593699179852 0 0.1636337674136932 -0.026896440100121939 0 0.18170927019942229 -0.029814765715255102 0 0.1522640421807947 -0.039526996854409038 0 0.1577917282279068 -0.05507183626591465 0 0.16682285693809659 -0.042357593699179852 0 0.1522640421807947 -0.039526996854409038 0 0.16682285693809659 -0.042357593699179852 0 0.1636337674136932 -0.026896440100121939 0 0.1636337674136932 -0.026896440100121939 0 0.17499084039911131 -0.016997068751838821 0 0.16310660367626731 -0.0083879180435666549 0 0.14725571598030371 -0.022230186072689642 0 0.1636337674136932 -0.026896440100121939 0 0.16310660367626731 -0.0083879180435666549 0 0.1636337674136932 -0.026896440100121939 0 0.18170927019942229 -0.029814765715255102 0 0.17499084039911131 -0.016997068751838821 0 0.18170927019942229 -0.029814765715255102 0 0.17499084039911131 -0.016997068751838821 0 0.18801447465636989 -0.0144142285958467 0 0.17499084039911131 -0.016997068751838821 0 0.17912323869707381 -0.003856906065920949 0 0.16310660367626731 -0.0083879180435666549 0 0.1938796680963169 0.0043757288619775247 0 0.17912323869707381 -0.003856906065920949 0 0.18801447465636989 -0.0144142285958467 0 0.17537224354991091 0.010850892601100479 0 0.17912323869707381 -0.003856906065920949 0 0.16310660367626731 -0.0083879180435666549 0 0.17499084039911131 -0.016997068751838821 0 0.17912323869707381 -0.003856906065920949 0 0.18801447465636989 -0.0144142285958467 0 0.21205365186150391 0.001127076637653511 0 0.21085615789162529 -0.0081169858675656931 0 0.2250499103028572 -0.0060445029197408878 0 0.21085615789162529 -0.0081169858675656931 0 0.21544189288085891 -0.01820459638607546 0 0.2250499103028572 -0.0060445029197408878 0 0.21085615789162529 -0.0081169858675656931 0 0.20123856500323981 -0.010849001812748151 0 0.21544189288085891 -0.01820459638607546 0 0.204306859725019 0.0021511387259922541 0 0.21085615789162529 -0.0081169858675656931 0 0.20123856500323981 -0.010849001812748151 0 0.204306859725019 0.0021511387259922541 0 0.21205365186150391 0.001127076637653511 0 0.21085615789162529 -0.0081169858675656931 0 0.1938796680963169 0.0043757288619775247 0 0.18801447465636989 -0.0144142285958467 0 0.20123856500323981 -0.010849001812748151 0 0.204306859725019 0.0021511387259922541 0 0.1938796680963169 0.0043757288619775247 0 0.20123856500323981 -0.010849001812748151 0 0.18170927019942229 -0.029814765715255102 0 0.18801447465636989 -0.0144142285958467 0 0.20212354308747271 -0.0271290141565632 0 0.18801447465636989 -0.0144142285958467 0 0.20123856500323981 -0.010849001812748151 0 0.20212354308747271 -0.0271290141565632 0 0.20212354308747271 -0.0271290141565632 0 0.21544189288085891 -0.01820459638607546 0 0.21479434350852539 -0.029728667788884711 0 0.20123856500323981 -0.010849001812748151 0 0.20212354308747271 -0.0271290141565632 0 0.21544189288085891 -0.01820459638607546 0 0.21479434350852539 -0.029728667788884711 0 0.21675405630365741 -0.039493344172122698 0 0.20670441978514739 -0.037102439547413463 0 0.21675405630365741 -0.039493344172122698 0 0.20670441978514739 -0.037102439547413463 0 0.20537187365013659 -0.04884644585977585 0 0.20212354308747271 -0.0271290141565632 0 0.21479434350852539 -0.029728667788884711 0 0.20670441978514739 -0.037102439547413463 0 0.18170927019942229 -0.029814765715255102 0 0.20212354308747271 -0.0271290141565632 0 0.19447828237594511 -0.040314725759720851 0 0.20212354308747271 -0.0271290141565632 0 0.20670441978514739 -0.037102439547413463 0 0.19447828237594511 -0.040314725759720851 0 0.181252110028499 -0.047502587557680498 0 0.19447828237594511 -0.040314725759720851 0 0.19506980502295149 -0.051577222246430313 0 0.20670441978514739 -0.037102439547413463 0 0.19447828237594511 -0.040314725759720851 0 0.20537187365013659 -0.04884644585977585 0 0.19447828237594511 -0.040314725759720851 0 0.19506980502295149 -0.051577222246430313 0 0.20537187365013659 -0.04884644585977585 0 0.19506980502295149 -0.051577222246430313 0 0.20398602088994541 -0.057992584035586971 0 0.20537187365013659 -0.04884644585977585 0 0.181252110028499 -0.047502587557680498 0 0.19506980502295149 -0.051577222246430313 0 0.1885141879162221 -0.062017504627634903 0 0.19506980502295149 -0.051577222246430313 0 0.1885141879162221 -0.062017504627634903 0 0.20398602088994541 -0.057992584035586971 0 0.20398602088994541 -0.057992584035586971 0 0.20537187365013659 -0.04884644585977585 0 0.21506300192112809 -0.05252185312321507 0 0.21675405630365741 -0.039493344172122698 0 0.20537187365013659 -0.04884644585977585 0 0.21506300192112809 -0.05252185312321507 0 0.20398602088994541 -0.057992584035586971 0 0.21506300192112809 -0.05252185312321507 0 0.21638329873756029 -0.063346927567493716 0 0.22537130702809829 -0.051442301578098037 0 0.22946761332135729 -0.062090251464176058 0 0.21638329873756029 -0.063346927567493716 0 0.21506300192112809 -0.05252185312321507 0 0.22537130702809829 -0.051442301578098037 0 0.21638329873756029 -0.063346927567493716 0 0.21675405630365741 -0.039493344172122698 0 0.21506300192112809 -0.05252185312321507 0 0.22537130702809829 -0.051442301578098037 0 0.22537130702809829 -0.051442301578098037 0 0.23528168290097581 -0.050739505231193839 0 0.22648647214040291 -0.041556338315591947 0 0.22537130702809829 -0.051442301578098037 0 0.22946761332135729 -0.062090251464176058 0 0.23528168290097581 -0.050739505231193839 0 0.22946761332135729 -0.062090251464176058 0 0.24105345005012249 -0.058963008329442207 0 0.23528168290097581 -0.050739505231193839 0 0.25649367245638999 -0.053415419680380147 0 0.24105345005012249 -0.058963008329442207 0 0.2477454720430278 -0.068052074955554667 0 0.25649367245638999 -0.053415419680380147 0 0.24105345005012249 -0.058963008329442207 0 0.2445366516472994 -0.047559521227277211 0 0.24105345005012249 -0.058963008329442207 0 0.2445366516472994 -0.047559521227277211 0 0.23528168290097581 -0.050739505231193839 0 0.2445366516472994 -0.047559521227277211 0 0.23528168290097581 -0.050739505231193839 0 0.23749773141088029 -0.039034836384094489 0 0.25097569501070971 -0.037687070069501123 0 0.2445366516472994 -0.047559521227277211 0 0.23749773141088029 -0.039034836384094489 0 0.25097569501070971 -0.037687070069501123 0 0.23749773141088029 -0.039034836384094489 0 0.24002944727437761 -0.0280160369161764 0 0.23749773141088029 -0.039034836384094489 0 0.22659962053259919 -0.029389434364456631 0 0.24002944727437761 -0.0280160369161764 0 0.23749773141088029 -0.039034836384094489 0 0.22648647214040291 -0.041556338315591947 0 0.22659962053259919 -0.029389434364456631 0 0.23528168290097581 -0.050739505231193839 0 0.23749773141088029 -0.039034836384094489 0 0.22648647214040291 -0.041556338315591947 0 0.21675405630365741 -0.039493344172122698 0 0.22537130702809829 -0.051442301578098037 0 0.22648647214040291 -0.041556338315591947 0 0.21479434350852539 -0.029728667788884711 0 0.21675405630365741 -0.039493344172122698 0 0.22659962053259919 -0.029389434364456631 0 0.21675405630365741 -0.039493344172122698 0 0.22648647214040291 -0.041556338315591947 0 0.22659962053259919 -0.029389434364456631 0 0.21544189288085891 -0.01820459638607546 0 0.23229924125105081 -0.01689285998710164 0 0.22659962053259919 -0.029389434364456631 0 0.21544189288085891 -0.01820459638607546 0 0.21479434350852539 -0.029728667788884711 0 0.22659962053259919 -0.029389434364456631 0 0.23229924125105081 -0.01689285998710164 0 0.22659962053259919 -0.029389434364456631 0 0.24002944727437761 -0.0280160369161764 0 0.25923744245051328 -0.023643412789666789 0 0.24002944727437761 -0.0280160369161764 0 0.24520833016895319 -0.015320588585169241 0 0.23229924125105081 -0.01689285998710164 0 0.24002944727437761 -0.0280160369161764 0 0.24520833016895319 -0.015320588585169241 0 0.23229924125105081 -0.01689285998710164 0 0.24520833016895319 -0.015320588585169241 0 0.24005759833730889 -0.00091445705150014652 0 0.25421330537797993 -0.0064747013630946093 0 0.24520833016895319 -0.015320588585169241 0 0.24005759833730889 -0.00091445705150014652 0 0.21544189288085891 -0.01820459638607546 0 0.23229924125105081 -0.01689285998710164 0 0.2250499103028572 -0.0060445029197408878 0 0.23229924125105081 -0.01689285998710164 0 0.24005759833730889 -0.00091445705150014652 0 0.2250499103028572 -0.0060445029197408878 0 0.21117086869999049 -0.098860166436923469 0 0.20425182030379421 -0.112943395825103 0 0.21988497927226849 -0.1183548364077648 0 0.2071569561770234 -0.1235937343052682 0 0.20425182030379421 -0.112943395825103 0 0.21988497927226849 -0.1183548364077648 0 0.20425182030379421 -0.112943395825103 0 0.1918959105955253 -0.12105671148249909 0 0.19287413620928259 -0.10541563622677989 0 0.2071569561770234 -0.1235937343052682 0 0.20425182030379421 -0.112943395825103 0 0.1918959105955253 -0.12105671148249909 0 0.18398055966288171 -0.092424081118131066 0 0.21117086869999049 -0.098860166436923469 0 0.21117086869999049 -0.098860166436923469 0 0.20425182030379421 -0.112943395825103 0 0.19287413620928259 -0.10541563622677989 0 0.18398055966288171 -0.092424081118131066 0 0.21117086869999049 -0.098860166436923469 0 0.19287413620928259 -0.10541563622677989 0 0.18398055966288171 -0.092424081118131066 0 0.21117086869999049 -0.098860166436923469 0 0.20388626136068089 -0.082931929667657875 0 0.18398055966288171 -0.092424081118131066 0 0.18958154795358431 -0.076712521939054951 0 0.20388626136068089 -0.082931929667657875 0 0.1885141879162221 -0.062017504627634903 0 0.18958154795358431 -0.076712521939054951 0 0.20351395809167411 -0.069645550788971999 0 0.18958154795358431 -0.076712521939054951 0 0.20351395809167411 -0.069645550788971999 0 0.20388626136068089 -0.082931929667657875 0 0.1885141879162221 -0.062017504627634903 0 0.20398602088994541 -0.057992584035586971 0 0.20351395809167411 -0.069645550788971999 0 0.20398602088994541 -0.057992584035586971 0 0.20351395809167411 -0.069645550788971999 0 0.21638329873756029 -0.063346927567493716 0 0.20351395809167411 -0.069645550788971999 0 0.21397886528383239 -0.073730771604313211 0 0.20388626136068089 -0.082931929667657875 0 0.21397886528383239 -0.073730771604313211 0 0.21638329873756029 -0.063346927567493716 0 0.2242505136905576 -0.075203769545599999 0 0.20351395809167411 -0.069645550788971999 0 0.21397886528383239 -0.073730771604313211 0 0.21638329873756029 -0.063346927567493716 0 0.21397886528383239 -0.073730771604313211 0 0.20388626136068089 -0.082931929667657875 0 0.220678815293436 -0.085372890378811114 0 0.21117086869999049 -0.098860166436923469 0 0.20388626136068089 -0.082931929667657875 0 0.220678815293436 -0.085372890378811114 0 0.21117086869999049 -0.098860166436923469 0 0.220678815293436 -0.085372890378811114 0 0.23689055729988609 -0.095355514761098506 0 0.220678815293436 -0.085372890378811114 0 0.23302115607830701 -0.083352527521748099 0 0.23689055729988609 -0.095355514761098506 0 0.220678815293436 -0.085372890378811114 0 0.23302115607830701 -0.083352527521748099 0 0.2242505136905576 -0.075203769545599999 0 0.22946761332135729 -0.062090251464176058 0 0.21638329873756029 -0.063346927567493716 0 0.2242505136905576 -0.075203769545599999 0 0.21397886528383239 -0.073730771604313211 0 0.220678815293436 -0.085372890378811114 0 0.2242505136905576 -0.075203769545599999 0 0.23302115607830701 -0.083352527521748099 0 0.2242505136905576 -0.075203769545599999 0 0.23577467312601799 -0.071557858525920462 0 0.22946761332135729 -0.062090251464176058 0 0.2242505136905576 -0.075203769545599999 0 0.23577467312601799 -0.071557858525920462 0 0.22946761332135729 -0.062090251464176058 0 0.24105345005012249 -0.058963008329442207 0 0.23577467312601799 -0.071557858525920462 0 0.24105345005012249 -0.058963008329442207 0 0.23577467312601799 -0.071557858525920462 0 0.2477454720430278 -0.068052074955554667 0 0.23302115607830701 -0.083352527521748099 0 0.23577467312601799 -0.071557858525920462 0 0.24317915683768571 -0.079271337624220672 0 0.25498484230186258 -0.077574364109742305 0 0.2477454720430278 -0.068052074955554667 0 0.24317915683768571 -0.079271337624220672 0 0.23577467312601799 -0.071557858525920462 0 0.2477454720430278 -0.068052074955554667 0 0.24317915683768571 -0.079271337624220672 0 0.24064879890280191 -0.087493227846375074 0 0.24637425015114589 -0.097205074120530935 0 0.23689055729988609 -0.095355514761098506 0 0.23302115607830701 -0.083352527521748099 0 0.24064879890280191 -0.087493227846375074 0 0.23689055729988609 -0.095355514761098506 0 0.23302115607830701 -0.083352527521748099 0 0.24064879890280191 -0.087493227846375074 0 0.24317915683768571 -0.079271337624220672 0 0.25028343709017847 -0.088616175199920003 0 0.24064879890280191 -0.087493227846375074 0 0.24317915683768571 -0.079271337624220672 0 0.25028343709017847 -0.088616175199920003 0 0.25498484230186258 -0.077574364109742305 0 0.24317915683768571 -0.079271337624220672 0 0.25028343709017847 -0.088616175199920003 0 0.24064879890280191 -0.087493227846375074 0 0.24637425015114589 -0.097205074120530935 0 0.25537680361060161 -0.1093239374920217 0 0.23836117773709969 -0.10529625175571421 0 0.25537680361060161 -0.1093239374920217 0 0.24637425015114589 -0.097205074120530935 0 0.23836117773709969 -0.10529625175571421 0 0.24637425015114589 -0.097205074120530935 0 0.23836117773709969 -0.10529625175571421 0 0.23689055729988609 -0.095355514761098506 0 0.23836117773709969 -0.10529625175571421 0 0.23689055729988609 -0.095355514761098506 0 0.21117086869999049 -0.098860166436923469 0 0.23836117773709969 -0.10529625175571421 0 0.21988497927226849 -0.1183548364077648 0 0.21117086869999049 -0.098860166436923469 0 0.23836117773709969 -0.10529625175571421 0 0.21117086869999049 -0.098860166436923469 0 0.23836117773709969 -0.10529625175571421 0 0.23689055729988609 -0.095355514761098506 0 0.23836117773709969 -0.10529625175571421 0 0.21988497927226849 -0.1183548364077648 0 0.23221255462627241 -0.12121085601024439 0 0.21988497927226849 -0.1183548364077648 0 0.23221255462627241 -0.12121085601024439 0 0.2288006554367028 -0.13262815885860699 0 0.23836117773709969 -0.10529625175571421 0 0.24180340605901829 -0.12856417701889181 0 0.23836117773709969 -0.10529625175571421 0 0.24817113923659859 -0.117360442065467 0 0.24180340605901829 -0.12856417701889181 0 0.25537680361060161 -0.1093239374920217 0 0.23836117773709969 -0.10529625175571421 0 0.24817113923659859 -0.117360442065467 0 0.23836117773709969 -0.10529625175571421 0 0.23221255462627241 -0.12121085601024439 0 0.24180340605901829 -0.12856417701889181 0 0.25714316953967481 -0.12625740199524019 0 0.24817113923659859 -0.117360442065467 0 0.24180340605901829 -0.12856417701889181 0 0.2365038926260204 -0.13872387483915219 0 0.24180340605901829 -0.12856417701889181 0 0.24156626744936299 -0.14865803289454529 0 0.24180340605901829 -0.12856417701889181 0 0.24524563438093519 -0.1518321022820697 0 0.25128781742515011 -0.13950093605967059 0 0.24180340605901829 -0.12856417701889181 0 0.24524563438093519 -0.1518321022820697 0 0.2365038926260204 -0.13872387483915219 0 0.24180340605901829 -0.12856417701889181 0 0.2288006554367028 -0.13262815885860699 0 0.24180340605901829 -0.12856417701889181 0 0.24524563438093519 -0.1518321022820697 0 0.24156626744936299 -0.14865803289454529 0 0.24156626744936299 -0.14865803289454529 0 0.24608907216877149 -0.15753336482950031 0 0.24524563438093519 -0.1518321022820697 0 0.24156626744936299 -0.14865803289454529 0 0.24608907216877149 -0.15753336482950031 0 0.24524563438093519 -0.1518321022820697 0 0.24608907216877149 -0.15753336482950031 0 0.24524563438093519 -0.1518321022820697 0 0.24156626744936299 -0.14865803289454529 0 0.2365038926260204 -0.13872387483915219 0 0.24156626744936299 -0.14865803289454529 0 0.23792179977241409 -0.14551406995136049 0 0.24156626744936299 -0.14865803289454529 0 0.23373372920624769 -0.1486332076615717 0 0.2365038926260204 -0.13872387483915219 0 0.23792179977241409 -0.14551406995136049 0 0.24156626744936299 -0.14865803289454529 0 0.2365038926260204 -0.13872387483915219 0 0.23792179977241409 -0.14551406995136049 0 0.23234328666649559 -0.14279831693217279 0 0.23792179977241409 -0.14551406995136049 0 0.23373372920624769 -0.1486332076615717 0 0.23234328666649559 -0.14279831693217279 0 0.23792179977241409 -0.14551406995136049 0 0.24156626744936299 -0.14865803289454529 0 0.23756386102681051 -0.15492970701148151 0 0.24156626744936299 -0.14865803289454529 0 0.24608907216877149 -0.15753336482950031 0 0.23756386102681051 -0.15492970701148151 0 0.24156626744936299 -0.14865803289454529 0 0.23373372920624769 -0.1486332076615717 0 0.22700157056527809 -0.15612542716565911 0 0.22610017133389801 -0.14341644024740699 0 0.20944874058040169 -0.13859106932407911 0 0.22700157056527809 -0.15612542716565911 0 0.23373372920624769 -0.1486332076615717 0 0.22610017133389801 -0.14341644024740699 0 0.23756386102681051 -0.15492970701148151 0 0.22700157056527809 -0.15612542716565911 0 0.23373372920624769 -0.1486332076615717 0 0.23373372920624769 -0.1486332076615717 0 0.23234328666649559 -0.14279831693217279 0 0.22610017133389801 -0.14341644024740699 0 0.22610017133389801 -0.14341644024740699 0 0.2288006554367028 -0.13262815885860699 0 0.20944874058040169 -0.13859106932407911 0 0.21988497927226849 -0.1183548364077648 0 0.2288006554367028 -0.13262815885860699 0 0.20944874058040169 -0.13859106932407911 0 0.23221255462627241 -0.12121085601024439 0 0.24180340605901829 -0.12856417701889181 0 0.2288006554367028 -0.13262815885860699 0 0.2365038926260204 -0.13872387483915219 0 0.23234328666649559 -0.14279831693217279 0 0.2288006554367028 -0.13262815885860699 0 0.23234328666649559 -0.14279831693217279 0 0.22610017133389801 -0.14341644024740699 0 0.2288006554367028 -0.13262815885860699 0 0.2071569561770234 -0.1235937343052682 0 0.21988497927226849 -0.1183548364077648 0 0.20944874058040169 -0.13859106932407911 0 0.22700157056527809 -0.15612542716565911 0 0.20944874058040169 -0.13859106932407911 0 0.22700157056527809 -0.15612542716565911 0 0.20944874058040169 -0.13859106932407911 0 0.21617451656394721 -0.1645772835893991 0 0.2013913616246519 -0.16638113931491999 0 0.18705139968128581 -0.1449529146745451 0 0.20944874058040169 -0.13859106932407911 0 0.19714653152272241 -0.1378869037835769 0 0.2013913616246519 -0.16638113931491999 0 0.19714653152272241 -0.1378869037835769 0 0.2013913616246519 -0.16638113931491999 0 0.18705139968128581 -0.1449529146745451 0 0.19714653152272241 -0.1378869037835769 0 0.1869236166864825 -0.1310070630108367 0 0.18705139968128581 -0.1449529146745451 0 0.2071569561770234 -0.1235937343052682 0 0.1918959105955253 -0.12105671148249909 0 0.20944874058040169 -0.13859106932407911 0 0.1918959105955253 -0.12105671148249909 0 0.20944874058040169 -0.13859106932407911 0 0.19714653152272241 -0.1378869037835769 0 0.1918959105955253 -0.12105671148249909 0 0.19714653152272241 -0.1378869037835769 0 0.1869236166864825 -0.1310070630108367 0 0.1918959105955253 -0.12105671148249909 0 0.20944874058040169 -0.13859106932407911 0 0.2004405048832579 -0.18163090738777929 0 0.2013913616246519 -0.16638113931491999 0 0.1873319491998636 -0.17557124519997391 0 0.2004405048832579 -0.18163090738777929 0 0.2046921074152952 -0.18913144873654261 0 0.191707305636141 -0.1883111528701735 0 0.191707305636141 -0.1883111528701735 0 0.1873319491998636 -0.17557124519997391 0 0.191707305636141 -0.1883111528701735 0 0.1873319491998636 -0.17557124519997391 0 0.18742729069469849 -0.1859765291458525 0 0.2004405048832579 -0.18163090738777929 0 0.191707305636141 -0.1883111528701735 0 0.1873319491998636 -0.17557124519997391 0 0.191707305636141 -0.1883111528701735 0 0.18742729069469849 -0.1859765291458525 0 0.2013913616246519 -0.16638113931491999 0 0.18719167444057441 -0.16026207993725949 0 0.1873319491998636 -0.17557124519997391 0 0.2013913616246519 -0.16638113931491999 0 0.18705139968128581 -0.1449529146745451 0 0.18719167444057441 -0.16026207993725949 0 0.20944874058040169 -0.13859106932407911 0 0.2013913616246519 -0.16638113931491999 0 0.21617451656394721 -0.1645772835893991 0 0.2013913616246519 -0.16638113931491999 0 0.21573132356801769 -0.18780936395529491 0 0.2013913616246519 -0.16638113931491999 0 0.21617451656394721 -0.1645772835893991 0 0.21573132356801769 -0.18780936395529491 0 0.2004405048832579 -0.18163090738777929 0 0.2013913616246519 -0.16638113931491999 0 0.21573132356801769 -0.18780936395529491 0 0.2004405048832579 -0.18163090738777929 0 0.2046921074152952 -0.18913144873654261 0 0.21573132356801769 -0.18780936395529491 0 0.22729958648138679 -0.17397941818704249 0 0.23334374173401401 -0.1868778919272869 0 0.21573132356801769 -0.18780936395529491 0 0.21617451656394721 -0.1645772835893991 0 0.22729958648138679 -0.17397941818704249 0 0.21573132356801769 -0.18780936395529491 0 0.22700157056527809 -0.15612542716565911 0 0.22729958648138679 -0.17397941818704249 0 0.24455440055015451 -0.17365978500723911 0 0.22700157056527809 -0.15612542716565911 0 0.21617451656394721 -0.1645772835893991 0 0.22729958648138679 -0.17397941818704249 0 0.22700157056527809 -0.15612542716565911 0 0.24455440055015451 -0.17365978500723911 0 0.22700157056527809 -0.15612542716565911 0 0.2403815693455634 -0.16148364852118391 0 0.24455440055015451 -0.17365978500723911 0 0.23756386102681051 -0.15492970701148151 0 0.2403815693455634 -0.16148364852118391 0 0.24608907216877149 -0.15753336482950031 0 0.23756386102681051 -0.15492970701148151 0 0.22700157056527809 -0.15612542716565911 0 0.2403815693455634 -0.16148364852118391 0 0.2403815693455634 -0.16148364852118391 0 0.24723038419100421 -0.1652481240934818 0 0.24455440055015451 -0.17365978500723911 0 0.25024652280842458 -0.16569174369377421 0 0.24723038419100421 -0.1652481240934818 0 0.25024652280842458 -0.16569174369377421 0 0.24723038419100421 -0.1652481240934818 0 0.24608907216877149 -0.15753336482950031 0 0.25024652280842458 -0.16569174369377421 0 0.24608907216877149 -0.15753336482950031 0 0.2403815693455634 -0.16148364852118391 0 0.24723038419100421 -0.1652481240934818 0 0.24608907216877149 -0.15753336482950031 0 0.24723038419100421 -0.1652481240934818 0 0.24608907216877149 -0.15753336482950031 0 0.25062543226040762 -0.18819713193262769 0 0.23334374173401401 -0.1868778919272869 0 0.24455440055015451 -0.17365978500723911 0 0.25062543226040762 -0.18819713193262769 0 0.25024652280842458 -0.16569174369377421 0 0.24723038419100421 -0.1652481240934818 0 0.25062543226040762 -0.18819713193262769 0 0.24723038419100421 -0.1652481240934818 0 0.24455440055015451 -0.17365978500723911 0 0.22729958648138679 -0.17397941818704249 0 0.23334374173401401 -0.1868778919272869 0 0.24455440055015451 -0.17365978500723911 0 0.25062543226040762 -0.18819713193262769 0 0.24723038419100421 -0.1652481240934818 0 0.25062543226040762 -0.18819713193262769 0 0.23334374173401401 -0.1868778919272869 0 0.24340437100087281 -0.20099104042067961 0 0.2540204803298135 -0.21114613977177321 0 0.25062543226040762 -0.18819713193262769 0 0.24340437100087281 -0.20099104042067961 0 0.23334374173401401 -0.1868778919272869 0 0.24340437100087281 -0.20099104042067961 0 0.230637680453572 -0.19622897122473279 0 0.24340437100087281 -0.20099104042067961 0 0.23007128551138339 -0.2092375885956701 0 0.230637680453572 -0.19622897122473279 0 0.2540204803298135 -0.21114613977177321 0 0.24340437100087281 -0.20099104042067961 0 0.24170514255856271 -0.21558351940183401 0 0.2540204803298135 -0.21114613977177321 0 0.24170514255856271 -0.21558351940183401 0 0.24170514255856271 -0.21558351940183401 0 0.23007128551138339 -0.2092375885956701 0 0.23268161267519491 -0.2131382040277004 0 0.24170514255856271 -0.21558351940183401 0 0.22948022716622751 -0.21998831864881571 0 0.24170514255856271 -0.21558351940183401 0 0.23268161267519491 -0.2131382040277004 0 0.22948022716622751 -0.21998831864881571 0 0.24170514255856271 -0.21558351940183401 0 0.23007128551138339 -0.2092375885956701 0 0.24340437100087281 -0.20099104042067961 0 0.24170514255856271 -0.21558351940183401 0 0.23007128551138339 -0.2092375885956701 0 0.23007128551138339 -0.2092375885956701 0 0.2205723190678158 -0.21070490796343971 0 0.21088929557376099 -0.19877437073292389 0 0.23007128551138339 -0.2092375885956701 0 0.21088929557376099 -0.19877437073292389 0 0.23007128551138339 -0.2092375885956701 0 0.23268161267519491 -0.2131382040277004 0 0.23007128551138339 -0.2092375885956701 0 0.23268161267519491 -0.2131382040277004 0 0.22688785743995649 -0.2146523826402861 0 0.23268161267519491 -0.2131382040277004 0 0.22688785743995649 -0.2146523826402861 0 0.22948022716622751 -0.21998831864881571 0 0.22688785743995649 -0.2146523826402861 0 0.22948022716622751 -0.21998831864881571 0 0.2216338427791614 -0.22019289396580441 0 0.22688785743995649 -0.2146523826402861 0 0.2205723190678158 -0.21070490796343971 0 0.2216338427791614 -0.22019289396580441 0 0.23007128551138339 -0.2092375885956701 0 0.22688785743995649 -0.2146523826402861 0 0.2205723190678158 -0.21070490796343971 0 0.23007128551138339 -0.2092375885956701 0 0.21088929557376099 -0.19877437073292389 0 0.21573132356801769 -0.18780936395529491 0 0.23007128551138339 -0.2092375885956701 0 0.21573132356801769 -0.18780936395529491 0 0.23007128551138339 -0.2092375885956701 0 0.230637680453572 -0.19622897122473279 0 0.21573132356801769 -0.18780936395529491 0 0.23334374173401401 -0.1868778919272869 0 0.230637680453572 -0.19622897122473279 0 0.21573132356801769 -0.18780936395529491 0 0.2410233639488048 -0.25093728896802481 0 0.2412410427430644 -0.23866163828096579 0 0.2226802989957449 -0.2380117653539153 0 0.2410233639488048 -0.25093728896802481 0 0.248249871547954 -0.24759895791751499 0 0.2412410427430644 -0.23866163828096579 0 0.25197439650864428 -0.24232380162828601 0 0.248249871547954 -0.24759895791751499 0 0.2412410427430644 -0.23866163828096579 0 0.25197439650864428 -0.24232380162828601 0 0.25066576011535319 -0.23432551104963531 0 0.2412410427430644 -0.23866163828096579 0 0.2412410427430644 -0.23866163828096579 0 0.24313970184326331 -0.22755579578327109 0 0.22997876116131141 -0.2307983059482383 0 0.25066576011535319 -0.23432551104963531 0 0.25581560275970988 -0.22328036523005279 0 0.24313970184326331 -0.22755579578327109 0 0.25066576011535319 -0.23432551104963531 0 0.2412410427430644 -0.23866163828096579 0 0.24313970184326331 -0.22755579578327109 0 0.25581560275970988 -0.22328036523005279 0 0.24170514255856271 -0.21558351940183401 0 0.25581560275970988 -0.22328036523005279 0 0.24170514255856271 -0.21558351940183401 0 0.24313970184326331 -0.22755579578327109 0 0.24170514255856271 -0.21558351940183401 0 0.24313970184326331 -0.22755579578327109 0 0.22948022716622751 -0.21998831864881571 0 0.24313970184326331 -0.22755579578327109 0 0.2216338427791614 -0.22019289396580441 0 0.24313970184326331 -0.22755579578327109 0 0.22948022716622751 -0.21998831864881571 0 0.2216338427791614 -0.22019289396580441 0 0.24313970184326331 -0.22755579578327109 0 0.2216338427791614 -0.22019289396580441 0 0.22997876116131141 -0.2307983059482383 0 0.2216338427791614 -0.22019289396580441 0 0.22197654052458471 -0.22846533737699201 0 0.22997876116131141 -0.2307983059482383 0 0.2216338427791614 -0.22019289396580441 0 0.22197654052458471 -0.22846533737699201 0 0.2141511800114467 -0.22491724611697139 0 0.22197654052458471 -0.22846533737699201 0 0.2226802989957449 -0.2380117653539153 0 0.2141511800114467 -0.22491724611697139 0 0.22197654052458471 -0.22846533737699201 0 0.22997876116131141 -0.2307983059482383 0 0.2226802989957449 -0.2380117653539153 0 0.2412410427430644 -0.23866163828096579 0 0.22997876116131141 -0.2307983059482383 0 0.2226802989957449 -0.2380117653539153 0 0.2410233639488048 -0.25093728896802481 0 0.22711589257641071 -0.25335285928093709 0 0.2226802989957449 -0.2380117653539153 0 0.2410233639488048 -0.25093728896802481 0 0.2226802989957449 -0.2380117653539153 0 0.22711589257641071 -0.25335285928093709 0 0.2226802989957449 -0.2380117653539153 0 0.21217570844517189 -0.2479098543110872 0 0.2226802989957449 -0.2380117653539153 0 0.21217570844517189 -0.2479098543110872 0 0.20433723404268461 -0.2250862417398066 0 0.21217570844517189 -0.2479098543110872 0 0.20433723404268461 -0.2250862417398066 0 0.2003490685008141 -0.239614051120212 0 0.21217570844517189 -0.2479098543110872 0 0.20433723404268461 -0.2250862417398066 0 0.2226802989957449 -0.2380117653539153 0 0.2141511800114467 -0.22491724611697139 0 0.20433723404268461 -0.2250862417398066 0 0.2216338427791614 -0.22019289396580441 0 0.2141511800114467 -0.22491724611697139 0 0.20012798371505941 -0.21282999214833789 0 0.2226802989957449 -0.2380117653539153 0 0.20433723404268461 -0.2250862417398066 0 0.2141511800114467 -0.22491724611697139 0 0.20433723404268461 -0.2250862417398066 0 0.20012798371505941 -0.21282999214833789 0 0.18781428879260659 -0.22821233740713451 0 0.2003490685008141 -0.239614051120212 0 0.1876960444947765 -0.21530751043727009 0 0.2003490685008141 -0.239614051120212 0 0.1876960444947765 -0.21530751043727009 0 0.2003490685008141 -0.239614051120212 0 0.19304935849807181 -0.21713218922576899 0 0.1876960444947765 -0.21530751043727009 0 0.20433723404268461 -0.2250862417398066 0 0.2003490685008141 -0.239614051120212 0 0.19304935849807181 -0.21713218922576899 0 0.20433723404268461 -0.2250862417398066 0 0.20012798371505941 -0.21282999214833789 0 0.20433723404268461 -0.2250862417398066 0 0.19304935849807181 -0.21713218922576899 0 0.18781428879260659 -0.22821233740713451 0 0.1876960444947765 -0.21530751043727009 0 0.18781428879260659 -0.22821233740713451 0 0.2003490685008141 -0.239614051120212 0 0.18732608264644859 -0.24487867245661959 0 0.19955191484755719 -0.25437948978255043 0 0.2003490685008141 -0.239614051120212 0 0.18732608264644859 -0.24487867245661959 0 0.21088929557376099 -0.19877437073292389 0 0.2046921074152952 -0.18913144873654261 0 0.21573132356801769 -0.18780936395529491 0 0.2205723190678158 -0.21070490796343971 0 0.21088929557376099 -0.19877437073292389 0 0.213537882669986 -0.21079015010236241 0 0.2216338427791614 -0.22019289396580441 0 0.20012798371505941 -0.21282999214833789 0 0.2216338427791614 -0.22019289396580441 0 0.213537882669986 -0.21079015010236241 0 0.20012798371505941 -0.21282999214833789 0 0.2205723190678158 -0.21070490796343971 0 0.2216338427791614 -0.22019289396580441 0 0.213537882669986 -0.21079015010236241 0 0.21088929557376099 -0.19877437073292389 0 0.213537882669986 -0.21079015010236241 0 0.20012798371505941 -0.21282999214833789 0 0.20012798371505941 -0.21282999214833789 0 0.1876341498271791 -0.20855251260353069 0 0.191707305636141 -0.1883111528701735 0 0.20433723404268461 -0.2250862417398066 0 0.20012798371505941 -0.21282999214833789 0 0.19304935849807181 -0.21713218922576899 0 0.19304935849807181 -0.21713218922576899 0 0.1876960444947765 -0.21530751043727009 0 0.1876341498271791 -0.20855251260353069 0 0.20012798371505941 -0.21282999214833789 0 0.19304935849807181 -0.21713218922576899 0 0.1876341498271791 -0.20855251260353069 0 0.1876960444947765 -0.21530751043727009 0 0.1876341498271791 -0.20855251260353069 0 0.20012798371505941 -0.21282999214833789 0 0.1876341498271791 -0.20855251260353069 0 0.1876341498271791 -0.20855251260353069 0 0.18742729069469849 -0.1859765291458525 0 0.21088929557376099 -0.19877437073292389 0 0.191707305636141 -0.1883111528701735 0 0.20012798371505941 -0.21282999214833789 0 0.191707305636141 -0.1883111528701735 0 0.1876341498271791 -0.20855251260353069 0 0.191707305636141 -0.1883111528701735 0 0.18742729069469849 -0.1859765291458525 0 0.21088929557376099 -0.19877437073292389 0 0.20012798371505941 -0.21282999214833789 0 0.191707305636141 -0.1883111528701735 0 0.21088929557376099 -0.19877437073292389 0 0.2046921074152952 -0.18913144873654261 0 0.191707305636141 -0.1883111528701735 0 0.1876341498271791 -0.20855251260353069 0 0.18351467123953411 -0.1958875378188733 0 0.18742729069469849 -0.1859765291458525 0 0.17891775776969329 -0.18951044883853521 0 0.18351467123953411 -0.1958875378188733 0 0.18742729069469849 -0.1859765291458525 0 0.17700667370832041 -0.20098354310883729 0 0.18343046744597061 -0.20711330942859951 0 0.15742579290099529 -0.19821016052861359 0 0.17891775776969329 -0.18951044883853521 0 0.17881538493595239 -0.19629122555819101 0 0.18351467123953411 -0.1958875378188733 0 0.17891775776969329 -0.18951044883853521 0 0.17241604946880909 -0.19310725460915279 0 0.17881538493595239 -0.19629122555819101 0 0.17241604946880909 -0.19310725460915279 0 0.17881538493595239 -0.19629122555819101 0 0.17700667370832041 -0.20098354310883729 0 0.17881538493595239 -0.19629122555819101 0 0.17700667370832041 -0.20098354310883729 0 0.18222177249340499 -0.20196734341555661 0 0.1876341498271791 -0.20855251260353069 0 0.18222177249340499 -0.20196734341555661 0 0.18351467123953411 -0.1958875378188733 0 0.17881538493595239 -0.19629122555819101 0 0.18222177249340499 -0.20196734341555661 0 0.18351467123953411 -0.1958875378188733 0 0.1876960444947765 -0.21530751043727009 0 0.1876341498271791 -0.20855251260353069 0 0.18343046744597061 -0.20711330942859951 0 0.1876341498271791 -0.20855251260353069 0 0.18222177249340499 -0.20196734341555661 0 0.18343046744597061 -0.20711330942859951 0 0.1876341498271791 -0.20855251260353069 0 0.18343046744597061 -0.20711330942859951 0 0.18343046744597061 -0.20711330942859951 0 0.17997390205207869 -0.2145768581573024 0 0.17681545066173199 -0.2107839682516898 0 0.17700667370832041 -0.20098354310883729 0 0.18222177249340499 -0.20196734341555661 0 0.18343046744597061 -0.20711330942859951 0 0.1876960444947765 -0.21530751043727009 0 0.18343046744597061 -0.20711330942859951 0 0.1876960444947765 -0.21530751043727009 0 0.18343046744597061 -0.20711330942859951 0 0.17997390205207869 -0.2145768581573024 0 0.1876960444947765 -0.21530751043727009 0 0.17997390205207869 -0.2145768581573024 0 0.18074149923703259 -0.2218649328342209 0 0.17997390205207869 -0.2145768581573024 0 0.17681545066173199 -0.2107839682516898 0 0.1718407334160354 -0.21817918545237069 0 0.17681545066173199 -0.2107839682516898 0 0.1711971570044547 -0.20690438926924121 0 0.1718407334160354 -0.21817918545237069 0 0.17997390205207869 -0.2145768581573024 0 0.1718407334160354 -0.21817918545237069 0 0.18074149923703259 -0.2218649328342209 0 0.18343046744597061 -0.20711330942859951 0 0.17681545066173199 -0.2107839682516898 0 0.1711971570044547 -0.20690438926924121 0 0.16204614230994291 -0.21119178477543579 0 0.16030773501208589 -0.2291311910352439 0 0.1491837453499861 -0.20414511764925 0 0.18343046744597061 -0.20711330942859951 0 0.1711971570044547 -0.20690438926924121 0 0.15742579290099529 -0.19821016052861359 0 0.1711971570044547 -0.20690438926924121 0 0.1718407334160354 -0.21817918545237069 0 0.16204614230994291 -0.21119178477543579 0 0.1711971570044547 -0.20690438926924121 0 0.16204614230994291 -0.21119178477543579 0 0.15742579290099529 -0.19821016052861359 0 0.17241604946880909 -0.19310725460915279 0 0.17700667370832041 -0.20098354310883729 0 0.15742579290099529 -0.19821016052861359 0 0.18343046744597061 -0.20711330942859951 0 0.15742579290099529 -0.19821016052861359 0 0.15742579290099529 -0.19821016052861359 0 0.16406979664922819 -0.18772288958114181 0 0.15637993754092369 -0.18307238079990751 0 0.17241604946880909 -0.19310725460915279 0 0.15742579290099529 -0.19821016052861359 0 0.16406979664922819 -0.18772288958114181 0 0.18781428879260659 -0.22821233740713451 0 0.18732608264644859 -0.24487867245661959 0 0.17638252742966651 -0.23304877271702659 0 0.1714317246741858 -0.25411726442123789 0 0.18732608264644859 -0.24487867245661959 0 0.17638252742966651 -0.23304877271702659 0 0.18781428879260659 -0.22821233740713451 0 0.17638252742966651 -0.23304877271702659 0 0.18074149923703259 -0.2218649328342209 0 0.18781428879260659 -0.22821233740713451 0 0.1876960444947765 -0.21530751043727009 0 0.18074149923703259 -0.2218649328342209 0 0.1718407334160354 -0.21817918545237069 0 0.17638252742966651 -0.23304877271702659 0 0.18074149923703259 -0.2218649328342209 0 0.1718407334160354 -0.21817918545237069 0 0.16204614230994291 -0.21119178477543579 0 0.16030773501208589 -0.2291311910352439 0 0.1718407334160354 -0.21817918545237069 0 0.17638252742966651 -0.23304877271702659 0 0.16030773501208589 -0.2291311910352439 0 0.1714317246741858 -0.25411726442123789 0 0.17638252742966651 -0.23304877271702659 0 0.16030773501208589 -0.2291311910352439 0 0.1714317246741858 -0.25411726442123789 0 0.16030773501208589 -0.2291311910352439 0 0.1714317246741858 -0.25411726442123789 0 0.16030773501208589 -0.2291311910352439 0 0.145063193367304 -0.24036260392927239 0 0.16030773501208589 -0.2291311910352439 0 0.145063193367304 -0.24036260392927239 0 0.1369097148349768 -0.21706249100099759 0 0.145063193367304 -0.24036260392927239 0 0.12784438633009251 -0.2349199935208946 0 0.1369097148349768 -0.21706249100099759 0 0.1236085809504273 -0.25715862254038452 0 0.145063193367304 -0.24036260392927239 0 0.12784438633009251 -0.2349199935208946 0 0.1485305636503583 -0.19371500637004929 0 0.1491837453499861 -0.20414511764925 0 0.13920041627905039 -0.1982106128019164 0 0.1485305636503583 -0.19371500637004929 0 0.13920041627905039 -0.1982106128019164 0 0.14269153287383909 -0.1852379028821316 0 0.15742579290099529 -0.19821016052861359 0 0.1485305636503583 -0.19371500637004929 0 0.15637993754092369 -0.18307238079990751 0 0.15742579290099529 -0.19821016052861359 0 0.1485305636503583 -0.19371500637004929 0 0.1491837453499861 -0.20414511764925 0 0.16204614230994291 -0.21119178477543579 0 0.15742579290099529 -0.19821016052861359 0 0.1491837453499861 -0.20414511764925 0 0.1491837453499861 -0.20414511764925 0 0.1369097148349768 -0.21706249100099759 0 0.13920041627905039 -0.1982106128019164 0 0.16030773501208589 -0.2291311910352439 0 0.1491837453499861 -0.20414511764925 0 0.16030773501208589 -0.2291311910352439 0 0.1491837453499861 -0.20414511764925 0 0.1369097148349768 -0.21706249100099759 0 0.1369097148349768 -0.21706249100099759 0 0.12543738258814249 -0.19963659942699391 0 0.13920041627905039 -0.1982106128019164 0 0.12543738258814249 -0.19963659942699391 0 0.13920041627905039 -0.1982106128019164 0 0.133741806323078 -0.18842900462065301 0 0.12403819291028111 -0.18380360999721981 0 0.12543738258814249 -0.19963659942699391 0 0.133741806323078 -0.18842900462065301 0 0.13920041627905039 -0.1982106128019164 0 0.133741806323078 -0.18842900462065301 0 0.14269153287383909 -0.1852379028821316 0 0.12403819291028111 -0.18380360999721981 0 0.1373415069640769 -0.17525629799500381 0 0.12826344566929751 -0.1672781285469806 0 0.12403819291028111 -0.18380360999721981 0 0.133741806323078 -0.18842900462065301 0 0.1373415069640769 -0.17525629799500381 0 0.133741806323078 -0.18842900462065301 0 0.1373415069640769 -0.17525629799500381 0 0.14269153287383909 -0.1852379028821316 0 0.1373415069640769 -0.17525629799500381 0 0.14820911132721429 -0.1767248840484798 0 0.147820863477056 -0.16667811670753979 0 0.1373415069640769 -0.17525629799500381 0 0.14269153287383909 -0.1852379028821316 0 0.14820911132721429 -0.1767248840484798 0 0.14820911132721429 -0.1767248840484798 0 0.15637993754092369 -0.18307238079990751 0 0.15793825432963129 -0.17101201400217469 0 0.14269153287383909 -0.1852379028821316 0 0.14820911132721429 -0.1767248840484798 0 0.15637993754092369 -0.18307238079990751 0 0.1485305636503583 -0.19371500637004929 0 0.14269153287383909 -0.1852379028821316 0 0.15637993754092369 -0.18307238079990751 0 0.1373415069640769 -0.17525629799500381 0 0.147820863477056 -0.16667811670753979 0 0.13799713314464021 -0.1574382381958942 0 0.1560688155500243 -0.15950509342294131 0 0.147820863477056 -0.16667811670753979 0 0.1474577889475662 -0.1561660746791157 0 0.1560688155500243 -0.15950509342294131 0 0.147820863477056 -0.16667811670753979 0 0.15793825432963129 -0.17101201400217469 0 0.14820911132721429 -0.1767248840484798 0 0.147820863477056 -0.16667811670753979 0 0.15793825432963129 -0.17101201400217469 0 0.147820863477056 -0.16667811670753979 0 0.13799713314464021 -0.1574382381958942 0 0.1474577889475662 -0.1561660746791157 0 0.1373415069640769 -0.17525629799500381 0 0.13799713314464021 -0.1574382381958942 0 0.12826344566929751 -0.1672781285469806 0 0.13799713314464021 -0.1574382381958942 0 0.12826344566929751 -0.1672781285469806 0 0.125510316736793 -0.15294552589947011 0 0.13799713314464021 -0.1574382381958942 0 0.125510316736793 -0.15294552589947011 0 0.13484504598666941 -0.14389780093334359 0 0.1248239659577738 -0.13700605534960969 0 0.125510316736793 -0.15294552589947011 0 0.13484504598666941 -0.14389780093334359 0 0.13799713314464021 -0.1574382381958942 0 0.13484504598666941 -0.14389780093334359 0 0.14322089911091959 -0.14837518861940341 0 0.1248239659577738 -0.13700605534960969 0 0.1289918112778406 -0.1223255163205285 0 0.13538376140579891 -0.13273000865456441 0 0.1248239659577738 -0.13700605534960969 0 0.13484504598666941 -0.14389780093334359 0 0.13538376140579891 -0.13273000865456441 0 0.13484504598666941 -0.14389780093334359 0 0.13538376140579891 -0.13273000865456441 0 0.14578671469374729 -0.1375672355005205 0 0.1289918112778406 -0.1223255163205285 0 0.14247126911296351 -0.12285343516881959 0 0.13538376140579891 -0.13273000865456441 0 0.14247126911296351 -0.12285343516881959 0 0.13538376140579891 -0.13273000865456441 0 0.14578671469374729 -0.1375672355005205 0 0.14247126911296351 -0.12285343516881959 0 0.14578671469374729 -0.1375672355005205 0 0.154547146583079 -0.1287000322213063 0 0.14578671469374729 -0.1375672355005205 0 0.154547146583079 -0.1287000322213063 0 0.15837193740521549 -0.14065216993760821 0 0.13799713314464021 -0.1574382381958942 0 0.1474577889475662 -0.1561660746791157 0 0.14322089911091959 -0.14837518861940341 0 0.1474577889475662 -0.1561660746791157 0 0.14322089911091959 -0.14837518861940341 0 0.15218123345519091 -0.14883373644979991 0 0.13484504598666941 -0.14389780093334359 0 0.14578671469374729 -0.1375672355005205 0 0.14322089911091959 -0.14837518861940341 0 0.14578671469374729 -0.1375672355005205 0 0.14322089911091959 -0.14837518861940341 0 0.15218123345519091 -0.14883373644979991 0 0.14578671469374729 -0.1375672355005205 0 0.15218123345519091 -0.14883373644979991 0 0.15837193740521549 -0.14065216993760821 0 0.1560688155500243 -0.15950509342294131 0 0.1474577889475662 -0.1561660746791157 0 0.15218123345519091 -0.14883373644979991 0 0.1560688155500243 -0.15950509342294131 0 0.15218123345519091 -0.14883373644979991 0 0.16283850489714921 -0.15192482443489819 0 0.15218123345519091 -0.14883373644979991 0 0.16283850489714921 -0.15192482443489819 0 0.15837193740521549 -0.14065216993760821 0 0.16283850489714921 -0.15192482443489819 0 0.15837193740521549 -0.14065216993760821 0 0.17118630743066721 -0.14357701801599021 0 0.16283850489714921 -0.15192482443489819 0 0.17118630743066721 -0.14357701801599021 0 0.1729605640015239 -0.15579395995578291 0 0.17118630743066721 -0.14357701801599021 0 0.16452524871970831 -0.13335200165394451 0 0.1747385376149875 -0.12655378813818349 0 0.16416899245404831 -0.1228192078679623 0 0.154547146583079 -0.1287000322213063 0 0.16452524871970831 -0.13335200165394451 0 0.154547146583079 -0.1287000322213063 0 0.15837193740521549 -0.14065216993760821 0 0.16452524871970831 -0.13335200165394451 0 0.15837193740521549 -0.14065216993760821 0 0.17118630743066721 -0.14357701801599021 0 0.16452524871970831 -0.13335200165394451 0 0.16416899245404831 -0.1228192078679623 0 0.16452524871970831 -0.13335200165394451 0 0.1747385376149875 -0.12655378813818349 0 0.1747385376149875 -0.12655378813818349 0 0.18705139968128581 -0.1449529146745451 0 0.1747385376149875 -0.12655378813818349 0 0.1869236166864825 -0.1310070630108367 0 0.18705139968128581 -0.1449529146745451 0 0.17118630743066721 -0.14357701801599021 0 0.1747385376149875 -0.12655378813818349 0 0.18705139968128581 -0.1449529146745451 0 0.1869236166864825 -0.1310070630108367 0 0.18705139968128581 -0.1449529146745451 0 0.18202227944144739 -0.1234139502597154 0 0.1918959105955253 -0.12105671148249909 0 0.1869236166864825 -0.1310070630108367 0 0.18202227944144739 -0.1234139502597154 0 0.1747385376149875 -0.12655378813818349 0 0.1869236166864825 -0.1310070630108367 0 0.17118630743066721 -0.14357701801599021 0 0.18705139968128581 -0.1449529146745451 0 0.1802464336720388 -0.15308807763149751 0 0.1729605640015239 -0.15579395995578291 0 0.1802464336720388 -0.15308807763149751 0 0.1818723402097879 -0.15967427418471861 0 0.17118630743066721 -0.14357701801599021 0 0.1729605640015239 -0.15579395995578291 0 0.1802464336720388 -0.15308807763149751 0 0.18705139968128581 -0.1449529146745451 0 0.1802464336720388 -0.15308807763149751 0 0.18719167444057441 -0.16026207993725949 0 0.18705139968128581 -0.1449529146745451 0 0.18719167444057441 -0.16026207993725949 0 0.18719167444057441 -0.16026207993725949 0 0.1818723402097879 -0.15967427418471861 0 0.1873319491998636 -0.17557124519997391 0 0.1818723402097879 -0.15967427418471861 0 0.1873319491998636 -0.17557124519997391 0 0.1818723402097879 -0.15967427418471861 0 0.17835699345848721 -0.16976757607630821 0 0.1873319491998636 -0.17557124519997391 0 0.1802464336720388 -0.15308807763149751 0 0.18719167444057441 -0.16026207993725949 0 0.1818723402097879 -0.15967427418471861 0 0.1729605640015239 -0.15579395995578291 0 0.1818723402097879 -0.15967427418471861 0 0.1739018951792515 -0.164984908286194 0 0.1739018951792515 -0.164984908286194 0 0.17835699345848721 -0.16976757607630821 0 0.17005740668618499 -0.17650176238689319 0 0.1818723402097879 -0.15967427418471861 0 0.1739018951792515 -0.164984908286194 0 0.17835699345848721 -0.16976757607630821 0 0.18719167444057441 -0.16026207993725949 0 0.1873319491998636 -0.17557124519997391 0 0.18742729069469849 -0.1859765291458525 0 0.17005740668618499 -0.17650176238689319 0 0.17891775776969329 -0.18951044883853521 0 0.17241604946880909 -0.19310725460915279 0 0.17005740668618499 -0.17650176238689319 0 0.17891775776969329 -0.18951044883853521 0 0.18742729069469849 -0.1859765291458525 0 0.17005740668618499 -0.17650176238689319 0 0.1873319491998636 -0.17557124519997391 0 0.18742729069469849 -0.1859765291458525 0 0.17005740668618499 -0.17650176238689319 0 0.17835699345848721 -0.16976757607630821 0 0.1873319491998636 -0.17557124519997391 0 0.17005740668618499 -0.17650176238689319 0 0.1873319491998636 -0.17557124519997391 0 0.18742729069469849 -0.1859765291458525 0 0.17241604946880909 -0.19310725460915279 0 0.16406979664922819 -0.18772288958114181 0 0.17005740668618499 -0.17650176238689319 0 0.16406979664922819 -0.18772288958114181 0 0.17005740668618499 -0.17650176238689319 0 0.15637993754092369 -0.18307238079990751 0 0.17005740668618499 -0.17650176238689319 0 0.15637993754092369 -0.18307238079990751 0 0.15793825432963129 -0.17101201400217469 0 0.1560688155500243 -0.15950509342294131 0 0.15793825432963129 -0.17101201400217469 0 0.16626217154027359 -0.16318696882726699 0 0.1560688155500243 -0.15950509342294131 0 0.16283850489714921 -0.15192482443489819 0 0.16626217154027359 -0.16318696882726699 0 0.16283850489714921 -0.15192482443489819 0 0.1729605640015239 -0.15579395995578291 0 0.16626217154027359 -0.16318696882726699 0 0.1729605640015239 -0.15579395995578291 0 0.1739018951792515 -0.164984908286194 0 0.16626217154027359 -0.16318696882726699 0 0.17005740668618499 -0.17650176238689319 0 0.15793825432963129 -0.17101201400217469 0 0.16626217154027359 -0.16318696882726699 0 0.1739018951792515 -0.164984908286194 0 0.17005740668618499 -0.17650176238689319 0 0.16626217154027359 -0.16318696882726699 0 
</DataArray>
</Points>
<Cells>
<DataArray type="UInt32" Name="connectivity" format="ascii">
0 1 2 3 4 5 6 7 8 9 10 11 12 13 14 15 16 17 18 19 20 21 22 23 24 25 26 27 28 29 30 31 32 33 34 35 36 37 38 39 40 41 42 43 44 45 46 47 48 49 50 51 52 53 54 55 56 57 58 59 60 61 62 63 64 65 66 67 68 69 70 71 72 73 74 75 76 77 78 79 80 81 82 83 84 85 86 87 88 89 90 91 92 93 94 95 96 97 98 99 100 101 102 103 104 105 106 107 108 109 110 111 112 113 114 115 116 117 118 119 120 121 122 123 124 125 126 127 128 129 130 131 132 133 134 135 136 137 138 139 140 141 142 143 144 145 146 147 148 149 150 151 152 153 154 155 156 157 158 159 160 161 162 163 164 165 166 167 168 169 170 171 172 173 174 175 176 177 178 179 180 181 182 183 184 185 186 187 188 189 190 191 192 193 194 195 196 197 198 199 200 201 202 203 204 205 206 207 208 209 210 211 212 213 214 215 216 217 218 219 220 221 222 223 224 225 226 227 228 229 230 231 232 233 234 235 236 237 238 239 240 241 242 243 244 245 246 247 248 249 250 251 252 253 254 255 256 257 258 259 260 261 262 263 264 265 266 267 268 269 270 271 272 273 274 275 276 277 278 279 280 281 282 283 284 285 286 287 288 289 290 291 292 293 294 295 296 297 298 299 300 301 302 303 304 305 306 307 308 309 310 311 312 313 314 315 316 317 318 319 320 321 322 323 324 325 326 327 328 329 330 331 332 333 334 335 336 337 338 339 340 341 342 343 344 345 346 347 348 349 350 351 352 353 354 355 356 357 358 359 360 361 362 363 364 365 366 367 368 369 370 371 372 373 374 375 376 377 378 379 380 381 382 383 384 385 386 387 388 389 390 391 392 393 394 395 396 397 398 399 400 401 402 403 404 405 406 407 408 409 410 411 412 413 414 415 416 417 418 419 420 421 422 423 424 425 426 427 428 429 430 431 432 433 434 435 436 437 438 439 440 441 442 443 444 445 446 447 448 449 450 451 452 453 454 455 456 457 458 459 460 461 462 463 464 465 466 467 468 469 470 471 472 473 474 475 476 477 478 479 480 481 482 483 484 485 486 487 488 489 490 491 492 493 494 495 496 497 498 499 500 501 502 503 504 505 506 507 508 509 510 511 512 513 514 515 516 517 518 519 520 521 522 523 524 525 526 527 528 529 530 531 532 533 534 535 536 537 538 539 540 541 542 543 544 545 546 547 548 549 550 551 552 553 554 555 556 557 558 559 560 561 562 563 564 565 566 567 568 569 570 571 572 573 574 575 576 577 578 579 580 581 582 583 584 585 586 587 588 589 590 591 592 593 594 595 596 597 598 599 600 601 602 603 604 605 606 607 608 609 610 611 612 613 614 615 616 617 618 619 620 621 622 623 624 625 626 627 628 629 630 631 632 633 634 635 636 637 638 639 640 641 642 643 644 645 646 647 648 649 650 651 652 653 654 655 656 657 658 659 660 661 662 663 664 665 666 667 668 669 670 671 672 673 674 675 676 677 678 679 680 681 682 683 684 685 686 687 688 689 690 691 692 693 694 695 696 697 698 699 700 701 702 703 704 705 706 707 708 709 710 711 712 713 714 715 716 717 718 719 720 721 722 723 724 725 726 727 728 729 730 731 732 733 734 735 736 737 738 739 740 741 742 743 744 745 746 747 748 749 750 751 752 753 754 755 756 757 758 759 760 761 762 763 764 765 766 767 768 769 770 771 772 773 774 775 776 777 778 779 780 781 782 783 784 785 786 787 788 789 790 791 792 793 794 795 796 797 798 799 800 801 802 803 804 805 806 807 808 809 810 811 812 813 814 815 816 817 818 819 820 821 822 823 824 825 826 827 828 829 830 831 832 833 834 835 836 837 838 839 840 841 842 843 844 845 846 847 848 849 850 851 852 853 854 855 856 857 858 859 860 861 862 863 864 865 866 867 868 869 870 871 872 873 874 875 876 877 878 879 880 881 882 883 884 885 886 887 888 889 890 891 892 893 894 895 896 897 898 899 900 901 902 903 904 905 906 907 908 909 910 911 912 913 914 915 916 917 918 919 920 921 922 923 924 925 926 927 928 929 930 931 932 933 934 935 936 937 938 939 940 941 942 943 944 945 946 947 948 949 950 951 952 953 954 955 956 957 958 959 960 961 962 963 964 965 966 967 968 969 970 971 972 973 974 975 976 977 978 979 980 981 982 983 984 985 986 987 988 989 990 991 992 993 994 995 996 997 998 999 1000 1001 1002 1003 1004 1005 1006 1007 1008 1009 1010 1011 1012 1013 1014 1015 1016 1017 1018 1019 1020 1021 1022 1023 1024 1025 1026 1027 1028 1029 1030 1031 1032 1033 1034 1035 1036 1037 1038 1039 1040 1041 1042 1043 1044 1045 1046 1047 1048 1049 1050 1051 1052 1053 1054 1055 1056 1057 1058 1059 1060 1061 1062 1063 1064 1065 1066 1067 1068 1069 1070 1071 1072 1073 1074 1075 1076 1077 1078 1079 1080 1081 1082 1083 1084 1085 1086 1087 1088 1089 1090 1091 1092 1093 1094 1095 1096 1097 1098 1099 1100 1101 1102 1103 1104 1105 1106 1107 1108 1109 1110 1111 1112 1113 1114 1115 1116 1117 1118 1119 1120 1121 1122 1123 1124 1125 1126 1127 1128 1129 1130 1131 1132 1133 1134 1135 1136 1137 1138 1139 1140 1141 1142 1143 1144 1145 1146 1147 1148 1149 1150 1151 1152 1153 1154 1155 1156 1157 1158 1159 1160 1161 1162 1163 1164 1165 1166 1167 1168 1169 1170 1171 1172 1173 1174 1175 1176 1177 1178 1179 1180 1181 1182 1183 1184 1185 1186 1187 1188 1189 1190 1191 1192 1193 1194 1195 1196 1197 1198 1199 1200 1201 1202 1203 1204 1205 1206 1207 1208 1209 1210 1211 1212 1213 1214 1215 1216 1217 1218 1219 1220 1221 1222 1223 1224 1225 1226 1227 1228 1229 1230 1231 1232 1233 1234 1235 1236 1237 1238 1239 1240 1241 1242 1243 1244 1245 1246 1247 1248 1249 1250 1251 1252 1253 1254 1255 1256 1257 1258 1259 1260 1261 1262 1263 1264 1265 1266 1267 1268 1269 1270 1271 1272 1273 1274 1275 1276 1277 1278 1279 1280 1281 1282 1283 1284 1285 1286 1287 1288 1289 1290 1291 1292 1293 1294 1295 1296 1297 1298 1299 1300 1301 1302 1303 1304 1305 1306 1307 1308 1309 1310 1311 1312 1313 1314 1315 1316 1317 1318 1319 1320 1321 1322 1323 1324 1325 1326 1327 1328 1329 1330 1331 1332 1333 1334 1335 1336 1337 1338 1339 1340 1341 1342 1343 1344 1345 1346 1347 1348 1349 1350 1351 1352 1353 1354 1355 1356 1357 1358 1359 1360 1361 1362 1363 1364 1365 1366 1367 1368 1369 1370 1371 1372 1373 1374 1375 1376 1377 1378 1379 1380 1381 1382 1383 1384 1385 1386 1387 1388 1389 1390 1391 1392 1393 1394 1395 1396 1397 1398 1399 1400 1401 1402 1403 1404 1405 1406 1407 1408 1409 1410 1411 1412 1413 1414 1415 1416 1417 1418 1419 1420 1421 1422 1423 1424 1425 1426 1427 1428 1429 1430 1431 1432 1433 1434 1435 1436 1437 1438 1439 1440 1441 1442 1443 1444 1445 1446 1447 1448 1449 1450 1451 1452 1453 1454 1455 1456 1457 1458 1459 1460 1461 1462 1463 1464 1465 1466 1467 1468 1469 1470 1471 1472 1473 1474 1475 1476 1477 1478 1479 1480 1481 1482 1483 1484 1485 1486 1487 1488 1489 1490 1491 1492 1493 1494 1495 1496 1497 1498 1499 1500 1501 1502 1503 1504 1505 1506 1507 1508 1509 1510 1511 1512 1513 1514 1515 1516 1517 1518 1519 1520 1521 1522 1523 1524 1525 1526 1527 1528 1529 1530 1531 1532 1533 1534 1535 1536 1537 1538 1539 1540 1541 1542 1543 1544 1545 1546 1547 1548 1549 1550 1551 1552 1553 1554 1555 1556 1557 1558 1559 1560 1561 1562 1563 1564 1565 1566 1567 1568 1569 1570 1571 1572 1573 1574 1575 1576 1577 1578 1579 1580 1581 1582 1583 1584 1585 1586 1587 1588 1589 1590 1591 1592 1593 1594 1595 1596 1597 1598 1599 1600 1601 1602 1603 1604 1605 1606 1607 1608 1609 1610 1611 1612 1613 1614 1615 1616 1617 1618 1619 1620 1621 1622 1623 1624 1625 1626 1627 1628 1629 1630 1631 1632 1633 1634 1635 1636 1637 1638 1639 1640 1641 1642 1643 1644 1645 1646 1647 1648 1649 1650 1651 1652 1653 1654 1655 1656 1657 1658 1659 1660 1661 1662 1663 1664 1665 1666 1667 1668 1669 1670 1671 1672 1673 1674 1675 1676 1677 1678 1679 1680 1681 1682 1683 1684 1685 1686 1687 1688 1689 1690 1691 1692 1693 1694 1695 1696 1697 1698 1699 1700 1701 1702 1703 1704 1705 1706 1707 1708 1709 1710 1711 1712 1713 1714 1715 1716 1717 1718 1719 1720 1721 1722 1723 1724 1725 1726 1727 1728 1729 1730 1731 1732 1733 1734 1735 1736 1737 1738 1739 1740 1741 1742 1743 1744 1745 1746 1747 1748 1749 1750 1751 1752 1753 1754 1755 1756 1757 1758 1759 1760 1761 1762 1763 1764 1765 1766 1767 1768 1769 1770 1771 1772 1773 1774 1775 1776 1777 1778 1779 1780 1781 1782 1783 1784 1785 1786 1787 1788 1789 1790 1791 1792 1793 1794 1795 1796 1797 1798 1799 1800 1801 1802 1803 1804 1805 1806 1807 1808 1809 1810 1811 1812 1813 1814 1815 1816 1817 1818 1819 1820 1821 1822 1823 1824 1825 1826 1827 1828 1829 1830 1831 1832 1833 1834 1835 1836 1837 1838 1839 1840 1841 1842 1843 1844 1845 1846 1847 1848 1849 1850 1851 1852 1853 1854 1855 1856 1857 1858 1859 1860 1861 1862 1863 1864 1865 1866 1867 1868 1869 1870 1871 1872 1873 1874 1875 1876 1877 1878 1879 1880 1881 1882 1883 1884 1885 1886 1887 1888 1889 1890 1891 1892 1893 1894 1895 1896 1897 1898 1899 1900 1901 1902 1903 1904 1905 1906 1907 1908 1909 1910 1911 1912 1913 1914 1915 1916 1917 1918 1919 1920 1921 1922 1923 1924 1925 1926 1927 1928 1929 1930 1931 1932 1933 1934 1935 1936 1937 1938 1939 1940 1941 1942 1943 1944 1945 1946 1947 1948 1949 1950 1951 1952 1953 1954 1955 1956 1957 1958 1959 1960 1961 1962 1963 1964 1965 1966 1967 1968 1969 1970 1971 1972 1973 1974 1975 1976 1977 1978 1979 1980 1981 1982 1983 1984 1985 1986 1987 1988 1989 1990 1991 1992 1993 1994 1995 1996 1997 1998 1999 2000 2001 2002 2003 2004 2005 2006 2007 2008 2009 2010 2011 2012 2013 2014 2015 2016 2017 2018 2019 2020 2021 2022 2023 2024 2025 2026 2027 2028 2029 2030 2031 2032 2033 2034 2035 2036 2037 2038 2039 2040 2041 2042 2043 2044 2045 2046 2047 2048 2049 2050 2051 2052 2053 2054 2055 2056 2057 2058 2059 2060 2061 2062 2063 2064 2065 2066 2067 2068 2069 2070 2071 2072 2073 2074 2075 2076 2077 2078 2079 2080 2081 2082 2083 2084 2085 2086 2087 2088 2089 2090 2091 2092 2093 2094 2095 2096 2097 2098 2099 2100 2101 2102 2103 2104 2105 2106 2107 2108 2109 2110 2111 2112 2113 2114 2115 2116 2117 2118 2119 2120 2121 2122 2123 2124 2125 2126 2127 2128 2129 2130 2131 2132 2133 2134 2135 2136 2137 2138 2139 2140 2141 2142 2143 2144 2145 2146 2147 2148 2149 2150 2151 2152 2153 2154 2155 2156 2157 2158 2159 2160 2161 2162 2163 2164 2165 2166 2167 2168 2169 2170 2171 2172 2173 2174 2175 2176 2177 2178 2179 2180 2181 2182 2183 2184 2185 2186 2187 2188 2189 2190 2191 2192 2193 2194 2195 2196 2197 2198 2199 2200 2201 2202 2203 2204 2205 2206 2207 2208 2209 2210 2211 2212 2213 2214 2215 2216 2217 2218 2219 2220 2221 2222 2223 2224 2225 2226 2227 2228 2229 2230 2231 2232 2233 2234 2235 2236 2237 2238 2239 2240 2241 2242 2243 2244 2245 2246 2247 2248 2249 2250 2251 2252 2253 2254 2255 2256 2257 2258 2259 2260 2261 2262 2263 2264 2265 2266 2267 2268 2269 2270 2271 2272 2273 2274 2275 2276 2277 2278 2279 2280 2281 2282 2283 2284 2285 2286 2287 2288 2289 2290 2291 2292 2293 2294 2295 2296 2297 2298 2299 2300 2301 2302 2303 2304 2305 2306 2307 2308 2309 2310 2311 2312 2313 2314 2315 2316 2317 2318 2319 2320 2321 2322 2323 2324 2325 2326 2327 2328 2329 2330 2331 2332 2333 2334 2335 2336 2337 2338 2339 2340 2341 2342 2343 2344 2345 2346 2347 2348 2349 2350 2351 2352 2353 2354 2355 2356 2357 2358 2359 2360 2361 2362 2363 2364 2365 2366 2367 2368 2369 2370 2371 2372 2373 2374 2375 2376 2377 2378 2379 2380 2381 2382 2383 2384 2385 2386 2387 2388 2389 2390 2391 2392 2393 2394 2395 2396 2397 2398 2399 2400 2401 2402 2403 2404 2405 2406 2407 2408 2409 2410 2411 2412 2413 2414 2415 2416 2417 2418 2419 2420 2421 2422 2423 2424 2425 2426 2427 2428 2429 2430 2431 2432 2433 2434 2435 2436 2437 2438 2439 2440 2441 2442 2443 2444 2445 2446 2447 2448 2449 2450 2451 2452 2453 2454 2455 2456 2457 2458 2459 2460 2461 2462 2463 2464 2465 2466 2467 2468 2469 2470 2471 2472 2473 2474 2475 2476 2477 2478 2479 2480 2481 2482 2483 2484 2485 2486 2487 2488 2489 2490 2491 2492 2493 2494 2495 2496 2497 2498 2499 2500 2501 2502 2503 2504 2505 2506 2507 2508 2509 2510 2511 2512 2513 2514 2515 2516 2517 2518 2519 2520 2521 2522 2523 2524 2525 2526 2527 2528 2529 2530 2531 2532 2533 2534 2535 2536 2537 2538 2539 2540 2541 2542 2543 2544 2545 2546 2547 2548 2549 2550 2551 2552 2553 2554 2555 2556 2557 2558 2559 2560 2561 2562 2563 2564 2565 2566 2567 2568 2569 2570 2571 2572 2573 2574 2575 2576 2577 2578 2579 2580 2581 2582 2583 2584 2585 2586 2587 2588 2589 2590 2591 2592 2593 2594 2595 2596 2597 2598 2599 2600 2601 2602 2603 2604 2605 2606 2607 2608 2609 2610 2611 2612 2613 2614 2615 2616 2617 2618 2619 2620 2621 2622 2623 2624 2625 2626 2627 2628 2629 2630 2631 2632 2633 2634 2635 2636 2637 2638 2639 2640 2641 2642 2643 2644 2645 2646 2647 2648 2649 2650 2651 2652 2653 2654 2655 2656 2657 2658 2659 2660 2661 2662 2663 2664 2665 2666 2667 2668 2669 2670 2671 2672 2673 2674 2675 2676 2677 2678 2679 2680 2681 2682 2683 2684 2685 2686 2687 2688 2689 2690 2691 2692 2693 2694 2695 2696 2697 2698 2699 2700 2701 2702 2703 2704 2705 2706 2707 2708 2709 2710 2711 2712 2713 2714 2715 2716 2717 2718 2719 2720 2721 2722 2723 2724 2725 2726 2727 2728 2729 2730 2731 2732 2733 2734 2735 2736 2737 2738 2739 2740 2741 2742 2743 2744 2745 2746 2747 2748 2749 2750 2751 2752 2753 2754 2755 2756 2757 2758 2759 2760 2761 2762 2763 2764 2765 2766 2767 2768 2769 2770 2771 2772 2773 2774 2775 2776 2777 2778 2779 2780 2781 2782 2783 2784 2785 2786 2787 2788 2789 2790 2791 2792 2793 2794 2795 2796 2797 2798 2799 2800 2801 2802 2803 2804 2805 2806 2807 2808 2809 2810 2811 2812 2813 2814 2815 2816 2817 2818 2819 2820 2821 2822 2823 2824 2825 2826 2827 2828 2829 2830 2831 2832 2833 2834 2835 2836 2837 2838 2839 2840 2841 2842 2843 2844 2845 2846 2847 2848 2849 2850 2851 2852 2853 2854 2855 2856 2857 2858 2859 2860 2861 2862 2863 2864 2865 2866 2867 2868 2869 2870 2871 2872 2873 2874 2875 2876 2877 2878 2879 2880 2881 2882 2883 2884 2885 2886 2887 2888 2889 2890 2891 2892 2893 2894 2895 2896 2897 2898 2899 2900 2901 2902 2903 2904 2905 2906 2907 2908 2909 2910 2911 2912 2913 2914 2915 2916 2917 2918 2919 2920 2921 2922 2923 2924 2925 2926 2927 2928 2929 2930 2931 2932 2933 2934 2935 2936 2937 2938 2939 2940 2941 2942 2943 2944 2945 2946 2947 2948 2949 2950 2951 2952 2953 2954 2955 2956 2957 2958 2959 2960 2961 2962 2963 2964 2965 2966 2967 2968 2969 2970 2971 2972 2973 2974 2975 2976 2977 2978 2979 2980 2981 2982 2983 2984 2985 2986 2987 2988 2989 2990 2991 2992 2993 2994 2995 2996 2997 2998 2999 3000 3001 3002 3003 3004 3005 3006 3007 3008 3009 3010 3011 3012 3013 3014 3015 3016 3017 3018 3019 3020 3021 3022 3023 3024 3025 3026 3027 3028 3029 3030 3031 3032 3033 3034 3035 3036 3037 3038 3039 3040 3041 3042 3043 3044 3045 3046 3047 3048 3049 3050 3051 3052 3053 3054 3055 3056 3057 3058 3059 3060 3061 3062 3063 3064 3065 3066 3067 3068 3069 3070 3071 3072 3073 3074 3075 3076 3077 3078 3079 3080 3081 3082 3083 3084 3085 3086 3087 3088 3089 3090 3091 3092 3093 3094 3095 3096 3097 3098 3099 3100 3101 3102 3103 3104 3105 3106 3107 3108 3109 3110 3111 3112 3113 3114 3115 3116 3117 3118 3119 3120 3121 3122 3123 3124 3125 3126 3127 3128 3129 3130 3131 3132 3133 3134 3135 3136 3137 3138 3139 3140 3141 3142 3143 3144 3145 3146 3147 3148 3149 3150 3151 3152 3153 3154 3155 3156 3157 3158 3159 3160 3161 3162 3163 3164 3165 3166 3167 3168 3169 3170 3171 3172 3173 3174 3175 3176 3177 3178 3179 3180 3181 3182 3183 3184 3185 3186 3187 3188 3189 3190 3191 3192 3193 3194 3195 3196 3197 3198 3199 3200 3201 3202 3203 3204 3205 3206 3207 3208 3209 3210 3211 3212 3213 3214 3215 3216 3217 3218 3219 3220 3221 3222 3223 3224 3225 3226 3227 3228 3229 3230 3231 3232 3233 3234 3235 3236 3237 3238 3239 3240 3241 3242 3243 3244 3245 3246 3247 3248 3249 3250 3251 3252 3253 3254 3255 3256 3257 3258 3259 3260 3261 3262 3263 3264 3265 3266 3267 3268 3269 3270 3271 3272 3273 3274 3275 3276 3277 3278 3279 3280 3281 3282 3283 3284 3285 3286 3287 3288 3289 3290 3291 3292 3293 3294 3295 3296 3297 3298 3299 3300 3301 3302 3303 3304 3305 3306 3307 3308 3309 3310 3311 3312 3313 3314 3315 3316 3317 3318 3319 3320 3321 3322 3323 3324 3325 3326 3327 3328 3329 3330 3331 3332 3333 3334 3335 3336 3337 3338 3339 3340 3341 3342 3343 3344 3345 3346 3347 3348 3349 3350 3351 3352 3353 3354 3355 3356 3357 3358 3359 3360 3361 3362 3363 3364 3365 3366 3367 3368 3369 3370 3371 3372 3373 3374 3375 3376 3377 3378 3379 3380 3381 3382 3383 3384 3385 3386 3387 3388 3389 3390 3391 3392 3393 3394 3395 3396 3397 3398 3399 3400 3401 3402 3403 3404 3405 3406 3407 3408 3409 3410 3411 3412 3413 3414 3415 3416 3417 3418 3419 3420 3421 3422 3423 3424 3425 3426 3427 3428 3429 3430 3431 3432 3433 3434 3435 3436 3437 3438 3439 3440 3441 3442 3443 3444 3445 3446 3447 3448 3449 3450 3451 3452 3453 3454 3455 3456 3457 3458 3459 3460 3461 3462 3463 3464 3465 3466 3467 3468 3469 3470 3471 3472 3473 3474 3475 3476 3477 3478 3479 3480 3481 3482 3483 3484 3485 3486 3487 3488 3489 3490 3491 3492 3493 3494 3495 3496 3497 3498 3499 3500 3501 3502 3503 3504 3505 3506 3507 3508 3509 3510 3511 3512 3513 3514 3515 3516 3517 3518 3519 3520 3521 3522 3523 3524 3525 3526 3527 3528 3529 3530 3531 3532 3533 3534 3535 3536 3537 3538 3539 3540 3541 3542 3543 3544 3545 3546 3547 3548 3549 3550 3551 3552 3553 3554 3555 3556 3557 3558 3559 3560 3561 3562 3563 3564 3565 3566 3567 3568 3569 3570 3571 3572 3573 3574 3575 3576 3577 3578 3579 3580 3581 3582 3583 3584 3585 3586 3587 3588 3589 3590 3591 3592 3593 3594 3595 3596 3597 3598 3599 3600 3601 3602 3603 3604 3605 3606 3607 3608 3609 3610 3611 3612 3613 3614 3615 3616 3617 3618 3619 3620 3621 3622 3623 3624 3625 3626 3627 3628 3629 3630 3631 3632 3633 3634 3635 3636 3637 3638 3639 3640 3641 3642 3643 3644 3645 3646 3647 3648 3649 3650 3651 3652 3653 3654 3655 3656 3657 3658 3659 3660 3661 3662 3663 3664 3665 3666 3667 3668 3669 3670 3671 3672 3673 3674 3675 3676 3677 3678 3679 3680 3681 3682 3683 3684 3685 3686 3687 3688 3689 3690 3691 3692 3693 3694 3695 3696 3697 3698 3699 3700 3701 3702 3703 3704 3705 3706 3707 3708 3709 3710 3711 3712 3713 3714 3715 3716 3717 3718 3719 3720 3721 3722 3723 3724 3725 3726 3727 3728 3729 3730 3731 3732 3733 3734 3735 3736 3737 3738 3739 3740 3741 3742 3743 3744 3745 3746 3747 3748 3749 3750 3751 3752 3753 3754 3755 3756 3757 3758 3759 3760 3761 3762 3763 3764 3765 3766 3767 3768 3769 3770 3771 3772 3773 3774 3775 3776 3777 3778 3779 3780 3781 3782 3783 3784 3785 3786 3787 3788 3789 3790 3791 3792 3793 3794 3795 3796 3797 3798 3799 3800 3801 3802 3803 3804 3805 3806 3807 3808 3809 3810 3811 3812 3813 3814 3815 3816 3817 3818 3819 3820 3821 3822 3823 3824 3825 3826 3827 3828 3829 3830 3831 3832 3833 3834 3835 3836 3837 3838 3839 3840 3841 3842 3843 3844 3845 3846 3847 3848 3849 3850 3851 3852 3853 3854 3855 3856 3857 3858 3859 3860 3861 3862 3863 3864 3865 3866 3867 3868 3869 3870 3871 3872 3873 3874 3875 3876 3877 3878 3879 3880 3881 3882 3883 3884 3885 3886 3887 3888 3889 3890 3891 3892 3893 3894 3895 3896 3897 3898 3899 3900 3901 3902 3903 3904 3905 3906 3907 3908 3909 3910 3911 3912 3913 3914 3915 3916 3917 3918 3919 3920 3921 3922 3923 3924 3925 3926 3927 3928 3929 3930 3931 3932 3933 3934 3935 3936 3937 3938 3939 3940 3941 3942 3943 3944 3945 3946 3947 3948 3949 3950 3951 3952 3953 3954 3955 3956 3957 3958 3959 3960 3961 3962 3963 3964 3965 3966 3967 3968 3969 3970 3971 3972 3973 3974 3975 3976 3977 3978 3979 3980 3981 3982 3983 3984 3985 3986 3987 3988 3989 3990 3991 3992 3993 3994 3995 3996 3997 3998 3999 4000 4001 4002 4003 4004 4005 4006 4007 4008 4009 4010 4011 4012 4013 4014 4015 4016 4017 4018 4019 4020 4021 4022 4023 4024 4025 4026 4027 4028 4029 4030 4031 4032 4033 4034 4035 4036 4037 4038 4039 4040 4041 4042 4043 4044 4045 4046 4047 4048 4049 4050 4051 4052 4053 4054 4055 4056 4057 4058 4059 4060 4061 4062 4063 4064 4065 4066 4067 4068 4069 4070 4071 4072 4073 4074 4075 4076 4077 4078 4079 4080 4081 4082 4083 4084 4085 4086 4087 4088 4089 4090 4091 4092 4093 4094 4095 4096 4097 4098 4099 4100 4101 4102 4103 4104 4105 4106 4107 4108 4109 4110 4111 4112 4113 4114 4115 4116 4117 4118 4119 4120 4121 4122 4123 4124 4125 4126 4127 4128 4129 4130 4131 4132 4133 4134 4135 4136 4137 4138 4139 4140 4141 4142 4143 4144 4145 4146 4147 4148 4149 4150 4151 4152 4153 4154 4155 4156 4157 4158 4159 4160 4161 4162 4163 4164 4165 4166 4167 4168 4169 4170 4171 4172 4173 4174 4175 4176 4177 4178 4179 4180 4181 4182 4183 4184 4185 4186 4187 4188 4189 4190 4191 4192 4193 4194 4195 4196 4197 4198 4199 4200 4201 4202 4203 4204 4205 4206 4207 4208 4209 4210 4211 4212 4213 4214 4215 4216 4217 4218 4219 4220 4221 4222 4223 4224 4225 4226 4227 4228 4229 4230 4231 4232 4233 4234 4235 4236 4237 4238 4239 4240 4241 4242 4243 4244 4245 4246 4247 4248 4249 4250 4251 4252 4253 4254 4255 4256 4257 4258 4259 4260 4261 4262 4263 4264 4265 4266 4267 4268 4269 4270 4271 4272 4273 4274 4275 4276 4277 4278 4279 4280 4281 4282 4283 4284 4285 4286 4287 4288 4289 4290 4291 4292 4293 4294 4295 4296 4297 4298 4299 4300 4301 4302 4303 4304 4305 4306 4307 4308 4309 4310 4311 4312 4313 4314 4315 4316 4317 4318 4319 4320 4321 4322 4323 4324 4325 4326 4327 4328 4329 4330 4331 4332 4333 4334 4335 4336 4337 4338 4339 4340 4341 4342 4343 4344 4345 4346 4347 4348 4349 4350 4351 4352 4353 4354 4355 4356 4357 4358 4359 4360 4361 4362 4363 4364 4365 4366 4367 4368 4369 4370 4371 4372 4373 4374 4375 4376 4377 4378 4379 4380 4381 4382 4383 4384 4385 4386 4387 4388 4389 4390 4391 4392 4393 4394 4395 4396 4397 4398 4399 4400 4401 4402 4403 4404 4405 4406 4407 4408 4409 4410 4411 4412 4413 4414 4415 4416 4417 4418 4419 4420 4421 4422 4423 4424 4425 4426 4427 4428 4429 4430 4431 4432 4433 4434 4435 4436 4437 4438 4439 4440 4441 4442 4443 4444 4445 4446 4447 4448 4449 4450 4451 4452 4453 4454 4455 4456 4457 4458 4459 4460 4461 4462 4463 4464 4465 4466 4467 4468 4469 4470 4471 4472 4473 4474 4475 4476 4477 4478 4479 4480 4481 4482 4483 4484 4485 4486 4487 4488 4489 4490 4491 4492 4493 4494 4495 4496 4497 4498 4499 4500 4501 4502 4503 4504 4505 4506 4507 4508 4509 4510 4511 4512 4513 4514 4515 4516 4517 4518 4519 4520 4521 4522 4523 4524 4525 4526 4527 4528 4529 4530 4531 4532 4533 4534 4535 4536 4537 4538 4539 4540 4541 4542 4543 4544 4545 4546 4547 4548 4549 4550 4551 4552 4553 4554 4555 4556 4557 4558 4559 4560 4561 4562 4563 4564 4565 4566 4567 4568 4569 4570 4571 4572 4573 4574 4575 4576 4577 4578 4579 4580 4581 4582 4583 4584 4585 4586 4587 4588 4589 4590 4591 4592 4593 4594 4595 4596 4597 4598 4599 4600 4601 4602 4603 4604 4605 4606 4607 4608 4609 4610 4611 4612 4613 4614 4615 4616 4617 4618 4619 4620 4621 4622 4623 4624 4625 4626 4627 4628 4629 4630 4631 4632 4633 4634 4635 4636 4637 4638 4639 4640 4641 4642 4643 4644 4645 4646 4647 4648 4649 4650 4651 4652 4653 4654 4655 4656 4657 4658 4659 4660 4661 4662 4663 4664 4665 4666 4667 4668 4669 4670 4671 4672 4673 4674 4675 4676 4677 4678 4679 4680 4681 4682 4683 4684 4685 4686 4687 4688 4689 4690 4691 4692 4693 4694 4695 4696 4697 4698 4699 4700 4701 4702 4703 4704 4705 4706 4707 4708 4709 4710 4711 4712 4713 4714 4715 4716 4717 4718 4719 4720 4721 4722 4723 4724 4725 4726 4727 4728 4729 4730 4731 4732 4733 4734 4735 4736 4737 4738 4739 4740 4741 4742 4743 4744 4745 4746 4747 4748 4749 4750 4751 4752 4753 4754 4755 4756 4757 4758 4759 4760 4761 4762 4763 4764 4765 4766 4767 4768 4769 4770 4771 4772 4773 4774 4775 4776 4777 4778 4779 4780 4781 4782 4783 4784 4785 4786 4787 4788 4789 4790 4791 4792 4793 4794 4795 4796 4797 4798 4799 4800 4801 4802 4803 4804 4805 4806 4807 4808 4809 4810 4811 4812 4813 4814 4815 4816 4817 4818 4819 4820 4821 4822 4823 4824 4825 4826 4827 4828 4829 4830 4831 4832 4833 4834 4835 4836 4837 4838 4839 4840 4841 4842 4843 4844 4845 4846 4847 4848 4849 4850 4851 4852 4853 4854 4855 4856 4857 4858 4859 4860 4861 4862 4863 4864 4865 4866 4867 4868 4869 4870 4871 4872 4873 4874 4875 4876 4877 4878 4879 4880 4881 4882 4883 4884 4885 4886 4887 4888 4889 4890 4891 4892 4893 4894 4895 4896 4897 4898 4899 4900 4901 4902 4903 4904 4905 4906 4907 4908 4909 4910 4911 4912 4913 4914 4915 4916 4917 4918 4919 4920 4921 4922 4923 4924 4925 4926 4927 4928 4929 4930 4931 4932 4933 4934 4935 4936 4937 4938 4939 4940 4941 4942 4943 4944 4945 4946 4947 4948 4949 4950 4951 4952 4953 4954 4955 4956 4957 4958 4959 4960 4961 4962 4963 4964 4965 4966 4967 4968 4969 4970 4971 4972 4973 4974 4975 4976 4977 4978 4979 4980 4981 4982 4983 4984 4985 4986 4987 4988 4989 4990 4991 4992 4993 4994 4995 4996 4997 4998 4999 5000 5001 5002 5003 5004 5005 5006 5007 5008 5009 5010 5011 5012 5013 5014 5015 5016 5017 5018 5019 5020 5021 5022 5023 5024 5025 5026 5027 5028 5029 5030 5031 5032 5033 5034 5035 5036 5037 5038 5039 5040 5041 5042 5043 5044 5045 5046 5047 5048 5049 5050 5051 5052 5053 5054 5055 5056 5057 5058 5059 5060 5061 5062 5063 5064 5065 5066 5067 5068 5069 5070 5071 5072 5073 5074 5075 5076 5077 5078 5079 5080 5081 5082 5083 5084 5085 5086 5087 5088 5089 5090 5091 5092 5093 5094 5095 5096 5097 5098 5099 5100 5101 5102 5103 5104 5105 5106 5107 5108 5109 5110 5111 5112 5113 5114 5115 5116 5117 5118 5119 5120 5121 5122 5123 5124 5125 5126 5127 5128 5129 5130 5131 5132 5133 5134 5135 5136 5137 5138 5139 5140 5141 5142 5143 5144 5145 5146 5147 5148 5149 5150 5151 5152 5153 5154 5155 5156 5157 5158 5159 5160 5161 5162 5163 5164 5165 5166 5167 5168 5169 5170 5171 5172 5173 5174 5175 5176 5177 5178 5179 5180 5181 5182 5183 5184 5185 5186 5187 5188 5189 5190 5191 5192 5193 5194 5195 5196 5197 5198 5199 5200 5201 5202 5203 5204 5205 5206 5207 5208 5209 5210 5211 5212 5213 5214 5215 5216 5217 5218 5219 5220 5221 5222 5223 5224 5225 5226 5227 5228 5229 5230 5231 5232 5233 5234 5235 5236 5237 5238 5239 5240 5241 5242 5243 5244 5245 5246 5247 5248 5249 5250 5251 5252 5253 5254 5255 5256 5257 5258 5259 5260 5261 5262 5263 5264 5265 5266 5267 5268 5269 5270 5271 5272 5273 5274 5275 5276 5277 5278 5279 5280 5281 5282 5283 5284 5285 5286 5287 5288 5289 5290 5291 5292 5293 5294 5295 5296 5297 5298 5299 5300 5301 5302 5303 5304 5305 5306 5307 5308 5309 5310 5311 5312 5313 5314 5315 5316 5317 5318 5319 5320 5321 5322 5323 5324 5325 5326 5327 5328 5329 5330 5331 5332 5333 5334 5335 5336 5337 5338 5339 5340 5341 5342 5343 5344 5345 5346 5347 5348 5349 5350 5351 5352 5353 5354 5355 5356 5357 5358 5359 5360 5361 5362 5363 5364 5365 5366 5367 5368 5369 5370 5371 5372 5373 5374 5375 5376 5377 5378 5379 5380 5381 5382 5383 5384 5385 5386 5387 5388 5389 5390 5391 5392 5393 5394 5395 5396 5397 5398 5399 5400 5401 5402 5403 5404 5405 5406 5407 5408 5409 5410 5411 5412 5413 5414 5415 5416 5417 5418 5419 5420 5421 5422 5423 5424 5425 5426 5427 5428 5429 5430 5431 5432 5433 5434 5435 5436 5437 5438 5439 5440 5441 5442 5443 5444 5445 5446 5447 5448 5449 5450 5451 5452 5453 5454 5455 5456 5457 5458 5459 5460 5461 5462 5463 5464 5465 5466 5467 5468 5469 5470 5471 5472 5473 5474 5475 5476 5477 5478 5479 5480 5481 5482 5483 5484 5485 5486 5487 5488 5489 5490 5491 5492 5493 5494 5495 5496 5497 5498 5499 5500 5501 5502 5503 5504 5505 5506 5507 5508 5509 5510 5511 5512 5513 5514 5515 5516 5517 5518 5519 5520 5521 5522 5523 5524 5525 5526 5527 5528 5529 5530 5531 5532 5533 5534 5535 5536 5537 5538 5539 5540 5541 5542 5543 5544 5545 5546 5547 5548 5549 5550 5551 5552 5553 5554 5555 5556 5557 5558 5559 5560 5561 5562 5563 5564 5565 5566 5567 5568 5569 5570 5571 5572 5573 5574 5575 5576 5577 5578 5579 5580 5581 5582 5583 5584 5585 5586 5587 5588 5589 5590 5591 5592 5593 5594 5595 5596 5597 5598 5599 5600 5601 5602 5603 5604 5605 5606 5607 5608 5609 5610 5611 5612 5613 5614 5615 5616 5617 5618 5619 5620 5621 5622 5623 5624 5625 5626 5627 5628 5629 5630 5631 5632 5633 5634 5635 5636 5637 5638 5639 5640 5641 5642 5643 5644 5645 5646 5647 5648 5649 5650 5651 5652 5653 5654 5655 5656 5657 5658 5659 5660 5661 5662 5663 5664 5665 5666 5667 5668 5669 5670 5671 5672 5673 5674 5675 5676 5677 5678 5679 5680 5681 5682 5683 5684 5685 5686 5687 5688 5689 5690 5691 5692 5693 5694 5695 5696 5697 5698 5699 5700 5701 5702 5703 5704 5705 5706 5707 5708 5709 5710 5711 5712 5713 5714 5715 5716 5717 5718 5719 5720 5721 5722 5723 5724 5725 5726 5727 5728 5729 5730 5731 5732 5733 5734 5735 5736 5737 5738 5739 5740 5741 5742 5743 5744 5745 5746 5747 5748 5749 5750 5751 5752 5753 5754 5755 5756 5757 5758 5759 5760 5761 5762 5763 5764 5765 5766 5767 5768 5769 5770 5771 5772 5773 5774 5775 5776 5777 5778 5779 5780 5781 5782 5783 5784 5785 5786 5787 5788 5789 5790 5791 5792 5793 5794 5795 5796 5797 5798 5799 5800 5801 5802 5803 5804 5805 5806 5807 5808 5809 5810 5811 5812 5813 5814 5815 5816 5817 5818 5819 5820 5821 5822 5823 5824 5825 5826 5827 5828 5829 5830 5831 5832 5833 5834 5835 5836 5837 5838 5839 5840 5841 5842 5843 5844 5845 5846 5847 5848 5849 5850 5851 5852 5853 5854 5855 5856 5857 5858 5859 5860 5861 5862 5863 5864 5865 5866 5867 5868 5869 5870 5871 5872 5873 5874 5875 5876 5877 5878 5879 5880 5881 5882 5883 5884 5885 5886 5887 5888 5889 5890 5891 5892 5893 5894 5895 5896 5897 5898 5899 5900 5901 5902 5903 5904 5905 5906 5907 5908 5909 5910 5911 5912 5913 5914 5915 5916 5917 5918 5919 5920 5921 5922 5923 5924 5925 5926 5927 5928 5929 5930 5931 5932 5933 5934 5935 5936 5937 5938 5939 5940 5941 5942 5943 5944 5945 5946 5947 5948 5949 5950 5951 5952 5953 5954 5955 5956 5957 5958 5959 5960 5961 5962 5963 5964 5965 5966 5967 5968 5969 5970 5971 5972 5973 5974 5975 5976 5977 5978 5979 5980 5981 5982 5983 5984 5985 5986 5987 5988 5989 5990 5991 5992 5993 5994 5995 5996 5997 5998 5999 6000 6001 6002 6003 6004 6005 6006 6007 6008 6009 6010 6011 6012 6013 6014 6015 6016 6017 6018 6019 6020 6021 6022 6023 6024 6025 6026 6027 6028 6029 6030 6031 6032 6033 6034 6035 6036 6037 6038 6039 6040 6041 6042 6043 6044 6045 6046 6047 6048 6049 6050 6051 6052 6053 6054 6055 6056 6057 6058 6059 6060 6061 6062 6063 6064 6065 6066 6067 6068 6069 6070 6071 6072 6073 6074 6075 6076 6077 6078 6079 6080 6081 6082 6083 6084 6085 6086 6087 6088 6089 6090 6091 6092 6093 6094 6095 6096 6097 6098 6099 6100 6101 6102 6103 6104 6105 6106 6107 6108 6109 6110 6111 6112 6113 6114 6115 6116 6117 6118 6119 6120 6121 6122 6123 6124 6125 6126 6127 6128 6129 6130 6131 6132 6133 6134 6135 6136 6137 6138 6139 6140 6141 6142 6143 6144 6145 6146 6147 6148 6149 6150 6151 6152 6153 6154 6155 6156 6157 6158 6159 6160 6161 6162 6163 6164 6165 6166 6167 6168 6169 6170 6171 6172 6173 6174 6175 6176 6177 6178 6179 6180 6181 6182 6183 6184 6185 6186 6187 6188 6189 6190 6191 6192 6193 6194 6195 6196 6197 6198 6199 6200 6201 6202 6203 6204 6205 6206 6207 6208 6209 6210 6211 6212 6213 6214 6215 6216 6217 6218 6219 6220 6221 6222 6223 6224 6225 6226 6227 6228 6229 6230 6231 6232 6233 6234 6235 6236 6237 6238 6239 6240 6241 6242 6243 6244 6245 6246 6247 6248 6249 6250 6251 6252 6253 6254 6255 6256 6257 6258 6259 6260 6261 6262 6263 6264 6265 6266 6267 6268 6269 6270 6271 6272 6273 6274 6275 6276 6277 6278 6279 6280 6281 6282 6283 6284 6285 6286 6287 6288 6289 6290 6291 6292 6293 6294 6295 6296 6297 6298 6299 6300 6301 6302 6303 6304 6305 6306 6307 6308 6309 6310 6311 6312 6313 6314 6315 6316 6317 6318 6319 6320 6321 6322 6323 6324 6325 6326 6327 6328 6329 6330 6331 6332 6333 6334 6335 6336 6337 6338 6339 6340 6341 6342 6343 6344 6345 6346 6347 6348 6349 6350 6351 6352 6353 6354 6355 6356 6357 6358 6359 6360 6361 6362 6363 6364 6365 6366 6367 6368 6369 6370 6371 6372 6373 6374 6375 6376 6377 6378 6379 6380 6381 6382 6383 6384 6385 6386 6387 6388 6389 6390 6391 6392 6393 6394 6395 6396 6397 6398 6399 6400 6401 6402 6403 6404 6405 6406 6407 6408 6409 6410 6411 6412 6413 6414 6415 6416 6417 6418 6419 6420 6421 6422 6423 6424 6425 6426 6427 6428 6429 6430 6431 6432 6433 6434 6435 6436 6437 6438 6439 6440 6441 6442 6443 6444 6445 6446 6447 6448 6449 6450 6451 6452 6453 6454 6455 6456 6457 6458 6459 6460 6461 6462 6463 6464 6465 6466 6467 6468 6469 6470 6471 6472 6473 6474 6475 6476 6477 6478 6479 6480 6481 6482 6483 6484 6485 6486 6487 6488 6489 6490 6491 6492 6493 6494 6495 6496 6497 6498 6499 6500 6501 6502 6503 6504 6505 6506 6507 6508 6509 6510 6511 6512 6513 6514 6515 6516 6517 6518 6519 6520 6521 6522 6523 6524 6525 6526 6527 6528 6529 6530 6531 6532 6533 6534 6535 6536 6537 6538 6539 6540 6541 6542 6543 6544 6545 6546 6547 6548 6549 6550 6551 6552 6553 6554 6555 6556 6557 6558 6559 6560 6561 6562 6563 6564 6565 6566 6567 6568 6569 6570 6571 6572 6573 6574 6575 6576 6577 6578 6579 6580 6581 6582 6583 6584 6585 6586 6587 6588 6589 6590 6591 6592 6593 6594 6595 6596 6597 6598 6599 6600 6601 6602 6603 6604 6605 6606 6607 6608 6609 6610 6611 6612 6613 6614 6615 6616 6617 6618 6619 6620 6621 6622 6623 6624 6625 6626 6627 6628 6629 6630 6631 6632 6633 6634 6635 6636 6637 6638 6639 6640 6641 6642 6643 6644 6645 6646 6647 6648 6649 6650 6651 6652 6653 6654 6655 6656 6657 6658 6659 6660 6661 6662 6663 6664 6665 6666 6667 6668 6669 6670 6671 6672 6673 6674 6675 6676 6677 6678 6679 6680 6681 6682 6683 6684 6685 6686 6687 6688 6689 6690 6691 6692 6693 6694 6695 6696 6697 6698 6699 6700 6701 6702 6703 6704 6705 6706 6707 6708 6709 6710 6711 6712 6713 6714 6715 6716 6717 6718 6719 6720 6721 6722 6723 6724 6725 6726 6727 6728 6729 6730 6731 6732 6733 6734 6735 6736 6737 6738 6739 6740 6741 6742 6743 6744 6745 6746 6747 6748 6749 6750 6751 6752 6753 6754 6755 6756 6757 6758 6759 6760 6761 6762 6763 6764 6765 6766 6767 6768 6769 6770 6771 6772 6773 6774 6775 6776 6777 6778 6779 6780 6781 6782 6783 6784 6785 6786 6787 6788 6789 6790 6791 6792 6793 6794 6795 6796 6797 6798 6799 6800 6801 6802 6803 6804 6805 6806 6807 6808 6809 6810 6811 6812 6813 6814 6815 6816 6817 6818 6819 6820 6821 6822 6823 6824 6825 6826 6827 6828 6829 6830 6831 6832 6833 6834 6835 6836 6837 6838 6839 6840 6841 6842 6843 6844 6845 6846 6847 6848 6849 6850 6851 6852 6853 6854 6855 6856 6857 6858 6859 6860 6861 6862 6863 6864 6865 6866 6867 6868 6869 6870 6871 6872 6873 6874 6875 6876 6877 6878 6879 6880 6881 6882 6883 6884 6885 6886 6887 6888 6889 6890 6891 6892 6893 6894 6895 6896 6897 6898 6899 6900 6901 6902 6903 6904 6905 6906 6907 6908 6909 6910 6911 6912 6913 6914 6915 6916 6917 6918 6919 6920 6921 6922 6923 6924 6925 6926 6927 6928 6929 6930 6931 6932 6933 6934 6935 6936 6937 6938 6939 6940 6941 6942 6943 6944 6945 6946 6947 6948 6949 6950 6951 6952 6953 6954 6955 6956 6957 6958 6959 6960 6961 6962 6963 6964 6965 6966 6967 6968 6969 6970 6971 6972 6973 6974 6975 6976 6977 6978 6979 6980 6981 6982 6983 6984 6985 6986 6987 6988 6989 6990 6991 6992 6993 6994 6995 6996 6997 6998 6999 7000 7001 7002 7003 7004 7005 7006 7007 7008 7009 7010 7011 7012 7013 7014 7015 7016 7017 7018 7019 7020 7021 7022 7023 7024 7025 7026 7027 7028 7029 7030 7031 7032 7033 7034 7035 7036 7037 7038 7039 7040 7041 7042 7043 7044 7045 7046 7047 7048 7049 7050 7051 7052 7053 7054 7055 7056 7057 7058 7059 7060 7061 7062 7063 7064 7065 7066 7067 7068 7069 7070 7071 7072 7073 7074 7075 7076 7077 7078 7079 7080 7081 7082 7083 7084 7085 7086 7087 7088 7089 7090 7091 7092 7093 7094 7095 7096 7097 7098 7099 7100 7101 7102 7103 7104 7105 7106 7107 7108 7109 7110 7111 7112 7113 7114 7115 7116 7117 7118 7119 7120 7121 7122 7123 7124 7125 7126 7127 7128 7129 7130 7131 7132 7133 7134 7135 7136 7137 7138 7139 7140 7141 7142 7143 7144 7145 7146 7147 7148 7149 7150 7151 7152 7153 7154 7155 7156 7157 7158 7159 7160 7161 7162 7163 7164 7165 7166 7167 7168 7169 7170 7171 7172 7173 7174 7175 7176 7177 7178 7179 7180 7181 7182 7183 7184 7185 7186 7187 7188 7189 7190 7191 7192 7193 7194 7195 7196 7197 7198 7199 7200 7201 7202 7203 7204 7205 7206 7207 7208 7209 7210 7211 7212 7213 7214 7215 7216 7217 7218 7219 7220 7221 7222 7223 7224 7225 7226 7227 7228 7229 7230 7231 7232 7233 7234 7235 7236 7237 7238 7239 7240 7241 7242 7243 7244 7245 7246 7247 7248 7249 7250 7251 7252 7253 7254 7255 7256 7257 7258 7259 7260 7261 7262 7263 7264 7265 7266 7267 7268 7269 7270 7271 7272 7273 7274 7275 7276 7277 7278 7279 7280 7281 7282 7283 7284 7285 7286 7287 7288 7289 7290 7291 7292 7293 7294 7295 7296 7297 7298 7299 7300 7301 7302 7303 7304 7305 7306 7307 7308 7309 7310 7311 7312 7313 7314 7315 7316 7317 7318 7319 7320 7321 7322 7323 7324 7325 7326 7327 7328 7329 7330 7331 7332 7333 7334 7335 7336 7337 7338 7339 7340 7341 7342 7343 7344 7345 7346 7347 7348 7349 7350 7351 7352 7353 7354 7355 7356 7357 7358 7359 7360 7361 7362 7363 7364 7365 7366 7367 7368 7369 7370 7371 7372 7373 7374 7375 7376 7377 7378 7379 7380 7381 7382 7383 7384 7385 7386 7387 7388 7389 7390 7391 7392 7393 7394 7395 7396 7397 7398 7399 7400 7401 7402 7403 7404 7405 7406 7407 7408 7409 7410 7411 7412 7413 7414 7415 7416 7417 7418 7419 7420 7421 7422 7423 7424 7425 7426 7427 7428 7429 7430 7431 7432 7433 7434 7435 7436 7437 7438 7439 7440 7441 7442 7443 7444 7445 7446 7447 7448 7449 7450 7451 7452 7453 7454 7455 7456 7457 7458 7459 7460 7461 7462 7463 7464 7465 7466 7467 7468 7469 7470 7471 7472 7473 7474 7475 7476 7477 7478 7479 7480 7481 7482 7483 7484 7485 7486 7487 7488 7489 7490 7491 7492 7493 7494 7495 7496 7497 7498 7499 7500 7501 7502 7503 7504 7505 7506 7507 7508 7509 7510 7511 7512 7513 7514 7515 7516 7517 7518 7519 7520 7521 7522 7523 7524 7525 7526 7527 7528 7529 7530 7531 7532 7533 7534 7535 7536 7537 7538 7539 7540 7541 7542 7543 7544 7545 7546 7547 7548 7549 7550 7551 7552 7553 7554 7555 7556 7557 7558 7559 7560 7561 7562 7563 7564 7565 7566 7567 7568 7569 7570 7571 7572 7573 7574 7575 7576 7577 7578 7579 7580 7581 7582 7583 7584 7585 7586 7587 7588 7589 7590 7591 7592 7593 7594 7595 7596 7597 7598 7599 7600 7601 7602 7603 7604 7605 7606 7607 7608 7609 7610 7611 7612 7613 7614 7615 7616 7617 7618 7619 7620 7621 7622 7623 7624 7625 7626 7627 7628 7629 7630 7631 7632 7633 7634 7635 7636 7637 7638 7639 7640 7641 7642 7643 7644 7645 7646 7647 7648 7649 7650 7651 7652 7653 7654 7655 7656 7657 7658 7659 7660 7661 7662 7663 7664 7665 7666 7667 7668 7669 7670 7671 7672 7673 7674 7675 7676 7677 7678 7679 7680 7681 7682 7683 7684 7685 7686 7687 7688 7689 7690 7691 7692 7693 7694 7695 7696 7697 7698 7699 7700 7701 7702 7703 7704 7705 7706 7707 7708 7709 7710 7711 7712 7713 7714 7715 7716 7717 7718 7719 7720 7721 7722 7723 7724 7725 7726 7727 7728 7729 7730 7731 7732 7733 7734 7735 7736 7737 7738 7739 7740 7741 7742 7743 7744 7745 7746 7747 7748 7749 7750 7751 7752 7753 7754 7755 7756 7757 7758 7759 7760 7761 7762 7763 7764 7765 7766 7767 7768 7769 7770 7771 7772 7773 7774 7775 7776 7777 7778 7779 7780 7781 7782 7783 7784 7785 7786 7787 7788 7789 7790 7791 7792 7793 7794 7795 7796 7797 7798 7799 7800 7801 7802 7803 7804 7805 7806 7807 7808 7809 7810 7811 7812 7813 7814 7815 7816 7817 7818 7819 7820 7821 7822 7823 7824 7825 7826 7827 7828 7829 7830 7831 7832 7833 7834 7835 7836 7837 7838 7839 7840 7841 7842 7843 7844 7845 7846 7847 7848 7849 7850 7851 7852 7853 7854 7855 7856 7857 7858 7859 7860 7861 7862 7863 7864 7865 7866 7867 7868 7869 7870 7871 7872 7873 7874 7875 7876 7877 7878 7879 7880 7881 7882 7883 7884 7885 7886 7887 7888 7889 7890 7891 7892 7893 7894 7895 7896 7897 7898 7899 7900 7901 7902 7903 7904 7905 7906 7907 7908 7909 7910 7911 7912 7913 7914 7915 7916 7917 7918 7919 7920 7921 7922 7923 7924 7925 7926 7927 7928 7929 7930 7931 7932 7933 7934 7935 7936 7937 7938 7939 7940 7941 7942 7943 7944 7945 7946 7947 7948 7949 7950 7951 7952 7953 7954 7955 7956 7957 7958 7959 7960 7961 7962 7963 7964 7965 7966 7967 7968 7969 7970 7971 7972 7973 7974 7975 7976 7977 7978 7979 7980 7981 7982 7983 7984 7985 7986 7987 7988 7989 7990 7991 7992 7993 7994 7995 7996 7997 7998 7999 8000 8001 8002 8003 8004 8005 8006 8007 8008 8009 8010 8011 8012 8013 8014 8015 8016 8017 8018 8019 8020 8021 8022 8023 8024 8025 8026 8027 8028 8029 8030 8031 8032 8033 8034 8035 8036 8037 8038 8039 8040 8041 8042 8043 8044 8045 8046 8047 8048 8049 8050 8051 8052 8053 8054 8055 8056 8057 8058 8059 8060 8061 8062 8063 8064 8065 8066 8067 8068 8069 8070 8071 8072 8073 8074 8075 8076 8077 8078 8079 8080 8081 8082 8083 8084 8085 8086 8087 8088 8089 8090 8091 8092 8093 8094 8095 8096 8097 8098 8099 8100 8101 8102 8103 8104 8105 8106 8107 8108 8109 8110 8111 8112 8113 8114 8115 8116 8117 8118 8119 8120 8121 8122 8123 8124 8125 8126 8127 8128 8129 8130 8131 8132 8133 8134 8135 8136 8137 8138 8139 8140 8141 8142 8143 8144 8145 8146 8147 8148 8149 8150 8151 8152 8153 8154 8155 8156 8157 8158 8159 8160 8161 8162 8163 8164 8165 8166 8167 8168 8169 8170 8171 8172 8173 8174 8175 8176 8177 8178 8179 8180 8181 8182 8183 8184 8185 8186 8187 8188 8189 8190 8191 8192 8193 8194 8195 8196 8197 8198 8199 8200 8201 8202 8203 8204 8205 8206 8207 8208 8209 8210 8211 8212 8213 8214 8215 8216 8217 8218 8219 8220 8221 8222 8223 8224 8225 8226 8227 8228 8229 8230 8231 8232 8233 8234 8235 8236 8237 8238 8239 8240 8241 8242 8243 8244 8245 8246 8247 8248 8249 8250 8251 8252 8253 8254 8255 8256 8257 8258 8259 8260 8261 8262 8263 8264 8265 8266 8267 8268 8269 8270 8271 8272 8273 8274 8275 8276 8277 8278 8279 8280 8281 8282 8283 8284 8285 8286 8287 8288 8289 8290 8291 8292 8293 8294 8295 8296 8297 8298 8299 8300 8301 8302 8303 8304 8305 8306 8307 8308 8309 8310 8311 8312 8313 8314 8315 8316 8317 8318 8319 8320 8321 8322 8323 8324 8325 8326 8327 8328 8329 8330 8331 8332 8333 8334 8335 8336 8337 8338 8339 8340 8341 8342 8343 8344 8345 8346 8347 8348 8349 8350 8351 8352 8353 8354 8355 8356 8357 8358 8359 8360 8361 8362 8363 8364 8365 8366 8367 8368 8369 8370 8371 8372 8373 8374 8375 8376 8377 8378 8379 8380 8381 8382 8383 8384 8385 8386 8387 8388 8389 8390 8391 8392 8393 8394 8395 8396 8397 8398 8399 8400 8401 8402 8403 8404 8405 8406 8407 8408 8409 8410 8411 8412 8413 8414 8415 8416 8417 8418 8419 8420 8421 8422 8423 8424 8425 8426 8427 8428 8429 8430 8431 8432 8433 8434 8435 8436 8437 8438 8439 8440 8441 8442 8443 8444 8445 8446 8447 8448 8449 8450 8451 8452 8453 8454 8455 8456 8457 8458 8459 8460 8461 8462 8463 8464 8465 8466 8467 8468 8469 8470 8471 8472 8473 8474 8475 8476 8477 8478 8479 8480 8481 8482 8483 8484 8485 8486 8487 8488 8489 8490 8491 8492 8493 8494 8495 8496 8497 8498 8499 8500 8501 8502 8503 8504 8505 8506 8507 8508 8509 8510 8511 8512 8513 8514 8515 8516 8517 8518 8519 8520 8521 8522 8523 8524 8525 8526 8527 8528 8529 8530 8531 8532 8533 8534 8535 8536 8537 8538 8539 8540 8541 8542 8543 8544 8545 8546 8547 8548 8549 8550 8551 8552 8553 8554 8555 8556 8557 8558 8559 8560 8561 8562 8563 8564 8565 8566 8567 8568 8569 8570 8571 8572 8573 8574 8575 8576 8577 8578 8579 8580 8581 8582 8583 8584 8585 8586 8587 8588 8589 8590 8591 8592 8593 8594 8595 8596 8597 8598 8599 8600 8601 8602 8603 8604 8605 8606 8607 8608 8609 8610 8611 8612 8613 8614 8615 8616 8617 8618 8619 8620 8621 8622 8623 8624 8625 8626 8627 8628 8629 8630 8631 8632 8633 8634 8635 8636 8637 8638 8639 8640 8641 8642 8643 8644 8645 8646 8647 8648 8649 8650 8651 8652 8653 8654 8655 8656 8657 8658 8659 8660 8661 8662 8663 8664 8665 8666 8667 8668 8669 8670 8671 8672 8673 8674 8675 8676 8677 8678 8679 8680 8681 8682 8683 8684 8685 8686 8687 8688 8689 8690 8691 8692 8693 8694 8695 8696 8697 8698 8699 8700 8701 8702 8703 8704 8705 8706 8707 8708 8709 8710 8711 8712 8713 8714 8715 8716 8717 8718 8719 8720 8721 8722 8723 8724 8725 8726 8727 8728 8729 8730 8731 8732 8733 8734 8735 8736 8737 8738 8739 8740 8741 8742 8743 8744 8745 8746 8747 8748 8749 8750 8751 8752 8753 8754 8755 8756 8757 8758 8759 8760 8761 8762 8763 8764 8765 8766 8767 8768 8769 8770 8771 8772 8773 8774 8775 8776 8777 8778 8779 8780 8781 8782 8783 8784 8785 8786 8787 8788 8789 8790 8791 8792 8793 8794 8795 8796 8797 8798 8799 8800 8801 8802 8803 8804 8805 8806 8807 8808 8809 8810 8811 8812 8813 8814 8815 8816 8817 8818 8819 8820 8821 8822 8823 8824 8825 8826 8827 8828 8829 8830 8831 8832 8833 8834 8835 8836 8837 8838 8839 8840 8841 8842 8843 8844 8845 8846 8847 8848 8849 8850 8851 8852 8853 8854 8855 8856 8857 8858 8859 8860 8861 8862 8863 8864 8865 8866 8867 8868 8869 8870 8871 8872 8873 8874 8875 8876 8877 8878 8879 8880 8881 8882 8883 8884 8885 8886 8887 8888 8889 8890 8891 8892 8893 8894 8895 8896 8897 8898 8899 8900 8901 8902 8903 8904 8905 8906 8907 8908 8909 8910 8911 8912 8913 8914 8915 8916 8917 8918 8919 8920 8921 8922 8923 8924 8925 8926 8927 8928 8929 8930 8931 8932 8933 8934 8935 8936 8937 8938 8939 8940 8941 8942 8943 8944 8945 8946 8947 8948 8949 8950 8951 8952 8953 8954 8955 8956 8957 8958 8959 8960 8961 8962 8963 8964 8965 8966 8967 8968 8969 8970 8971 8972 8973 8974 8975 8976 8977 8978 8979 8980 8981 8982 8983 8984 8985 8986 8987 8988 8989 8990 8991 8992 8993 8994 8995 8996 8997 8998 8999 9000 9001 9002 9003 9004 9005 9006 9007 9008 9009 9010 9011 9012 9013 9014 9015 9016 9017 9018 9019 9020 9021 9022 9023 9024 9025 9026 9027 9028 9029 9030 9031 9032 9033 9034 9035 9036 9037 9038 9039 9040 9041 9042 9043 9044 9045 9046 9047 9048 9049 9050 9051 9052 9053 9054 9055 9056 9057 9058 9059 9060 9061 9062 9063 9064 9065 9066 9067 9068 9069 9070 9071 9072 9073 9074 9075 9076 9077 9078 9079 9080 9081 9082 9083 9084 9085 9086 9087 9088 9089 9090 9091 9092 9093 9094 9095 9096 9097 9098 9099 9100 9101 9102 9103 9104 9105 9106 9107 9108 9109 9110 9111 9112 9113 9114 9115 9116 9117 9118 9119 9120 9121 9122 9123 9124 9125 9126 9127 9128 9129 9130 9131 9132 9133 9134 9135 9136 9137 9138 9139 9140 9141 9142 9143 9144 9145 9146 9147 9148 9149 9150 9151 9152 9153 9154 9155 9156 9157 9158 9159 9160 9161 9162 9163 9164 9165 9166 9167 9168 9169 9170 9171 9172 9173 9174 9175 9176 9177 9178 9179 9180 9181 9182 9183 9184 9185 9186 9187 9188 9189 9190 9191 9192 9193 9194 9195 9196 9197 9198 9199 9200 9201 9202 9203 9204 9205 9206 9207 9208 9209 9210 9211 9212 9213 9214 9215 9216 9217 9218 9219 9220 9221 9222 9223 9224 9225 9226 9227 9228 9229 9230 9231 9232 9233 9234 9235 9236 9237 9238 9239 9240 9241 9242 9243 9244 9245 9246 9247 9248 9249 9250 9251 9252 9253 9254 9255 9256 9257 9258 9259 9260 9261 9262 9263 9264 9265 9266 9267 9268 9269 9270 9271 9272 9273 9274 9275 9276 9277 9278 9279 9280 9281 9282 9283 9284 9285 9286 9287 9288 9289 9290 9291 9292 9293 9294 9295 9296 9297 9298 9299 9300 9301 9302 9303 9304 9305 9306 9307 9308 9309 9310 9311 9312 9313 9314 9315 9316 9317 9318 9319 9320 9321 9322 9323 9324 9325 9326 9327 9328 9329 9330 9331 9332 9333 9334 9335 9336 9337 9338 9339 9340 9341 9342 9343 9344 9345 9346 9347 9348 9349 9350 9351 9352 9353 9354 9355 9356 9357 9358 9359 9360 9361 9362 9363 9364 9365 9366 9367 9368 9369 9370 9371 9372 9373 9374 9375 9376 9377 9378 9379 9380 9381 9382 9383 9384 9385 9386 9387 9388 9389 9390 9391 9392 9393 9394 9395 9396 9397 9398 9399 9400 9401 9402 9403 9404 9405 9406 9407 9408 9409 9410 9411 9412 9413 9414 9415 9416 9417 9418 9419 9420 9421 9422 9423 9424 9425 9426 9427 9428 9429 9430 9431 9432 9433 9434 9435 9436 9437 9438 9439 9440 9441 9442 9443 9444 9445 9446 9447 9448 9449 9450 9451 9452 9453 9454 9455 9456 9457 9458 9459 9460 9461 9462 9463 9464 9465 9466 9467 9468 9469 9470 9471 9472 9473 9474 9475 9476 9477 9478 9479 9480 9481 9482 9483 9484 9485 9486 9487 9488 9489 9490 9491 9492 9493 9494 9495 9496 9497 9498 9499 9500 9501 9502 9503 9504 9505 9506 9507 9508 9509 9510 9511 9512 9513 9514 9515 9516 9517 9518 9519 9520 9521 9522 9523 9524 9525 9526 9527 9528 9529 9530 9531 9532 9533 9534 9535 9536 9537 9538 9539 9540 9541 9542 9543 9544 9545 9546 9547 9548 9549 9550 9551 9552 9553 9554 9555 9556 9557 9558 9559 9560 9561 9562 9563 9564 9565 9566 9567 9568 9569 9570 9571 9572 9573 9574 9575 9576 9577 9578 9579 9580 9581 9582 9583 9584 9585 9586 9587 9588 9589 9590 9591 9592 9593 9594 9595 9596 9597 9598 9599 9600 9601 9602 9603 9604 9605 9606 9607 9608 9609 9610 9611 9612 9613 9614 9615 9616 9617 9618 9619 9620 9621 9622 9623 9624 9625 9626 9627 9628 9629 9630 9631 9632 9633 9634 9635 9636 9637 9638 9639 9640 9641 9642 9643 9644 9645 9646 9647 9648 9649 9650 9651 9652 9653 9654 9655 9656 9657 9658 9659 9660 9661 9662 9663 9664 9665 9666 9667 9668 9669 9670 9671 9672 9673 9674 9675 9676 9677 9678 9679 9680 9681 9682 9683 9684 9685 9686 9687 9688 9689 9690 9691 9692 9693 9694 9695 9696 9697 9698 9699 9700 9701 9702 9703 9704 9705 9706 9707 9708 9709 9710 9711 9712 9713 9714 9715 9716 9717 9718 9719 9720 9721 9722 9723 9724 9725 9726 9727 9728 9729 9730 9731 9732 9733 9734 9735 9736 9737 9738 9739 9740 9741 9742 9743 9744 9745 9746 9747 9748 9749 9750 9751 9752 9753 9754 9755 9756 9757 9758 9759 9760 9761 9762 9763 9764 9765 9766 9767 9768 9769 9770 9771 9772 9773 9774 9775 9776 9777 9778 9779 9780 9781 9782 9783 9784 9785 9786 9787 9788 9789 9790 9791 9792 9793 9794 9795 9796 9797 9798 9799 9800 9801 9802 9803 9804 9805 9806 9807 9808 9809 9810 9811 9812 9813 9814 9815 9816 9817 9818 9819 9820 9821 9822 9823 9824 9825 9826 9827 9828 9829 9830 9831 9832 9833 9834 9835 9836 9837 9838 9839 9840 9841 9842 9843 9844 9845 9846 9847 9848 9849 9850 9851 9852 9853 9854 9855 9856 9857 9858 9859 9860 9861 9862 9863 9864 9865 9866 9867 9868 9869 9870 9871 9872 9873 9874 9875 9876 9877 9878 9879 9880 9881 9882 9883 9884 9885 9886 9887 9888 9889 9890 9891 9892 9893 9894 9895 9896 9897 9898 9899 9900 9901 9902 9903 9904 9905 9906 9907 9908 9909 9910 9911 9912 9913 9914 9915 9916 9917 9918 9919 9920 9921 9922 9923 9924 9925 9926 9927 9928 9929 9930 9931 9932 9933 9934 9935 9936 9937 9938 9939 9940 9941 9942 9943 9944 9945 9946 9947 9948 9949 9950 9951 9952 9953 9954 9955 9956 9957 9958 9959 9960 9961 9962 9963 9964 9965 9966 9967 9968 9969 9970 9971 9972 9973 9974 9975 9976 9977 9978 9979 9980 9981 9982 9983 9984 9985 9986 9987 9988 9989 9990 9991 9992 9993 9994 9995 9996 9997 9998 9999 10000 10001 10002 10003 10004 10005 10006 10007 10008 10009 10010 10011 10012 10013 10014 10015 10016 10017 10018 10019 10020 10021 10022 10023 10024 10025 10026 10027 10028 10029 10030 10031 10032 10033 10034 10035 10036 10037 10038 10039 10040 10041 10042 10043 10044 10045 10046 10047 10048 10049 10050 10051 10052 10053 10054 10055 10056 10057 10058 10059 10060 10061 10062 10063 10064 10065 10066 10067 10068 10069 10070 10071 10072 10073 10074 10075 10076 10077 10078 10079 10080 10081 10082 10083 10084 10085 10086 10087 10088 10089 10090 10091 10092 10093 10094 10095 10096 10097 10098 10099 10100 10101 10102 10103 10104 10105 10106 10107 10108 10109 10110 10111 10112 10113 10114 10115 10116 10117 10118 10119 10120 10121 10122 10123 10124 10125 10126 10127 10128 10129 10130 10131 10132 10133 10134 10135 10136 10137 10138 10139 10140 10141 10142 10143 10144 10145 10146 10147 10148 10149 10150 10151 10152 10153 10154 10155 10156 10157 10158 10159 10160 10161 10162 10163 10164 10165 10166 10167 10168 10169 10170 10171 10172 10173 10174 10175 10176 10177 10178 10179 10180 10181 10182 10183 10184 10185 10186 10187 10188 10189 10190 10191 10192 10193 10194 10195 10196 10197 10198 10199 10200 10201 10202 10203 10204 10205 10206 10207 10208 10209 10210 10211 10212 10213 10214 10215 10216 10217 10218 10219 10220 10221 10222 10223 10224 10225 10226 10227 10228 10229 10230 10231 10232 10233 10234 10235 10236 10237 10238 10239 10240 10241 10242 10243 10244 10245 10246 10247 10248 10249 10250 10251 10252 10253 10254 10255 10256 10257 10258 10259 10260 10261 10262 10263 10264 10265 10266 10267 10268 10269 10270 10271 10272 10273 10274 10275 10276 10277 10278 10279 10280 10281 10282 10283 10284 10285 10286 10287 10288 10289 10290 10291 10292 10293 10294 10295 10296 10297 10298 10299 10300 10301 10302 10303 10304 10305 10306 10307 10308 10309 10310 10311 10312 10313 10314 10315 10316 10317 10318 10319 10320 10321 10322 10323 10324 10325 10326 10327 10328 10329 10330 10331 10332 10333 10334 10335 10336 10337 10338 10339 10340 10341 10342 10343 10344 10345 10346 10347 10348 10349 10350 10351 10352 10353 10354 10355 10356 10357 10358 10359 10360 10361 10362 10363 10364 10365 10366 10367 10368 10369 10370 10371 10372 10373 10374 10375 10376 10377 10378 10379 10380 10381 10382 10383 10384 10385 10386 10387 10388 10389 10390 10391 10392 10393 10394 10395 10396 10397 10398 10399 10400 10401 10402 10403 10404 10405 10406 10407 10408 10409 10410 10411 10412 10413 10414 10415 10416 10417 10418 10419 10420 10421 10422 10423 10424 10425 10426 10427 10428 10429 10430 10431 10432 10433 10434 10435 10436 10437 10438 10439 10440 10441 10442 10443 10444 10445 10446 10447 10448 10449 10450 10451 10452 10453 10454 10455 10456 10457 10458 10459 10460 10461 10462 10463 10464 10465 10466 10467 10468 10469 10470 10471 10472 10473 10474 10475 10476 10477 10478 10479 10480 10481 10482 10483 10484 10485 10486 10487 10488 10489 10490 10491 10492 10493 10494 10495 10496 10497 10498 10499 10500 10501 10502 10503 10504 10505 10506 10507 10508 10509 10510 10511 10512 10513 10514 10515 10516 10517 10518 10519 10520 10521 10522 10523 10524 10525 10526 10527 10528 10529 10530 10531 10532 10533 10534 10535 10536 10537 10538 10539 10540 10541 10542 10543 10544 10545 10546 10547 10548 10549 10550 10551 10552 10553 10554 10555 10556 10557 10558 10559 10560 10561 10562 10563 10564 10565 10566 10567 10568 10569 10570 10571 10572 10573 10574 10575 10576 10577 10578 10579 10580 10581 10582 10583 10584 10585 10586 10587 10588 10589 10590 10591 10592 10593 10594 10595 10596 10597 10598 10599 10600 10601 10602 10603 10604 10605 10606 10607 10608 10609 10610 10611 10612 10613 10614 10615 10616 10617 10618 10619 10620 10621 10622 10623 10624 10625 10626 10627 10628 10629 10630 10631 10632 10633 10634 10635 10636 10637 10638 10639 10640 10641 10642 10643 10644 10645 10646 10647 10648 10649 10650 10651 10652 10653 10654 10655 10656 10657 10658 10659 10660 10661 10662 10663 10664 10665 10666 10667 10668 10669 10670 10671 10672 10673 10674 10675 10676 10677 10678 10679 10680 10681 10682 10683 10684 10685 10686 10687 10688 10689 10690 10691 10692 10693 10694 10695 10696 10697 10698 10699 10700 10701 10702 10703 10704 10705 10706 10707 10708 10709 10710 10711 10712 10713 10714 10715 10716 10717 10718 10719 10720 10721 10722 10723 10724 10725 10726 10727 10728 10729 10730 10731 10732 10733 10734 10735 10736 10737 10738 10739 10740 10741 10742 10743 10744 10745 10746 10747 10748 10749 10750 10751 10752 10753 10754 10755 10756 10757 10758 10759 10760 10761 10762 10763 10764 10765 10766 10767 10768 10769 10770 10771 10772 10773 10774 10775 10776 10777 10778 10779 10780 10781 10782 10783 10784 10785 10786 10787 10788 10789 10790 10791 10792 10793 10794 10795 10796 10797 10798 10799 10800 10801 10802 10803 10804 10805 10806 10807 10808 10809 10810 10811 10812 10813 10814 10815 10816 10817 10818 10819 10820 10821 10822 10823 10824 10825 10826 10827 10828 10829 10830 10831 10832 10833 10834 10835 10836 10837 10838 10839 10840 10841 10842 10843 10844 10845 10846 10847 10848 10849 10850 10851 10852 10853 10854 10855 10856 10857 10858 10859 10860 10861 10862 10863 10864 10865 10866 10867 10868 10869 10870 10871 10872 10873 10874 10875 10876 10877 10878 10879 10880 10881 10882 10883 10884 10885 10886 10887 10888 10889 10890 10891 10892 10893 10894 10895 10896 10897 10898 10899 10900 10901 10902 10903 10904 10905 10906 10907 10908 10909 10910 10911 10912 10913 10914 10915 10916 10917 10918 10919 10920 10921 10922 10923 10924 10925 10926 10927 10928 10929 10930 10931 10932 10933 10934 10935 10936 10937 10938 10939 10940 10941 10942 10943 10944 10945 10946 10947 10948 10949 10950 10951 10952 10953 10954 10955 10956 10957 10958 10959 10960 10961 10962 10963 10964 10965 10966 10967 10968 10969 10970 10971 10972 10973 10974 10975 10976 10977 10978 10979 10980 10981 10982 10983 10984 10985 10986 10987 10988 10989 10990 10991 10992 10993 10994 10995 10996 10997 10998 10999 11000 11001 11002 11003 11004 11005 11006 11007 11008 11009 11010 11011 11012 11013 11014 11015 11016 11017 11018 11019 11020 11021 11022 11023 11024 11025 11026 11027 11028 11029 11030 11031 11032 11033 11034 11035 11036 11037 11038 11039 11040 11041 11042 11043 11044 11045 11046 11047 11048 11049 11050 11051 11052 11053 11054 11055 11056 11057 11058 11059 11060 11061 11062 11063 11064 11065 11066 11067 11068 11069 11070 11071 11072 11073 11074 11075 11076 11077 11078 11079 11080 11081 11082 11083 11084 11085 11086 11087 11088 11089 11090 11091 11092 11093 11094 11095 11096 11097 11098 11099 11100 11101 11102 11103 11104 11105 11106 11107 11108 11109 11110 11111 11112 11113 11114 11115 11116 11117 11118 11119 11120 11121 11122 11123 11124 11125 11126 11127 11128 11129 11130 11131 11132 11133 11134 11135 11136 11137 11138 11139 11140 11141 11142 11143 11144 11145 11146 11147 11148 11149 11150 11151 11152 11153 11154 11155 11156 11157 11158 11159 11160 11161 11162 11163 11164 11165 11166 11167 11168 11169 11170 11171 11172 11173 11174 11175 11176 11177 11178 11179 11180 11181 11182 11183 11184 11185 11186 11187 11188 11189 11190 11191 11192 11193 11194 11195 11196 11197 11198 11199 11200 11201 11202 11203 11204 11205 11206 11207 11208 11209 11210 11211 11212 11213 11214 11215 11216 11217 11218 11219 11220 11221 11222 11223 11224 11225 11226 11227 11228 11229 11230 11231 11232 11233 11234 11235 11236 11237 11238 11239 11240 11241 11242 11243 11244 11245 11246 11247 11248 11249 11250 11251 11252 11253 11254 11255 11256 11257 11258 11259 11260 11261 11262 11263 11264 11265 11266 11267 11268 11269 11270 11271 11272 11273 11274 11275 11276 11277 11278 11279 11280 11281 11282 11283 11284 11285 11286 11287 11288 11289 11290 11291 11292 11293 11294 11295 11296 11297 11298 11299 11300 11301 11302 11303 11304 11305 11306 11307 11308 11309 11310 11311 11312 11313 11314 11315 11316 11317 11318 11319 11320 11321 11322 11323 11324 11325 11326 11327 11328 11329 11330 11331 11332 11333 11334 11335 11336 11337 11338 11339 11340 11341 11342 11343 11344 11345 11346 11347 11348 11349 11350 11351 11352 11353 11354 11355 11356 11357 11358 11359 11360 11361 11362 11363 11364 11365 11366 11367 11368 11369 11370 11371 11372 11373 11374 11375 11376 11377 11378 11379 11380 11381 11382 11383 11384 11385 11386 11387 11388 11389 11390 11391 11392 11393 11394 11395 11396 11397 11398 11399 11400 11401 11402 11403 11404 11405 11406 11407 11408 11409 11410 11411 11412 11413 11414 11415 11416 11417 11418 11419 11420 11421 11422 11423 11424 11425 11426 11427 11428 11429 11430 11431 11432 11433 11434 11435 11436 11437 11438 11439 11440 11441 11442 11443 11444 11445 11446 11447 11448 11449 11450 11451 11452 11453 11454 11455 11456 11457 11458 11459 11460 11461 11462 11463 11464 11465 11466 11467 11468 11469 11470 11471 11472 11473 11474 11475 11476 11477 11478 11479 11480 11481 11482 11483 11484 11485 11486 11487 11488 11489 11490 11491 11492 11493 11494 11495 11496 11497 11498 11499 11500 11501 11502 11503 11504 11505 11506 11507 11508 11509 11510 11511 11512 11513 11514 11515 11516 11517 11518 11519 11520 11521 11522 11523 11524 11525 11526 11527 11528 11529 11530 11531 11532 11533 11534 11535 11536 11537 11538 11539 11540 11541 11542 11543 11544 11545 11546 11547 11548 11549 11550 11551 11552 11553 11554 11555 11556 11557 11558 11559 11560 11561 11562 11563 11564 11565 11566 11567 11568 11569 11570 11571 11572 11573 11574 11575 11576 11577 11578 11579 11580 11581 11582 11583 11584 11585 11586 11587 11588 11589 11590 11591 11592 11593 11594 11595 11596 11597 11598 11599 11600 11601 11602 11603 11604 11605 11606 11607 11608 11609 11610 11611 11612 11613 11614 11615 11616 11617 11618 11619 11620 11621 11622 11623 11624 11625 11626 11627 11628 11629 11630 11631 11632 11633 11634 11635 11636 11637 11638 11639 11640 11641 11642 11643 11644 11645 11646 11647 11648 11649 11650 11651 11652 11653 11654 11655 11656 11657 11658 11659 11660 11661 11662 11663 11664 11665 11666 11667 11668 11669 11670 11671 11672 11673 11674 11675 11676 11677 11678 11679 11680 11681 11682 11683 11684 11685 11686 11687 11688 11689 11690 11691 11692 11693 11694 11695 11696 11697 11698 11699 11700 11701 11702 11703 11704 11705 11706 11707 11708 11709 11710 11711 11712 11713 11714 11715 11716 11717 11718 11719 11720 11721 11722 11723 11724 11725 11726 11727 11728 11729 11730 11731 11732 11733 11734 11735 11736 11737 11738 11739 11740 11741 11742 11743 11744 11745 11746 11747 11748 11749 11750 11751 11752 11753 11754 11755 11756 11757 11758 11759 11760 11761 11762 11763 11764 11765 11766 11767 11768 11769 11770 11771 11772 11773 11774 11775 11776 11777 11778 11779 11780 11781 11782 11783 11784 11785 11786 11787 11788 11789 11790 11791 11792 11793 11794 11795 11796 11797 11798 11799 11800 11801 11802 11803 11804 11805 11806 11807 11808 11809 11810 11811 11812 11813 11814 11815 11816 11817 11818 11819 11820 11821 11822 11823 11824 11825 11826 11827 11828 11829 11830 11831 11832 11833 11834 11835 11836 11837 11838 11839 11840 11841 11842 11843 11844 11845 11846 11847 11848 11849 11850 11851 11852 11853 11854 11855 11856 11857 11858 11859 11860 11861 11862 11863 11864 11865 11866 11867 11868 11869 11870 11871 11872 11873 11874 11875 11876 11877 11878 11879 11880 11881 11882 11883 11884 11885 11886 11887 11888 11889 11890 11891 11892 11893 11894 11895 11896 11897 11898 11899 11900 11901 11902 11903 11904 11905 11906 11907 11908 11909 11910 11911 11912 11913 11914 11915 11916 11917 11918 11919 11920 11921 11922 11923 11924 11925 11926 11927 11928 11929 11930 11931 11932 11933 11934 11935 11936 11937 11938 11939 11940 11941 11942 11943 11944 11945 11946 11947 11948 11949 11950 11951 11952 11953 11954 11955 11956 11957 11958 11959 11960 11961 11962 11963 11964 11965 11966 11967 11968 11969 11970 11971 11972 11973 11974 11975 11976 11977 11978 11979 11980 11981 11982 11983 11984 11985 11986 11987 11988 11989 11990 11991 11992 11993 11994 11995 11996 11997 11998 11999 12000 12001 12002 12003 12004 12005 12006 12007 12008 12009 12010 12011 12012 12013 12014 12015 12016 12017 12018 12019 12020 12021 12022 12023 12024 12025 12026 12027 12028 12029 12030 12031 12032 12033 12034 12035 12036 12037 12038 12039 12040 12041 12042 12043 12044 12045 12046 12047 12048 12049 12050 12051 12052 12053 12054 12055 12056 12057 12058 12059 12060 12061 12062 12063 12064 12065 12066 12067 12068 12069 12070 12071 12072 12073 12074 12075 12076 12077 12078 12079 12080 12081 12082 12083 12084 12085 12086 12087 12088 12089 12090 12091 12092 12093 12094 12095 12096 12097 12098 12099 12100 12101 12102 12103 12104 12105 12106 12107 12108 12109 12110 12111 12112 12113 12114 12115 12116 12117 12118 12119 12120 12121 12122 12123 12124 12125 12126 12127 12128 12129 12130 12131 12132 12133 12134 12135 12136 12137 12138 12139 12140 12141 12142 12143 12144 12145 12146 12147 12148 12149 12150 12151 12152 12153 12154 12155 12156 12157 12158 12159 12160 12161 12162 12163 12164 12165 12166 12167 12168 12169 12170 12171 12172 12173 12174 12175 12176 12177 12178 12179 12180 12181 12182 12183 12184 12185 12186 12187 12188 12189 12190 12191 12192 12193 12194 12195 12196 12197 12198 12199 12200 12201 12202 12203 12204 12205 12206 12207 12208 12209 12210 12211 12212 12213 12214 12215 12216 12217 12218 12219 12220 12221 12222 12223 12224 12225 12226 12227 12228 12229 12230 12231 12232 12233 12234 12235 12236 12237 12238 12239 12240 12241 12242 12243 12244 12245 12246 12247 12248 12249 12250 12251 12252 12253 12254 12255 12256 12257 12258 12259 12260 12261 12262 12263 12264 12265 12266 12267 12268 12269 12270 12271 12272 12273 12274 12275 12276 12277 12278 12279 12280 12281 12282 12283 12284 12285 12286 12287 12288 12289 12290 12291 12292 12293 12294 12295 12296 12297 12298 12299 12300 12301 12302 12303 12304 12305 12306 12307 12308 12309 12310 12311 12312 12313 12314 12315 12316 12317 12318 12319 12320 12321 12322 12323 12324 12325 12326 12327 12328 12329 12330 12331 12332 12333 12334 12335 12336 12337 12338 12339 12340 12341 12342 12343 12344 12345 12346 12347 12348 12349 12350 12351 12352 12353 12354 12355 12356 12357 12358 12359 12360 12361 12362 12363 12364 12365 12366 12367 12368 12369 12370 12371 12372 12373 12374 12375 12376 12377 12378 12379 12380 12381 12382 12383 12384 12385 12386 12387 12388 12389 12390 12391 12392 12393 12394 12395 12396 12397 12398 12399 12400 12401 12402 12403 12404 12405 12406 12407 12408 12409 12410 12411 12412 12413 12414 12415 12416 12417 12418 12419 12420 12421 12422 12423 12424 12425 12426 12427 12428 12429 12430 12431 12432 12433 12434 12435 12436 12437 12438 12439 12440 12441 12442 12443 12444 12445 12446 12447 12448 12449 12450 12451 12452 12453 12454 12455 12456 12457 12458 12459 12460 12461 12462 12463 12464 12465 12466 12467 12468 12469 12470 12471 12472 12473 12474 12475 12476 12477 12478 12479 12480 12481 12482 12483 12484 12485 12486 12487 12488 12489 12490 12491 12492 12493 12494 12495 12496 12497 12498 12499 12500 12501 12502 12503 12504 12505 12506 12507 12508 12509 12510 12511 12512 12513 12514 12515 12516 12517 12518 12519 12520 12521 12522 12523 12524 12525 12526 12527 12528 12529 12530 12531 12532 12533 12534 12535 12536 12537 12538 12539 12540 12541 12542 12543 12544 12545 12546 12547 12548 12549 12550 12551 12552 12553 12554 12555 12556 12557 12558 12559 12560 12561 12562 12563 12564 12565 12566 12567 12568 12569 12570 12571 12572 12573 12574 12575 12576 12577 12578 12579 12580 12581 12582 12583 12584 12585 12586 12587 12588 12589 12590 12591 12592 12593 12594 12595 12596 12597 12598 12599 12600 12601 12602 12603 12604 12605 12606 12607 12608 12609 12610 12611 12612 12613 12614 12615 12616 12617 12618 12619 12620 12621 12622 12623 12624 12625 12626 12627 12628 12629 12630 12631 12632 12633 12634 12635 12636 12637 12638 12639 12640 12641 12642 12643 12644 12645 12646 12647 12648 12649 12650 12651 12652 12653 12654 12655 12656 12657 12658 12659 12660 12661 12662 12663 12664 12665 12666 12667 12668 12669 12670 12671 12672 12673 12674 12675 12676 12677 12678 12679 12680 12681 12682 12683 12684 12685 12686 12687 12688 12689 12690 12691 12692 12693 12694 12695 12696 12697 12698 12699 12700 12701 12702 12703 12704 12705 12706 12707 12708 12709 12710 12711 12712 12713 12714 12715 12716 12717 12718 12719 12720 12721 12722 12723 12724 12725 12726 12727 12728 12729 12730 12731 12732 12733 12734 12735 12736 12737 12738 12739 12740 12741 12742 12743 12744 12745 12746 12747 12748 12749 12750 12751 12752 12753 12754 12755 12756 12757 12758 12759 12760 12761 12762 12763 12764 12765 12766 12767 12768 12769 12770 12771 12772 12773 12774 12775 12776 12777 12778 12779 12780 12781 12782 12783 12784 12785 12786 12787 12788 12789 12790 12791 12792 12793 12794 12795 12796 12797 12798 12799 12800 12801 12802 12803 12804 12805 12806 12807 12808 12809 12810 12811 12812 12813 12814 12815 12816 12817 12818 12819 12820 12821 12822 12823 12824 12825 12826 12827 12828 12829 12830 12831 12832 12833 12834 12835 12836 12837 12838 12839 12840 12841 12842 12843 12844 12845 12846 12847 12848 12849 12850 12851 12852 12853 12854 12855 12856 12857 12858 12859 12860 12861 12862 12863 12864 12865 12866 12867 12868 12869 12870 12871 12872 12873 12874 12875 12876 12877 12878 12879 12880 12881 12882 12883 12884 12885 12886 12887 12888 12889 12890 12891 12892 12893 12894 12895 12896 12897 12898 12899 12900 12901 12902 12903 12904 12905 12906 12907 12908 12909 12910 12911 12912 12913 12914 12915 12916 12917 12918 12919 12920 12921 12922 12923 12924 12925 12926 12927 12928 12929 12930 12931 12932 12933 12934 12935 12936 12937 12938 12939 12940 12941 12942 12943 12944 12945 12946 12947 12948 12949 12950 12951 12952 12953 12954 12955 12956 12957 12958 12959 12960 12961 12962 12963 12964 12965 12966 12967 12968 12969 12970 12971 12972 12973 12974 12975 12976 12977 12978 12979 12980 12981 12982 12983 12984 12985 12986 12987 12988 12989 12990 12991 12992 12993 12994 12995 12996 12997 12998 12999 13000 13001 13002 13003 13004 13005 13006 13007 13008 13009 13010 13011 13012 13013 13014 13015 13016 13017 13018 13019 13020 13021 13022 13023 13024 13025 13026 13027 13028 13029 13030 13031 13032 13033 13034 13035 13036 13037 13038 13039 13040 13041 13042 13043 13044 13045 13046 13047 13048 13049 13050 13051 13052 13053 13054 13055 13056 13057 13058 13059 13060 13061 13062 13063 13064 13065 13066 13067 13068 13069 13070 13071 13072 13073 13074 13075 13076 13077 13078 13079 13080 13081 13082 13083 13084 13085 13086 13087 13088 13089 13090 13091 13092 13093 13094 13095 13096 13097 13098 13099 13100 13101 13102 13103 13104 13105 13106 13107 13108 13109 13110 13111 13112 13113 13114 13115 13116 13117 13118 13119 13120 13121 13122 13123 13124 13125 13126 13127 13128 13129 13130 13131 13132 13133 13134 13135 13136 13137 13138 13139 13140 13141 13142 13143 13144 13145 13146 13147 13148 13149 13150 13151 13152 13153 13154 13155 13156 13157 13158 13159 13160 13161 13162 13163 13164 13165 13166 13167 13168 13169 13170 13171 13172 13173 13174 13175 13176 13177 13178 13179 13180 13181 13182 13183 13184 13185 13186 13187 13188 13189 13190 13191 13192 13193 13194 13195 13196 13197 13198 13199 13200 13201 13202 13203 13204 13205 13206 13207 13208 13209 13210 13211 13212 13213 13214 13215 13216 13217 13218 13219 13220 13221 13222 13223 13224 13225 13226 13227 13228 13229 13230 13231 13232 13233 13234 13235 13236 13237 13238 13239 13240 13241 13242 13243 13244 13245 13246 13247 13248 13249 13250 13251 13252 13253 13254 13255 13256 13257 13258 13259 13260 13261 13262 13263 13264 13265 13266 13267 13268 13269 13270 13271 13272 13273 13274 13275 13276 13277 13278 13279 13280 13281 13282 13283 13284 13285 13286 13287 13288 13289 13290 13291 13292 13293 13294 13295 13296 13297 13298 13299 13300 13301 13302 13303 13304 13305 13306 13307 13308 13309 13310 13311 13312 13313 13314 13315 13316 13317 13318 13319 13320 13321 13322 13323 13324 13325 13326 13327 13328 13329 13330 13331 13332 13333 13334 13335 13336 13337 13338 13339 13340 13341 13342 13343 13344 13345 13346 13347 13348 13349 13350 13351 13352 13353 13354 13355 13356 13357 13358 13359 13360 13361 13362 13363 13364 13365 13366 13367 13368 13369 13370 13371 13372 13373 13374 13375 13376 13377 13378 13379 13380 13381 13382 13383 13384 13385 13386 13387 13388 13389 13390 13391 13392 13393 13394 13395 13396 13397 13398 13399 13400 13401 13402 13403 13404 13405 13406 13407 13408 13409 13410 13411 13412 13413 13414 13415 13416 13417 13418 13419 13420 13421 13422 13423 13424 13425 13426 13427 13428 13429 13430 13431 13432 13433 13434 13435 13436 13437 13438 13439 13440 13441 13442 13443 13444 13445 13446 13447 13448 13449 13450 13451 13452 13453 13454 13455 13456 13457 13458 13459 13460 13461 13462 13463 13464 13465 13466 13467 13468 13469 13470 13471 13472 13473 13474 13475 13476 13477 13478 13479 13480 13481 13482 13483 13484 13485 13486 13487 13488 13489 13490 13491 13492 13493 13494 13495 13496 13497 13498 13499 13500 13501 13502 13503 13504 13505 13506 13507 13508 13509 13510 13511 13512 13513 13514 13515 13516 13517 13518 13519 13520 13521 13522 13523 13524 13525 13526 13527 13528 13529 13530 13531 13532 13533 13534 13535 13536 13537 13538 13539 13540 13541 13542 13543 13544 13545 13546 13547 13548 13549 13550 13551 13552 13553 13554 13555 13556 13557 13558 13559 13560 13561 13562 13563 13564 13565 13566 13567 13568 13569 13570 13571 13572 13573 13574 13575 13576 13577 13578 13579 13580 13581 13582 13583 13584 13585 13586 13587 13588 13589 13590 13591 13592 13593 13594 13595 13596 13597 13598 13599 13600 13601 13602 13603 13604 13605 13606 13607 13608 13609 13610 13611 13612 13613 13614 13615 13616 13617 13618 13619 13620 13621 13622 13623 13624 13625 13626 13627 13628 13629 13630 13631 13632 13633 13634 13635 13636 13637 13638 13639 13640 13641 13642 13643 13644 13645 13646 13647 13648 13649 13650 13651 13652 13653 13654 13655 13656 13657 13658 13659 13660 13661 13662 13663 13664 13665 13666 13667 13668 13669 13670 13671 13672 13673 13674 13675 13676 13677 13678 13679 13680 13681 13682 13683 13684 13685 13686 13687 13688 13689 13690 13691 13692 13693 13694 13695 13696 13697 13698 13699 13700 13701 13702 13703 13704 13705 13706 13707 13708 13709 13710 13711 13712 13713 13714 13715 13716 13717 13718 13719 13720 13721 13722 13723 13724 13725 13726 13727 13728 13729 13730 13731 13732 13733 13734 13735 13736 13737 13738 13739 13740 13741 13742 13743 13744 13745 13746 13747 13748 13749 13750 13751 13752 13753 13754 13755 13756 13757 13758 13759 13760 13761 13762 13763 13764 13765 13766 13767 13768 13769 13770 13771 13772 13773 13774 13775 13776 13777 13778 13779 13780 13781 13782 13783 13784 13785 13786 13787 13788 13789 13790 13791 13792 13793 13794 13795 13796 13797 13798 13799 13800 13801 13802 13803 13804 13805 13806 13807 13808 13809 13810 13811 13812 13813 13814 13815 13816 13817 13818 13819 13820 13821 13822 13823 13824 13825 13826 13827 13828 13829 13830 13831 13832 13833 13834 13835 13836 13837 13838 13839 13840 13841 13842 13843 13844 13845 13846 13847 13848 13849 13850 13851 13852 13853 13854 13855 13856 13857 13858 13859 13860 13861 13862 13863 13864 13865 13866 13867 13868 13869 13870 13871 13872 13873 13874 13875 13876 13877 13878 13879 13880 13881 13882 13883 13884 13885 13886 13887 13888 13889 13890 13891 13892 13893 13894 13895 13896 13897 13898 13899 13900 13901 13902 13903 13904 13905 13906 13907 13908 13909 13910 13911 13912 13913 13914 13915 13916 13917 13918 13919 13920 13921 13922 13923 13924 13925 13926 13927 13928 13929 13930 13931 13932 13933 13934 13935 13936 13937 13938 13939 13940 13941 13942 13943 13944 13945 13946 13947 13948 13949 13950 13951 13952 13953 13954 13955 13956 13957 13958 13959 13960 13961 13962 13963 13964 13965 13966 13967 13968 13969 13970 13971 13972 13973 13974 13975 13976 13977 13978 13979 13980 13981 13982 13983 13984 13985 13986 13987 13988 13989 13990 13991 13992 13993 13994 13995 13996 13997 13998 13999 14000 14001 14002 14003 14004 14005 14006 14007 14008 14009 14010 14011 14012 14013 14014 14015 14016 14017 14018 14019 14020 14021 14022 14023 14024 14025 14026 14027 14028 14029 14030 14031 14032 14033 14034 14035 14036 14037 14038 14039 14040 14041 14042 14043 14044 14045 14046 14047 14048 14049 14050 14051 14052 14053 14054 14055 14056 14057 14058 14059 14060 14061 14062 14063 14064 14065 14066 14067 14068 14069 14070 14071 14072 14073 14074 14075 14076 14077 14078 14079 14080 14081 14082 14083 14084 14085 14086 14087 14088 14089 14090 14091 14092 14093 14094 14095 14096 14097 14098 14099 14100 14101 14102 14103 14104 14105 14106 14107 14108 14109 14110 14111 14112 14113 14114 14115 14116 14117 14118 14119 14120 14121 14122 14123 14124 14125 14126 14127 14128 14129 14130 14131 14132 14133 14134 14135 14136 14137 14138 14139 14140 14141 14142 14143 14144 14145 14146 14147 14148 14149 14150 14151 14152 14153 14154 14155 14156 14157 14158 14159 14160 14161 14162 14163 14164 14165 14166 14167 14168 14169 14170 14171 14172 14173 14174 14175 14176 14177 14178 14179 14180 14181 14182 14183 14184 14185 14186 14187 14188 14189 14190 14191 14192 14193 14194 14195 14196 14197 14198 14199 14200 14201 14202 14203 14204 14205 14206 14207 14208 14209 14210 14211 14212 14213 14214 14215 14216 14217 14218 14219 14220 14221 14222 14223 14224 14225 14226 14227 14228 14229 14230 14231 14232 14233 14234 14235 14236 14237 14238 14239 14240 14241 14242 14243 14244 14245 14246 14247 14248 14249 14250 14251 14252 14253 14254 14255 14256 14257 14258 14259 14260 14261 14262 14263 14264 14265 14266 14267 14268 14269 14270 14271 14272 14273 14274 14275 14276 14277 14278 14279 14280 14281 14282 14283 14284 14285 14286 14287 14288 14289 14290 14291 14292 14293 14294 14295 14296 14297 14298 14299 14300 14301 14302 14303 14304 14305 14306 14307 14308 14309 14310 14311 14312 14313 14314 14315 14316 14317 14318 14319 14320 14321 14322 14323 14324 14325 14326 14327 14328 14329 14330 14331 14332 14333 14334 14335 14336 14337 14338 14339 14340 14341 14342 14343 14344 14345 14346 14347 14348 14349 14350 14351 14352 14353 14354 14355 14356 14357 14358 14359 14360 14361 14362 14363 14364 14365 14366 14367 14368 14369 14370 14371 14372 14373 14374 14375 14376 14377 14378 14379 14380 14381 14382 14383 14384 14385 14386 14387 14388 14389 14390 14391 14392 14393 14394 14395 14396 14397 14398 14399 14400 14401 14402 14403 14404 14405 14406 14407 14408 14409 14410 14411 14412 14413 14414 14415 14416 14417 14418 14419 14420 14421 14422 14423 14424 14425 14426 14427 14428 14429 14430 14431 14432 14433 14434 14435 14436 14437 14438 14439 14440 14441 14442 14443 14444 14445 14446 14447 14448 14449 14450 14451 14452 14453 14454 14455 14456 14457 14458 14459 14460 14461 14462 14463 14464 14465 14466 14467 14468 14469 14470 14471 14472 14473 14474 14475 14476 14477 14478 14479 14480 14481 14482 14483 14484 14485 14486 14487 14488 14489 14490 14491 14492 14493 14494 14495 14496 14497 14498 14499 14500 14501 14502 14503 14504 14505 14506 14507 14508 14509 14510 14511 14512 14513 14514 14515 14516 14517 14518 14519 14520 14521 14522 14523 14524 14525 14526 14527 14528 14529 14530 14531 14532 14533 14534 14535 14536 14537 14538 14539 14540 14541 14542 14543 14544 14545 14546 14547 14548 14549 14550 14551 14552 14553 14554 14555 14556 14557 14558 14559 14560 14561 14562 14563 14564 14565 14566 14567 14568 14569 14570 14571 14572 14573 14574 14575 14576 14577 14578 14579 14580 14581 14582 14583 14584 14585 14586 14587 14588 14589 14590 14591 14592 14593 14594 14595 14596 14597 14598 14599 14600 14601 14602 14603 14604 14605 14606 14607 14608 14609 14610 14611 14612 14613 14614 14615 14616 14617 14618 14619 14620 14621 14622 14623 14624 14625 14626 14627 14628 14629 14630 14631 14632 14633 14634 14635 14636 14637 14638 14639 14640 14641 14642 14643 14644 14645 14646 14647 14648 14649 14650 14651 14652 14653 14654 14655 14656 14657 14658 14659 14660 14661 14662 14663 14664 14665 14666 14667 14668 14669 14670 14671 14672 14673 14674 14675 14676 14677 14678 14679 14680 14681 14682 14683 14684 14685 14686 14687 14688 14689 14690 14691 14692 14693 14694 14695 14696 14697 14698 14699 14700 14701 14702 14703 14704 14705 14706 14707 14708 14709 14710 14711 14712 14713 14714 14715 14716 14717 14718 14719 14720 14721 14722 14723 14724 14725 14726 14727 14728 14729 14730 14731 14732 14733 14734 14735 14736 14737 14738 14739 14740 14741 14742 14743 14744 14745 14746 14747 14748 14749 14750 14751 14752 14753 14754 14755 14756 14757 14758 14759 14760 14761 14762 14763 14764 14765 14766 14767 14768 14769 14770 14771 14772 14773 14774 14775 14776 14777 14778 14779 14780 14781 14782 14783 14784 14785 14786 14787 14788 14789 14790 14791 14792 14793 14794 14795 14796 14797 14798 14799 14800 14801 14802 14803 14804 14805 14806 14807 14808 14809 14810 14811 14812 14813 14814 14815 14816 14817 14818 14819 14820 14821 14822 14823 14824 14825 14826 14827 14828 14829 14830 14831 14832 14833 14834 14835 14836 14837 14838 14839 14840 14841 14842 14843 14844 14845 14846 14847 14848 14849 14850 14851 14852 14853 14854 14855 14856 14857 14858 14859 14860 14861 14862 14863 14864 14865 14866 14867 14868 14869 14870 14871 14872 14873 14874 14875 14876 14877 14878 14879 14880 14881 14882 14883 14884 14885 14886 14887 14888 14889 14890 14891 14892 14893 14894 14895 14896 14897 14898 14899 14900 14901 14902 14903 14904 14905 14906 14907 14908 14909 14910 14911 14912 14913 14914 14915 14916 14917 14918 14919 14920 14921 14922 14923 14924 14925 14926 14927 14928 14929 14930 14931 14932 14933 14934 14935 14936 14937 14938 14939 14940 14941 14942 14943 14944 14945 14946 14947 14948 14949 14950 14951 14952 14953 14954 14955 14956 14957 14958 14959 14960 14961 14962 14963 14964 14965 14966 14967 14968 14969 14970 14971 14972 14973 14974 14975 14976 14977 14978 14979 14980 14981 14982 14983 14984 14985 14986 14987 14988 14989 14990 14991 14992 14993 14994 14995 14996 14997 14998 14999 15000 15001 15002 15003 15004 15005 15006 15007 15008 15009 15010 15011 15012 15013 15014 15015 15016 15017 15018 15019 15020 15021 15022 15023 15024 15025 15026 15027 15028 15029 15030 15031 15032 15033 15034 15035 15036 15037 15038 15039 15040 15041 15042 15043 15044 15045 15046 15047 15048 15049 15050 15051 15052 15053 15054 15055 15056 15057 15058 15059 15060 15061 15062 15063 15064 15065 15066 15067 15068 15069 15070 15071 15072 15073 15074 15075 15076 15077 15078 15079 15080 15081 15082 15083 15084 15085 15086 15087 15088 15089 15090 15091 15092 15093 15094 15095 15096 15097 15098 15099 15100 15101 15102 15103 15104 15105 15106 15107 15108 15109 15110 15111 15112 15113 15114 15115 15116 15117 15118 15119 15120 15121 15122 15123 15124 15125 15126 15127 15128 15129 15130 15131 15132 15133 15134 15135 15136 15137 15138 15139 15140 15141 15142 15143 15144 15145 15146 15147 15148 15149 15150 15151 15152 15153 15154 15155 15156 15157 15158 15159 15160 15161 15162 15163 15164 15165 15166 15167 15168 15169 15170 15171 15172 15173 15174 15175 15176 15177 15178 15179 15180 15181 15182 15183 15184 15185 15186 15187 15188 15189 15190 15191 15192 15193 15194 15195 15196 15197 15198 15199 15200 15201 15202 15203 15204 15205 15206 15207 15208 15209 15210 15211 15212 15213 15214 15215 15216 15217 15218 15219 15220 15221 15222 15223 15224 15225 15226 15227 15228 15229 15230 15231 15232 15233 15234 15235 15236 15237 15238 15239 15240 15241 15242 15243 15244 15245 15246 15247 15248 15249 15250 15251 15252 15253 15254 15255 15256 15257 15258 15259 15260 15261 15262 15263 15264 15265 15266 15267 15268 15269 15270 15271 15272 15273 15274 15275 15276 15277 15278 15279 15280 15281 15282 15283 15284 15285 15286 15287 15288 15289 15290 15291 15292 15293 15294 15295 15296 15297 15298 15299 15300 15301 15302 15303 15304 15305 15306 15307 15308 15309 15310 15311 15312 15313 15314 15315 15316 15317 15318 15319 15320 15321 15322 15323 15324 15325 15326 15327 15328 15329 15330 15331 15332 15333 15334 15335 15336 15337 15338 15339 15340 15341 15342 15343 15344 15345 15346 15347 15348 15349 15350 15351 15352 15353 15354 15355 15356 15357 15358 15359 15360 15361 15362 15363 15364 15365 15366 15367 15368 15369 15370 15371 15372 15373 15374 15375 15376 15377 15378 15379 15380 15381 15382 15383 15384 15385 15386 15387 15388 15389 15390 15391 15392 15393 15394 15395 15396 15397 15398 15399 15400 15401 15402 15403 15404 15405 15406 15407 15408 15409 15410 15411 15412 15413 15414 15415 15416 15417 15418 15419 15420 15421 15422 15423 15424 15425 15426 15427 15428 15429 15430 15431 15432 15433 15434 15435 15436 15437 15438 15439 15440 15441 15442 15443 15444 15445 15446 15447 15448 15449 15450 15451 15452 15453 15454 15455 15456 15457 15458 15459 15460 15461 15462 15463 15464 15465 15466 15467 15468 15469 15470 15471 15472 15473 15474 15475 15476 15477 15478 15479 15480 15481 15482 15483 15484 15485 15486 15487 15488 15489 15490 15491 15492 15493 15494 15495 15496 15497 15498 15499 15500 15501 15502 15503 15504 15505 15506 15507 15508 15509 15510 15511 15512 15513 15514 15515 15516 15517 15518 15519 15520 15521 15522 15523 15524 15525 15526 15527 15528 15529 15530 15531 15532 15533 15534 15535 15536 15537 15538 15539 15540 15541 15542 15543 15544 15545 15546 15547 15548 15549 15550 15551 15552 15553 15554 15555 15556 15557 15558 15559 15560 15561 15562 15563 15564 15565 15566 15567 15568 15569 15570 15571 15572 15573 15574 15575 15576 15577 15578 15579 15580 15581 15582 15583 15584 15585 15586 15587 15588 15589 15590 15591 15592 15593 15594 15595 15596 15597 15598 15599 15600 15601 15602 15603 15604 15605 15606 15607 15608 15609 15610 15611 15612 15613 15614 15615 15616 15617 15618 15619 15620 15621 15622 15623 15624 15625 15626 15627 15628 15629 15630 15631 15632 15633 15634 15635 15636 15637 15638 15639 15640 15641 15642 15643 15644 15645 15646 15647 15648 15649 15650 15651 15652 15653 15654 15655 15656 15657 15658 15659 15660 15661 15662 15663 15664 15665 15666 15667 15668 15669 15670 15671 15672 15673 15674 15675 15676 15677 15678 15679 15680 15681 15682 15683 15684 15685 15686 15687 15688 15689 15690 15691 15692 15693 15694 15695 15696 15697 15698 15699 15700 15701 15702 15703 15704 15705 15706 15707 15708 15709 15710 15711 15712 15713 15714 15715 15716 15717 15718 15719 15720 15721 15722 15723 15724 15725 15726 15727 15728 15729 15730 15731 15732 15733 15734 15735 15736 15737 15738 15739 15740 15741 15742 15743 15744 15745 15746 15747 15748 15749 15750 15751 15752 15753 15754 15755 15756 15757 15758 15759 15760 15761 15762 15763 15764 15765 15766 15767 15768 15769 15770 15771 15772 15773 15774 15775 15776 15777 15778 15779 15780 15781 15782 15783 15784 15785 15786 15787 15788 15789 15790 15791 15792 15793 15794 15795 15796 15797 15798 15799 15800 15801 15802 15803 15804 15805 15806 15807 15808 15809 15810 15811 15812 15813 15814 15815 15816 15817 15818 15819 15820 15821 15822 15823 15824 15825 15826 15827 15828 15829 15830 15831 15832 15833 15834 15835 15836 15837 15838 15839 15840 15841 15842 15843 15844 15845 15846 15847 15848 15849 15850 15851 15852 15853 15854 15855 15856 15857 15858 15859 15860 15861 15862 15863 15864 15865 15866 15867 15868 15869 15870 15871 15872 15873 15874 15875 15876 15877 15878 15879 15880 15881 15882 15883 15884 15885 15886 15887 15888 15889 15890 15891 15892 15893 15894 15895 15896 15897 15898 15899 15900 15901 15902 15903 15904 15905 15906 15907 15908 15909 15910 15911 15912 15913 15914 15915 15916 15917 15918 15919 15920 15921 15922 15923 15924 15925 15926 15927 15928 15929 15930 15931 15932 15933 15934 15935 15936 15937 15938 15939 15940 15941 15942 15943 15944 15945 15946 15947 15948 15949 15950 15951 15952 15953 15954 15955 15956 15957 15958 15959 15960 15961 15962 15963 15964 15965 15966 15967 15968 15969 15970 15971 15972 15973 15974 15975 15976 15977 15978 15979 15980 15981 15982 15983 15984 15985 15986 15987 15988 15989 15990 15991 15992 15993 15994 15995 15996 15997 15998 15999 16000 16001 16002 16003 16004 16005 16006 16007 16008 16009 16010 16011 16012 16013 16014 16015 16016 16017 16018 16019 16020 16021 16022 16023 16024 16025 16026 16027 16028 16029 16030 16031 16032 16033 16034 16035 16036 16037 16038 16039 16040 16041 16042 16043 16044 16045 16046 16047 16048 16049 16050 16051 16052 16053 16054 16055 16056 16057 16058 16059 16060 16061 16062 16063 16064 16065 16066 16067 16068 16069 16070 16071 16072 16073 16074 16075 16076 16077 16078 16079 16080 16081 16082 16083 16084 16085 16086 16087 16088 16089 16090 16091 16092 16093 16094 16095 16096 16097 16098 16099 16100 16101 16102 16103 16104 16105 16106 16107 16108 16109 16110 16111 16112 16113 16114 16115 16116 16117 16118 16119 16120 16121 16122 16123 16124 16125 16126 16127 16128 16129 16130 16131 16132 16133 16134 16135 16136 16137 16138 16139 16140 16141 16142 16143 16144 16145 16146 16147 16148 16149 16150 16151 16152 16153 16154 16155 16156 16157 16158 16159 16160 16161 16162 16163 16164 16165 16166 16167 16168 16169 16170 16171 16172 16173 16174 16175 16176 16177 16178 16179 16180 16181 16182 16183 16184 16185 16186 16187 16188 16189 16190 16191 16192 16193 16194 16195 16196 16197 16198 16199 16200 16201 16202 16203 16204 16205 16206 16207 16208 16209 16210 16211 16212 16213 16214 16215 16216 16217 16218 16219 16220 16221 16222 16223 16224 16225 16226 16227 16228 16229 16230 16231 16232 16233 16234 16235 16236 16237 16238 16239 16240 16241 16242 16243 16244 16245 16246 16247 16248 16249 16250 16251 16252 16253 16254 16255 16256 16257 16258 16259 16260 16261 16262 16263 16264 16265 16266 16267 16268 16269 16270 16271 16272 16273 16274 16275 16276 16277 16278 16279 16280 16281 16282 16283 16284 16285 16286 16287 16288 16289 16290 16291 16292 16293 16294 16295 16296 16297 16298 16299 16300 16301 16302 16303 16304 16305 16306 16307 16308 16309 16310 16311 16312 16313 16314 16315 16316 16317 16318 16319 16320 16321 16322 16323 16324 16325 16326 16327 16328 16329 16330 16331 16332 16333 16334 16335 16336 16337 16338 16339 16340 16341 16342 16343 16344 16345 16346 16347 16348 16349 16350 16351 16352 16353 16354 16355 16356 16357 16358 16359 16360 16361 16362 16363 16364 16365 16366 16367 16368 16369 16370 16371 16372 16373 16374 16375 16376 16377 16378 16379 16380 16381 16382 16383 16384 16385 16386 16387 16388 16389 16390 16391 16392 16393 16394 16395 16396 16397 16398 16399 16400 16401 16402 16403 16404 16405 16406 16407 16408 16409 16410 16411 16412 16413 16414 16415 16416 16417 16418 16419 16420 16421 16422 16423 16424 16425 16426 16427 16428 16429 16430 16431 16432 16433 16434 16435 16436 16437 16438 16439 16440 16441 16442 16443 16444 16445 16446 16447 16448 16449 16450 16451 16452 16453 16454 16455 16456 16457 16458 16459 16460 16461 16462 16463 16464 16465 16466 16467 16468 16469 16470 16471 16472 16473 16474 16475 16476 16477 16478 16479 16480 16481 16482 16483 16484 16485 16486 16487 16488 16489 16490 16491 16492 16493 16494 16495 16496 16497 16498 16499 16500 16501 16502 16503 16504 16505 16506 16507 16508 16509 16510 16511 16512 16513 16514 16515 16516 16517 16518 16519 16520 16521 16522 16523 16524 16525 16526 16527 16528 16529 16530 16531 16532 16533 16534 16535 16536 16537 16538 16539 16540 16541 16542 16543 16544 16545 16546 16547 16548 16549 16550 16551 16552 16553 16554 16555 16556 16557 16558 16559 16560 16561 16562 16563 16564 16565 16566 16567 16568 16569 16570 16571 16572 16573 16574 16575 16576 16577 16578 16579 16580 16581 16582 16583 16584 16585 16586 16587 16588 16589 16590 16591 16592 16593 16594 16595 16596 16597 16598 16599 16600 16601 16602 16603 16604 16605 16606 16607 16608 16609 16610 16611 16612 16613 16614 16615 16616 16617 16618 16619 16620 16621 16622 16623 16624 16625 16626 16627 16628 16629 16630 16631 16632 16633 16634 16635 16636 16637 16638 16639 16640 16641 16642 16643 16644 16645 16646 16647 16648 16649 16650 16651 16652 16653 16654 16655 16656 16657 16658 16659 16660 16661 16662 16663 16664 16665 16666 16667 16668 16669 16670 16671 16672 16673 16674 16675 16676 16677 16678 16679 16680 16681 16682 16683 16684 16685 16686 16687 16688 16689 16690 16691 16692 16693 16694 16695 16696 16697 16698 16699 16700 16701 16702 16703 16704 16705 16706 16707 16708 16709 16710 16711 16712 16713 16714 16715 16716 16717 16718 16719 16720 16721 16722 16723 16724 16725 16726 16727 16728 16729 16730 16731 16732 16733 16734 16735 16736 16737 16738 16739 16740 16741 16742 16743 16744 16745 16746 16747 16748 16749 16750 16751 16752 16753 16754 16755 16756 16757 16758 16759 16760 16761 16762 16763 16764 16765 16766 16767 16768 16769 16770 16771 16772 16773 16774 16775 16776 16777 16778 16779 16780 16781 16782 16783 16784 16785 16786 16787 16788 16789 16790 16791 16792 16793 16794 16795 16796 16797 16798 16799 16800 16801 16802 16803 16804 16805 16806 16807 16808 16809 16810 16811 16812 16813 16814 16815 16816 16817 16818 16819 16820 16821 16822 16823 16824 16825 16826 16827 16828 16829 16830 16831 16832 16833 16834 16835 16836 16837 16838 16839 16840 16841 16842 16843 16844 16845 16846 16847 16848 16849 16850 16851 16852 16853 16854 16855 16856 16857 16858 16859 16860 16861 16862 16863 16864 16865 16866 16867 16868 16869 16870 16871 16872 16873 16874 16875 16876 16877 16878 16879 16880 16881 16882 16883 16884 16885 16886 16887 16888 16889 16890 16891 16892 16893 16894 16895 16896 16897 16898 16899 16900 16901 16902 16903 16904 16905 16906 16907 16908 16909 16910 16911 16912 16913 16914 16915 16916 16917 16918 16919 16920 16921 16922 16923 16924 16925 16926 16927 16928 16929 16930 16931 16932 16933 16934 16935 16936 16937 16938 16939 16940 16941 16942 16943 16944 16945 16946 16947 16948 16949 16950 16951 16952 16953 16954 16955 16956 16957 16958 16959 16960 16961 16962 16963 16964 16965 16966 16967 16968 16969 16970 16971 16972 16973 16974 16975 16976 16977 16978 16979 16980 16981 16982 16983 16984 16985 16986 16987 16988 16989 16990 16991 16992 16993 16994 16995 16996 16997 16998 16999 17000 17001 17002 17003 17004 17005 17006 17007 17008 17009 17010 17011 17012 17013 17014 17015 17016 17017 17018 17019 17020 17021 17022 17023 17024 17025 17026 17027 17028 17029 17030 17031 17032 17033 17034 17035 17036 17037 17038 17039 17040 17041 17042 17043 17044 17045 17046 17047 17048 17049 17050 17051 17052 17053 17054 17055 17056 17057 17058 17059 17060 17061 17062 17063 17064 17065 17066 17067 17068 17069 17070 17071 17072 17073 17074 17075 17076 17077 17078 17079 17080 17081 17082 17083 17084 17085 17086 17087 17088 17089 17090 17091 17092 17093 17094 17095 17096 17097 17098 17099 17100 17101 17102 17103 17104 17105 17106 17107 17108 17109 17110 17111 17112 17113 17114 17115 17116 17117 17118 17119 17120 17121 17122 17123 17124 17125 17126 17127 17128 17129 17130 17131 17132 17133 17134 17135 17136 17137 17138 17139 17140 17141 17142 17143 17144 17145 17146 17147 17148 17149 17150 17151 17152 17153 17154 17155 17156 17157 17158 17159 17160 17161 17162 17163 17164 17165 17166 17167 17168 17169 17170 17171 17172 17173 17174 17175 17176 17177 17178 17179 17180 17181 17182 17183 17184 17185 17186 17187 17188 17189 17190 17191 17192 17193 17194 17195 17196 17197 17198 17199 17200 17201 17202 17203 17204 17205 17206 17207 17208 17209 17210 17211 17212 17213 17214 17215 17216 17217 17218 17219 17220 17221 17222 17223 17224 17225 17226 17227 17228 17229 17230 17231 17232 17233 17234 17235 17236 17237 17238 17239 17240 17241 17242 17243 17244 17245 17246 17247 17248 17249 17250 17251 17252 17253 17254 17255 17256 17257 17258 17259 17260 17261 17262 17263 17264 17265 17266 17267 17268 17269 17270 17271 17272 17273 17274 17275 17276 17277 17278 17279 17280 17281 17282 17283 17284 17285 17286 17287 17288 17289 17290 17291 17292 17293 17294 17295 17296 17297 17298 17299 17300 17301 17302 17303 17304 17305 17306 17307 17308 17309 17310 17311 17312 17313 17314 17315 17316 17317 17318 17319 17320 17321 17322 17323 17324 17325 17326 17327 17328 17329 17330 17331 17332 17333 17334 17335 17336 17337 17338 17339 17340 17341 17342 17343 17344 17345 17346 17347 17348 17349 17350 17351 17352 17353 17354 17355 17356 17357 17358 17359 17360 17361 17362 17363 17364 17365 17366 17367 17368 17369 17370 17371 17372 17373 17374 17375 17376 17377 17378 17379 17380 17381 17382 17383 17384 17385 17386 17387 17388 17389 17390 17391 17392 17393 17394 17395 17396 17397 17398 17399 17400 17401 17402 17403 17404 17405 17406 17407 17408 17409 17410 17411 17412 17413 17414 17415 17416 17417 17418 17419 17420 17421 17422 17423 17424 17425 17426 17427 17428 17429 17430 17431 17432 17433 17434 17435 17436 17437 17438 17439 17440 17441 17442 17443 17444 17445 17446 17447 17448 17449 17450 17451 17452 17453 17454 17455 17456 17457 17458 17459 17460 17461 17462 17463 17464 17465 17466 17467 17468 17469 17470 17471 17472 17473 17474 17475 17476 17477 17478 17479 17480 17481 17482 17483 17484 17485 17486 17487 17488 17489 17490 17491 17492 17493 17494 17495 17496 17497 17498 17499 17500 17501 17502 17503 17504 17505 17506 17507 17508 17509 17510 17511 17512 17513 17514 17515 17516 17517 17518 17519 17520 17521 17522 17523 17524 17525 17526 17527 17528 17529 17530 17531 17532 17533 17534 17535 17536 17537 17538 17539 17540 17541 17542 17543 17544 17545 17546 17547 17548 17549 17550 17551 17552 17553 17554 17555 17556 17557 17558 17559 17560 17561 17562 17563 17564 17565 17566 17567 17568 17569 17570 17571 17572 17573 17574 17575 17576 17577 17578 17579 17580 17581 17582 17583 17584 17585 17586 17587 17588 17589 17590 17591 17592 17593 17594 17595 17596 17597 17598 17599 17600 17601 17602 17603 17604 17605 17606 17607 17608 17609 17610 17611 17612 17613 17614 17615 17616 17617 17618 17619 17620 17621 17622 17623 17624 17625 17626 17627 17628 17629 17630 17631 17632 17633 17634 17635 17636 17637 17638 17639 17640 17641 17642 17643 17644 17645 17646 17647 17648 17649 17650 17651 17652 17653 17654 17655 17656 17657 17658 17659 17660 17661 17662 17663 17664 17665 17666 17667 17668 17669 17670 17671 17672 17673 17674 17675 17676 17677 17678 17679 17680 17681 17682 17683 17684 17685 17686 17687 17688 17689 17690 17691 17692 17693 17694 17695 17696 17697 17698 17699 17700 17701 17702 17703 17704 17705 17706 17707 17708 17709 17710 17711 17712 17713 17714 17715 17716 17717 17718 17719 17720 17721 17722 17723 17724 17725 17726 17727 17728 17729 17730 17731 17732 17733 17734 17735 17736 17737 17738 17739 17740 17741 17742 17743 17744 17745 17746 17747 17748 17749 17750 17751 17752 17753 17754 17755 17756 17757 17758 17759 17760 17761 17762 17763 17764 17765 17766 17767 17768 17769 17770 17771 17772 17773 17774 17775 17776 17777 17778 17779 17780 17781 17782 17783 17784 17785 17786 17787 17788 17789 17790 17791 17792 17793 17794 17795 17796 17797 17798 17799 17800 17801 17802 17803 17804 17805 17806 17807 17808 17809 17810 17811 17812 17813 17814 17815 17816 17817 17818 17819 17820 17821 17822 17823 17824 17825 17826 17827 17828 17829 17830 17831 17832 17833 17834 17835 17836 17837 17838 17839 17840 17841 17842 17843 17844 17845 17846 17847 17848 17849 17850 17851 17852 17853 17854 17855 17856 17857 17858 17859 17860 17861 17862 17863 17864 17865 17866 17867 17868 17869 17870 17871 17872 17873 17874 17875 17876 17877 17878 17879 17880 17881 17882 17883 17884 17885 17886 17887 17888 17889 17890 17891 17892 17893 17894 17895 17896 17897 17898 17899 17900 17901 17902 17903 17904 17905 17906 17907 17908 17909 17910 17911 17912 17913 17914 17915 17916 17917 17918 17919 17920 17921 17922 17923 17924 17925 17926 17927 17928 17929 17930 17931 17932 17933 17934 17935 17936 17937 17938 17939 17940 17941 17942 17943 17944 17945 17946 17947 17948 17949 17950 17951 17952 17953 17954 17955 17956 17957 17958 17959 17960 17961 17962 17963 17964 17965 17966 17967 17968 17969 17970 17971 17972 17973 17974 17975 17976 17977 17978 17979 17980 17981 17982 17983 17984 17985 17986 17987 17988 17989 17990 17991 17992 17993 17994 17995 17996 17997 17998 17999 18000 18001 18002 18003 18004 18005 18006 18007 18008 18009 18010 18011 18012 18013 18014 18015 18016 18017 18018 18019 18020 18021 18022 18023 18024 18025 18026 18027 18028 18029 18030 18031 18032 18033 18034 18035 18036 18037 18038 18039 18040 18041 18042 18043 18044 18045 18046 18047 18048 18049 18050 18051 18052 18053 18054 18055 18056 18057 18058 18059 18060 18061 18062 18063 18064 18065 18066 18067 18068 18069 18070 18071 18072 18073 18074 18075 18076 18077 18078 18079 18080 18081 18082 18083 18084 18085 18086 18087 18088 18089 18090 18091 18092 18093 18094 18095 18096 18097 18098 18099 18100 18101 18102 18103 18104 18105 18106 18107 18108 18109 18110 18111 18112 18113 18114 18115 18116 18117 18118 18119 18120 18121 18122 18123 18124 18125 18126 18127 18128 18129 18130 18131 18132 18133 18134 18135 18136 18137 18138 18139 18140 18141 18142 18143 18144 18145 18146 18147 18148 18149 18150 18151 18152 18153 18154 18155 18156 18157 18158 18159 18160 18161 18162 18163 18164 18165 18166 18167 18168 18169 18170 18171 18172 18173 18174 18175 18176 18177 18178 18179 18180 18181 18182 18183 18184 18185 18186 18187 18188 18189 18190 18191 18192 18193 18194 18195 18196 18197 18198 18199 18200 18201 18202 18203 18204 18205 18206 18207 18208 18209 18210 18211 18212 18213 18214 18215 18216 18217 18218 18219 18220 18221 18222 18223 18224 18225 18226 18227 18228 18229 18230 18231 18232 18233 18234 18235 18236 18237 18238 18239 18240 18241 18242 18243 18244 18245 18246 18247 18248 18249 18250 18251 18252 18253 18254 18255 18256 18257 18258 18259 18260 18261 18262 18263 18264 18265 18266 18267 18268 18269 18270 18271 18272 18273 18274 18275 18276 18277 18278 18279 18280 18281 18282 18283 18284 18285 18286 18287 18288 18289 18290 18291 18292 18293 18294 18295 18296 18297 18298 18299 18300 18301 18302 18303 18304 18305 18306 18307 18308 18309 18310 18311 18312 18313 18314 18315 18316 18317 18318 18319 18320 18321 18322 18323 18324 18325 18326 18327 18328 18329 18330 18331 18332 18333 18334 18335 18336 18337 18338 18339 18340 18341 18342 18343 18344 18345 18346 18347 18348 18349 18350 18351 18352 18353 18354 18355 18356 18357 18358 18359 18360 18361 18362 18363 18364 18365 18366 18367 18368 18369 18370 18371 18372 18373 18374 18375 18376 18377 18378 18379 18380 18381 18382 18383 18384 18385 18386 18387 18388 18389 18390 18391 18392 18393 18394 18395 18396 18397 18398 18399 18400 18401 18402 18403 18404 18405 18406 18407 18408 18409 18410 18411 18412 18413 18414 18415 18416 18417 18418 18419 18420 18421 18422 18423 18424 18425 18426 18427 18428 18429 18430 18431 18432 18433 18434 18435 18436 18437 18438 18439 18440 18441 18442 18443 18444 18445 18446 18447 18448 18449 18450 18451 18452 18453 18454 18455 18456 18457 18458 18459 18460 18461 18462 18463 18464 18465 18466 18467 18468 18469 18470 18471 18472 18473 18474 18475 18476 18477 18478 18479 18480 18481 18482 18483 18484 18485 18486 18487 18488 18489 18490 18491 18492 18493 18494 18495 18496 18497 18498 18499 18500 18501 18502 18503 18504 18505 18506 18507 18508 18509 18510 18511 18512 18513 18514 18515 18516 18517 18518 18519 18520 18521 18522 18523 18524 18525 18526 18527 18528 18529 18530 18531 18532 18533 18534 18535 18536 18537 18538 18539 18540 18541 18542 18543 18544 18545 18546 18547 18548 18549 18550 18551 18552 18553 18554 18555 18556 18557 18558 18559 18560 18561 18562 18563 18564 18565 18566 18567 18568 18569 18570 18571 18572 18573 18574 18575 18576 18577 18578 18579 18580 18581 18582 18583 18584 18585 18586 18587 18588 18589 18590 18591 18592 18593 18594 18595 18596 18597 18598 18599 18600 18601 18602 18603 18604 18605 18606 18607 18608 18609 18610 18611 18612 18613 18614 18615 18616 18617 18618 18619 18620 18621 18622 18623 18624 18625 18626 18627 18628 18629 18630 18631 18632 18633 18634 18635 18636 18637 18638 18639 18640 18641 18642 18643 18644 18645 18646 18647 18648 18649 18650 18651 18652 18653 18654 18655 18656 18657 18658 18659 18660 18661 18662 18663 18664 18665 18666 18667 18668 18669 18670 18671 18672 18673 18674 18675 18676 18677 18678 18679 18680 18681 18682 18683 18684 18685 18686 18687 18688 18689 18690 18691 18692 18693 18694 18695 18696 18697 18698 18699 18700 18701 18702 18703 18704 18705 18706 18707 18708 18709 18710 18711 18712 18713 18714 18715 18716 18717 18718 18719 18720 18721 18722 18723 18724 18725 18726 18727 18728 18729 18730 18731 18732 18733 18734 18735 18736 18737 18738 18739 18740 18741 18742 18743 18744 18745 18746 18747 18748 18749 18750 18751 18752 18753 18754 18755 18756 18757 18758 18759 18760 18761 18762 18763 18764 18765 18766 18767 18768 18769 18770 18771 18772 18773 18774 18775 18776 18777 18778 18779 18780 18781 18782 18783 18784 18785 18786 18787 18788 18789 18790 18791 18792 18793 18794 18795 18796 18797 18798 18799 18800 18801 18802 18803 18804 18805 18806 18807 18808 18809 18810 18811 18812 18813 18814 18815 18816 18817 18818 18819 18820 18821 18822 18823 18824 18825 18826 18827 18828 18829 18830 18831 18832 18833 18834 18835 18836 18837 18838 18839 18840 18841 18842 18843 18844 18845 18846 18847 18848 18849 18850 18851 18852 18853 18854 18855 18856 18857 18858 18859 18860 18861 18862 18863 18864 18865 18866 18867 18868 18869 18870 18871 18872 18873 18874 18875 18876 18877 18878 18879 18880 18881 18882 18883 18884 18885 18886 18887 18888 18889 18890 18891 18892 18893 18894 18895 18896 18897 18898 18899 18900 18901 18902 18903 18904 18905 18906 18907 18908 18909 18910 18911 18912 18913 18914 18915 18916 18917 18918 18919 18920 18921 18922 18923 18924 18925 18926 18927 18928 18929 18930 18931 18932 18933 18934 18935 18936 18937 18938 18939 18940 18941 18942 18943 18944 18945 18946 18947 18948 18949 18950 18951 18952 18953 18954 18955 18956 18957 18958 18959 18960 18961 18962 18963 18964 18965 18966 18967 18968 18969 18970 18971 18972 18973 18974 18975 18976 18977 18978 18979 18980 18981 18982 18983 18984 18985 18986 18987 18988 18989 18990 18991 18992 18993 18994 18995 18996 18997 18998 18999 19000 19001 19002 19003 19004 19005 19006 19007 19008 19009 19010 19011 19012 19013 19014 19015 19016 19017 19018 19019 19020 19021 19022 19023 19024 19025 19026 19027 19028 19029 19030 19031 19032 19033 19034 19035 19036 19037 19038 19039 19040 19041 19042 19043 19044 19045 19046 19047 19048 19049 19050 19051 19052 19053 19054 19055 19056 19057 19058 19059 19060 19061 19062 19063 19064 19065 19066 19067 19068 19069 19070 19071 19072 19073 19074 19075 19076 19077 19078 19079 19080 19081 19082 19083 19084 19085 19086 19087 19088 19089 19090 19091 19092 19093 19094 19095 19096 19097 19098 19099 19100 19101 19102 19103 19104 19105 19106 19107 19108 19109 19110 19111 19112 19113 19114 19115 19116 19117 19118 19119 19120 19121 19122 19123 19124 19125 19126 19127 19128 19129 19130 19131 19132 19133 19134 19135 19136 19137 19138 19139 19140 19141 19142 19143 19144 19145 19146 19147 19148 19149 19150 19151 19152 19153 19154 19155 19156 19157 19158 19159 19160 19161 19162 19163 19164 19165 19166 19167 19168 19169 19170 19171 19172 19173 19174 19175 19176 19177 19178 19179 19180 19181 19182 19183 19184 19185 19186 19187 19188 19189 19190 19191 19192 19193 19194 19195 19196 19197 19198 19199 19200 19201 19202 19203 19204 19205 19206 19207 19208 19209 19210 19211 19212 19213 19214 19215 19216 19217 19218 19219 19220 19221 19222 19223 19224 19225 19226 19227 19228 19229 19230 19231 19232 19233 19234 19235 19236 19237 19238 19239 19240 19241 19242 19243 19244 19245 19246 19247 19248 19249 19250 19251 19252 19253 19254 19255 19256 19257 19258 19259 19260 19261 19262 19263 19264 19265 19266 19267 19268 19269 19270 19271 19272 19273 19274 19275 19276 19277 19278 19279 19280 19281 19282 19283 19284 19285 19286 19287 19288 19289 19290 19291 19292 19293 19294 19295 19296 19297 19298 19299 19300 19301 19302 19303 19304 19305 19306 19307 19308 19309 19310 19311 19312 19313 19314 19315 19316 19317 19318 19319 19320 19321 19322 19323 19324 19325 19326 19327 19328 19329 19330 19331 19332 19333 19334 19335 19336 19337 19338 19339 19340 19341 19342 19343 19344 19345 19346 19347 19348 19349 19350 19351 19352 19353 19354 19355 19356 19357 19358 19359 19360 19361 19362 19363 19364 19365 19366 19367 19368 19369 19370 19371 19372 19373 19374 19375 19376 19377 19378 19379 19380 19381 19382 19383 19384 19385 19386 19387 19388 19389 19390 19391 19392 19393 19394 19395 19396 19397 19398 19399 19400 19401 19402 19403 19404 19405 19406 19407 19408 19409 19410 19411 19412 19413 19414 19415 19416 19417 19418 19419 19420 19421 19422 19423 19424 19425 19426 19427 19428 19429 19430 19431 19432 19433 19434 19435 19436 19437 19438 19439 19440 19441 19442 19443 19444 19445 19446 19447 19448 19449 19450 19451 19452 19453 19454 19455 19456 19457 19458 19459 19460 19461 19462 19463 19464 19465 19466 19467 19468 19469 19470 19471 19472 19473 19474 19475 19476 19477 19478 19479 19480 19481 19482 19483 19484 19485 19486 19487 19488 19489 19490 19491 19492 19493 19494 19495 19496 19497 19498 19499 19500 19501 19502 19503 19504 19505 19506 19507 19508 19509 19510 19511 19512 19513 19514 19515 19516 19517 19518 19519 19520 19521 19522 19523 19524 19525 19526 19527 19528 19529 19530 19531 19532 19533 19534 19535 19536 19537 19538 19539 19540 19541 19542 19543 19544 19545 19546 19547 19548 19549 19550 19551 19552 19553 19554 19555 19556 19557 19558 19559 19560 19561 19562 19563 19564 19565 19566 19567 19568 19569 19570 19571 19572 19573 19574 19575 19576 19577 19578 19579 19580 19581 19582 19583 19584 19585 19586 19587 19588 19589 19590 19591 19592 19593 19594 19595 19596 19597 19598 19599 19600 19601 19602 19603 19604 19605 19606 19607 19608 19609 19610 19611 19612 19613 19614 19615 19616 19617 19618 19619 19620 19621 19622 19623 19624 19625 19626 19627 19628 19629 19630 19631 19632 19633 19634 19635 19636 19637 19638 19639 19640 19641 19642 19643 19644 19645 19646 19647 19648 19649 19650 19651 19652 19653 19654 19655 19656 19657 19658 19659 19660 19661 19662 19663 19664 19665 19666 19667 19668 19669 19670 19671 19672 19673 19674 19675 19676 19677 19678 19679 19680 19681 19682 19683 19684 19685 19686 19687 19688 19689 19690 19691 19692 19693 19694 19695 19696 19697 19698 19699 19700 19701 19702 19703 19704 19705 19706 19707 19708 19709 19710 19711 19712 19713 19714 19715 19716 19717 19718 19719 19720 19721 19722 19723 19724 19725 19726 19727 19728 19729 19730 19731 19732 19733 19734 19735 19736 19737 19738 19739 19740 19741 19742 19743 19744 19745 19746 19747 19748 19749 19750 19751 19752 19753 19754 19755 19756 19757 19758 19759 19760 19761 19762 19763 19764 19765 19766 19767 19768 19769 19770 19771 19772 19773 19774 19775 19776 19777 19778 19779 19780 19781 19782 19783 19784 19785 19786 19787 19788 19789 19790 19791 19792 19793 19794 19795 19796 19797 19798 19799 19800 19801 19802 19803 19804 19805 19806 19807 19808 19809 19810 19811 19812 19813 19814 19815 19816 19817 19818 19819 19820 19821 19822 19823 19824 19825 19826 19827 19828 19829 19830 19831 19832 19833 19834 19835 19836 19837 19838 19839 19840 19841 19842 19843 19844 19845 19846 19847 19848 19849 19850 19851 19852 19853 19854 19855 19856 19857 19858 19859 19860 19861 19862 19863 19864 19865 19866 19867 19868 19869 19870 19871 19872 19873 19874 19875 19876 19877 19878 19879 19880 19881 19882 19883 19884 19885 19886 19887 19888 19889 19890 19891 19892 19893 19894 19895 19896 19897 19898 19899 19900 19901 19902 19903 19904 19905 19906 19907 19908 19909 19910 19911 19912 19913 19914 19915 19916 19917 19918 19919 19920 19921 19922 19923 19924 19925 19926 19927 19928 19929 19930 19931 19932 19933 19934 19935 19936 19937 19938 19939 19940 19941 19942 19943 19944 19945 19946 19947 19948 19949 19950 19951 19952 19953 19954 19955 19956 19957 19958 19959 19960 19961 19962 19963 19964 19965 19966 19967 19968 19969 19970 19971 19972 19973 19974 19975 19976 19977 19978 19979 19980 19981 19982 19983 19984 19985 19986 19987 19988 19989 19990 19991 19992 19993 19994 19995 19996 19997 19998 19999 20000 20001 20002 20003 20004 20005 20006 20007 20008 20009 20010 20011 20012 20013 20014 20015 20016 20017 20018 20019 20020 20021 20022 20023 20024 20025 20026 20027 20028 20029 20030 20031 20032 20033 20034 20035 20036 20037 20038 20039 20040 20041 20042 20043 20044 20045 20046 20047 20048 20049 20050 20051 20052 20053 20054 20055 20056 20057 20058 20059 20060 20061 20062 20063 20064 20065 20066 20067 20068 20069 20070 20071 20072 20073 20074 20075 20076 20077 20078 20079 20080 20081 20082 20083 20084 20085 20086 20087 20088 20089 20090 20091 20092 20093 20094 20095 20096 20097 20098 20099 20100 20101 20102 20103 20104 20105 20106 20107 20108 20109 20110 20111 20112 20113 20114 20115 20116 20117 20118 20119 20120 20121 20122 20123 20124 20125 20126 20127 20128 20129 20130 20131 20132 20133 20134 20135 20136 20137 20138 20139 20140 20141 20142 20143 20144 20145 20146 20147 20148 20149 20150 20151 20152 20153 20154 20155 20156 20157 20158 20159 20160 20161 20162 20163 20164 20165 20166 20167 20168 20169 20170 20171 20172 20173 20174 20175 20176 20177 20178 20179 20180 20181 20182 20183 20184 20185 20186 20187 20188 20189 20190 20191 20192 20193 20194 20195 20196 20197 20198 20199 20200 20201 20202 20203 20204 20205 20206 20207 20208 20209 20210 20211 20212 20213 20214 20215 20216 20217 20218 20219 20220 20221 20222 20223 20224 20225 20226 20227 20228 20229 20230 20231 20232 20233 20234 20235 20236 20237 20238 20239 20240 20241 20242 20243 20244 20245 20246 20247 20248 20249 20250 20251 20252 20253 20254 20255 20256 20257 20258 20259 20260 20261 20262 20263 20264 20265 20266 20267 20268 20269 20270 20271 20272 20273 20274 20275 20276 20277 20278 20279 20280 20281 20282 20283 20284 20285 20286 20287 20288 20289 20290 20291 20292 20293 20294 20295 20296 20297 20298 20299 20300 20301 20302 20303 20304 20305 20306 20307 20308 20309 20310 20311 20312 20313 20314 20315 20316 20317 20318 20319 20320 20321 20322 20323 20324 20325 20326 20327 20328 20329 20330 20331 20332 20333 20334 20335 20336 20337 20338 20339 20340 20341 20342 20343 20344 20345 20346 20347 20348 20349 20350 20351 20352 20353 20354 20355 20356 20357 20358 20359 20360 20361 20362 20363 20364 20365 20366 20367 20368 20369 20370 20371 20372 20373 20374 20375 20376 20377 20378 20379 20380 20381 20382 20383 20384 20385 20386 20387 20388 20389 20390 20391 20392 20393 20394 20395 20396 20397 20398 20399 20400 20401 20402 20403 20404 20405 20406 20407 20408 20409 20410 20411 20412 20413 20414 20415 20416 20417 20418 20419 20420 20421 20422 20423 20424 20425 20426 20427 20428 20429 20430 20431 20432 20433 20434 20435 20436 20437 20438 20439 20440 20441 20442 20443 20444 20445 20446 20447 20448 20449 20450 20451 20452 20453 20454 20455 20456 20457 20458 20459 20460 20461 20462 20463 20464 20465 20466 20467 20468 20469 20470 20471 20472 20473 20474 20475 20476 20477 20478 20479 20480 20481 20482 20483 20484 20485 20486 20487 20488 20489 20490 20491 20492 20493 20494 20495 20496 20497 20498 20499 20500 20501 20502 20503 20504 20505 20506 20507 20508 20509 20510 20511 20512 20513 20514 20515 20516 20517 20518 20519 20520 20521 20522 20523 20524 20525 20526 20527 20528 20529 20530 20531 20532 20533 20534 20535 20536 20537 20538 20539 20540 20541 20542 20543 20544 20545 20546 20547 20548 20549 20550 20551 20552 20553 20554 20555 20556 20557 20558 20559 20560 20561 20562 20563 20564 20565 20566 20567 20568 20569 20570 20571 20572 20573 20574 20575 20576 20577 20578 20579 20580 20581 20582 20583 20584 20585 20586 20587 20588 20589 20590 20591 20592 20593 20594 20595 20596 20597 20598 20599 20600 20601 20602 20603 20604 20605 20606 20607 20608 20609 20610 20611 20612 20613 20614 20615 20616 20617 20618 20619 20620 20621 20622 20623 20624 20625 20626 20627 20628 20629 20630 20631 20632 20633 20634 20635 20636 20637 20638 20639 20640 20641 20642 20643 20644 20645 20646 20647 20648 20649 20650 20651 20652 20653 20654 20655 20656 20657 20658 20659 20660 20661 20662 20663 20664 20665 20666 20667 20668 20669 20670 20671 20672 20673 20674 20675 20676 20677 20678 20679 20680 20681 20682 20683 20684 20685 20686 20687 20688 20689 20690 20691 20692 20693 20694 20695 20696 20697 20698 20699 20700 20701 20702 20703 20704 20705 20706 20707 20708 20709 20710 20711 20712 20713 20714 20715 20716 20717 20718 20719 20720 20721 20722 20723 20724 20725 20726 20727 20728 20729 20730 20731 20732 20733 20734 20735 20736 20737 20738 20739 20740 20741 20742 20743 20744 20745 20746 20747 20748 20749 20750 20751 20752 20753 20754 20755 20756 20757 20758 20759 20760 20761 20762 20763 20764 20765 20766 20767 20768 20769 20770 20771 20772 20773 20774 20775 20776 20777 20778 20779 20780 20781 20782 20783 20784 20785 20786 20787 20788 20789 20790 20791 20792 20793 20794 20795 20796 20797 20798 20799 20800 20801 20802 20803 20804 20805 20806 20807 20808 20809 20810 20811 20812 20813 20814 20815 20816 20817 20818 20819 20820 20821 20822 20823 20824 20825 20826 20827 20828 20829 20830 20831 20832 20833 20834 20835 20836 20837 20838 20839 20840 20841 20842 20843 20844 20845 20846 20847 20848 20849 20850 20851 20852 20853 20854 20855 20856 20857 20858 20859 20860 20861 20862 20863 20864 20865 20866 20867 20868 20869 20870 20871 20872 20873 20874 20875 20876 20877 20878 20879 20880 20881 20882 20883 20884 20885 20886 20887 20888 20889 20890 20891 20892 20893 20894 20895 20896 20897 20898 20899 20900 20901 20902 20903 20904 20905 20906 20907 20908 20909 20910 20911 20912 20913 20914 20915 20916 20917 20918 20919 20920 20921 20922 20923 20924 20925 20926 20927 20928 20929 20930 20931 20932 20933 20934 20935 20936 20937 20938 20939 20940 20941 20942 20943 20944 20945 20946 20947 20948 20949 20950 20951 20952 20953 20954 20955 20956 20957 20958 20959 20960 20961 20962 20963 20964 20965 20966 20967 20968 20969 20970 20971 20972 20973 20974 20975 20976 20977 20978 20979 20980 20981 20982 20983 20984 20985 20986 20987 20988 20989 20990 20991 20992 20993 20994 20995 20996 20997 20998 20999 21000 21001 21002 21003 21004 21005 21006 21007 21008 21009 21010 21011 21012 21013 21014 21015 21016 21017 21018 21019 21020 21021 21022 21023 21024 21025 21026 21027 21028 21029 21030 21031 21032 21033 21034 21035 21036 21037 21038 21039 21040 21041 21042 21043 21044 21045 21046 21047 21048 21049 21050 21051 21052 21053 21054 21055 21056 21057 21058 21059 21060 21061 21062 21063 21064 21065 21066 21067 21068 21069 21070 21071 21072 21073 21074 21075 21076 21077 21078 21079 21080 21081 21082 21083 21084 21085 21086 21087 21088 21089 21090 21091 21092 21093 21094 21095 21096 21097 21098 21099 21100 21101 21102 21103 21104 21105 21106 21107 21108 21109 21110 21111 21112 21113 21114 21115 21116 21117 21118 21119 21120 21121 21122 21123 21124 21125 21126 21127 21128 21129 21130 21131 21132 21133 21134 21135 21136 21137 21138 21139 21140 21141 21142 21143 21144 21145 21146 21147 21148 21149 21150 21151 21152 21153 21154 21155 21156 21157 21158 21159 21160 21161 21162 21163 21164 21165 21166 21167 21168 21169 21170 21171 21172 21173 21174 21175 21176 21177 21178 21179 21180 21181 21182 21183 21184 21185 21186 21187 21188 21189 21190 21191 21192 21193 21194 21195 21196 21197 21198 21199 21200 21201 21202 21203 21204 21205 21206 21207 21208 21209 21210 21211 21212 21213 21214 21215 21216 21217 21218 21219 21220 21221 21222 21223 21224 21225 21226 21227 21228 21229 21230 21231 21232 21233 21234 21235 21236 21237 21238 21239 21240 21241 21242 21243 21244 21245 21246 21247 21248 21249 21250 21251 21252 21253 21254 21255 21256 21257 21258 21259 21260 21261 21262 21263 21264 21265 21266 21267 21268 21269 21270 21271 21272 21273 21274 21275 21276 21277 21278 21279 21280 21281 21282 21283 21284 21285 21286 21287 21288 21289 21290 21291 21292 21293 21294 21295 21296 21297 21298 21299 21300 21301 21302 21303 21304 21305 21306 21307 21308 21309 21310 21311 21312 21313 21314 21315 21316 21317 21318 21319 21320 21321 21322 21323 21324 21325 21326 21327 21328 21329 21330 21331 21332 21333 21334 21335 21336 21337 21338 21339 21340 21341 21342 21343 21344 21345 21346 21347 21348 21349 21350 21351 21352 21353 21354 21355 21356 21357 21358 21359 21360 21361 21362 21363 21364 21365 21366 21367 21368 21369 21370 21371 21372 21373 21374 21375 21376 21377 21378 21379 21380 21381 21382 21383 21384 21385 21386 21387 21388 21389 21390 21391 21392 21393 21394 21395 21396 21397 21398 21399 21400 21401 21402 21403 21404 21405 21406 21407 21408 21409 21410 21411 21412 21413 21414 21415 21416 21417 21418 21419 21420 21421 21422 21423 21424 21425 21426 21427 21428 21429 21430 21431 21432 21433 21434 21435 21436 21437 21438 21439 21440 21441 21442 21443 21444 21445 21446 21447 21448 21449 21450 21451 21452 21453 21454 21455 21456 21457 21458 21459 21460 21461 21462 21463 21464 21465 21466 21467 21468 21469 21470 21471 21472 21473 21474 21475 21476 21477 21478 21479 21480 21481 21482 21483 21484 21485 21486 21487 21488 21489 21490 21491 21492 21493 21494 21495 21496 21497 21498 21499 21500 21501 21502 21503 21504 21505 21506 21507 21508 21509 21510 21511 21512 21513 21514 21515 21516 21517 21518 21519 21520 21521 21522 21523 21524 21525 21526 21527 21528 21529 21530 21531 21532 21533 21534 21535 21536 21537 21538 21539 21540 21541 21542 21543 21544 21545 21546 21547 21548 21549 21550 21551 21552 21553 21554 21555 21556 21557 21558 21559 21560 21561 21562 21563 21564 21565 21566 21567 21568 21569 21570 21571 21572 21573 21574 21575 21576 21577 21578 21579 21580 21581 21582 21583 21584 21585 21586 21587 21588 21589 21590 21591 21592 21593 21594 21595 21596 21597 21598 21599 21600 21601 21602 21603 21604 21605 21606 21607 21608 21609 21610 21611 21612 21613 21614 21615 21616 21617 21618 21619 21620 21621 21622 21623 21624 21625 21626 21627 21628 21629 21630 21631 21632 21633 21634 21635 21636 21637 21638 21639 21640 21641 21642 21643 21644 21645 21646 21647 21648 21649 21650 21651 21652 21653 21654 21655 21656 21657 21658 21659 21660 21661 21662 21663 21664 21665 21666 21667 21668 21669 21670 21671 21672 21673 21674 21675 21676 21677 21678 21679 21680 21681 21682 21683 21684 21685 21686 21687 21688 21689 21690 21691 21692 21693 21694 21695 21696 21697 21698 21699 21700 21701 21702 21703 21704 21705 21706 21707 21708 21709 21710 21711 21712 21713 21714 21715 21716 21717 21718 21719 21720 21721 21722 21723 21724 21725 21726 21727 21728 21729 21730 21731 21732 21733 21734 21735 21736 21737 21738 21739 21740 21741 21742 21743 21744 21745 21746 21747 21748 21749 21750 21751 21752 21753 21754 21755 21756 21757 21758 21759 21760 21761 21762 21763 21764 21765 21766 21767 21768 21769 21770 21771 21772 21773 21774 21775 21776 21777 21778 21779 21780 21781 21782 21783 21784 21785 21786 21787 21788 21789 21790 21791 21792 21793 21794 21795 21796 21797 21798 21799 21800 21801 21802 21803 21804 21805 21806 21807 21808 21809 21810 21811 21812 21813 21814 21815 21816 21817 21818 21819 21820 21821 21822 21823 21824 21825 21826 21827 21828 21829 21830 21831 21832 21833 21834 21835 21836 21837 21838 21839 21840 21841 21842 21843 21844 21845 21846 21847 21848 21849 21850 21851 21852 21853 21854 21855 21856 21857 21858 21859 21860 21861 21862 21863 21864 21865 21866 21867 21868 21869 21870 21871 21872 21873 21874 21875 21876 21877 21878 21879 21880 21881 21882 21883 21884 21885 21886 21887 21888 21889 21890 21891 21892 21893 21894 21895 21896 21897 21898 21899 21900 21901 21902 21903 21904 21905 21906 21907 21908 21909 21910 21911 21912 21913 21914 21915 21916 21917 21918 21919 21920 21921 21922 21923 21924 21925 21926 21927 21928 21929 21930 21931 21932 21933 21934 21935 21936 21937 21938 21939 21940 21941 21942 21943 21944 21945 21946 21947 21948 21949 21950 21951 21952 21953 21954 21955 21956 21957 21958 21959 21960 21961 21962 21963 21964 21965 21966 21967 21968 21969 21970 21971 21972 21973 21974 21975 21976 21977 21978 21979 21980 21981 21982 21983 21984 21985 21986 21987 21988 21989 21990 21991 21992 21993 21994 21995 21996 21997 21998 21999 22000 22001 22002 22003 22004 22005 22006 22007 22008 22009 22010 22011 22012 22013 22014 22015 22016 22017 22018 22019 22020 22021 22022 22023 22024 22025 22026 22027 22028 22029 22030 22031 22032 22033 22034 22035 22036 22037 22038 22039 22040 22041 22042 22043 22044 22045 22046 22047 22048 22049 22050 22051 22052 22053 22054 22055 22056 22057 22058 22059 22060 22061 22062 22063 22064 22065 22066 22067 22068 22069 22070 22071 22072 22073 22074 22075 22076 22077 22078 22079 22080 22081 22082 22083 22084 22085 22086 22087 22088 22089 22090 22091 22092 22093 22094 22095 22096 22097 22098 22099 22100 22101 22102 22103 22104 22105 22106 22107 22108 22109 22110 22111 22112 22113 22114 22115 22116 22117 22118 22119 22120 22121 22122 22123 22124 22125 22126 22127 22128 22129 22130 22131 22132 22133 22134 22135 22136 22137 22138 22139 22140 22141 22142 22143 22144 22145 22146 22147 22148 22149 22150 22151 22152 22153 22154 22155 22156 22157 22158 22159 22160 22161 22162 22163 22164 22165 22166 22167 22168 22169 22170 22171 22172 22173 22174 22175 22176 22177 22178 22179 22180 22181 22182 22183 22184 22185 22186 22187 22188 22189 22190 22191 22192 22193 22194 22195 22196 22197 22198 22199 22200 22201 22202 22203 22204 22205 22206 22207 22208 22209 22210 22211 22212 22213 22214 22215 22216 22217 22218 22219 22220 22221 22222 22223 22224 22225 22226 22227 22228 22229 22230 22231 22232 22233 22234 22235 22236 22237 22238 22239 22240 22241 22242 22243 22244 22245 22246 22247 22248 22249 22250 22251 22252 22253 22254 22255 22256 22257 22258 22259 22260 22261 22262 22263 22264 22265 22266 22267 22268 22269 22270 22271 22272 22273 22274 22275 22276 22277 22278 22279 22280 22281 22282 22283 22284 22285 22286 22287 22288 22289 22290 22291 22292 22293 22294 22295 22296 22297 22298 22299 22300 22301 22302 22303 22304 22305 22306 22307 22308 22309 22310 22311 22312 22313 22314 22315 22316 22317 22318 22319 22320 22321 22322 22323 22324 22325 22326 22327 22328 22329 22330 22331 22332 22333 22334 22335 22336 22337 22338 22339 22340 22341 22342 22343 22344 22345 22346 22347 22348 22349 22350 22351 22352 22353 22354 22355 22356 22357 22358 22359 22360 22361 22362 22363 22364 22365 22366 22367 22368 22369 22370 22371 22372 22373 22374 22375 22376 22377 22378 22379 22380 22381 22382 22383 22384 22385 22386 22387 22388 22389 22390 22391 22392 22393 22394 22395 22396 22397 22398 22399 22400 22401 22402 22403 22404 22405 22406 22407 22408 22409 22410 22411 22412 22413 22414 22415 22416 22417 22418 22419 22420 22421 22422 22423 22424 22425 22426 22427 22428 22429 22430 22431 22432 22433 22434 22435 22436 22437 22438 22439 22440 22441 22442 22443 22444 22445 22446 22447 22448 22449 22450 22451 22452 22453 22454 22455 22456 22457 22458 22459 22460 22461 22462 22463 22464 22465 22466 22467 22468 22469 22470 22471 22472 22473 22474 22475 22476 22477 22478 22479 22480 22481 22482 22483 22484 22485 22486 22487 22488 22489 22490 22491 22492 22493 22494 22495 22496 22497 22498 22499 22500 22501 22502 22503 22504 22505 22506 22507 22508 22509 22510 22511 22512 22513 22514 22515 22516 22517 22518 22519 22520 22521 22522 22523 22524 22525 22526 22527 22528 22529 22530 22531 22532 22533 22534 22535 22536 22537 22538 22539 22540 22541 22542 22543 22544 22545 22546 22547 22548 22549 22550 22551 22552 22553 22554 22555 22556 22557 22558 22559 22560 22561 22562 22563 22564 22565 22566 22567 22568 22569 22570 22571 22572 22573 22574 22575 22576 22577 22578 22579 22580 22581 22582 22583 22584 22585 22586 22587 22588 22589 22590 22591 22592 22593 22594 22595 22596 22597 22598 22599 22600 22601 22602 22603 22604 22605 22606 22607 22608 22609 22610 22611 22612 22613 22614 22615 22616 22617 22618 22619 22620 22621 22622 22623 22624 22625 22626 22627 22628 22629 22630 22631 22632 22633 22634 22635 22636 22637 22638 22639 22640 22641 22642 22643 22644 22645 22646 22647 22648 22649 22650 22651 22652 22653 22654 22655 22656 22657 22658 22659 22660 22661 22662 22663 22664 22665 22666 22667 22668 22669 22670 22671 22672 22673 22674 22675 22676 22677 22678 22679 22680 22681 22682 22683 22684 22685 22686 22687 22688 22689 22690 22691 22692 22693 22694 22695 22696 22697 22698 22699 22700 22701 22702 22703 22704 22705 22706 22707 22708 22709 22710 22711 22712 22713 22714 22715 22716 22717 22718 22719 22720 22721 22722 22723 22724 22725 22726 22727 22728 22729 22730 22731 22732 22733 22734 22735 22736 22737 22738 22739 22740 22741 22742 22743 22744 22745 22746 22747 22748 22749 22750 22751 22752 22753 22754 22755 22756 22757 22758 22759 22760 22761 22762 22763 22764 22765 22766 22767 22768 22769 22770 22771 22772 22773 22774 22775 22776 22777 22778 22779 22780 22781 22782 22783 22784 22785 22786 22787 22788 22789 22790 22791 22792 22793 22794 22795 22796 22797 22798 22799 22800 22801 22802 22803 22804 22805 22806 22807 22808 22809 22810 22811 22812 22813 22814 22815 22816 22817 22818 22819 22820 22821 22822 22823 22824 22825 22826 22827 22828 22829 22830 22831 22832 22833 22834 22835 22836 22837 22838 22839 22840 22841 22842 22843 22844 22845 22846 22847 22848 22849 22850 22851 22852 22853 22854 22855 22856 22857 22858 22859 22860 22861 22862 22863 22864 22865 22866 22867 22868 22869 22870 22871 22872 22873 22874 22875 22876 22877 22878 22879 22880 22881 22882 22883 22884 22885 22886 22887 22888 22889 22890 22891 22892 22893 22894 22895 22896 22897 22898 22899 22900 22901 22902 22903 22904 22905 22906 22907 22908 22909 22910 22911 22912 22913 22914 22915 22916 22917 22918 22919 22920 22921 22922 22923 22924 22925 22926 22927 22928 22929 22930 22931 22932 22933 22934 22935 22936 22937 22938 22939 22940 22941 22942 22943 22944 22945 22946 22947 22948 22949 22950 22951 22952 22953 22954 22955 22956 22957 22958 22959 22960 22961 22962 22963 22964 22965 22966 22967 22968 22969 22970 22971 22972 22973 22974 22975 22976 22977 22978 22979 22980 22981 22982 22983 22984 22985 22986 22987 22988 22989 22990 22991 22992 22993 22994 22995 22996 22997 22998 22999 23000 23001 23002 23003 23004 23005 23006 23007 23008 23009 23010 23011 23012 23013 23014 23015 23016 23017 23018 23019 23020 23021 23022 23023 23024 23025 23026 23027 23028 23029 23030 23031 23032 23033 23034 23035 23036 23037 23038 23039 23040 23041 23042 23043 23044 23045 23046 23047 23048 23049 23050 23051 23052 23053 23054 23055 23056 23057 23058 23059 23060 23061 23062 23063 23064 23065 23066 23067 23068 23069 23070 23071 23072 23073 23074 23075 23076 23077 23078 23079 23080 23081 23082 23083 23084 23085 23086 23087 23088 23089 23090 23091 23092 23093 23094 23095 23096 23097 23098 23099 23100 23101 23102 23103 23104 23105 23106 23107 23108 23109 23110 23111 23112 23113 23114 23115 23116 23117 23118 23119 23120 23121 23122 23123 23124 23125 23126 23127 23128 23129 23130 23131 23132 23133 23134 23135 23136 23137 23138 23139 23140 23141 23142 23143 23144 23145 23146 23147 23148 23149 23150 23151 23152 23153 23154 23155 23156 23157 23158 23159 23160 23161 23162 23163 23164 23165 23166 23167 23168 23169 23170 23171 23172 23173 23174 23175 23176 23177 23178 23179 23180 23181 23182 23183 23184 23185 23186 23187 23188 23189 23190 23191 23192 23193 23194 23195 23196 23197 23198 23199 23200 23201 23202 23203 23204 23205 23206 23207 23208 23209 23210 23211 23212 23213 23214 23215 23216 23217 23218 23219 23220 23221 23222 23223 23224 23225 23226 23227 23228 23229 23230 23231 23232 23233 23234 23235 23236 23237 23238 23239 23240 23241 23242 23243 23244 23245 23246 23247 23248 23249 23250 23251 23252 23253 23254 23255 23256 23257 23258 23259 23260 23261 23262 23263 23264 23265 23266 23267 23268 23269 23270 23271 23272 23273 23274 23275 23276 23277 23278 23279 23280 23281 23282 23283 23284 23285 23286 23287 23288 23289 23290 23291 23292 23293 23294 23295 23296 23297 23298 23299 23300 23301 23302 23303 23304 23305 23306 23307 23308 23309 23310 23311 23312 23313 23314 23315 23316 23317 23318 23319 23320 23321 23322 23323 23324 23325 23326 23327 23328 23329 23330 23331 23332 23333 23334 23335 23336 23337 23338 23339 23340 23341 23342 23343 23344 23345 23346 23347 23348 23349 23350 23351 23352 23353 23354 23355 23356 23357 23358 23359 23360 23361 23362 23363 23364 23365 23366 23367 23368 23369 23370 23371 23372 23373 23374 23375 23376 23377 23378 23379 23380 23381 23382 23383 23384 23385 23386 23387 23388 23389 23390 23391 23392 23393 23394 23395 23396 23397 23398 23399 23400 23401 23402 23403 23404 23405 23406 23407 23408 23409 23410 23411 23412 23413 23414 23415 23416 23417 23418 23419 23420 23421 23422 23423 23424 23425 23426 23427 23428 23429 23430 23431 23432 23433 23434 23435 23436 23437 23438 23439 23440 23441 23442 23443 23444 23445 23446 23447 23448 23449 23450 23451 23452 23453 23454 23455 23456 23457 23458 23459 23460 23461 23462 23463 23464 23465 23466 23467 23468 23469 23470 23471 23472 23473 23474 23475 23476 23477 23478 23479 23480 23481 23482 23483 23484 23485 23486 23487 23488 23489 23490 23491 23492 23493 23494 23495 23496 23497 23498 23499 23500 23501 23502 23503 23504 23505 23506 23507 23508 23509 23510 23511 23512 23513 23514 23515 23516 23517 23518 23519 23520 23521 23522 23523 23524 23525 23526 23527 23528 23529 23530 23531 23532 23533 23534 23535 23536 23537 23538 23539 23540 23541 23542 23543 23544 23545 23546 23547 23548 23549 23550 23551 23552 23553 23554 23555 23556 23557 23558 23559 23560 23561 23562 23563 23564 23565 23566 23567 23568 23569 23570 23571 23572 23573 23574 23575 23576 23577 23578 23579 23580 23581 23582 23583 23584 23585 23586 23587 23588 23589 23590 23591 23592 23593 23594 23595 23596 23597 23598 23599 23600 23601 23602 23603 23604 23605 23606 23607 23608 23609 23610 23611 23612 23613 23614 23615 23616 23617 23618 23619 23620 23621 23622 23623 23624 23625 23626 23627 23628 23629 23630 23631 23632 23633 23634 23635 23636 23637 23638 23639 23640 23641 23642 23643 23644 23645 23646 23647 23648 23649 23650 23651 23652 23653 23654 23655 23656 23657 23658 23659 23660 23661 23662 23663 23664 23665 23666 23667 23668 23669 23670 23671 23672 23673 23674 23675 23676 23677 23678 23679 23680 23681 23682 23683 23684 23685 23686 23687 23688 23689 23690 23691 23692 23693 23694 23695 23696 23697 23698 23699 23700 23701 23702 23703 23704 23705 23706 23707 23708 23709 23710 23711 23712 23713 23714 23715 23716 23717 23718 23719 23720 23721 23722 23723 23724 23725 23726 23727 23728 23729 23730 23731 23732 23733 23734 23735 23736 23737 23738 23739 23740 23741 23742 23743 23744 23745 23746 23747 23748 23749 23750 23751 23752 23753 23754 23755 23756 23757 23758 23759 23760 23761 23762 23763 23764 23765 23766 23767 23768 23769 23770 23771 23772 23773 23774 23775 23776 23777 23778 23779 23780 23781 23782 23783 23784 23785 23786 23787 23788 23789 23790 23791 23792 23793 23794 23795 23796 23797 23798 23799 23800 23801 23802 23803 23804 23805 23806 23807 23808 23809 23810 23811 23812 23813 23814 23815 23816 23817 23818 23819 23820 23821 23822 23823 23824 23825 23826 23827 23828 23829 23830 23831 23832 23833 23834 23835 23836 23837 23838 23839 23840 23841 23842 23843 23844 23845 23846 23847 23848 23849 23850 23851 23852 23853 23854 23855 23856 23857 23858 23859 23860 23861 23862 23863 23864 23865 23866 23867 23868 23869 23870 23871 23872 23873 23874 23875 23876 23877 23878 23879 23880 23881 23882 23883 23884 23885 23886 23887 23888 23889 23890 23891 23892 23893 23894 23895 23896 23897 23898 23899 23900 23901 23902 23903 23904 23905 23906 23907 23908 23909 23910 23911 23912 23913 23914 23915 23916 23917 23918 23919 23920 23921 23922 23923 23924 23925 23926 23927 23928 23929 23930 23931 23932 23933 23934 23935 23936 23937 23938 23939 23940 23941 23942 23943 23944 23945 23946 23947 23948 23949 23950 23951 23952 23953 23954 23955 23956 23957 23958 23959 23960 23961 23962 23963 23964 23965 23966 23967 23968 23969 23970 23971 23972 23973 23974 23975 23976 23977 23978 23979 23980 23981 23982 23983 23984 23985 23986 23987 23988 23989 23990 23991 23992 23993 23994 23995 23996 23997 23998 23999 24000 24001 24002 24003 24004 24005 24006 24007 24008 24009 24010 24011 24012 24013 24014 24015 24016 24017 24018 24019 24020 24021 24022 24023 24024 24025 24026 24027 24028 24029 24030 24031 24032 24033 24034 24035 24036 24037 24038 24039 24040 24041 24042 24043 24044 24045 24046 24047 24048 24049 24050 24051 24052 24053 24054 24055 24056 24057 24058 24059 24060 24061 24062 24063 24064 24065 24066 24067 24068 24069 24070 24071 24072 24073 24074 24075 24076 24077 24078 24079 24080 24081 24082 24083 24084 24085 24086 24087 24088 24089 24090 24091 24092 24093 24094 24095 24096 24097 24098 24099 24100 24101 24102 24103 24104 24105 24106 24107 24108 24109 24110 24111 24112 24113 24114 24115 24116 24117 24118 24119 24120 24121 24122 24123 24124 24125 24126 24127 24128 24129 24130 24131 24132 24133 24134 24135 24136 24137 24138 24139 24140 24141 24142 24143 24144 24145 24146 24147 24148 24149 24150 24151 24152 24153 24154 24155 24156 24157 24158 24159 24160 24161 24162 24163 24164 24165 24166 24167 24168 24169 24170 24171 24172 24173 24174 24175 24176 24177 24178 24179 24180 24181 24182 24183 24184 24185 24186 24187 24188 24189 24190 24191 24192 24193 24194 24195 24196 24197 24198 24199 24200 24201 24202 24203 24204 24205 24206 24207 24208 24209 24210 24211 24212 24213 24214 24215 24216 24217 24218 24219 24220 24221 24222 24223 24224 24225 24226 24227 24228 24229 24230 24231 24232 24233 24234 24235 24236 24237 24238 24239 24240 24241 24242 24243 24244 24245 24246 24247 24248 24249 24250 24251 24252 24253 24254 24255 24256 24257 24258 24259 24260 24261 24262 24263 24264 24265 24266 24267 24268 24269 24270 24271 24272 24273 24274 24275 24276 24277 24278 24279 24280 24281 24282 24283 24284 24285 24286 24287 24288 24289 24290 24291 24292 24293 24294 24295 24296 24297 24298 24299 24300 24301 24302 24303 24304 24305 24306 24307 24308 24309 24310 24311 24312 24313 24314 24315 24316 24317 24318 24319 24320 24321 24322 24323 24324 24325 24326 24327 24328 24329 24330 24331 24332 24333 24334 24335 24336 24337 24338 24339 24340 24341 24342 24343 24344 24345 24346 24347 24348 24349 24350 24351 24352 24353 24354 24355 24356 24357 24358 24359 24360 24361 24362 24363 24364 24365 24366 24367 24368 24369 24370 24371 24372 24373 24374 24375 24376 24377 24378 24379 24380 24381 24382 24383 24384 24385 24386 24387 24388 24389 24390 24391 24392 24393 24394 24395 24396 24397 24398 24399 24400 24401 24402 24403 24404 24405 24406 24407 24408 24409 24410 24411 24412 24413 24414 24415 24416 24417 24418 24419 24420 24421 24422 24423 24424 24425 24426 24427 24428 24429 24430 24431 24432 24433 24434 24435 24436 24437 24438 24439 24440 24441 24442 24443 24444 24445 24446 24447 24448 24449 24450 24451 24452 24453 24454 24455 24456 24457 24458 24459 24460 24461 24462 24463 24464 24465 24466 24467 24468 24469 24470 24471 24472 24473 24474 24475 24476 24477 24478 24479 24480 24481 24482 24483 24484 24485 24486 24487 24488 24489 24490 24491 24492 24493 24494 24495 24496 24497 24498 24499 24500 24501 24502 24503 24504 24505 24506 24507 24508 24509 24510 24511 24512 24513 24514 24515 24516 24517 24518 24519 24520 24521 24522 24523 24524 24525 24526 24527 24528 24529 24530 24531 24532 24533 24534 24535 24536 24537 24538 24539 24540 24541 24542 24543 24544 24545 24546 24547 24548 24549 24550 24551 24552 24553 24554 24555 24556 24557 24558 24559 24560 24561 24562 24563 24564 24565 24566 24567 24568 24569 24570 24571 24572 24573 24574 24575 24576 24577 24578 24579 24580 24581 24582 24583 24584 24585 24586 24587 24588 24589 24590 24591 24592 24593 24594 24595 24596 24597 24598 24599 24600 24601 24602 24603 24604 24605 24606 24607 24608 24609 24610 24611 24612 24613 24614 24615 24616 24617 24618 24619 24620 24621 24622 24623 24624 24625 24626 24627 24628 24629 24630 24631 24632 24633 24634 24635 24636 24637 24638 24639 24640 24641 24642 24643 24644 24645 24646 24647 24648 24649 24650 24651 24652 24653 24654 24655 24656 24657 24658 24659 24660 24661 24662 24663 24664 24665 24666 24667 24668 24669 24670 24671 24672 24673 24674 24675 24676 24677 24678 24679 24680 24681 24682 24683 24684 24685 24686 24687 24688 24689 24690 24691 24692 24693 24694 24695 24696 24697 24698 24699 24700 24701 24702 24703 24704 24705 24706 24707 24708 24709 24710 24711 24712 24713 24714 24715 24716 24717 24718 24719 24720 24721 24722 24723 24724 24725 24726 24727 24728 24729 24730 24731 24732 24733 24734 24735 24736 24737 24738 24739 24740 24741 24742 24743 24744 24745 24746 24747 24748 24749 24750 24751 24752 24753 24754 24755 24756 24757 24758 24759 24760 24761 24762 24763 24764 24765 24766 24767 24768 24769 24770 24771 24772 24773 24774 24775 24776 24777 24778 24779 24780 24781 24782 24783 24784 24785 24786 24787 24788 24789 24790 24791 24792 24793 24794 24795 24796 24797 24798 24799 24800 24801 24802 24803 24804 24805 24806 24807 24808 24809 24810 24811 24812 24813 24814 24815 24816 24817 24818 24819 24820 24821 24822 24823 24824 24825 24826 24827 24828 24829 24830 24831 24832 24833 24834 24835 24836 24837 24838 24839 24840 24841 24842 24843 24844 24845 24846 24847 24848 24849 24850 24851 24852 24853 24854 24855 24856 24857 24858 24859 24860 24861 24862 24863 24864 24865 24866 24867 24868 24869 24870 24871 24872 24873 24874 24875 24876 24877 24878 24879 24880 24881 24882 24883 24884 24885 24886 24887 24888 24889 24890 24891 24892 24893 24894 24895 24896 24897 24898 24899 24900 24901 24902 24903 24904 24905 24906 24907 24908 24909 24910 24911 24912 24913 24914 24915 24916 24917 24918 24919 24920 24921 24922 24923 24924 24925 24926 24927 24928 24929 24930 24931 24932 24933 24934 24935 24936 24937 24938 24939 24940 24941 24942 24943 24944 24945 24946 24947 24948 24949 24950 24951 24952 24953 24954 24955 24956 24957 24958 24959 24960 24961 24962 24963 24964 24965 24966 24967 24968 24969 24970 24971 24972 24973 24974 24975 24976 24977 24978 24979 24980 24981 24982 24983 24984 24985 24986 24987 24988 24989 24990 24991 24992 24993 24994 24995 24996 24997 24998 24999 25000 25001 25002 25003 25004 25005 25006 25007 25008 25009 25010 25011 25012 25013 25014 25015 25016 25017 25018 25019 25020 25021 25022 25023 25024 25025 25026 25027 25028 25029 25030 25031 25032 25033 25034 25035 25036 25037 25038 25039 25040 25041 25042 25043 25044 25045 25046 25047 25048 25049 25050 25051 25052 25053 25054 25055 25056 25057 25058 25059 25060 25061 25062 25063 25064 25065 25066 25067 25068 25069 25070 25071 25072 25073 25074 25075 25076 25077 25078 25079 25080 25081 25082 25083 25084 25085 25086 25087 25088 25089 25090 25091 25092 25093 25094 25095 25096 25097 25098 25099 25100 25101 25102 25103 25104 25105 25106 25107 25108 25109 25110 25111 25112 25113 25114 25115 25116 25117 25118 25119 25120 25121 25122 25123 25124 25125 25126 25127 25128 25129 25130 25131 25132 25133 25134 25135 25136 25137 25138 25139 25140 25141 25142 25143 25144 25145 25146 25147 25148 25149 25150 25151 25152 25153 25154 25155 25156 25157 25158 25159 25160 25161 25162 25163 25164 25165 25166 25167 25168 25169 25170 25171 25172 25173 25174 25175 25176 25177 25178 25179 25180 25181 25182 25183 25184 25185 25186 25187 25188 25189 25190 25191 25192 25193 25194 25195 25196 25197 25198 25199 25200 25201 25202 25203 25204 25205 25206 25207 25208 25209 25210 25211 25212 25213 25214 25215 25216 25217 25218 25219 25220 25221 25222 25223 25224 25225 25226 25227 25228 25229 25230 25231 25232 25233 25234 25235 25236 25237 25238 25239 25240 25241 25242 25243 25244 25245 25246 25247 25248 25249 25250 25251 25252 25253 25254 25255 25256 25257 25258 25259 25260 25261 25262 25263 25264 25265 25266 25267 25268 25269 25270 25271 25272 25273 25274 25275 25276 25277 25278 25279 25280 25281 25282 25283 25284 25285 25286 25287 25288 25289 25290 25291 25292 25293 25294 25295 25296 25297 25298 25299 25300 25301 25302 25303 25304 25305 25306 25307 25308 25309 25310 25311 25312 25313 25314 25315 25316 25317 25318 25319 25320 25321 25322 25323 25324 25325 25326 25327 25328 25329 25330 25331 25332 25333 25334 25335 25336 25337 25338 25339 25340 25341 25342 25343 25344 25345 25346 25347 25348 25349 25350 25351 25352 25353 25354 25355 25356 25357 25358 25359 25360 25361 25362 25363 25364 25365 25366 25367 25368 25369 25370 25371 25372 25373 25374 25375 25376 25377 25378 25379 25380 25381 25382 25383 25384 25385 25386 25387 25388 25389 25390 25391 25392 25393 25394 25395 25396 25397 25398 25399 25400 25401 25402 25403 25404 25405 25406 25407 25408 25409 25410 25411 25412 25413 25414 25415 25416 25417 25418 25419 25420 25421 25422 25423 25424 25425 25426 25427 25428 25429 25430 25431 25432 25433 25434 25435 25436 25437 25438 25439 25440 25441 25442 25443 25444 25445 25446 25447 25448 25449 25450 25451 25452 25453 25454 25455 25456 25457 25458 25459 25460 25461 25462 25463 25464 25465 25466 25467 25468 25469 25470 25471 25472 25473 25474 25475 25476 25477 25478 25479 25480 25481 25482 25483 25484 25485 25486 25487 25488 25489 25490 25491 25492 25493 25494 25495 25496 25497 25498 25499 25500 25501 25502 25503 25504 25505 25506 25507 25508 25509 25510 25511 25512 25513 25514 25515 25516 25517 25518 25519 25520 25521 25522 25523 25524 25525 25526 25527 25528 25529 25530 25531 25532 25533 25534 25535 25536 25537 25538 25539 25540 25541 25542 25543 25544 25545 25546 25547 25548 25549 25550 25551 25552 25553 25554 25555 25556 25557 25558 25559 25560 25561 25562 25563 25564 25565 25566 25567 25568 25569 25570 25571 25572 25573 25574 25575 25576 25577 25578 25579 25580 25581 25582 25583 25584 25585 25586 25587 25588 25589 25590 25591 25592 25593 25594 25595 25596 25597 25598 25599 25600 25601 25602 25603 25604 25605 25606 25607 25608 25609 25610 25611 25612 25613 25614 25615 25616 25617 25618 25619 25620 25621 25622 25623 25624 25625 25626 25627 25628 25629 25630 25631 25632 25633 25634 25635 25636 25637 25638 25639 25640 25641 25642 25643 25644 25645 25646 25647 25648 25649 25650 25651 25652 25653 25654 25655 25656 25657 25658 25659 25660 25661 25662 25663 25664 25665 25666 25667 25668 25669 25670 25671 25672 25673 25674 25675 25676 25677 25678 25679 25680 25681 25682 25683 25684 25685 25686 25687 25688 25689 25690 25691 25692 25693 25694 25695 25696 25697 25698 25699 25700 25701 25702 25703 25704 25705 25706 25707 25708 25709 25710 25711 25712 25713 25714 25715 25716 25717 25718 25719 25720 25721 25722 25723 25724 25725 25726 25727 25728 25729 25730 25731 25732 25733 25734 25735 25736 25737 25738 25739 25740 25741 25742 25743 25744 25745 25746 25747 25748 25749 25750 25751 25752 25753 25754 25755 25756 25757 25758 25759 25760 25761 25762 25763 25764 25765 25766 25767 25768 25769 25770 25771 25772 25773 25774 25775 25776 25777 25778 25779 25780 25781 25782 25783 25784 25785 25786 25787 25788 25789 25790 25791 25792 25793 25794 25795 25796 25797 25798 25799 25800 25801 25802 25803 25804 25805 25806 25807 25808 25809 25810 25811 25812 25813 25814 25815 25816 25817 25818 25819 25820 25821 25822 25823 25824 25825 25826 25827 25828 25829 25830 25831 25832 25833 25834 25835 25836 25837 25838 25839 25840 25841 25842 25843 25844 25845 25846 25847 25848 25849 25850 25851 25852 25853 25854 25855 25856 25857 25858 25859 25860 25861 25862 25863 25864 25865 25866 25867 25868 25869 25870 25871 25872 25873 25874 25875 25876 25877 25878 25879 25880 25881 25882 25883 25884 25885 25886 25887 25888 25889 25890 25891 25892 25893 25894 25895 25896 25897 25898 25899 25900 25901 25902 25903 25904 25905 25906 25907 25908 25909 25910 25911 25912 25913 25914 25915 25916 25917 25918 25919 25920 25921 25922 25923 25924 25925 25926 25927 25928 25929 25930 25931 25932 25933 25934 25935 25936 25937 25938 25939 25940 25941 25942 25943 25944 25945 25946 25947 25948 25949 25950 25951 25952 25953 25954 25955 25956 25957 25958 25959 25960 25961 25962 25963 25964 25965 25966 25967 25968 25969 25970 25971 25972 25973 25974 25975 25976 25977 25978 25979 25980 25981 25982 25983 25984 25985 25986 25987 25988 25989 25990 25991 25992 25993 25994 25995 25996 25997 25998 25999 26000 26001 26002 26003 26004 26005 26006 26007 26008 26009 26010 26011 26012 26013 26014 26015 26016 26017 26018 26019 26020 26021 26022 26023 26024 26025 26026 26027 26028 26029 26030 26031 26032 26033 26034 26035 26036 26037 26038 26039 26040 26041 26042 26043 26044 26045 26046 26047 26048 26049 26050 26051 26052 26053 26054 26055 26056 26057 26058 26059 26060 26061 26062 26063 26064 26065 26066 26067 26068 26069 26070 26071 26072 26073 26074 26075 26076 26077 26078 26079 26080 26081 26082 26083 26084 26085 26086 26087 26088 26089 26090 26091 26092 26093 26094 26095 26096 26097 26098 26099 26100 26101 26102 26103 26104 26105 26106 26107 26108 26109 26110 26111 26112 26113 26114 26115 26116 26117 26118 26119 26120 26121 26122 26123 26124 26125 26126 26127 26128 26129 26130 26131 26132 26133 26134 26135 26136 26137 26138 26139 26140 26141 26142 26143 26144 26145 26146 26147 26148 26149 26150 26151 26152 26153 26154 26155 26156 26157 26158 26159 26160 26161 26162 26163 26164 26165 26166 26167 26168 26169 26170 26171 26172 26173 26174 26175 26176 26177 26178 26179 26180 26181 26182 26183 26184 26185 26186 26187 26188 26189 26190 26191 26192 26193 26194 26195 26196 26197 26198 26199 26200 26201 26202 26203 26204 26205 26206 26207 26208 26209 26210 26211 26212 26213 26214 26215 26216 26217 26218 26219 26220 26221 26222 26223 26224 26225 26226 26227 26228 26229 26230 26231 26232 26233 26234 26235 26236 26237 26238 26239 26240 26241 26242 26243 26244 26245 26246 26247 26248 26249 26250 26251 26252 26253 26254 26255 26256 26257 26258 26259 26260 26261 26262 26263 26264 26265 26266 26267 26268 26269 26270 26271 26272 26273 26274 26275 26276 26277 26278 26279 26280 26281 26282 26283 26284 26285 26286 26287 26288 26289 26290 26291 26292 26293 26294 26295 26296 26297 26298 26299 26300 26301 26302 26303 26304 26305 26306 26307 26308 26309 26310 26311 26312 26313 26314 26315 26316 26317 26318 26319 26320 26321 26322 26323 26324 26325 26326 26327 26328 26329 26330 26331 26332 26333 26334 26335 26336 26337 26338 26339 26340 26341 26342 26343 26344 26345 26346 26347 26348 26349 26350 26351 26352 26353 26354 26355 26356 26357 26358 26359 26360 26361 26362 26363 26364 26365 26366 26367 26368 26369 26370 26371 26372 26373 26374 26375 26376 26377 26378 26379 26380 26381 26382 26383 26384 26385 26386 26387 26388 26389 26390 26391 26392 26393 26394 26395 26396 26397 26398 26399 26400 26401 26402 26403 26404 26405 26406 26407 26408 26409 26410 26411 26412 26413 26414 26415 26416 26417 26418 26419 26420 26421 26422 26423 26424 26425 26426 26427 26428 26429 26430 26431 26432 26433 26434 26435 26436 26437 26438 26439 26440 26441 26442 26443 26444 26445 26446 26447 26448 26449 26450 26451 26452 26453 26454 26455 26456 26457 26458 26459 26460 26461 26462 26463 26464 26465 26466 26467 26468 26469 26470 26471 26472 26473 26474 26475 26476 26477 26478 26479 26480 26481 26482 26483 26484 26485 26486 26487 26488 26489 26490 26491 26492 26493 26494 26495 26496 26497 26498 26499 26500 26501 26502 26503 26504 26505 26506 26507 26508 26509 26510 26511 26512 26513 26514 26515 26516 26517 26518 26519 26520 26521 26522 26523 26524 26525 26526 26527 26528 26529 26530 26531 26532 26533 26534 26535 26536 26537 26538 26539 26540 26541 26542 26543 26544 26545 26546 26547 26548 26549 26550 26551 26552 26553 26554 26555 26556 26557 26558 26559 26560 26561 26562 26563 26564 26565 26566 26567 26568 26569 26570 26571 26572 26573 26574 26575 26576 26577 26578 26579 26580 26581 26582 26583 26584 26585 26586 26587 26588 26589 26590 26591 26592 26593 26594 26595 26596 26597 26598 26599 26600 26601 26602 26603 26604 26605 26606 26607 26608 26609 26610 26611 26612 26613 26614 26615 26616 26617 26618 26619 26620 26621 26622 26623 26624 26625 26626 26627 26628 26629 26630 26631 26632 26633 26634 26635 26636 26637 26638 26639 26640 26641 26642 26643 26644 26645 26646 26647 26648 26649 26650 26651 26652 26653 26654 26655 26656 26657 26658 26659 26660 26661 26662 26663 26664 26665 26666 26667 26668 26669 26670 26671 26672 26673 26674 26675 26676 26677 26678 26679 26680 26681 26682 26683 26684 26685 26686 26687 26688 26689 26690 26691 26692 26693 26694 26695 26696 26697 26698 26699 26700 26701 26702 26703 26704 26705 26706 26707 26708 26709 26710 26711 26712 26713 26714 26715 26716 26717 26718 26719 26720 26721 26722 26723 26724 26725 26726 26727 26728 26729 26730 26731 26732 26733 26734 26735 26736 26737 26738 26739 26740 26741 26742 26743 26744 26745 26746 26747 26748 26749 26750 26751 26752 26753 26754 26755 26756 26757 26758 26759 26760 26761 26762 26763 26764 26765 26766 26767 26768 26769 26770 26771 26772 26773 26774 26775 26776 26777 26778 26779 26780 26781 26782 26783 26784 26785 26786 26787 26788 26789 26790 26791 26792 26793 26794 26795 26796 26797 26798 26799 26800 26801 26802 26803 26804 26805 26806 26807 26808 26809 26810 26811 26812 26813 26814 26815 26816 26817 26818 26819 26820 26821 26822 26823 26824 26825 26826 26827 26828 26829 26830 26831 26832 26833 26834 26835 26836 26837 26838 26839 26840 26841 26842 26843 26844 26845 26846 26847 26848 26849 26850 26851 26852 26853 26854 26855 26856 26857 26858 26859 26860 26861 26862 26863 26864 26865 26866 26867 26868 26869 26870 26871 26872 26873 26874 26875 26876 26877 26878 26879 26880 26881 26882 26883 26884 26885 26886 26887 26888 26889 26890 26891 26892 26893 26894 26895 26896 26897 26898 26899 26900 26901 26902 26903 26904 26905 26906 26907 26908 26909 26910 26911 26912 26913 26914 26915 26916 26917 26918 26919 26920 26921 26922 26923 26924 26925 26926 26927 26928 26929 26930 26931 26932 26933 26934 26935 26936 26937 26938 26939 26940 26941 26942 26943 26944 26945 26946 26947 26948 26949 26950 26951 26952 26953 26954 26955 26956 26957 26958 26959 26960 26961 26962 26963 26964 26965 26966 26967 26968 26969 26970 26971 26972 26973 26974 26975 26976 26977 26978 26979 26980 26981 26982 26983 26984 26985 26986 26987 26988 26989 26990 26991 26992 26993 26994 26995 26996 26997 26998 26999 27000 27001 27002 27003 27004 27005 27006 27007 27008 27009 27010 27011 27012 27013 27014 27015 27016 27017 27018 27019 27020 27021 27022 27023 27024 27025 27026 27027 27028 27029 27030 27031 27032 27033 27034 27035 27036 27037 27038 27039 27040 27041 27042 27043 27044 27045 27046 27047 27048 27049 27050 27051 27052 27053 27054 27055 27056 27057 27058 27059 27060 27061 27062 27063 27064 27065 27066 27067 27068 27069 27070 27071 27072 27073 27074 27075 27076 27077 27078 27079 27080 27081 27082 27083 27084 27085 27086 27087 27088 27089 27090 27091 27092 27093 27094 27095 27096 27097 27098 27099 27100 27101 27102 27103 27104 27105 27106 27107 27108 27109 27110 27111 27112 27113 27114 27115 27116 27117 27118 27119 27120 27121 27122 27123 27124 27125 27126 27127 27128 27129 27130 27131 27132 27133 27134 27135 27136 27137 27138 27139 27140 27141 27142 27143 27144 27145 27146 27147 27148 27149 27150 27151 27152 27153 27154 27155 27156 27157 27158 27159 27160 27161 27162 27163 27164 27165 27166 27167 27168 27169 27170 27171 27172 27173 27174 27175 27176 27177 27178 27179 27180 27181 27182 27183 27184 27185 27186 27187 27188 27189 27190 27191 27192 27193 27194 27195 27196 27197 27198 27199 27200 27201 27202 27203 27204 27205 27206 27207 27208 27209 27210 27211 27212 27213 27214 27215 27216 27217 27218 27219 27220 27221 27222 27223 27224 27225 27226 27227 27228 27229 27230 27231 27232 27233 27234 27235 27236 27237 27238 27239 27240 27241 27242 27243 27244 27245 27246 27247 27248 27249 27250 27251 27252 27253 27254 27255 27256 27257 27258 27259 27260 27261 27262 27263 27264 27265 27266 27267 27268 27269 27270 27271 27272 27273 27274 27275 27276 27277 27278 27279 27280 27281 27282 27283 27284 27285 27286 27287 27288 27289 27290 27291 27292 27293 27294 27295 27296 27297 27298 27299 27300 27301 27302 27303 27304 27305 27306 27307 27308 27309 27310 27311 27312 27313 27314 27315 27316 27317 27318 27319 27320 27321 27322 27323 27324 27325 27326 27327 27328 27329 27330 27331 27332 27333 27334 27335 27336 27337 27338 27339 27340 27341 27342 27343 27344 27345 27346 27347 27348 27349 27350 27351 27352 27353 27354 27355 27356 27357 27358 27359 27360 27361 27362 27363 27364 27365 27366 27367 27368 27369 27370 27371 27372 27373 27374 27375 27376 27377 27378 27379 27380 27381 27382 27383 27384 27385 27386 27387 27388 27389 27390 27391 27392 27393 27394 27395 27396 27397 27398 27399 27400 27401 27402 27403 27404 27405 27406 27407 27408 27409 27410 27411 27412 27413 27414 27415 27416 27417 27418 27419 27420 27421 27422 27423 27424 27425 27426 27427 27428 27429 27430 27431 27432 27433 27434 27435 27436 27437 27438 27439 27440 27441 27442 27443 27444 27445 27446 27447 27448 27449 27450 27451 27452 27453 27454 27455 27456 27457 27458 27459 27460 27461 27462 27463 27464 27465 27466 27467 27468 27469 27470 27471 27472 27473 27474 27475 27476 27477 27478 27479 27480 27481 27482 27483 27484 27485 27486 27487 27488 27489 27490 27491 27492 27493 27494 27495 27496 27497 27498 27499 27500 27501 27502 27503 27504 27505 27506 27507 27508 27509 27510 27511 27512 27513 27514 27515 27516 27517 27518 27519 27520 27521 27522 27523 27524 27525 27526 27527 27528 27529 27530 27531 27532 27533 27534 27535 27536 27537 27538 27539 27540 27541 27542 27543 27544 27545 27546 27547 27548 27549 27550 27551 27552 27553 27554 27555 27556 27557 27558 27559 27560 27561 27562 27563 27564 27565 27566 27567 27568 27569 27570 27571 27572 27573 27574 27575 27576 27577 27578 27579 27580 27581 27582 27583 27584 27585 27586 27587 27588 27589 27590 27591 27592 27593 27594 27595 27596 27597 27598 27599 27600 27601 27602 27603 27604 27605 27606 27607 27608 27609 27610 27611 27612 27613 27614 27615 27616 27617 27618 27619 27620 27621 27622 27623 27624 27625 27626 27627 27628 27629 27630 27631 27632 27633 27634 27635 27636 27637 27638 27639 27640 27641 27642 27643 27644 27645 27646 27647 27648 27649 27650 27651 27652 27653 27654 27655 27656 27657 27658 27659 27660 27661 27662 27663 27664 27665 27666 27667 27668 27669 27670 27671 27672 27673 27674 27675 27676 27677 27678 27679 27680 27681 27682 27683 27684 27685 27686 27687 27688 27689 27690 27691 27692 27693 27694 27695 27696 27697 27698 27699 27700 27701 27702 27703 27704 27705 27706 27707 27708 27709 27710 27711 27712 27713 27714 27715 27716 27717 27718 27719 27720 27721 27722 27723 27724 27725 27726 27727 27728 27729 27730 27731 27732 27733 27734 27735 27736 27737 27738 27739 27740 27741 27742 27743 27744 27745 27746 27747 27748 27749 27750 27751 27752 27753 27754 27755 27756 27757 27758 27759 27760 27761 27762 27763 27764 27765 27766 27767 27768 27769 27770 27771 27772 27773 27774 27775 27776 27777 27778 27779 27780 27781 27782 27783 27784 27785 27786 27787 27788 27789 27790 27791 27792 27793 27794 27795 27796 27797 27798 27799 27800 27801 27802 27803 27804 27805 27806 27807 27808 27809 27810 27811 27812 27813 27814 27815 27816 27817 27818 27819 27820 27821 27822 27823 27824 27825 27826 27827 27828 27829 27830 27831 27832 27833 27834 27835 27836 27837 27838 27839 27840 27841 27842 27843 27844 27845 27846 27847 27848 27849 27850 27851 27852 27853 27854 27855 27856 27857 27858 27859 27860 27861 27862 27863 27864 27865 27866 27867 27868 27869 27870 27871 27872 27873 27874 27875 27876 27877 27878 27879 27880 27881 27882 27883 27884 27885 27886 27887 27888 27889 27890 27891 27892 27893 27894 27895 27896 27897 27898 27899 27900 27901 27902 27903 27904 27905 27906 27907 27908 27909 27910 27911 27912 27913 27914 27915 27916 27917 27918 27919 27920 27921 27922 27923 27924 27925 27926 27927 27928 27929 27930 27931 27932 27933 27934 27935 27936 27937 27938 27939 27940 27941 27942 27943 27944 27945 27946 27947 27948 27949 27950 27951 27952 27953 27954 27955 27956 27957 27958 27959 27960 27961 27962 27963 27964 27965 27966 27967 27968 27969 27970 27971 27972 27973 27974 27975 27976 27977 27978 27979 27980 27981 27982 27983 27984 27985 27986 27987 27988 27989 27990 27991 27992 27993 27994 27995 27996 27997 27998 27999 28000 28001 28002 28003 28004 28005 28006 28007 28008 28009 28010 28011 28012 28013 28014 28015 28016 28017 28018 28019 28020 28021 28022 28023 28024 28025 28026 28027 28028 28029 28030 28031 28032 28033 28034 28035 28036 28037 28038 28039 28040 28041 28042 28043 28044 28045 28046 28047 28048 28049 28050 28051 28052 28053 28054 28055 28056 28057 28058 28059 28060 28061 28062 28063 28064 28065 28066 28067 28068 28069 28070 28071 28072 28073 28074 28075 28076 28077 28078 28079 28080 28081 28082 28083 28084 28085 28086 28087 28088 28089 28090 28091 28092 28093 28094 28095 28096 28097 28098 28099 28100 28101 28102 28103 28104 28105 28106 28107 28108 28109 28110 28111 28112 28113 28114 28115 28116 28117 28118 28119 28120 28121 28122 28123 28124 28125 28126 28127 28128 28129 28130 28131 28132 28133 28134 28135 28136 28137 28138 28139 28140 28141 28142 28143 28144 28145 28146 28147 28148 28149 28150 28151 28152 28153 28154 28155 28156 28157 28158 28159 28160 28161 28162 28163 28164 28165 28166 28167 28168 28169 28170 28171 28172 28173 28174 28175 28176 28177 28178 28179 28180 28181 28182 28183 28184 28185 28186 28187 28188 28189 28190 28191 28192 28193 28194 28195 28196 28197 28198 28199 28200 28201 28202 28203 28204 28205 28206 28207 28208 28209 28210 28211 28212 28213 28214 28215 28216 28217 28218 28219 28220 28221 28222 28223 28224 28225 28226 28227 28228 28229 28230 28231 28232 28233 28234 28235 28236 28237 28238 28239 28240 28241 28242 28243 28244 28245 28246 28247 28248 28249 28250 28251 28252 28253 28254 28255 28256 28257 28258 28259 28260 28261 28262 28263 28264 28265 28266 28267 28268 28269 28270 28271 28272 28273 28274 28275 28276 28277 28278 28279 28280 28281 28282 28283 28284 28285 28286 28287 28288 28289 28290 28291 28292 28293 28294 28295 28296 28297 28298 28299 28300 28301 28302 28303 28304 28305 28306 28307 28308 28309 28310 28311 28312 28313 28314 28315 28316 28317 28318 28319 28320 28321 28322 28323 28324 28325 28326 28327 28328 28329 28330 28331 28332 28333 28334 28335 28336 28337 28338 28339 28340 28341 28342 28343 28344 28345 28346 28347 28348 28349 28350 28351 28352 28353 28354 28355 28356 28357 28358 28359 28360 28361 28362 28363 28364 28365 28366 28367 28368 28369 28370 28371 28372 28373 28374 28375 28376 28377 28378 28379 28380 28381 28382 28383 28384 28385 28386 28387 28388 28389 28390 28391 28392 28393 28394 28395 28396 28397 28398 28399 28400 28401 28402 28403 28404 28405 28406 28407 28408 28409 28410 28411 28412 28413 28414 28415 28416 28417 28418 28419 28420 28421 28422 28423 28424 28425 28426 28427 28428 28429 28430 28431 28432 28433 28434 28435 28436 28437 28438 28439 28440 28441 28442 28443 28444 28445 28446 28447 28448 28449 28450 28451 28452 28453 28454 28455 28456 28457 28458 28459 28460 28461 28462 28463 28464 28465 28466 28467 28468 28469 28470 28471 28472 28473 28474 28475 28476 28477 28478 28479 28480 28481 28482 28483 28484 28485 28486 28487 28488 28489 28490 28491 28492 28493 28494 28495 28496 28497 28498 28499 28500 28501 28502 28503 28504 28505 28506 28507 28508 28509 28510 28511 28512 28513 28514 28515 28516 28517 28518 28519 28520 28521 28522 28523 28524 28525 28526 28527 28528 28529 28530 28531 28532 28533 28534 28535 28536 28537 28538 28539 28540 28541 28542 28543 28544 28545 28546 28547 28548 28549 28550 28551 28552 28553 28554 28555 28556 28557 28558 28559 28560 28561 28562 28563 28564 28565 28566 28567 28568 28569 28570 28571 28572 28573 28574 28575 28576 28577 28578 28579 28580 28581 28582 28583 28584 28585 28586 28587 28588 28589 28590 28591 28592 28593 28594 28595 28596 28597 28598 28599 28600 28601 28602 28603 28604 28605 28606 28607 28608 28609 28610 28611 28612 28613 28614 28615 28616 28617 28618 28619 28620 28621 28622 28623 28624 28625 28626 28627 28628 28629 28630 28631 28632 28633 28634 28635 28636 28637 28638 28639 28640 28641 28642 28643 28644 28645 28646 28647 28648 28649 28650 28651 28652 28653 28654 28655 28656 28657 28658 28659 28660 28661 28662 28663 28664 28665 28666 28667 28668 28669 28670 28671 28672 28673 28674 28675 28676 28677 28678 28679 28680 28681 28682 28683 28684 28685 28686 28687 28688 28689 28690 28691 28692 28693 28694 28695 28696 28697 28698 28699 28700 28701 28702 28703 28704 28705 28706 28707 28708 28709 28710 28711 28712 28713 28714 28715 28716 28717 28718 28719 28720 28721 28722 28723 28724 28725 28726 28727 28728 28729 28730 28731 28732 28733 28734 28735 28736 28737 28738 28739 28740 28741 28742 28743 28744 28745 28746 28747 28748 28749 28750 28751 28752 28753 28754 28755 28756 28757 28758 28759 28760 28761 28762 28763 28764 28765 28766 28767 28768 28769 28770 28771 28772 28773 28774 28775 28776 28777 28778 28779 28780 28781 28782 28783 28784 28785 28786 28787 28788 28789 28790 28791 28792 28793 28794 28795 28796 28797 28798 28799 28800 28801 28802 28803 28804 28805 28806 28807 28808 28809 28810 28811 28812 28813 28814 28815 28816 28817 28818 28819 28820 28821 28822 28823 28824 28825 28826 28827 28828 28829 28830 28831 28832 28833 28834 28835 28836 28837 28838 28839 28840 28841 28842 28843 28844 28845 28846 28847 28848 28849 28850 28851 28852 28853 28854 28855 28856 28857 28858 28859 28860 28861 28862 28863 28864 28865 28866 28867 28868 28869 28870 28871 28872 28873 28874 28875 28876 28877 28878 28879 28880 28881 28882 28883 28884 28885 28886 28887 28888 28889 28890 28891 28892 28893 28894 28895 28896 28897 28898 28899 28900 28901 28902 28903 28904 28905 28906 28907 28908 28909 28910 28911 28912 28913 28914 28915 28916 28917 28918 28919 28920 28921 28922 28923 28924 28925 28926 28927 28928 28929 28930 28931 28932 28933 28934 28935 28936 28937 28938 28939 28940 28941 28942 28943 28944 28945 28946 28947 28948 28949 28950 28951 28952 28953 28954 28955 28956 28957 28958 28959 28960 28961 28962 28963 28964 28965 28966 28967 28968 28969 28970 28971 28972 28973 28974 28975 28976 28977 28978 28979 28980 28981 28982 28983 28984 28985 28986 28987 28988 28989 28990 28991 28992 28993 28994 28995 28996 28997 28998 28999 29000 29001 29002 29003 29004 29005 29006 29007 29008 29009 29010 29011 29012 29013 29014 29015 29016 29017 29018 29019 29020 29021 29022 29023 29024 29025 29026 29027 29028 29029 29030 29031 29032 29033 29034 29035 29036 29037 29038 29039 29040 29041 29042 29043 29044 29045 29046 29047 29048 29049 29050 29051 29052 29053 29054 29055 29056 29057 29058 29059 29060 29061 29062 29063 29064 29065 29066 29067 29068 29069 29070 29071 29072 29073 29074 29075 29076 29077 29078 29079 29080 29081 29082 29083 29084 29085 29086 29087 29088 29089 29090 29091 29092 29093 29094 29095 29096 29097 29098 29099 29100 29101 29102 29103 29104 29105 29106 29107 29108 29109 29110 29111 29112 29113 29114 29115 29116 29117 29118 29119 29120 29121 29122 29123 29124 29125 29126 29127 29128 29129 29130 29131 29132 29133 29134 29135 29136 29137 29138 29139 29140 29141 29142 29143 29144 29145 29146 29147 29148 29149 29150 29151 29152 29153 29154 29155 29156 29157 29158 29159 29160 29161 29162 29163 29164 29165 29166 29167 29168 29169 29170 29171 29172 29173 29174 29175 29176 29177 29178 29179 29180 29181 29182 29183 29184 29185 29186 29187 29188 29189 29190 29191 29192 29193 29194 29195 29196 29197 29198 29199 29200 29201 29202 29203 29204 29205 29206 29207 29208 29209 29210 29211 29212 29213 29214 29215 29216 29217 29218 29219 29220 29221 29222 29223 29224 29225 29226 29227 29228 29229 29230 29231 29232 29233 29234 29235 29236 29237 29238 29239 29240 29241 29242 29243 29244 29245 29246 29247 29248 29249 29250 29251 29252 29253 29254 29255 29256 29257 29258 29259 29260 29261 29262 29263 29264 29265 29266 29267 29268 29269 29270 29271 29272 29273 29274 29275 29276 29277 29278 29279 29280 29281 29282 29283 29284 29285 29286 29287 29288 29289 29290 29291 29292 29293 29294 29295 29296 29297 29298 29299 29300 29301 29302 29303 29304 29305 29306 29307 29308 29309 29310 29311 29312 29313 29314 29315 29316 29317 29318 29319 29320 29321 29322 29323 29324 29325 29326 29327 29328 29329 29330 29331 29332 29333 29334 29335 29336 29337 29338 29339 29340 29341 29342 29343 29344 29345 29346 29347 29348 29349 29350 29351 29352 29353 29354 29355 29356 29357 29358 29359 29360 29361 29362 29363 29364 29365 29366 29367 29368 29369 29370 29371 29372 29373 29374 29375 29376 29377 29378 29379 29380 29381 29382 29383 29384 29385 29386 29387 29388 29389 29390 29391 29392 29393 29394 29395 29396 29397 29398 29399 29400 29401 29402 29403 29404 29405 29406 29407 29408 29409 29410 29411 29412 29413 29414 29415 29416 29417 29418 29419 29420 29421 29422 29423 29424 29425 29426 29427 29428 29429 29430 29431 29432 29433 29434 29435 29436 29437 29438 29439 29440 29441 29442 29443 29444 29445 29446 29447 29448 29449 29450 29451 29452 29453 29454 29455 29456 29457 29458 29459 29460 29461 29462 29463 29464 29465 29466 29467 29468 29469 29470 29471 29472 29473 29474 29475 29476 29477 29478 29479 29480 29481 29482 29483 29484 29485 29486 29487 29488 29489 29490 29491 29492 29493 29494 29495 29496 29497 29498 29499 29500 29501 29502 29503 29504 29505 29506 29507 29508 29509 29510 29511 29512 29513 29514 29515 29516 29517 29518 29519 29520 29521 29522 29523 29524 29525 29526 29527 29528 29529 29530 29531 29532 29533 29534 29535 29536 29537 29538 29539 29540 29541 29542 29543 29544 29545 29546 29547 29548 29549 29550 29551 29552 29553 29554 29555 29556 29557 29558 29559 29560 29561 29562 29563 29564 29565 29566 29567 29568 29569 29570 29571 29572 29573 29574 29575 29576 29577 29578 29579 29580 29581 29582 29583 29584 29585 29586 29587 29588 29589 29590 29591 29592 29593 29594 29595 29596 29597 29598 29599 29600 29601 29602 29603 29604 29605 29606 29607 29608 29609 29610 29611 29612 29613 29614 29615 29616 29617 29618 29619 29620 29621 29622 29623 29624 29625 29626 29627 29628 29629 29630 29631 29632 29633 29634 29635 29636 29637 29638 29639 29640 29641 29642 29643 29644 29645 29646 29647 29648 29649 29650 29651 29652 29653 29654 29655 29656 29657 29658 29659 29660 29661 29662 29663 29664 29665 29666 29667 29668 29669 29670 29671 29672 29673 29674 29675 29676 29677 29678 29679 29680 29681 29682 29683 29684 29685 29686 29687 29688 29689 29690 29691 29692 29693 29694 29695 29696 29697 29698 29699 29700 29701 29702 29703 29704 29705 29706 29707 29708 29709 29710 29711 29712 29713 29714 29715 29716 29717 29718 29719 29720 29721 29722 29723 29724 29725 29726 29727 29728 29729 29730 29731 29732 29733 29734 29735 29736 29737 29738 29739 29740 29741 29742 29743 29744 29745 29746 29747 29748 29749 29750 29751 29752 29753 29754 29755 29756 29757 29758 29759 29760 29761 29762 29763 29764 29765 29766 29767 29768 29769 29770 29771 29772 29773 29774 29775 29776 29777 29778 29779 29780 29781 29782 29783 29784 29785 29786 29787 29788 29789 29790 29791 29792 29793 29794 29795 29796 29797 29798 29799 29800 29801 29802 29803 29804 29805 29806 29807 29808 29809 29810 29811 29812 29813 29814 29815 29816 29817 29818 29819 29820 29821 29822 29823 29824 29825 29826 29827 29828 29829 29830 29831 29832 29833 29834 29835 29836 29837 29838 29839 29840 29841 29842 29843 29844 29845 29846 29847 29848 29849 29850 29851 29852 29853 29854 29855 29856 29857 29858 29859 29860 29861 29862 29863 29864 29865 29866 29867 29868 29869 29870 29871 29872 29873 29874 29875 29876 29877 29878 29879 29880 29881 29882 29883 29884 29885 29886 29887 29888 29889 29890 29891 29892 29893 29894 29895 29896 29897 29898 29899 29900 29901 29902 29903 29904 29905 29906 29907 29908 29909 29910 29911 29912 29913 29914 29915 29916 29917 29918 29919 29920 29921 29922 29923 29924 29925 29926 29927 29928 29929 29930 29931 29932 29933 29934 29935 29936 29937 29938 29939 29940 29941 29942 29943 29944 29945 29946 29947 29948 29949 29950 29951 29952 29953 29954 29955 29956 29957 29958 29959 29960 29961 29962 29963 29964 29965 29966 29967 29968 29969 29970 29971 29972 29973 29974 29975 29976 29977 29978 29979 29980 29981 29982 29983 29984 29985 29986 29987 29988 29989 29990 29991 29992 29993 29994 29995 29996 29997 29998 29999 30000 30001 30002 30003 30004 30005 30006 30007 30008 30009 30010 30011 30012 30013 30014 30015 30016 30017 30018 30019 30020 30021 30022 30023 30024 30025 30026 30027 30028 30029 30030 30031 30032 30033 30034 30035 30036 30037 30038 30039 30040 30041 30042 30043 30044 30045 30046 30047 30048 30049 30050 30051 30052 30053 30054 30055 30056 30057 30058 30059 30060 30061 30062 30063 30064 30065 30066 30067 30068 30069 30070 30071 30072 30073 30074 30075 30076 30077 30078 30079 30080 30081 30082 30083 30084 30085 30086 30087 30088 30089 30090 30091 30092 30093 30094 30095 30096 30097 30098 30099 30100 30101 30102 30103 30104 30105 30106 30107 30108 30109 30110 30111 30112 30113 30114 30115 30116 30117 30118 30119 30120 30121 30122 30123 30124 30125 30126 30127 30128 30129 30130 30131 30132 30133 30134 30135 30136 30137 30138 30139 30140 30141 30142 30143 30144 30145 30146 30147 30148 30149 30150 30151 30152 30153 30154 30155 30156 30157 30158 30159 30160 30161 30162 30163 30164 30165 30166 30167 30168 30169 30170 30171 30172 30173 30174 30175 30176 30177 30178 30179 30180 30181 30182 30183 30184 30185 30186 30187 30188 30189 30190 30191 30192 30193 30194 30195 30196 30197 30198 30199 30200 30201 30202 30203 30204 30205 30206 30207 30208 30209 30210 30211 30212 30213 30214 30215 30216 30217 30218 30219 30220 30221 30222 30223 30224 30225 30226 30227 30228 30229 30230 30231 30232 30233 30234 30235 30236 30237 30238 30239 30240 30241 30242 30243 30244 30245 30246 30247 30248 30249 30250 30251 30252 30253 30254 30255 30256 30257 30258 30259 30260 30261 30262 30263 30264 30265 30266 30267 30268 30269 30270 30271 30272 30273 30274 30275 30276 30277 30278 30279 30280 30281 30282 30283 30284 30285 30286 30287 30288 30289 30290 30291 30292 30293 30294 30295 30296 30297 30298 30299 30300 30301 30302 30303 30304 30305 30306 30307 30308 30309 30310 30311 30312 30313 30314 30315 30316 30317 30318 30319 30320 30321 30322 30323 30324 30325 30326 30327 30328 30329 30330 30331 30332 30333 30334 30335 30336 30337 30338 30339 30340 30341 30342 30343 30344 30345 30346 30347 30348 30349 30350 30351 30352 30353 30354 30355 30356 30357 30358 30359 30360 30361 30362 30363 30364 30365 30366 30367 30368 30369 30370 30371 30372 30373 30374 30375 30376 30377 30378 30379 30380 30381 30382 30383 30384 30385 30386 30387 30388 30389 30390 30391 30392 30393 30394 30395 30396 30397 30398 30399 30400 30401 30402 30403 30404 30405 30406 30407 30408 30409 30410 30411 30412 30413 30414 30415 30416 30417 30418 30419 30420 30421 30422 30423 30424 30425 30426 30427 30428 30429 30430 30431 30432 30433 30434 30435 30436 30437 30438 30439 30440 30441 30442 30443 30444 30445 30446 30447 30448 30449 30450 30451 30452 30453 30454 30455 30456 30457 30458 30459 30460 30461 30462 30463 30464 30465 30466 30467 30468 30469 30470 30471 30472 30473 30474 30475 30476 30477 30478 30479 30480 30481 30482 30483 30484 30485 30486 30487 30488 30489 30490 30491 30492 30493 30494 30495 30496 30497 30498 30499 30500 30501 30502 30503 30504 30505 30506 30507 30508 30509 30510 30511 30512 30513 30514 30515 30516 30517 30518 30519 30520 30521 30522 30523 30524 30525 30526 30527 30528 30529 30530 30531 30532 30533 30534 30535 30536 30537 30538 30539 30540 30541 30542 30543 30544 30545 30546 30547 30548 30549 30550 30551 30552 30553 30554 30555 30556 30557 30558 30559 30560 30561 30562 30563 30564 30565 30566 30567 30568 30569 30570 30571 30572 30573 30574 30575 30576 30577 30578 30579 30580 30581 30582 30583 30584 30585 30586 30587 30588 30589 30590 30591 30592 30593 30594 30595 30596 30597 30598 30599 30600 30601 30602 30603 30604 30605 30606 30607 30608 30609 30610 30611 30612 30613 30614 30615 30616 30617 30618 30619 30620 30621 30622 30623 30624 30625 30626 30627 30628 30629 30630 30631 30632 30633 30634 30635 30636 30637 30638 30639 30640 30641 30642 30643 30644 30645 30646 30647 30648 30649 30650 30651 30652 30653 30654 30655 30656 30657 30658 30659 30660 30661 30662 30663 30664 30665 30666 30667 30668 30669 30670 30671 30672 30673 30674 30675 30676 30677 30678 30679 30680 30681 30682 30683 30684 30685 30686 30687 30688 30689 30690 30691 30692 30693 30694 30695 30696 30697 30698 30699 30700 30701 30702 30703 30704 30705 30706 30707 30708 30709 30710 30711 30712 30713 30714 30715 30716 30717 30718 30719 30720 30721 30722 30723 30724 30725 30726 30727 30728 30729 30730 30731 30732 30733 30734 30735 30736 30737 30738 30739 30740 30741 30742 30743 30744 30745 30746 30747 30748 30749 30750 30751 30752 30753 30754 30755 30756 30757 30758 30759 30760 30761 30762 30763 30764 30765 30766 30767 30768 30769 30770 30771 30772 30773 30774 30775 30776 30777 30778 30779 30780 30781 30782 30783 30784 30785 30786 30787 30788 30789 30790 30791 30792 30793 30794 30795 30796 30797 30798 30799 30800 30801 30802 30803 30804 30805 30806 30807 30808 30809 30810 30811 30812 30813 30814 30815 30816 30817 30818 30819 30820 30821 30822 30823 30824 30825 30826 30827 30828 30829 30830 30831 30832 30833 30834 30835 30836 30837 30838 30839 30840 30841 30842 30843 30844 30845 30846 30847 30848 30849 30850 30851 30852 30853 30854 30855 30856 30857 30858 30859 30860 30861 30862 30863 30864 30865 30866 30867 30868 30869 30870 30871 30872 30873 30874 30875 30876 30877 30878 30879 30880 30881 30882 30883 30884 30885 30886 30887 30888 30889 30890 30891 30892 30893 30894 30895 30896 30897 30898 30899 30900 30901 30902 30903 30904 30905 30906 30907 30908 30909 30910 30911 30912 30913 30914 30915 30916 30917 30918 30919 30920 30921 30922 30923 30924 30925 30926 30927 30928 30929 30930 30931 30932 30933 30934 30935 30936 30937 30938 30939 30940 30941 30942 30943 30944 30945 30946 30947 30948 30949 30950 30951 30952 30953 30954 30955 30956 30957 30958 30959 30960 30961 30962 30963 30964 30965 30966 30967 30968 30969 30970 30971 30972 30973 30974 30975 30976 30977 30978 30979 30980 30981 30982 30983 30984 30985 30986 30987 30988 30989 30990 30991 30992 30993 30994 30995 30996 30997 30998 30999 31000 31001 31002 31003 31004 31005 31006 31007 31008 31009 31010 31011 31012 31013 31014 31015 31016 31017 31018 31019 31020 31021 31022 31023 31024 31025 31026 31027 31028 31029 31030 31031 31032 31033 31034 31035 31036 31037 31038 31039 31040 31041 31042 31043 31044 31045 31046 31047 31048 31049 31050 31051 31052 31053 31054 31055 31056 31057 31058 31059 31060 31061 31062 31063 31064 31065 31066 31067 31068 31069 31070 31071 31072 31073 31074 31075 31076 31077 31078 31079 31080 31081 31082 31083 31084 31085 31086 31087 31088 31089 31090 31091 31092 31093 31094 31095 31096 31097 31098 31099 31100 31101 31102 31103 31104 31105 31106 31107 31108 31109 31110 31111 31112 31113 31114 31115 31116 31117 31118 31119 31120 31121 31122 31123 31124 31125 31126 31127 31128 31129 31130 31131 31132 31133 31134 31135 31136 31137 31138 31139 31140 31141 31142 31143 31144 31145 31146 31147 31148 31149 31150 31151 31152 31153 31154 31155 31156 31157 31158 31159 31160 31161 31162 31163 31164 31165 31166 31167 31168 31169 31170 31171 31172 31173 31174 31175 31176 31177 31178 31179 31180 31181 31182 31183 31184 31185 31186 31187 31188 31189 31190 31191 31192 31193 31194 31195 31196 31197 31198 31199 31200 31201 31202 31203 31204 31205 31206 31207 31208 31209 31210 31211 31212 31213 31214 31215 31216 31217 31218 31219 31220 31221 31222 31223 31224 31225 31226 31227 31228 31229 31230 31231 31232 31233 31234 31235 31236 31237 31238 31239 31240 31241 31242 31243 31244 31245 31246 31247 31248 31249 31250 31251 31252 31253 31254 31255 31256 31257 31258 31259 31260 31261 31262 31263 31264 31265 31266 31267 31268 31269 31270 31271 31272 31273 31274 31275 31276 31277 31278 31279 31280 31281 31282 31283 31284 31285 31286 31287 31288 31289 31290 31291 31292 31293 31294 31295 31296 31297 31298 31299 31300 31301 31302 31303 31304 31305 31306 31307 31308 31309 31310 31311 31312 31313 31314 31315 31316 31317 31318 31319 31320 31321 31322 31323 31324 31325 31326 31327 31328 31329 31330 31331 31332 31333 31334 31335 31336 31337 31338 31339 31340 31341 31342 31343 31344 31345 31346 31347 31348 31349 31350 31351 31352 31353 31354 31355 31356 31357 31358 31359 31360 
</DataArray>
<DataArray type="UInt32" Name="offsets" format="ascii">
3 6 9 12 15 18 21 24 27 30 33 36 39 41 44 47 50 53 56 59 62 65 68 70 72 75 78 81 84 87 90 93 96 99 102 105 107 110 112 115 117 120 123 126 129 132 135 138 141 144 147 150 153 156 159 162 164 167 170 173 175 178 181 184 187 190 193 195 198 201 204 207 209 212 215 218 221 224 227 230 233 236 239 241 244 247 249 252 254 257 260 262 265 267 270 273 276 279 282 285 288 290 293 296 298 301 304 307 310 312 314 317 319 322 325 328 331 334 337 340 343 346 349 351 354 357 359 362 365 368 370 373 376 379 382 385 388 391 394 397 400 403 406 408 411 414 417 420 423 426 429 432 435 438 441 444 447 450 453 456 459 462 465 467 470 473 476 479 482 485 488 491 494 497 500 503 506 509 512 515 518 521 524 527 530 533 536 539 542 544 547 550 553 556 558 561 563 566 569 572 575 578 581 584 587 590 593 596 598 601 604 607 610 613 616 619 622 625 628 631 634 637 640 643 646 649 652 654 656 659 662 665 668 671 674 676 679 682 685 687 690 693 696 699 702 704 707 710 713 716 719 722 724 727 730 733 736 738 741 744 747 750 752 754 757 760 763 766 769 772 775 778 781 784 787 790 793 796 799 802 804 807 809 812 815 818 821 824 827 830 832 835 837 840 843 846 848 851 854 857 860 863 866 869 872 875 877 880 883 886 889 892 895 898 900 903 906 909 912 915 918 921 924 927 930 933 936 939 942 945 948 951 954 957 959 962 965 968 971 974 977 980 983 986 989 991 994 996 999 1002 1005 1007 1010 1013 1016 1019 1022 1025 1028 1031 1034 1037 1040 1043 1045 1048 1051 1053 1056 1058 1061 1064 1067 1069 1072 1075 1078 1081 1084 1087 1090 1093 1096 1098 1101 1104 1107 1109 1112 1115 1118 1121 1124 1127 1129 1132 1135 1138 1141 1144 1147 1150 1153 1156 1159 1162 1165 1167 1170 1173 1176 1179 1182 1184 1187 1189 1192 1195 1198 1200 1203 1206 1209 1212 1215 1218 1221 1224 1227 1230 1233 1236 1239 1242 1245 1247 1250 1252 1255 1258 1261 1264 1266 1269 1272 1275 1278 1281 1284 1287 1290 1292 1295 1298 1300 1303 1305 1308 1310 1313 1316 1319 1321 1323 1326 1329 1332 1335 1338 1341 1344 1346 1348 1351 1353 1356 1358 1361 1363 1366 1369 1372 1374 1377 1379 1382 1384 1387 1390 1392 1395 1398 1401 1403 1406 1409 1412 1415 1417 1420 1422 1425 1428 1431 1434 1436 1439 1442 1445 1448 1451 1453 1456 1459 1462 1465 1468 1470 1473 1476 1479 1481 1484 1486 1489 1492 1495 1497 1500 1503 1506 1509 1512 1515 1518 1520 1523 1526 1529 1532 1535 1537 1540 1543 1546 1549 1552 1554 1557 1559 1562 1565 1568 1571 1574 1577 1580 1583 1585 1588 1591 1594 1597 1600 1603 1605 1608 1611 1614 1617 1620 1623 1625 1628 1631 1634 1637 1639 1642 1645 1648 1650 1653 1656 1659 1662 1665 1668 1671 1674 1677 1679 1682 1685 1688 1691 1694 1697 1700 1703 1706 1709 1712 1715 1717 1720 1723 1726 1729 1732 1734 1737 1740 1742 1745 1748 1751 1754 1757 1760 1763 1765 1768 1771 1774 1777 1780 1783 1786 1788 1791 1793 1796 1799 1802 1804 1807 1810 1813 1816 1819 1822 1825 1828 1830 1833 1836 1839 1842 1844 1847 1850 1852 1855 1858 1861 1864 1867 1870 1873 1876 1879 1882 1885 1888 1891 1894 1897 1900 1903 1906 1908 1911 1914 1917 1920 1923 1926 1929 1932 1935 1938 1940 1943 1946 1949 1951 1954 1957 1960 1963 1965 1968 1971 1974 1977 1979 1982 1985 1988 1990 1993 1996 1999 2002 2005 2008 2011 2013 2016 2019 2021 2024 2027 2029 2032 2035 2038 2041 2044 2047 2050 2052 2055 2058 2061 2064 2067 2070 2073 2076 2079 2082 2085 2087 2090 2093 2096 2099 2102 2105 2108 2111 2114 2117 2120 2123 2125 2128 2131 2134 2137 2140 2143 2146 2149 2152 2155 2158 2161 2164 2166 2169 2172 2174 2177 2179 2181 2184 2186 2189 2192 2195 2198 2200 2203 2205 2208 2211 2213 2215 2218 2221 2223 2226 2229 2232 2234 2236 2239 2242 2245 2248 2251 2254 2257 2260 2263 2266 2269 2272 2275 2278 2281 2284 2287 2290 2293 2296 2299 2302 2305 2308 2311 2314 2316 2319 2322 2325 2328 2330 2333 2335 2338 2341 2344 2347 2350 2353 2355 2358 2361 2364 2367 2369 2372 2374 2377 2379 2381 2383 2385 2388 2390 2393 2396 2399 2402 2405 2408 2411 2414 2417 2420 2423 2426 2429 2431 2434 2437 2440 2442 2444 2447 2450 2453 2455 2458 2460 2463 2465 2468 2471 2473 2475 2477 2480 2482 2485 2488 2491 2494 2497 2500 2503 2506 2508 2511 2514 2517 2520 2523 2525 2527 2529 2532 2535 2538 2540 2542 2544 2546 2549 2552 2555 2558 2561 2564 2567 2570 2573 2576 2579 2582 2585 2588 2590 2593 2596 2599 2602 2605 2608 2611 2614 2617 2620 2623 2626 2628 2631 2634 2637 2640 2642 2645 2648 2651 2654 2656 2659 2662 2665 2668 2671 2673 2676 2679 2682 2685 2688 2691 2694 2697 2699 2702 2705 2708 2711 2713 2715 2718 2721 2723 2725 2728 2731 2734 2737 2739 2742 2744 2747 2750 2753 2756 2759 2762 2764 2767 2770 2773 2775 2778 2781 2784 2786 2788 2791 2793 2796 2799 2802 2805 2807 2810 2813 2816 2819 2822 2824 2827 2829 2831 2834 2837 2840 2843 2846 2849 2852 2855 2857 2860 2863 2866 2869 2872 2874 2876 2878 2881 2884 2887 2890 2893 2896 2898 2901 2904 2907 2909 2912 2915 2918 2921 2923 2925 2927 2930 2933 2936 2938 2941 2944 2947 2950 2953 2956 2959 2962 2964 2967 2970 2972 2975 2978 2981 2984 2987 2990 2993 2996 2999 3002 3005 3008 3011 3014 3017 3020 3023 3026 3029 3032 3035 3038 3041 3044 3047 3050 3053 3056 3059 3062 3065 3068 3071 3074 3077 3080 3083 3086 3089 3092 3095 3097 3100 3103 3106 3109 3112 3115 3118 3121 3124 3127 3130 3133 3136 3139 3142 3145 3148 3151 3154 3157 3160 3163 3166 3169 3172 3174 3177 3180 3183 3185 3188 3191 3194 3197 3200 3202 3205 3208 3211 3214 3216 3219 3222 3224 3227 3230 3233 3236 3238 3241 3244 3246 3249 3252 3255 3257 3260 3263 3265 3268 3271 3274 3277 3279 3282 3285 3288 3291 3294 3297 3299 3302 3305 3308 3310 3313 3316 3319 3322 3325 3328 3331 3333 3336 3339 3342 3345 3348 3351 3354 3357 3360 3363 3366 3369 3372 3375 3377 3380 3383 3386 3389 3392 3394 3397 3400 3403 3406 3409 3412 3415 3418 3421 3424 3427 3430 3433 3436 3439 3442 3445 3448 3451 3454 3457 3460 3463 3466 3469 3472 3475 3478 3480 3483 3486 3489 3492 3495 3498 3500 3502 3504 3506 3509 3512 3515 3518 3521 3524 3527 3530 3533 3536 3539 3542 3545 3548 3551 3554 3557 3560 3563 3565 3568 3571 3574 3577 3580 3583 3586 3589 3592 3594 3597 3600 3602 3605 3608 3611 3614 3617 3620 3623 3626 3629 3632 3635 3638 3641 3644 3647 3650 3653 3655 3658 3661 3664 3667 3669 3672 3675 3677 3680 3683 3685 3688 3691 3694 3697 3700 3703 3706 3709 3712 3715 3718 3721 3723 3726 3729 3732 3735 3738 3741 3744 3747 3750 3753 3756 3758 3761 3764 3767 3769 3772 3774 3776 3779 3782 3785 3788 3791 3794 3797 3800 3803 3806 3809 3812 3815 3817 3820 3823 3825 3827 3830 3833 3836 3838 3841 3844 3846 3849 3852 3855 3858 3860 3862 3865 3867 3870 3873 3876 3878 3881 3884 3887 3890 3893 3895 3898 3901 3903 3905 3908 3911 3913 3916 3919 3922 3925 3928 3931 3934 3937 3940 3942 3944 3947 3950 3953 3956 3959 3962 3965 3967 3970 3973 3976 3978 3981 3984 3987 3989 3992 3995 3998 4000 4003 4006 4009 4012 4015 4018 4021 4024 4027 4030 4033 4035 4038 4041 4044 4046 4049 4051 4054 4057 4060 4063 4066 4068 4071 4073 4076 4079 4081 4084 4087 4089 4091 4094 4097 4100 4102 4105 4108 4111 4113 4116 4119 4122 4124 4127 4130 4133 4136 4138 4140 4142 4145 4148 4151 4154 4157 4160 4163 4165 4168 4171 4174 4177 4179 4181 4184 4187 4190 4193 4196 4199 4202 4204 4207 4209 4212 4215 4218 4220 4223 4225 4228 4231 4234 4237 4240 4243 4246 4249 4252 4254 4257 4260 4263 4266 4269 4272 4275 4278 4281 4284 4287 4290 4293 4296 4299 4302 4305 4308 4311 4314 4317 4320 4323 4326 4328 4331 4334 4337 4339 4342 4345 4347 4350 4353 4356 4359 4362 4365 4367 4370 4372 4375 4378 4381 4383 4386 4388 4391 4394 4397 4399 4402 4405 4408 4411 4414 4417 4420 4423 4426 4429 4432 4435 4438 4441 4444 4447 4449 4452 4455 4458 4461 4464 4466 4469 4472 4475 4478 4481 4484 4487 4490 4493 4496 4499 4501 4504 4507 4510 4513 4516 4518 4521 4524 4527 4530 4533 4536 4539 4542 4545 4548 4551 4554 4557 4560 4562 4565 4568 4571 4573 4576 4579 4582 4585 4588 4591 4594 4597 4600 4603 4606 4609 4612 4615 4618 4620 4623 4626 4629 4632 4635 4638 4640 4643 4645 4648 4651 4654 4657 4660 4663 4666 4669 4671 4674 4676 4679 4682 4685 4688 4691 4694 4696 4699 4702 4705 4708 4711 4714 4717 4719 4722 4724 4726 4729 4732 4734 4737 4740 4743 4746 4748 4751 4753 4756 4758 4761 4764 4767 4770 4773 4776 4779 4782 4785 4788 4791 4794 4797 4800 4803 4806 4809 4812 4814 4817 4819 4822 4825 4828 4831 4834 4837 4840 4843 4846 4849 4852 4855 4858 4861 4863 4866 4868 4871 4874 4877 4879 4881 4884 4886 4889 4892 4895 4898 4900 4903 4906 4909 4912 4914 4916 4919 4922 4924 4926 4929 4932 4934 4936 4939 4942 4945 4948 4950 4953 4956 4958 4961 4964 4967 4969 4972 4974 4977 4979 4982 4985 4988 4990 4993 4996 4999 5001 5003 5005 5007 5010 5013 5016 5019 5021 5024 5027 5029 5032 5034 5037 5039 5042 5045 5048 5051 5054 5057 5060 5062 5064 5067 5070 5073 5076 5078 5080 5083 5086 5088 5091 5094 5096 5099 5102 5105 5108 5111 5114 5117 5120 5123 5126 5128 5131 5134 5137 5140 5143 5146 5148 5151 5154 5157 5159 5162 5165 5168 5170 5173 5176 5179 5182 5185 5188 5190 5193 5195 5198 5200 5203 5206 5209 5211 5214 5217 5219 5222 5225 5227 5230 5232 5235 5238 5240 5243 5246 5249 5252 5254 5257 5260 5263 5265 5268 5271 5274 5277 5280 5283 5286 5289 5292 5295 5298 5301 5304 5307 5310 5313 5316 5319 5322 5325 5328 5331 5334 5337 5340 5343 5346 5349 5352 5354 5356 5359 5362 5364 5367 5370 5373 5376 5379 5382 5385 5388 5391 5393 5396 5399 5402 5405 5408 5411 5414 5416 5418 5421 5424 5426 5429 5432 5435 5438 5441 5444 5447 5450 5453 5456 5459 5462 5465 5468 5471 5474 5477 5480 5482 5485 5488 5491 5494 5497 5500 5503 5506 5509 5512 5515 5518 5521 5524 5527 5530 5533 5536 5539 5542 5545 5548 5551 5554 5557 5560 5563 5566 5569 5572 5575 5578 5581 5584 5587 5590 5593 5596 5599 5602 5605 5608 5611 5614 5617 5620 5623 5626 5629 5632 5635 5638 5641 5644 5647 5650 5653 5656 5659 5662 5665 5668 5671 5674 5677 5680 5683 5686 5689 5692 5695 5698 5700 5703 5706 5709 5712 5715 5718 5721 5723 5726 5729 5732 5734 5737 5739 5742 5745 5748 5751 5754 5757 5760 5763 5766 5769 5772 5774 5777 5780 5783 5786 5789 5792 5795 5798 5801 5804 5807 5810 5813 5815 5818 5821 5824 5826 5829 5832 5834 5837 5840 5843 5846 5849 5851 5854 5856 5859 5862 5865 5868 5871 5874 5877 5880 5883 5885 5888 5891 5894 5897 5900 5903 5906 5908 5911 5914 5916 5919 5922 5924 5927 5930 5933 5936 5939 5942 5945 5948 5951 5954 5957 5960 5963 5966 5969 5971 5974 5977 5980 5983 5986 5989 5992 5995 5998 6001 6004 6007 6010 6013 6016 6019 6022 6025 6028 6031 6034 6037 6040 6043 6046 6049 6052 6055 6058 6061 6064 6067 6069 6072 6075 6078 6081 6084 6087 6090 6093 6096 6099 6102 6105 6108 6111 6114 6117 6120 6123 6126 6129 6132 6135 6138 6141 6144 6147 6150 6153 6156 6159 6162 6165 6168 6170 6173 6176 6179 6182 6185 6188 6191 6194 6197 6200 6203 6206 6209 6212 6215 6218 6221 6224 6227 6230 6233 6236 6239 6242 6245 6248 6251 6254 6257 6260 6263 6266 6269 6272 6275 6278 6281 6284 6287 6290 6293 6296 6299 6302 6305 6308 6311 6314 6317 6320 6323 6326 6329 6332 6335 6338 6341 6344 6347 6350 6353 6356 6359 6362 6365 6368 6371 6374 6377 6380 6383 6386 6389 6392 6395 6398 6401 6404 6407 6410 6413 6416 6419 6422 6425 6428 6430 6433 6436 6439 6441 6444 6447 6450 6453 6456 6459 6462 6465 6468 6470 6473 6476 6479 6481 6484 6487 6490 6493 6496 6498 6501 6503 6506 6509 6511 6514 6517 6519 6522 6525 6528 6531 6534 6537 6540 6543 6545 6548 6551 6554 6556 6559 6562 6565 6568 6571 6574 6577 6579 6581 6584 6587 6589 6592 6595 6597 6599 6602 6605 6608 6611 6614 6617 6620 6623 6626 6628 6631 6634 6637 6639 6642 6645 6648 6650 6653 6656 6658 6661 6664 6666 6669 6671 6673 6676 6678 6681 6684 6687 6690 6693 6696 6698 6700 6703 6706 6709 6712 6715 6718 6721 6724 6727 6730 6733 6736 6739 6742 6745 6748 6750 6753 6756 6758 6761 6764 6767 6769 6772 6775 6778 6781 6784 6787 6790 6793 6796 6799 6801 6804 6807 6810 6812 6815 6818 6821 6823 6826 6829 6832 6835 6837 6839 6842 6844 6847 6850 6852 6855 6857 6859 6862 6865 6868 6870 6873 6876 6879 6881 6883 6886 6889 6892 6895 6898 6900 6903 6906 6908 6911 6914 6917 6919 6922 6925 6928 6931 6934 6937 6940 6943 6946 6949 6952 6955 6957 6960 6963 6966 6969 6972 6975 6978 6981 6984 6986 6989 6992 6995 6998 7001 7004 7007 7010 7013 7016 7019 7022 7025 7028 7031 7034 7037 7040 7043 7046 7049 7051 7054 7057 7059 7062 7065 7068 7071 7074 7077 7080 7083 7086 7089 7092 7095 7098 7101 7104 7107 7110 7113 7116 7119 7122 7125 7128 7131 7134 7137 7140 7143 7146 7149 7152 7154 7157 7160 7163 7166 7169 7172 7175 7177 7180 7183 7186 7189 7192 7195 7198 7201 7204 7207 7210 7213 7216 7219 7222 7225 7228 7231 7234 7237 7240 7242 7245 7248 7251 7254 7257 7260 7263 7266 7268 7271 7274 7277 7280 7283 7285 7288 7291 7294 7296 7299 7302 7305 7308 7311 7314 7317 7320 7323 7326 7329 7332 7335 7337 7339 7342 7345 7348 7351 7353 7356 7359 7362 7365 7368 7371 7373 7376 7378 7381 7384 7387 7390 7392 7395 7398 7401 7404 7406 7408 7411 7414 7417 7419 7422 7425 7428 7431 7434 7437 7440 7443 7446 7448 7451 7454 7457 7460 7462 7465 7468 7471 7474 7477 7480 7483 7486 7489 7492 7495 7498 7501 7504 7507 7510 7512 7515 7518 7521 7524 7527 7530 7533 7536 7539 7541 7544 7547 7550 7553 7556 7559 7562 7565 7568 7571 7574 7577 7580 7583 7586 7589 7592 7595 7598 7601 7604 7607 7610 7613 7616 7619 7622 7624 7627 7630 7632 7635 7638 7641 7644 7647 7650 7653 7655 7658 7661 7664 7667 7670 7673 7676 7679 7682 7685 7688 7691 7694 7697 7700 7703 7705 7708 7711 7714 7717 7720 7723 7726 7729 7732 7735 7738 7741 7744 7747 7750 7753 7756 7759 7762 7765 7768 7771 7774 7777 7780 7782 7785 7788 7791 7794 7797 7800 7803 7805 7808 7811 7814 7817 7820 7823 7826 7828 7830 7832 7835 7838 7841 7844 7846 7849 7852 7854 7857 7860 7862 7864 7867 7870 7873 7875 7877 7880 7883 7886 7889 7892 7895 7898 7901 7904 7907 7910 7913 7916 7918 7921 7924 7927 7929 7932 7935 7938 7941 7943 7946 7949 7952 7955 7958 7961 7964 7967 7970 7973 7976 7979 7982 7985 7988 7991 7994 7997 8000 8003 8006 8009 8012 8015 8018 8021 8024 8027 8030 8033 8036 8039 8042 8045 8048 8051 8054 8057 8060 8063 8066 8069 8072 8075 8077 8080 8083 8086 8089 8092 8095 8098 8100 8103 8106 8109 8111 8114 8116 8118 8121 8124 8126 8129 8131 8133 8136 8139 8141 8144 8147 8150 8152 8155 8158 8161 8164 8167 8170 8173 8175 8178 8181 8183 8186 8189 8192 8195 8198 8201 8204 8207 8210 8213 8215 8218 8221 8224 8227 8230 8233 8236 8239 8242 8244 8247 8250 8253 8256 8258 8260 8263 8266 8269 8272 8275 8278 8281 8283 8286 8289 8292 8295 8298 8301 8304 8306 8308 8310 8313 8315 8317 8320 8323 8326 8329 8332 8335 8337 8340 8343 8346 8349 8352 8355 8358 8361 8364 8367 8370 8373 8376 8379 8382 8385 8388 8391 8394 8397 8400 8403 8406 8409 8412 8415 8418 8421 8424 8427 8430 8433 8436 8439 8442 8445 8448 8451 8454 8457 8460 8463 8466 8469 8472 8475 8478 8481 8484 8487 8490 8493 8496 8499 8502 8505 8508 8511 8514 8517 8520 8523 8526 8529 8532 8534 8537 8540 8543 8546 8549 8552 8555 8558 8560 8563 8565 8568 8571 8574 8577 8579 8582 8584 8587 8590 8593 8595 8598 8601 8604 8606 8609 8612 8615 8618 8621 8624 8627 8630 8633 8636 8639 8642 8644 8647 8650 8653 8656 8659 8662 8665 8668 8671 8673 8675 8678 8681 8683 8686 8689 8692 8694 8696 8699 8702 8704 8707 8710 8712 8715 8718 8720 8723 8725 8728 8731 8734 8736 8739 8742 8744 8747 8750 8753 8756 8759 8762 8765 8768 8770 8773 8776 8779 8781 8783 8786 8789 8792 8795 8798 8801 8804 8807 8810 8813 8816 8819 8821 8824 8827 8830 8833 8836 8839 8842 8845 8848 8851 8854 8857 8860 8863 8866 8869 8872 8875 8877 8880 8883 8886 8889 8892 8895 8898 8900 8903 8906 8909 8911 8914 8917 8920 8923 8926 8929 8932 8935 8938 8941 8944 8947 8950 8953 8956 8959 8962 8965 8968 8971 8974 8977 8980 8983 8986 8989 8992 8995 8998 9000 9002 9005 9008 9011 9014 9017 9019 9022 9025 9028 9031 9033 9036 9039 9042 9045 9048 9050 9053 9056 9059 9062 9065 9068 9071 9073 9076 9079 9082 9085 9088 9091 9094 9096 9099 9102 9105 9108 9111 9114 9117 9120 9123 9126 9129 9132 9135 9138 9141 9144 9147 9150 9153 9155 9158 9161 9164 9167 9170 9173 9176 9178 9181 9184 9187 9190 9193 9196 9199 9202 9205 9207 9210 9213 9215 9218 9221 9224 9227 9230 9232 9234 9237 9240 9243 9245 9248 9250 9253 9255 9258 9261 9264 9266 9269 9272 9275 9278 9281 9284 9287 9289 9292 9295 9298 9300 9303 9306 9309 9311 9314 9317 9320 9323 9326 9328 9331 9334 9337 9339 9341 9344 9346 9349 9352 9354 9357 9360 9363 9366 9368 9371 9374 9376 9378 9381 9384 9387 9389 9391 9394 9396 9399 9402 9405 9408 9411 9414 9417 9419 9422 9425 9427 9430 9433 9436 9438 9441 9443 9446 9448 9451 9454 9457 9460 9463 9466 9469 9472 9475 9477 9480 9483 9485 9488 9491 9494 9497 9500 9503 9506 9509 9512 9515 9518 9520 9523 9526 9528 9531 9534 9537 9540 9543 9546 9549 9551 9554 9557 9560 9563 9566 9569 9572 9575 9578 9580 9583 9585 9588 9590 9593 9596 9599 9602 9604 9607 9610 9613 9615 9617 9620 9623 9626 9628 9631 9634 9637 9640 9643 9646 9649 9651 9654 9657 9659 9662 9665 9667 9670 9673 9676 9679 9682 9685 9688 9691 9693 9696 9699 9702 9705 9708 9711 9713 9716 9719 9722 9725 9728 9731 9734 9737 9740 9743 9745 9748 9751 9754 9757 9760 9763 9766 9769 9772 9775 9778 9781 9784 9787 9790 9793 9796 9799 9802 9805 9808 9811 9814 9817 9820 9823 9826 9829 9832 9835 9838 9841 9844 9847 9850 9852 9855 9858 9861 9864 9867 9870 9873 9876 9879 9882 9885 9888 9891 9893 9896 9899 9902 9905 9907 9909 9911 9914 9917 9920 9923 9926 9929 9932 9935 9938 9941 9944 9947 9950 9953 9956 9958 9961 9964 9967 9970 9973 9975 9978 9980 9983 9986 9989 9992 9995 9998 10000 10003 10006 10009 10012 10015 10017 10020 10023 10026 10029 10032 10034 10037 10040 10043 10046 10049 10052 10054 10057 10060 10062 10065 10068 10071 10074 10076 10079 10082 10085 10088 10091 10094 10097 10100 10103 10106 10109 10112 10115 10118 10121 10124 10126 10129 10132 10135 10138 10141 10144 10147 10150 10152 10155 10158 10161 10164 10167 10170 10173 10176 10179 10181 10184 10187 10190 10193 10196 10199 10202 10205 10208 10211 10214 10217 10219 10222 10225 10228 10231 10233 10236 10239 10242 10245 10248 10251 10253 10255 10257 10260 10263 10266 10269 10272 10274 10276 10278 10281 10284 10287 10290 10293 10296 10299 10301 10303 10306 10309 10312 10315 10318 10321 10323 10326 10329 10332 10334 10337 10340 10343 10346 10349 10352 10355 10358 10361 10364 10367 10370 10372 10375 10378 10381 10384 10387 10389 10392 10395 10398 10401 10403 10406 10409 10412 10415 10417 10420 10423 10426 10429 10432 10435 10437 10439 10441 10444 10447 10450 10453 10456 10459 10462 10465 10468 10471 10474 10476 10479 10482 10485 10488 10491 10494 10497 10500 10503 10506 10509 10512 10515 10518 10521 10524 10527 10530 10533 10536 10539 10542 10545 10548 10551 10554 10557 10560 10563 10566 10569 10572 10575 10578 10581 10584 10587 10590 10593 10596 10599 10602 10605 10608 10611 10614 10616 10619 10621 10624 10627 10630 10633 10636 10639 10642 10645 10647 10650 10652 10655 10658 10661 10664 10667 10670 10672 10675 10678 10680 10683 10686 10689 10692 10695 10698 10701 10703 10706 10708 10711 10713 10716 10719 10722 10725 10727 10730 10732 10735 10738 10740 10743 10746 10749 10752 10755 10758 10761 10764 10767 10770 10772 10775 10778 10781 10783 10786 10789 10792 10795 10798 10801 10804 10806 10809 10812 10815 10818 10821 10824 10827 10830 10833 10836 10839 10842 10845 10848 10851 10854 10857 10860 10863 10866 10869 10872 10875 10878 10881 10884 10886 10889 10892 10895 10897 10900 10903 10905 10908 10911 10914 10917 10920 10923 10926 10929 10932 10934 10937 10940 10943 10946 10949 10952 10955 10958 10961 10964 10966 10969 10972 10974 10977 10980 10983 10986 10989 10992 10995 10998 11001 11004 11007 11010 11013 11016 11019 11022 11025 11028 11031 11034 11037 11040 11043 11046 11049 11052 11055 11057 11060 11063 11065 11068 11071 11074 11076 11079 11081 11084 11087 11090 11093 11096 11099 11102 11105 11107 11110 11113 11116 11118 11121 11124 11127 11130 11133 11136 11139 11141 11144 11147 11150 11153 11155 11158 11161 11163 11166 11169 11171 11174 11177 11180 11182 11185 11188 11191 11193 11196 11199 11201 11203 11206 11209 11211 11213 11216 11219 11222 11225 11228 11231 11234 11237 11240 11243 11245 11248 11251 11254 11257 11259 11262 11265 11268 11271 11274 11277 11280 11283 11286 11289 11292 11295 11297 11300 11302 11305 11308 11311 11314 11317 11320 11322 11325 11328 11330 11333 11336 11339 11342 11345 11348 11351 11354 11357 11360 11363 11366 11368 11371 11374 11377 11380 11382 11385 11388 11391 11393 11395 11398 11401 11404 11407 11410 11413 11416 11418 11421 11424 11427 11430 11433 11436 11439 11442 11445 11448 11450 11453 11456 11459 11462 11465 11468 11471 11474 11477 11480 11483 11486 11489 11491 11493 11496 11499 11501 11504 11507 11510 11513 11516 11519 11521 11524 11526 11529 11532 11535 11538 11540 11543 11545 11548 11551 11553 11555 11558 11561 11564 11567 11570 11573 11576 11579 11582 11585 11588 11591 11594 11597 11600 11603 11606 11609 11612 11615 11618 11621 11624 11627 11630 11633 11636 11639 11642 11645 11648 11651 11654 11657 11660 11663 11666 11669 11672 11675 11678 11681 11684 11687 11690 11693 11696 11699 11702 11705 11708 11711 11714 11717 11720 11723 11726 11729 11732 11734 11737 11740 11743 11746 11749 11752 11755 11758 11760 11763 11766 11768 11771 11774 11777 11780 11783 11786 11789 11792 11795 11798 11801 11804 11807 11810 11813 11816 11819 11822 11825 11828 11831 11834 11837 11840 11843 11846 11849 11852 11854 11857 11860 11863 11866 11869 11872 11875 11878 11880 11883 11885 11888 11891 11893 11896 11898 11901 11904 11907 11909 11912 11915 11918 11920 11923 11925 11928 11931 11934 11937 11940 11943 11946 11949 11952 11955 11958 11961 11964 11967 11970 11972 11975 11978 11980 11983 11986 11989 11992 11995 11998 12000 12003 12006 12008 12011 12014 12016 12019 12022 12025 12028 12031 12033 12036 12039 12041 12044 12047 12050 12052 12055 12058 12061 12064 12067 12070 12072 12074 12077 12080 12083 12085 12087 12089 12091 12094 12097 12100 12102 12105 12107 12110 12113 12116 12119 12122 12124 12127 12130 12133 12136 12139 12142 12144 12147 12150 12153 12156 12159 12162 12165 12168 12171 12174 12177 12180 12183 12186 12188 12191 12194 12197 12200 12202 12204 12207 12210 12213 12216 12219 12222 12225 12228 12231 12234 12237 12240 12243 12245 12248 12251 12253 12255 12258 12261 12263 12266 12269 12272 12275 12278 12281 12284 12287 12290 12293 12295 12298 12301 12304 12307 12310 12313 12316 12318 12321 12324 12327 12330 12333 12336 12339 12342 12345 12348 12350 12353 12356 12359 12362 12365 12368 12371 12374 12376 12379 12382 12385 12388 12391 12394 12397 12400 12403 12406 12409 12412 12415 12418 12421 12424 12427 12429 12432 12435 12438 12441 12443 12446 12448 12451 12454 12457 12460 12463 12466 12469 12472 12475 12478 12481 12484 12486 12489 12491 12494 12496 12499 12502 12505 12508 12511 12513 12516 12518 12521 12523 12526 12529 12532 12534 12536 12538 12541 12544 12547 12550 12552 12555 12558 12561 12563 12566 12568 12571 12574 12577 12580 12583 12586 12589 12591 12594 12596 12599 12602 12605 12608 12611 12614 12617 12619 12622 12624 12627 12630 12633 12636 12639 12641 12644 12647 12650 12652 12654 12657 12659 12662 12665 12668 12671 12674 12677 12680 12683 12685 12688 12691 12694 12697 12699 12702 12705 12708 12711 12714 12717 12720 12722 12725 12728 12731 12734 12737 12740 12743 12746 12749 12752 12755 12758 12761 12764 12767 12770 12773 12776 12779 12782 12785 12788 12791 12794 12796 12798 12801 12804 12807 12810 12813 12815 12817 12819 12822 12825 12827 12830 12833 12836 12839 12842 12845 12847 12850 12853 12855 12857 12860 12863 12866 12869 12872 12875 12878 12881 12884 12887 12890 12893 12895 12898 12901 12904 12907 12910 12913 12916 12919 12922 12925 12928 12931 12934 12937 12940 12943 12946 12949 12952 12955 12958 12961 12964 12967 12969 12971 12974 12976 12979 12982 12985 12988 12991 12994 12997 13000 13003 13006 13009 13012 13015 13017 13020 13023 13026 13029 13032 13035 13038 13040 13042 13045 13048 13051 13054 13057 13060 13063 13066 13068 13071 13073 13076 13079 13082 13084 13086 13088 13091 13093 13096 13099 13101 13104 13107 13109 13112 13115 13118 13121 13124 13127 13130 13133 13136 13139 13142 13145 13148 13151 13154 13157 13160 13163 13165 13168 13171 13174 13177 13180 13183 13186 13189 13192 13195 13198 13200 13203 13206 13209 13212 13215 13218 13221 13224 13226 13229 13232 13235 13238 13241 13244 13247 13250 13253 13256 13259 13262 13265 13268 13271 13274 13277 13280 13283 13286 13288 13291 13294 13297 13300 13303 13306 13308 13310 13313 13316 13319 13322 13325 13328 13330 13333 13336 13339 13342 13344 13347 13350 13353 13356 13359 13362 13365 13368 13371 13374 13377 13380 13383 13386 13389 13391 13394 13397 13400 13402 13405 13408 13411 13414 13417 13420 13423 13426 13429 13432 13435 13438 13441 13444 13447 13449 13452 13455 13458 13461 13464 13467 13469 13471 13473 13476 13479 13482 13485 13488 13491 13493 13496 13499 13501 13504 13507 13510 13513 13516 13519 13521 13524 13526 13529 13532 13535 13538 13541 13544 13547 13550 13552 13554 13556 13559 13562 13565 13568 13571 13574 13577 13580 13583 13586 13588 13591 13594 13596 13599 13602 13604 13606 13609 13612 13615 13618 13621 13624 13627 13630 13633 13635 13638 13641 13644 13647 13649 13651 13654 13656 13659 13662 13665 13668 13671 13674 13677 13680 13683 13685 13687 13690 13692 13695 13698 13701 13703 13706 13708 13711 13714 13717 13720 13723 13726 13729 13732 13735 13738 13741 13744 13747 13750 13752 13755 13758 13760 13763 13766 13769 13771 13774 13777 13780 13783 13785 13788 13791 13794 13797 13800 13803 13806 13809 13812 13815 13818 13821 13824 13826 13829 13832 13835 13838 13841 13844 13846 13849 13852 13855 13858 13861 13864 13867 13869 13872 13874 13877 13880 13883 13885 13888 13891 13894 13896 13899 13902 13905 13908 13911 13914 13916 13919 13921 13924 13927 13930 13933 13936 13939 13942 13944 13946 13949 13952 13954 13957 13960 13963 13965 13968 13971 13973 13976 13979 13982 13984 13987 13990 13993 13996 13999 14002 14004 14006 14009 14012 14015 14017 14019 14022 14024 14026 14029 14032 14035 14037 14039 14042 14045 14048 14051 14054 14056 14059 14062 14065 14068 14071 14074 14077 14080 14083 14086 14089 14092 14095 14098 14101 14104 14107 14110 14113 14116 14119 14122 14125 14128 14131 14134 14137 14139 14142 14145 14148 14151 14154 14157 14160 14163 14166 14169 14172 14175 14178 14180 14182 14185 14187 14189 14192 14195 14197 14199 14201 14204 14207 14209 14212 14214 14217 14220 14223 14226 14228 14231 14234 14237 14239 14242 14244 14247 14250 14252 14255 14258 14261 14264 14266 14268 14271 14274 14277 14280 14282 14285 14288 14290 14293 14296 14299 14302 14305 14308 14311 14314 14317 14319 14322 14325 14328 14330 14333 14336 14338 14340 14343 14346 14349 14352 14355 14358 14360 14363 14366 14369 14372 14375 14378 14380 14383 14386 14389 14392 14395 14398 14401 14404 14407 14409 14411 14414 14416 14419 14422 14425 14428 14431 14434 14437 14440 14443 14446 14449 14452 14455 14458 14461 14464 14467 14470 14473 14476 14479 14482 14485 14488 14491 14494 14497 14500 14503 14506 14509 14512 14515 14518 14520 14523 14526 14529 14532 14535 14538 14541 14544 14547 14550 14553 14556 14559 14561 14564 14567 14569 14571 14574 14577 14580 14583 14586 14589 14591 14594 14597 14599 14602 14605 14608 14610 14612 14615 14618 14621 14624 14627 14630 14633 14636 14638 14641 14644 14646 14649 14652 14655 14658 14661 14664 14667 14670 14673 14676 14679 14682 14684 14686 14689 14691 14694 14697 14699 14702 14705 14707 14710 14713 14716 14719 14721 14724 14727 14729 14732 14735 14737 14740 14743 14745 14748 14751 14753 14755 14758 14760 14763 14766 14769 14771 14774 14777 14780 14783 14786 14789 14792 14795 14798 14800 14803 14806 14809 14812 14815 14817 14820 14823 14825 14828 14831 14834 14837 14840 14843 14845 14848 14851 14854 14856 14858 14861 14864 14867 14870 14873 14875 14878 14880 14883 14886 14889 14891 14894 14897 14900 14903 14906 14909 14912 14915 14918 14921 14924 14927 14930 14933 14936 14938 14941 14944 14947 14950 14953 14956 14959 14962 14965 14968 14971 14974 14977 14980 14983 14985 14988 14991 14994 14997 15000 15003 15006 15009 15011 15014 15017 15020 15023 15026 15029 15032 15035 15038 15041 15044 15047 15050 15053 15056 15059 15062 15065 15068 15071 15074 15077 15080 15083 15086 15089 15092 15095 15098 15101 15104 15107 15110 15113 15116 15119 15122 15125 15128 15131 15133 15136 15138 15141 15144 15147 15150 15153 15156 15159 15162 15165 15168 15171 15174 15177 15180 15183 15186 15189 15192 15195 15198 15201 15204 15207 15210 15213 15216 15219 15222 15225 15228 15231 15234 15236 15239 15242 15245 15248 15251 15254 15256 15259 15262 15265 15268 15271 15274 15277 15280 15283 15286 15289 15292 15295 15297 15299 15302 15305 15307 15310 15313 15316 15319 15322 15325 15328 15331 15333 15336 15339 15342 15345 15348 15351 15354 15357 15360 15363 15366 15369 15372 15375 15378 15381 15384 15387 15390 15393 15396 15399 15402 15405 15408 15410 15412 15415 15418 15420 15423 15425 15428 15431 15434 15437 15440 15443 15446 15449 15452 15455 15458 15461 15464 15467 15470 15473 15476 15479 15481 15484 15486 15489 15491 15494 15497 15500 15503 15506 15509 15512 15515 15517 15520 15523 15526 15529 15532 15535 15538 15541 15543 15546 15549 15552 15555 15558 15561 15564 15567 15570 15573 15576 15579 15582 15585 15588 15591 15594 15597 15600 15603 15606 15609 15611 15614 15617 15620 15622 15624 15627 15630 15633 15636 15639 15642 15645 15648 15651 15654 15657 15660 15663 15666 15669 15671 15674 15677 15680 15683 15686 15689 15692 15695 15697 15700 15703 15706 15709 15712 15715 15718 15721 15724 15727 15730 15733 15736 15739 15742 15745 15748 15751 15754 15757 15759 15762 15765 15768 15771 15774 15777 15780 15783 15786 15789 15792 15794 15797 15800 15802 15805 15808 15811 15814 15817 15820 15823 15825 15828 15831 15833 15836 15839 15842 15845 15847 15850 15853 15855 15857 15860 15863 15866 15868 15871 15874 15877 15880 15883 15886 15888 15891 15894 15897 15900 15903 15906 15909 15912 15914 15917 15920 15923 15926 15929 15931 15934 15937 15940 15943 15946 15949 15951 15954 15957 15959 15962 15965 15968 15971 15974 15977 15980 15983 15986 15989 15991 15993 15996 15999 16001 16003 16006 16009 16012 16015 16018 16020 16023 16026 16028 16031 16033 16036 16039 16041 16044 16046 16049 16051 16054 16056 16059 16061 16064 16066 16069 16072 16075 16078 16081 16083 16086 16089 16092 16095 16097 16100 16102 16105 16108 16111 16113 16115 16118 16121 16124 16127 16130 16133 16136 16139 16142 16145 16148 16150 16153 16156 16159 16162 16165 16168 16171 16174 16177 16180 16183 16186 16189 16192 16195 16198 16201 16204 16207 16210 16213 16216 16219 16221 16224 16227 16230 16233 16236 16239 16242 16245 16248 16251 16254 16256 16259 16262 16264 16266 16268 16271 16274 16277 16280 16283 16286 16289 16292 16295 16298 16300 16302 16305 16308 16311 16314 16316 16319 16322 16325 16328 16331 16334 16336 16339 16342 16345 16348 16351 16354 16357 16360 16363 16365 16368 16370 16373 16376 16379 16382 16385 16388 16390 16393 16396 16399 16402 16405 16408 16411 16414 16417 16420 16423 16426 16429 16432 16435 16438 16441 16444 16447 16450 16453 16456 16459 16462 16465 16468 16471 16474 16477 16479 16482 16485 16487 16490 16493 16496 16499 16502 16505 16508 16510 16513 16516 16519 16522 16525 16528 16530 16533 16536 16539 16542 16544 16547 16549 16552 16555 16557 16560 16563 16566 16569 16572 16575 16578 16580 16583 16586 16589 16592 16594 16597 16600 16603 16606 16609 16611 16614 16617 16620 16623 16626 16628 16631 16634 16636 16639 16642 16645 16648 16651 16654 16657 16660 16663 16665 16668 16671 16674 16677 16680 16683 16686 16689 16691 16694 16696 16699 16701 16704 16707 16710 16713 16716 16719 16722 16725 16728 16731 16734 16737 16740 16743 16745 16748 16751 16754 16757 16759 16762 16764 16767 16769 16772 16775 16778 16780 16783 16786 16789 16791 16794 16796 16799 16802 16805 16808 16811 16814 16817 16820 16822 16825 16828 16831 16834 16837 16840 16843 16846 16848 16851 16854 16857 16860 16863 16866 16869 16872 16875 16878 16881 16884 16887 16890 16893 16896 16899 16902 16905 16908 16911 16914 16916 16918 16921 16924 16927 16929 16932 16934 16937 16939 16942 16945 16947 16950 16953 16955 16958 16961 16964 16966 16969 16972 16975 16978 16981 16984 16987 16990 16992 16995 16998 17000 17003 17006 17009 17012 17015 17018 17021 17024 17027 17029 17031 17034 17037 17040 17043 17045 17048 17051 17054 17057 17060 17063 17066 17069 17072 17075 17078 17081 17084 17086 17089 17092 17095 17097 17100 17102 17105 17107 17110 17113 17116 17118 17121 17124 17127 17130 17133 17136 17139 17142 17145 17148 17151 17154 17157 17160 17163 17166 17169 17172 17175 17178 17181 17184 17186 17189 17192 17195 17198 17201 17203 17206 17208 17211 17214 17217 17219 17222 17225 17228 17231 17234 17237 17240 17243 17246 17249 17252 17255 17258 17261 17264 17267 17270 17273 17276 17279 17282 17285 17288 17291 17294 17297 17300 17303 17306 17309 17312 17315 17318 17321 17324 17327 17330 17333 17336 17339 17342 17344 17347 17350 17353 17356 17359 17362 17365 17368 17371 17374 17377 17380 17383 17386 17389 17391 17394 17397 17400 17403 17406 17409 17412 17415 17418 17421 17424 17427 17430 17433 17435 17438 17441 17443 17446 17449 17452 17455 17458 17461 17464 17467 17470 17473 17476 17478 17481 17484 17487 17490 17492 17494 17497 17499 17501 17503 17506 17509 17512 17515 17518 17520 17523 17526 17528 17530 17533 17536 17539 17542 17545 17548 17551 17554 17557 17559 17562 17565 17568 17571 17573 17575 17577 17580 17583 17585 17588 17591 17593 17596 17598 17600 17603 17606 17609 17612 17615 17618 17621 17624 17627 17630 17633 17636 17639 17642 17644 17647 17650 17653 17656 17658 17661 17664 17666 17669 17671 17673 17676 17678 17680 17683 17686 17689 17691 17694 17697 17700 17702 17705 17708 17711 17714 17717 17720 17723 17726 17728 17731 17734 17736 17738 17740 17743 17746 17749 17752 17754 17757 17760 17763 17766 17768 17771 17774 17777 17780 17783 17786 17789 17792 17795 17797 17800 17803 17806 17809 17812 17814 17816 17819 17822 17825 17828 17831 17834 17837 17840 17843 17846 17849 17852 17855 17858 17861 17864 17867 17870 17873 17876 17879 17882 17885 17887 17890 17892 17895 17898 17900 17903 17906 17909 17912 17915 17918 17921 17924 17927 17930 17932 17935 17937 17940 17943 17946 17949 17951 17954 17957 17960 17963 17966 17969 17972 17975 17978 17981 17984 17987 17989 17992 17995 17997 18000 18002 18005 18007 18009 18012 18015 18018 18021 18023 18026 18028 18031 18033 18035 18038 18041 18043 18046 18049 18052 18055 18057 18060 18062 18065 18068 18071 18074 18076 18079 18082 18085 18088 18091 18094 18097 18100 18103 18106 18109 18112 18115 18118 18121 18123 18125 18128 18131 18134 18136 18139 18141 18144 18147 18149 18152 18154 18156 18159 18162 18165 18168 18171 18174 18176 18179 18182 18185 18187 18190 18193 18196 18198 18201 18204 18207 18210 18213 18216 18219 18222 18225 18228 18231 18234 18237 18240 18242 18245 18248 18251 18253 18256 18259 18261 18264 18267 18269 18272 18275 18278 18281 18284 18287 18290 18293 18295 18297 18300 18302 18305 18307 18310 18312 18314 18316 18318 18320 18323 18326 18329 18332 18335 18337 18340 18343 18346 18349 18351 18353 18356 18359 18361 18364 18366 18369 18372 18374 18376 18379 18381 18384 18387 18390 18393 18396 18399 18401 18403 18406 18409 18412 18415 18418 18421 18423 18426 18429 18432 18435 18437 18440 18442 18445 18448 18451 18454 18457 18460 18463 18466 18469 18472 18475 18478 18480 18483 18485 18488 18490 18493 18495 18498 18501 18503 18506 18508 18511 18514 18517 18520 18523 18526 18529 18532 18535 18538 18540 18543 18546 18549 18552 18555 18558 18561 18564 18566 18569 18572 18575 18578 18581 18583 18586 18589 18592 18595 18598 18600 18602 18605 18608 18611 18614 18616 18618 18621 18624 18627 18630 18633 18636 18639 18642 18645 18648 18651 18654 18656 18659 18662 18664 18667 18670 18673 18676 18678 18680 18682 18685 18688 18691 18693 18695 18698 18701 18703 18706 18709 18712 18715 18718 18721 18723 18726 18728 18730 18733 18736 18739 18742 18744 18746 18748 18751 18754 18756 18759 18762 18765 18767 18770 18773 18775 18778 18781 18784 18787 18790 18792 18794 18797 18800 18802 18805 18808 18811 18813 18816 18819 18822 18825 18828 18831 18834 18837 18840 18843 18846 18849 18852 18855 18857 18859 18862 18865 18867 18870 18872 18875 18878 18881 18884 18886 18889 18892 18895 18898 18901 18904 18906 18909 18911 18914 18917 18920 18923 18925 18927 18930 18932 18935 18938 18941 18943 18945 18948 18951 18953 18956 18959 18962 18965 18968 18971 18974 18976 18979 18982 18985 18987 18990 18993 18995 18998 19001 19003 19006 19009 19012 19014 19016 19019 19022 19024 19027 19030 19033 19036 19039 19042 19045 19048 19051 19054 19056 19059 19062 19065 19068 19071 19074 19077 19080 19083 19086 19089 19092 19095 19098 19100 19103 19106 19109 19112 19115 19118 19121 19124 19127 19130 19133 19136 19139 19142 19145 19148 19151 19154 19157 19160 19163 19165 19168 19171 19174 19177 19180 19182 19185 19188 19191 19194 19197 19200 19203 19206 19209 19212 19215 19218 19221 19224 19227 19230 19233 19236 19239 19242 19245 19248 19251 19254 19257 19260 19262 19265 19268 19271 19274 19277 19280 19283 19285 19288 19290 19293 19296 19299 19302 19305 19308 19310 19313 19316 19318 19321 19324 19327 19330 19333 19336 19339 19342 19345 19348 19351 19354 19357 19360 19363 19366 19369 19372 19375 19378 19381 19384 19387 19390 19393 19396 19399 19402 19404 19407 19410 19412 19415 19418 19421 19424 19427 19430 19433 19436 19439 19442 19445 19448 19451 19453 19456 19459 19462 19465 19467 19470 19473 19476 19479 19481 19484 19487 19490 19493 19496 19498 19501 19504 19507 19510 19512 19515 19518 19520 19523 19526 19529 19531 19534 19537 19540 19543 19545 19548 19551 19554 19557 19559 19562 19565 19568 19570 19572 19574 19577 19580 19582 19585 19588 19591 19594 19596 19598 19601 19603 19606 19609 19611 19614 19617 19620 19622 19625 19628 19630 19633 19636 19638 19640 19643 19646 19648 19651 19654 19657 19660 19663 19666 19669 19672 19675 19678 19681 19684 19687 19690 19693 19695 19698 19701 19704 19707 19710 19713 19716 19719 19722 19725 19728 19731 19734 19737 19740 19743 19746 19749 19752 19754 19757 19760 19763 19765 19768 19770 19773 19775 19778 19781 19784 19787 19789 19792 19795 19798 19801 19804 19807 19810 19813 19816 19819 19822 19825 19827 19830 19833 19836 19839 19842 19845 19848 19851 19853 19856 19859 19862 19865 19868 19871 19874 19877 19880 19883 19886 19889 19892 19895 19898 19901 19904 19907 19910 19913 19915 19918 19921 19924 19927 19930 19933 19936 19939 19941 19944 19947 19950 19953 19956 19959 19962 19965 19968 19971 19974 19977 19980 19982 19985 19987 19990 19992 19995 19998 20001 20004 20007 20010 20013 20016 20019 20022 20024 20027 20029 20032 20035 20038 20041 20044 20047 20050 20053 20056 20058 20061 20063 20066 20069 20071 20074 20077 20080 20083 20086 20089 20091 20094 20097 20100 20102 20104 20107 20110 20113 20116 20119 20122 20125 20128 20131 20134 20137 20140 20142 20145 20147 20150 20153 20156 20159 20162 20165 20168 20171 20174 20177 20180 20183 20186 20189 20191 20194 20197 20200 20203 20206 20208 20211 20214 20217 20220 20223 20226 20229 20232 20235 20238 20241 20244 20247 20250 20253 20256 20259 20262 20265 20268 20271 20274 20277 20280 20283 20286 20289 20292 20295 20298 20301 20304 20307 20310 20313 20315 20318 20321 20323 20326 20329 20331 20334 20337 20340 20343 20346 20349 20352 20355 20358 20361 20364 20367 20370 20373 20376 20379 20382 20385 20388 20391 20394 20397 20400 20403 20406 20409 20412 20415 20418 20421 20424 20427 20429 20432 20435 20438 20441 20444 20447 20450 20453 20456 20459 20462 20465 20468 20471 20473 20476 20479 20481 20484 20487 20489 20492 20495 20498 20501 20504 20507 20509 20511 20514 20517 20520 20523 20526 20529 20532 20535 20538 20541 20544 20547 20550 20553 20556 20559 20562 20565 20568 20571 20574 20577 20580 20583 20586 20589 20592 20595 20598 20601 20604 20607 20610 20613 20616 20619 20622 20625 20628 20631 20634 20637 20640 20643 20645 20648 20651 20654 20657 20660 20662 20664 20667 20670 20673 20676 20679 20682 20685 20688 20691 20694 20697 20700 20703 20706 20709 20712 20715 20718 20721 20724 20727 20730 20733 20736 20738 20741 20744 20747 20750 20753 20755 20758 20761 20764 20767 20770 20773 20776 20778 20781 20784 20787 20790 20793 20796 20799 20801 20804 20807 20810 20813 20816 20819 20822 20825 20828 20830 20833 20836 20839 20842 20845 20848 20851 20853 20856 20859 20861 20864 20867 20870 20873 20876 20879 20882 20885 20888 20891 20894 20897 20900 20903 20906 20909 20911 20914 20917 20919 20922 20925 20928 20931 20934 20937 20940 20943 20946 20949 20952 20955 20958 20961 20964 20967 20970 20973 20976 20979 20982 20984 20987 20990 20993 20996 20999 21002 21005 21007 21010 21013 21016 21019 21021 21024 21027 21030 21033 21036 21039 21042 21045 21048 21050 21053 21056 21059 21062 21065 21067 21070 21073 21076 21078 21081 21084 21087 21089 21092 21095 21097 21099 21102 21105 21108 21110 21113 21115 21118 21121 21124 21127 21130 21132 21135 21138 21141 21144 21147 21150 21153 21156 21159 21162 21165 21168 21170 21173 21175 21178 21181 21184 21187 21190 21193 21195 21198 21201 21204 21207 21210 21212 21215 21218 21221 21223 21226 21229 21232 21235 21238 21241 21244 21247 21249 21252 21255 21258 21261 21264 21267 21269 21272 21275 21278 21281 21284 21286 21289 21292 21294 21297 21299 21302 21305 21308 21311 21314 21317 21319 21322 21325 21328 21331 21333 21336 21339 21342 21345 21348 21350 21353 21356 21359 21362 21365 21368 21371 21374 21377 21380 21383 21386 21389 21392 21395 21397 21400 21403 21406 21409 21411 21413 21416 21419 21422 21425 21428 21431 21434 21437 21439 21442 21445 21448 21451 21454 21457 21460 21463 21466 21469 21472 21475 21477 21480 21483 21485 21488 21491 21493 21496 21499 21502 21505 21508 21511 21514 21516 21519 21521 21523 21526 21529 21531 21534 21537 21540 21543 21546 21549 21551 21554 21557 21559 21562 21564 21567 21570 21573 21576 21579 21582 21585 21588 21591 21594 21597 21600 21603 21605 21608 21611 21614 21617 21620 21623 21625 21628 21631 21634 21637 21640 21643 21646 21649 21652 21655 21658 21660 21663 21666 21668 21671 21674 21677 21679 21682 21685 21688 21691 21694 21697 21700 21703 21706 21708 21711 21714 21717 21720 21723 21726 21729 21731 21734 21737 21740 21743 21746 21749 21752 21754 21757 21760 21763 21765 21768 21771 21774 21777 21779 21782 21785 21788 21791 21794 21797 21799 21802 21805 21808 21811 21814 21817 21820 21823 21826 21829 21832 21835 21838 21841 21844 21846 21849 21851 21854 21857 21859 21862 21865 21868 21871 21874 21877 21880 21882 21885 21888 21891 21894 21897 21900 21903 21906 21909 21912 21915 21918 21921 21924 21927 21930 21933 21936 21939 21942 21945 21948 21951 21954 21957 21960 21963 21966 21969 21972 21975 21978 21981 21983 21986 21989 21992 21995 21998 22001 22004 22007 22010 22013 22016 22019 22021 22024 22027 22029 22032 22035 22038 22040 22043 22046 22049 22052 22054 22057 22060 22063 22066 22069 22071 22074 22077 22080 22083 22086 22089 22092 22095 22098 22101 22104 22107 22110 22113 22116 22119 22122 22125 22128 22131 22133 22135 22138 22141 22144 22146 22149 22152 22155 22158 22160 22163 22166 22169 22171 22174 22177 22179 22182 22185 22188 22191 22194 22197 22200 22202 22205 22208 22211 22214 22217 22220 22223 22226 22229 22232 22234 22237 22240 22243 22246 22249 22252 22255 22258 22261 22264 22267 22270 22273 22276 22279 22282 22285 22288 22291 22294 22297 22300 22303 22306 22309 22312 22315 22318 22321 22324 22327 22330 22332 22335 22338 22340 22343 22346 22349 22352 22355 22358 22360 22363 22366 22368 22371 22374 22377 22380 22383 22386 22389 22392 22395 22398 22401 22404 22406 22409 22411 22414 22417 22420 22423 22426 22429 22432 22435 22437 22440 22443 22446 22448 22451 22454 22457 22460 22463 22466 22468 22471 22474 22477 22480 22483 22486 22489 22492 22495 22498 22501 22504 22507 22510 22513 22515 22518 22521 22524 22527 22530 22533 22536 22539 22542 22545 22548 22551 22554 22557 22560 22563 22566 22569 22572 22575 22578 22581 22584 22587 22590 22593 22596 22599 22602 22605 22608 22611 22614 22617 22620 22623 22626 22628 22631 22634 22637 22639 22642 22645 22648 22651 22654 22657 22659 22662 22665 22668 22670 22673 22676 22679 22681 22684 22686 22688 22691 22694 22697 22700 22703 22706 22709 22712 22715 22718 22721 22724 22727 22729 22732 22735 22738 22741 22743 22746 22749 22752 22755 22757 22759 22762 22764 22767 22769 22772 22775 22778 22781 22784 22787 22789 22792 22795 22798 22800 22803 22806 22808 22811 22814 22816 22819 22822 22824 22827 22830 22832 22835 22838 22840 22843 22846 22848 22851 22854 22856 22859 22862 22864 22866 22869 22872 22875 22878 22881 22884 22887 22890 22893 22896 22899 22902 22905 22908 22911 22914 22917 22920 22923 22926 22929 22932 22935 22938 22941 22943 22946 22949 22952 22955 22958 22961 22963 22966 22969 22972 22975 22977 22980 22983 22985 22988 22990 22993 22996 22998 23001 23004 23007 23009 23012 23015 23018 23021 23024 23027 23030 23033 23036 23039 23042 23044 23047 23050 23053 23056 23059 23062 23065 23067 23070 23073 23076 23079 23082 23085 23087 23090 23093 23096 23099 23102 23105 23108 23111 23113 23116 23119 23122 23124 23127 23130 23133 23136 23139 23142 23145 23148 23151 23154 23157 23160 23163 23166 23169 23171 23173 23176 23179 23182 23185 23188 23191 23194 23197 23200 23203 23206 23209 23212 23215 23218 23221 23224 23227 23230 23233 23236 23239 23242 23245 23248 23251 23254 23257 23260 23263 23265 23268 23271 23274 23277 23280 23283 23286 23289 23291 23294 23297 23300 23303 23306 23309 23311 23314 23317 23320 23323 23326 23328 23331 23333 23336 23339 23342 23345 23348 23350 23353 23356 23359 23362 23365 23368 23371 23374 23377 23380 23382 23385 23388 23391 23394 23397 23400 23403 23406 23409 23411 23414 23417 23420 23423 23426 23429 23432 23435 23438 23441 23444 23446 23449 23452 23455 23458 23461 23464 23467 23470 23473 23476 23479 23482 23485 23487 23490 23493 23496 23498 23501 23504 23507 23509 23512 23515 23518 23520 23523 23526 23528 23531 23534 23537 23540 23543 23546 23549 23552 23555 23558 23561 23564 23567 23570 23573 23576 23579 23582 23585 23588 23591 23593 23596 23599 23602 23605 23608 23610 23613 23616 23619 23622 23625 23627 23630 23633 23636 23639 23642 23645 23648 23651 23654 23657 23660 23663 23666 23669 23672 23675 23678 23680 23683 23686 23689 23692 23695 23698 23701 23704 23707 23710 23713 23716 23719 23722 23725 23728 23731 23734 23737 23740 23743 23746 23748 23751 23754 23757 23760 23763 23766 23769 23772 23775 23778 23781 23784 23787 23790 23793 23796 23799 23802 23805 23808 23811 23814 23817 23820 23823 23826 23829 23832 23835 23838 23841 23844 23846 23849 23852 23855 23858 23861 23863 23865 23868 23871 23873 23876 23879 23882 23885 23888 23891 23894 23897 23900 23903 23906 23909 23912 23915 23918 23921 23924 23927 23930 23933 23936 23939 23942 23945 23948 23951 23954 23957 23960 23963 23965 23968 23971 23974 23976 23978 23981 23983 23986 23989 23991 23994 23997 23999 24002 24005 24007 24010 24013 24016 24018 24021 24023 24025 24028 24030 24033 24035 24038 24041 24044 24047 24049 24052 24055 24058 24061 24064 24066 24069 24072 24075 24078 24081 24084 24087 24089 24092 24095 24098 24100 24103 24106 24109 24112 24115 24117 24120 24122 24125 24128 24131 24134 24137 24140 24143 24145 24147 24150 24153 24156 24159 24162 24165 24167 24170 24173 24176 24179 24182 24184 24187 24190 24192 24195 24198 24200 24203 24206 24209 24212 24215 24218 24221 24224 24227 24230 24233 24236 24238 24241 24244 24247 24250 24253 24256 24259 24262 24265 24268 24271 24274 24276 24279 24282 24284 24287 24290 24293 24295 24298 24301 24304 24307 24310 24313 24316 24319 24322 24325 24328 24331 24334 24336 24339 24341 24344 24347 24350 24353 24356 24358 24361 24364 24367 24370 24373 24376 24379 24382 24385 24388 24391 24394 24397 24400 24403 24406 24409 24412 24414 24417 24419 24422 24425 24427 24429 24432 24435 24438 24441 24444 24447 24450 24452 24455 24458 24461 24464 24467 24469 24472 24474 24477 24480 24483 24485 24488 24490 24493 24496 24499 24502 24505 24507 24510 24513 24516 24519 24522 24525 24528 24531 24534 24537 24540 24543 24546 24549 24552 24554 24557 24560 24563 24566 24569 24572 24575 24578 24581 24584 24587 24590 24592 24595 24598 24601 24604 24607 24610 24613 24616 24618 24621 24624 24627 24630 24633 24635 24637 24640 24643 24645 24648 24650 24653 24655 24658 24661 24664 24667 24670 24673 24676 24679 24682 24685 24688 24691 24694 24697 24700 24703 24706 24709 24712 24715 24717 24720 24722 24725 24728 24731 24734 24736 24739 24742 24745 24748 24751 24754 24757 24760 24763 24765 24768 24771 24773 24776 24778 24781 24784 24787 24789 24791 24794 24796 24799 24802 24805 24808 24811 24814 24817 24820 24822 24824 24826 24829 24832 24835 24838 24841 24844 24846 24849 24852 24855 24858 24861 24864 24867 24870 24873 24876 24878 24881 24884 24887 24889 24892 24895 24898 24901 24904 24907 24910 24913 24916 24919 24921 24924 24927 24930 24932 24934 24937 24940 24943 24945 24948 24950 24952 24955 24958 24960 24963 24966 24969 24971 24974 24976 24979 24982 24985 24988 24991 24994 24997 25000 25003 25005 25007 25010 25013 25016 25018 25021 25024 25027 25030 25033 25036 25039 25041 25044 25047 25050 25053 25056 25059 25062 25064 25067 25070 25073 25076 25079 25082 25085 25088 25090 25093 25096 25099 25102 25105 25108 25111 25114 25116 25119 25122 25125 25127 25130 25133 25136 25139 25142 25144 25147 25150 25153 25156 25159 25162 25165 25168 25171 25174 25177 25179 25182 25185 25187 25190 25193 25196 25198 25201 25204 25207 25210 25213 25216 25219 25222 25225 25227 25230 25233 25236 25239 25241 25244 25247 25250 25253 25256 25259 25262 25265 25267 25270 25273 25276 25279 25282 25285 25288 25291 25294 25297 25299 25302 25305 25308 25311 25314 25317 25320 25322 25325 25328 25331 25334 25337 25339 25342 25345 25348 25351 25354 25356 25359 25362 25365 25368 25371 25374 25377 25380 25383 25386 25389 25392 25395 25398 25400 25403 25406 25409 25412 25415 25418 25421 25424 25427 25430 25433 25435 25438 25440 25443 25446 25449 25452 25455 25458 25461 25464 25467 25470 25473 25476 25479 25482 25484 25486 25489 25492 25494 25497 25500 25503 25505 25508 25511 25514 25517 25520 25522 25524 25527 25530 25532 25535 25538 25541 25544 25547 25550 25552 25555 25557 25560 25563 25566 25569 25572 25575 25578 25581 25584 25587 25590 25593 25596 25598 25601 25604 25607 25609 25611 25614 25617 25620 25623 25626 25629 25632 25635 25638 25641 25643 25646 25648 25651 25654 25657 25660 25663 25665 25668 25671 25673 25676 25679 25682 25685 25687 25690 25693 25695 25698 25700 25703 25705 25708 25711 25713 25716 25718 25720 25723 25725 25728 25731 25734 25736 25738 25741 25744 25746 25749 25752 25755 25757 25759 25761 25764 25767 25770 25773 25776 25779 25781 25784 25787 25790 25792 25794 25797 25800 25803 25805 25808 25811 25813 25816 25819 25822 25825 25827 25830 25832 25835 25838 25841 25844 25847 25849 25852 25855 25858 25861 25864 25867 25870 25873 25876 25879 25882 25885 25888 25891 25894 25897 25900 25903 25906 25909 25912 25915 25917 25920 25923 25926 25929 25932 25934 25936 25939 25941 25944 25947 25950 25953 25956 25958 25961 25964 25967 25970 25973 25975 25978 25981 25984 25986 25989 25991 25994 25997 26000 26003 26006 26008 26011 26013 26016 26019 26022 26025 26028 26031 26034 26037 26040 26042 26045 26048 26051 26053 26056 26059 26062 26064 26067 26070 26073 26076 26079 26082 26084 26087 26090 26092 26095 26098 26101 26104 26107 26110 26113 26115 26118 26121 26124 26127 26130 26133 26136 26139 26142 26145 26148 26151 26154 26157 26160 26163 26166 26168 26171 26174 26177 26180 26183 26186 26188 26191 26194 26197 26199 26201 26204 26207 26210 26213 26216 26219 26222 26225 26228 26231 26234 26237 26239 26241 26244 26247 26250 26253 26255 26258 26260 26263 26266 26269 26272 26275 26278 26281 26284 26287 26290 26293 26296 26299 26302 26305 26308 26311 26314 26317 26320 26323 26326 26329 26332 26335 26338 26341 26344 26347 26350 26353 26356 26359 26362 26365 26368 26371 26374 26377 26380 26383 26386 26389 26392 26394 26397 26400 26403 26406 26409 26411 26414 26417 26420 26423 26426 26429 26432 26434 26437 26439 26442 26445 26448 26451 26454 26457 26460 26462 26465 26468 26471 26474 26477 26480 26482 26485 26488 26491 26494 26497 26500 26503 26506 26509 26512 26515 26518 26521 26524 26526 26529 26532 26535 26538 26541 26544 26547 26550 26553 26556 26558 26561 26564 26567 26570 26573 26576 26579 26582 26585 26588 26591 26594 26597 26600 26603 26606 26609 26612 26615 26618 26621 26624 26627 26630 26633 26636 26639 26642 26645 26648 26651 26654 26656 26659 26662 26664 26667 26669 26672 26675 26677 26680 26683 26685 26688 26691 26693 26696 26699 26702 26705 26708 26711 26714 26716 26718 26721 26724 26727 26729 26732 26735 26738 26741 26744 26747 26750 26753 26756 26759 26762 26765 26768 26771 26774 26777 26780 26783 26786 26789 26792 26795 26798 26801 26804 26807 26810 26813 26816 26818 26821 26824 26827 26830 26833 26836 26839 26842 26845 26848 26851 26854 26857 26860 26863 26866 26869 26871 26874 26877 26880 26883 26886 26889 26891 26894 26897 26900 26903 26906 26909 26911 26914 26917 26920 26923 26926 26929 26932 26935 26938 26940 26942 26945 26948 26951 26954 26957 26960 26963 26966 26969 26971 26974 26977 26980 26983 26986 26989 26992 26995 26998 27001 27004 27007 27010 27013 27015 27018 27021 27024 27027 27030 27033 27036 27039 27041 27044 27047 27050 27053 27056 27058 27061 27064 27067 27069 27072 27075 27078 27081 27083 27085 27088 27091 27094 27097 27100 27103 27106 27108 27111 27114 27117 27120 27122 27125 27127 27130 27133 27136 27138 27141 27144 27146 27149 27152 27155 27158 27161 27164 27167 27170 27173 27176 27179 27182 27185 27188 27190 27193 27195 27198 27201 27203 27206 27209 27212 27214 27217 27220 27223 27226 27229 27232 27235 27238 27241 27244 27247 27250 27253 27256 27259 27262 27265 27268 27271 27274 27277 27280 27283 27286 27289 27292 27295 27298 27301 27304 27306 27309 27312 27315 27318 27321 27324 27327 27330 27333 27336 27339 27342 27345 27348 27351 27354 27356 27359 27362 27365 27368 27371 27373 27376 27379 27382 27385 27388 27391 27393 27396 27399 27402 27405 27408 27411 27414 27416 27419 27421 27423 27426 27429 27432 27435 27437 27440 27442 27445 27447 27449 27452 27454 27457 27459 27461 27464 27466 27468 27470 27473 27476 27479 27482 27484 27487 27489 27491 27494 27497 27499 27502 27505 27508 27510 27513 27516 27518 27521 27524 27526 27529 27532 27534 27537 27539 27542 27545 27547 27550 27553 27556 27559 27562 27565 27568 27571 27574 27577 27579 27582 27584 27586 27589 27592 27595 27598 27600 27602 27605 27608 27611 27614 27616 27619 27622 27624 27626 27629 27632 27635 27638 27641 27644 27647 27650 27653 27656 27659 27662 27665 27667 27670 27673 27676 27679 27682 27685 27687 27689 27691 27693 27696 27699 27702 27705 27708 27711 27714 27717 27720 27722 27725 27728 27731 27734 27737 27740 27743 27746 27749 27752 27755 27758 27761 27764 27767 27770 27773 27776 27779 27782 27784 27787 27790 27793 27795 27798 27801 27804 27807 27810 27812 27815 27817 27820 27823 27826 27829 27831 27833 27836 27839 27842 27845 27848 27851 27854 27857 27860 27863 27866 27869 27872 27875 27878 27881 27884 27886 27889 27892 27895 27898 27901 27904 27907 27910 27913 27916 27919 27922 27925 27927 27930 27933 27935 27937 27940 27943 27946 27949 27952 27954 27957 27960 27963 27966 27969 27972 27975 27978 27980 27983 27986 27988 27991 27994 27997 28000 28003 28006 28009 28012 28015 28018 28021 28024 28027 28030 28033 28036 28039 28042 28045 28048 28051 28054 28057 28060 28063 28066 28068 28071 28074 28077 28080 28083 28086 28088 28091 28094 28097 28100 28103 28106 28109 28112 28115 28118 28121 28124 28127 28130 28133 28136 28139 28142 28145 28148 28151 28154 28157 28159 28162 28165 28168 28171 28174 28177 28180 28183 28186 28189 28192 28195 28198 28201 28204 28207 28210 28213 28216 28219 28222 28225 28228 28231 28234 28237 28240 28243 28246 28249 28252 28255 28258 28261 28264 28267 28270 28273 28276 28279 28282 28285 28288 28291 28294 28297 28300 28303 28306 28309 28312 28315 28318 28321 28324 28327 28330 28333 28336 28339 28342 28345 28348 28351 28354 28356 28359 28362 28365 28368 28371 28374 28377 28380 28383 28386 28389 28392 28395 28398 28401 28403 28406 28409 28411 28413 28416 28419 28422 28425 28428 28431 28434 28437 28439 28442 28445 28447 28450 28453 28456 28458 28461 28464 28467 28470 28473 28476 28479 28482 28485 28487 28490 28493 28496 28498 28501 28504 28507 28509 28512 28515 28518 28521 28524 28527 28530 28533 28536 28538 28541 28544 28546 28548 28550 28553 28556 28559 28562 28564 28567 28570 28573 28576 28578 28581 28584 28587 28590 28592 28595 28598 28601 28604 28607 28610 28613 28616 28619 28622 28625 28628 28631 28634 28637 28640 28643 28646 28649 28652 28655 28658 28661 28664 28667 28670 28673 28676 28679 28682 28685 28688 28691 28694 28697 28700 28703 28706 28709 28712 28715 28718 28721 28724 28727 28730 28733 28736 28739 28742 28745 28748 28751 28754 28757 28760 28763 28766 28769 28771 28773 28776 28779 28782 28785 28788 28791 28794 28797 28800 28803 28806 28809 28812 28815 28818 28821 28824 28827 28830 28833 28835 28838 28841 28844 28847 28850 28852 28855 28858 28861 28864 28867 28870 28873 28876 28879 28882 28885 28888 28891 28894 28897 28900 28903 28906 28909 28912 28915 28917 28920 28923 28926 28929 28932 28934 28937 28940 28943 28946 28948 28951 28954 28957 28960 28963 28966 28969 28972 28975 28978 28981 28984 28987 28990 28993 28996 28999 29002 29005 29008 29011 29014 29017 29020 29023 29025 29028 29031 29034 29037 29039 29042 29045 29048 29051 29054 29057 29060 29063 29066 29069 29072 29075 29078 29081 29084 29087 29090 29093 29096 29099 29102 29105 29108 29111 29114 29117 29120 29123 29126 29129 29132 29135 29138 29141 29144 29147 29150 29153 29156 29159 29162 29165 29168 29171 29174 29177 29180 29183 29186 29189 29192 29195 29198 29201 29204 29207 29210 29213 29216 29219 29222 29225 29228 29231 29234 29237 29240 29243 29246 29249 29252 29255 29258 29261 29264 29266 29269 29272 29275 29278 29281 29284 29287 29290 29293 29296 29299 29302 29305 29308 29311 29314 29317 29320 29323 29326 29329 29332 29335 29338 29341 29344 29346 29349 29352 29355 29358 29361 29364 29367 29370 29373 29376 29379 29382 29385 29388 29391 29394 29397 29400 29403 29406 29409 29412 29415 29418 29421 29424 29427 29430 29432 29435 29438 29441 29444 29447 29450 29453 29456 29459 29462 29465 29468 29471 29474 29477 29480 29483 29486 29489 29492 29495 29498 29501 29504 29506 29509 29512 29515 29518 29521 29524 29527 29530 29533 29536 29538 29540 29543 29546 29549 29552 29555 29558 29561 29563 29566 29569 29572 29575 29578 29581 29584 29587 29590 29593 29596 29599 29602 29605 29608 29611 29613 29616 29619 29622 29625 29628 29631 29634 29637 29640 29643 29645 29648 29651 29654 29657 29659 29662 29665 29668 29671 29674 29677 29680 29683 29686 29688 29691 29694 29697 29700 29703 29706 29708 29710 29713 29716 29719 29722 29725 29728 29731 29734 29737 29740 29742 29745 29748 29751 29754 29756 29759 29762 29765 29767 29770 29773 29776 29779 29782 29785 29788 29791 29793 29796 29799 29802 29804 29807 29810 29813 29816 29819 29822 29825 29828 29831 29834 29837 29840 29842 29845 29848 29851 29854 29857 29859 29862 29865 29868 29870 29873 29876 29879 29882 29885 29887 29890 29893 29895 29897 29900 29902 29905 29908 29911 29914 29917 29920 29923 29926 29929 29932 29935 29938 29941 29944 29947 29950 29952 29955 29958 29961 29964 29967 29970 29973 29976 29979 29982 29985 29988 29991 29994 29997 30000 30003 30006 30009 30012 30015 30018 30021 30024 30027 30030 30033 30036 30039 30042 30045 30048 30051 30054 30057 30060 30063 30066 30068 30071 30074 30077 30080 30083 30086 30088 30091 30093 30096 30099 30102 30105 30107 30110 30113 30116 30119 30122 30125 30128 30131 30134 30137 30140 30143 30146 30149 30152 30154 30157 30160 30163 30166 30169 30172 30175 30177 30180 30183 30186 30189 30192 30195 30198 30201 30204 30207 30210 30213 30216 30219 30222 30225 30228 30231 30234 30237 30240 30243 30246 30249 30252 30255 30258 30261 30264 30267 30270 30273 30276 30279 30282 30285 30288 30291 30294 30297 30300 30303 30306 30309 30312 30315 30318 30321 30324 30327 30330 30333 30336 30339 30342 30345 30348 30351 30354 30357 30360 30363 30366 30369 30372 30375 30378 30381 30384 30387 30390 30393 30396 30399 30402 30405 30408 30411 30414 30417 30420 30423 30426 30429 30432 30435 30438 30441 30444 30447 30450 30453 30455 30458 30461 30464 30467 30470 30473 30476 30479 30482 30485 30488 30491 30494 30497 30500 30503 30506 30509 30512 30515 30518 30521 30524 30527 30530 30533 30536 30539 30542 30545 30548 30550 30553 30556 30558 30561 30563 30566 30569 30572 30574 30577 30580 30583 30586 30589 30591 30594 30597 30600 30602 30605 30607 30609 30611 30614 30617 30620 30623 30625 30628 30631 30634 30637 30640 30643 30646 30649 30652 30655 30658 30661 30663 30666 30668 30671 30674 30677 30680 30683 30686 30688 30691 30694 30696 30699 30702 30704 30707 30710 30713 30715 30718 30721 30724 30727 30730 30733 30736 30738 30741 30744 30747 30750 30752 30755 30757 30760 30762 30765 30768 30771 30774 30776 30779 30782 30785 30788 30791 30793 30796 30798 30801 30803 30806 30809 30811 30813 30816 30819 30822 30825 30828 30831 30833 30836 30839 30842 30845 30848 30851 30854 30857 30860 30862 30865 30868 30870 30873 30876 30879 30882 30885 30888 30891 30894 30896 30899 30902 30905 30907 30910 30913 30915 30918 30921 30923 30926 30929 30931 30933 30935 30938 30941 30944 30947 30949 30952 30955 30958 30961 30964 30967 30970 30972 30974 30976 30978 30980 30983 30986 30989 30992 30995 30998 31001 31004 31007 31010 31013 31016 31019 31022 31024 31027 31030 31032 31035 31038 31041 31044 31047 31050 31053 31056 31059 31062 31065 31067 31070 31073 31076 31079 31082 31085 31088 31091 31094 31097 31099 31102 31105 31108 31111 31114 31117 31120 31123 31126 31129 31131 31134 31137 31140 31143 31146 31149 31152 31155 31158 31161 31164 31167 31170 31173 31176 31179 31182 31185 31188 31191 31194 31197 31200 31203 31206 31209 31212 31215 31218 31221 31224 31227 31230 31233 31236 31239 31242 31245 31248 31251 31254 31257 31260 31263 31266 31268 31271 31274 31276 31279 31282 31285 31288 31291 31294 31296 31299 31301 31304 31307 31310 31313 31316 31318 31320 31323 31326 31329 31332 31334 31337 31340 31343 31346 31349 31352 31355 31358 31361 
</DataArray>
<DataArray type="UInt32" Name="types" format="ascii">
5 5 5 5 5 5 5 5 5 5 5 5 5 3 5 5 5 5 5 5 5 5 5 3 3 5 5 5 5 5 5 5 5 5 5 5 3 5 3 5 3 5 5 5 5 5 5 5 5 5 5 5 5 5 5 5 3 5 5 5 3 5 5 5 5 5 5 3 5 5 5 5 3 5 5 5 5 5 5 5 5 5 5 3 5 5 3 5 3 5 5 3 5 3 5 5 5 5 5 5 5 3 5 5 3 5 5 5 5 3 3 5 3 5 5 5 5 5 5 5 5 5 5 3 5 5 3 5 5 5 3 5 5 5 5 5 5 5 5 5 5 5 5 3 5 5 5 5 5 5 5 5 5 5 5 5 5 5 5 5 5 5 5 3 5 5 5 5 5 5 5 5 5 5 5 5 5 5 5 5 5 5 5 5 5 5 5 5 5 3 5 5 5 5 3 5 3 5 5 5 5 5 5 5 5 5 5 5 3 5 5 5 5 5 5 5 5 5 5 5 5 5 5 5 5 5 5 3 3 5 5 5 5 5 5 3 5 5 5 3 5 5 5 5 5 3 5 5 5 5 5 5 3 5 5 5 5 3 5 5 5 5 3 3 5 5 5 5 5 5 5 5 5 5 5 5 5 5 5 5 3 5 3 5 5 5 5 5 5 5 3 5 3 5 5 5 3 5 5 5 5 5 5 5 5 5 3 5 5 5 5 5 5 5 3 5 5 5 5 5 5 5 5 5 5 5 5 5 5 5 5 5 5 5 3 5 5 5 5 5 5 5 5 5 5 3 5 3 5 5 5 3 5 5 5 5 5 5 5 5 5 5 5 5 3 5 5 3 5 3 5 5 5 3 5 5 5 5 5 5 5 5 5 3 5 5 5 3 5 5 5 5 5 5 3 5 5 5 5 5 5 5 5 5 5 5 5 3 5 5 5 5 5 3 5 3 5 5 5 3 5 5 5 5 5 5 5 5 5 5 5 5 5 5 5 3 5 3 5 5 5 5 3 5 5 5 5 5 5 5 5 3 5 5 3 5 3 5 3 5 5 5 3 3 5 5 5 5 5 5 5 3 3 5 3 5 3 5 3 5 5 5 3 5 3 5 3 5 5 3 5 5 5 3 5 5 5 5 3 5 3 5 5 5 5 3 5 5 5 5 5 3 5 5 5 5 5 3 5 5 5 3 5 3 5 5 5 3 5 5 5 5 5 5 5 3 5 5 5 5 5 3 5 5 5 5 5 3 5 3 5 5 5 5 5 5 5 5 3 5 5 5 5 5 5 3 5 5 5 5 5 5 3 5 5 5 5 3 5 5 5 3 5 5 5 5 5 5 5 5 5 3 5 5 5 5 5 5 5 5 5 5 5 5 3 5 5 5 5 5 3 5 5 3 5 5 5 5 5 5 5 3 5 5 5 5 5 5 5 3 5 3 5 5 5 3 5 5 5 5 5 5 5 5 3 5 5 5 5 3 5 5 3 5 5 5 5 5 5 5 5 5 5 5 5 5 5 5 5 5 5 3 5 5 5 5 5 5 5 5 5 5 3 5 5 5 3 5 5 5 5 3 5 5 5 5 3 5 5 5 3 5 5 5 5 5 5 5 3 5 5 3 5 5 3 5 5 5 5 5 5 5 3 5 5 5 5 5 5 5 5 5 5 5 3 5 5 5 5 5 5 5 5 5 5 5 5 3 5 5 5 5 5 5 5 5 5 5 5 5 5 3 5 5 3 5 3 3 5 3 5 5 5 5 3 5 3 5 5 3 3 5 5 3 5 5 5 3 3 5 5 5 5 5 5 5 5 5 5 5 5 5 5 5 5 5 5 5 5 5 5 5 5 5 5 3 5 5 5 5 3 5 3 5 5 5 5 5 5 3 5 5 5 5 3 5 3 5 3 3 3 3 5 3 5 5 5 5 5 5 5 5 5 5 5 5 5 3 5 5 5 3 3 5 5 5 3 5 3 5 3 5 5 3 3 3 5 3 5 5 5 5 5 5 5 5 3 5 5 5 5 5 3 3 3 5 5 5 3 3 3 3 5 5 5 5 5 5 5 5 5 5 5 5 5 5 3 5 5 5 5 5 5 5 5 5 5 5 5 3 5 5 5 5 3 5 5 5 5 3 5 5 5 5 5 3 5 5 5 5 5 5 5 5 3 5 5 5 5 3 3 5 5 3 3 5 5 5 5 3 5 3 5 5 5 5 5 5 3 5 5 5 3 5 5 5 3 3 5 3 5 5 5 5 3 5 5 5 5 5 3 5 3 3 5 5 5 5 5 5 5 5 3 5 5 5 5 5 3 3 3 5 5 5 5 5 5 3 5 5 5 3 5 5 5 5 3 3 3 5 5 5 3 5 5 5 5 5 5 5 5 3 5 5 3 5 5 5 5 5 5 5 5 5 5 5 5 5 5 5 5 5 5 5 5 5 5 5 5 5 5 5 5 5 5 5 5 5 5 5 5 5 5 5 5 5 3 5 5 5 5 5 5 5 5 5 5 5 5 5 5 5 5 5 5 5 5 5 5 5 5 5 3 5 5 5 3 5 5 5 5 5 3 5 5 5 5 3 5 5 3 5 5 5 5 3 5 5 3 5 5 5 3 5 5 3 5 5 5 5 3 5 5 5 5 5 5 3 5 5 5 3 5 5 5 5 5 5 5 3 5 5 5 5 5 5 5 5 5 5 5 5 5 5 3 5 5 5 5 5 3 5 5 5 5 5 5 5 5 5 5 5 5 5 5 5 5 5 5 5 5 5 5 5 5 5 5 5 5 3 5 5 5 5 5 5 3 3 3 3 5 5 5 5 5 5 5 5 5 5 5 5 5 5 5 5 5 5 5 3 5 5 5 5 5 5 5 5 5 3 5 5 3 5 5 5 5 5 5 5 5 5 5 5 5 5 5 5 5 5 3 5 5 5 5 3 5 5 3 5 5 3 5 5 5 5 5 5 5 5 5 5 5 5 3 5 5 5 5 5 5 5 5 5 5 5 3 5 5 5 3 5 3 3 5 5 5 5 5 5 5 5 5 5 5 5 5 3 5 5 3 3 5 5 5 3 5 5 3 5 5 5 5 3 3 5 3 5 5 5 3 5 5 5 5 5 3 5 5 3 3 5 5 3 5 5 5 5 5 5 5 5 5 3 3 5 5 5 5 5 5 5 3 5 5 5 3 5 5 5 3 5 5 5 3 5 5 5 5 5 5 5 5 5 5 5 3 5 5 5 3 5 3 5 5 5 5 5 3 5 3 5 5 3 5 5 3 3 5 5 5 3 5 5 5 3 5 5 5 3 5 5 5 5 3 3 3 5 5 5 5 5 5 5 3 5 5 5 5 3 3 5 5 5 5 5 5 5 3 5 3 5 5 5 3 5 3 5 5 5 5 5 5 5 5 5 3 5 5 5 5 5 5 5 5 5 5 5 5 5 5 5 5 5 5 5 5 5 5 5 5 3 5 5 5 3 5 5 3 5 5 5 5 5 5 3 5 3 5 5 5 3 5 3 5 5 5 3 5 5 5 5 5 5 5 5 5 5 5 5 5 5 5 5 3 5 5 5 5 5 3 5 5 5 5 5 5 5 5 5 5 5 3 5 5 5 5 5 3 5 5 5 5 5 5 5 5 5 5 5 5 5 5 3 5 5 5 3 5 5 5 5 5 5 5 5 5 5 5 5 5 5 5 3 5 5 5 5 5 5 3 5 3 5 5 5 5 5 5 5 5 3 5 3 5 5 5 5 5 5 3 5 5 5 5 5 5 5 3 5 3 3 5 5 3 5 5 5 5 3 5 3 5 3 5 5 5 5 5 5 5 5 5 5 5 5 5 5 5 5 5 5 3 5 3 5 5 5 5 5 5 5 5 5 5 5 5 5 5 3 5 3 5 5 5 3 3 5 3 5 5 5 5 3 5 5 5 5 3 3 5 5 3 3 5 5 3 3 5 5 5 5 3 5 5 3 5 5 5 3 5 3 5 3 5 5 5 3 5 5 5 3 3 3 3 5 5 5 5 3 5 5 3 5 3 5 3 5 5 5 5 5 5 5 3 3 5 5 5 5 3 3 5 5 3 5 5 3 5 5 5 5 5 5 5 5 5 5 3 5 5 5 5 5 5 3 5 5 5 3 5 5 5 3 5 5 5 5 5 5 3 5 3 5 3 5 5 5 3 5 5 3 5 5 3 5 3 5 5 3 5 5 5 5 3 5 5 5 3 5 5 5 5 5 5 5 5 5 5 5 5 5 5 5 5 5 5 5 5 5 5 5 5 5 5 5 5 5 3 3 5 5 3 5 5 5 5 5 5 5 5 5 3 5 5 5 5 5 5 5 3 3 5 5 3 5 5 5 5 5 5 5 5 5 5 5 5 5 5 5 5 5 5 3 5 5 5 5 5 5 5 5 5 5 5 5 5 5 5 5 5 5 5 5 5 5 5 5 5 5 5 5 5 5 5 5 5 5 5 5 5 5 5 5 5 5 5 5 5 5 5 5 5 5 5 5 5 5 5 5 5 5 5 5 5 5 5 5 5 5 5 5 5 5 5 5 3 5 5 5 5 5 5 5 3 5 5 5 3 5 3 5 5 5 5 5 5 5 5 5 5 5 3 5 5 5 5 5 5 5 5 5 5 5 5 5 3 5 5 5 3 5 5 3 5 5 5 5 5 3 5 3 5 5 5 5 5 5 5 5 5 3 5 5 5 5 5 5 5 3 5 5 3 5 5 3 5 5 5 5 5 5 5 5 5 5 5 5 5 5 5 3 5 5 5 5 5 5 5 5 5 5 5 5 5 5 5 5 5 5 5 5 5 5 5 5 5 5 5 5 5 5 5 5 3 5 5 5 5 5 5 5 5 5 5 5 5 5 5 5 5 5 5 5 5 5 5 5 5 5 5 5 5 5 5 5 5 5 3 5 5 5 5 5 5 5 5 5 5 5 5 5 5 5 5 5 5 5 5 5 5 5 5 5 5 5 5 5 5 5 5 5 5 5 5 5 5 5 5 5 5 5 5 5 5 5 5 5 5 5 5 5 5 5 5 5 5 5 5 5 5 5 5 5 5 5 5 5 5 5 5 5 5 5 5 5 5 5 5 5 5 5 5 5 5 3 5 5 5 3 5 5 5 5 5 5 5 5 5 3 5 5 5 3 5 5 5 5 5 3 5 3 5 5 3 5 5 3 5 5 5 5 5 5 5 5 3 5 5 5 3 5 5 5 5 5 5 5 3 3 5 5 3 5 5 3 3 5 5 5 5 5 5 5 5 5 3 5 5 5 3 5 5 5 3 5 5 3 5 5 3 5 3 3 5 3 5 5 5 5 5 5 3 3 5 5 5 5 5 5 5 5 5 5 5 5 5 5 5 5 3 5 5 3 5 5 5 3 5 5 5 5 5 5 5 5 5 5 3 5 5 5 3 5 5 5 3 5 5 5 5 3 3 5 3 5 5 3 5 3 3 5 5 5 3 5 5 5 3 3 5 5 5 5 5 3 5 5 3 5 5 5 3 5 5 5 5 5 5 5 5 5 5 5 5 3 5 5 5 5 5 5 5 5 5 3 5 5 5 5 5 5 5 5 5 5 5 5 5 5 5 5 5 5 5 5 5 3 5 5 3 5 5 5 5 5 5 5 5 5 5 5 5 5 5 5 5 5 5 5 5 5 5 5 5 5 5 5 5 5 5 5 3 5 5 5 5 5 5 5 3 5 5 5 5 5 5 5 5 5 5 5 5 5 5 5 5 5 5 5 5 5 3 5 5 5 5 5 5 5 5 3 5 5 5 5 5 3 5 5 5 3 5 5 5 5 5 5 5 5 5 5 5 5 5 3 3 5 5 5 5 3 5 5 5 5 5 5 3 5 3 5 5 5 5 3 5 5 5 5 3 3 5 5 5 3 5 5 5 5 5 5 5 5 5 3 5 5 5 5 3 5 5 5 5 5 5 5 5 5 5 5 5 5 5 5 5 3 5 5 5 5 5 5 5 5 5 3 5 5 5 5 5 5 5 5 5 5 5 5 5 5 5 5 5 5 5 5 5 5 5 5 5 5 5 3 5 5 3 5 5 5 5 5 5 5 3 5 5 5 5 5 5 5 5 5 5 5 5 5 5 5 5 3 5 5 5 5 5 5 5 5 5 5 5 5 5 5 5 5 5 5 5 5 5 5 5 5 5 3 5 5 5 5 5 5 5 3 5 5 5 5 5 5 5 3 3 3 5 5 5 5 3 5 5 3 5 5 3 3 5 5 5 3 3 5 5 5 5 5 5 5 5 5 5 5 5 5 3 5 5 5 3 5 5 5 5 3 5 5 5 5 5 5 5 5 5 5 5 5 5 5 5 5 5 5 5 5 5 5 5 5 5 5 5 5 5 5 5 5 5 5 5 5 5 5 5 5 5 5 5 5 3 5 5 5 5 5 5 5 3 5 5 5 3 5 3 3 5 5 3 5 3 3 5 5 3 5 5 5 3 5 5 5 5 5 5 5 3 5 5 3 5 5 5 5 5 5 5 5 5 5 3 5 5 5 5 5 5 5 5 5 3 5 5 5 5 3 3 5 5 5 5 5 5 5 3 5 5 5 5 5 5 5 3 3 3 5 3 3 5 5 5 5 5 5 3 5 5 5 5 5 5 5 5 5 5 5 5 5 5 5 5 5 5 5 5 5 5 5 5 5 5 5 5 5 5 5 5 5 5 5 5 5 5 5 5 5 5 5 5 5 5 5 5 5 5 5 5 5 5 5 5 5 5 5 5 5 5 5 5 5 3 5 5 5 5 5 5 5 5 3 5 3 5 5 5 5 3 5 3 5 5 5 3 5 5 5 3 5 5 5 5 5 5 5 5 5 5 5 5 3 5 5 5 5 5 5 5 5 5 3 3 5 5 3 5 5 5 3 3 5 5 3 5 5 3 5 5 3 5 3 5 5 5 3 5 5 3 5 5 5 5 5 5 5 5 3 5 5 5 3 3 5 5 5 5 5 5 5 5 5 5 5 5 3 5 5 5 5 5 5 5 5 5 5 5 5 5 5 5 5 5 5 3 5 5 5 5 5 5 5 3 5 5 5 3 5 5 5 5 5 5 5 5 5 5 5 5 5 5 5 5 5 5 5 5 5 5 5 5 5 5 5 5 5 3 3 5 5 5 5 5 3 5 5 5 5 3 5 5 5 5 5 3 5 5 5 5 5 5 5 3 5 5 5 5 5 5 5 3 5 5 5 5 5 5 5 5 5 5 5 5 5 5 5 5 5 5 5 3 5 5 5 5 5 5 5 3 5 5 5 5 5 5 5 5 5 3 5 5 3 5 5 5 5 5 3 3 5 5 5 3 5 3 5 3 5 5 5 3 5 5 5 5 5 5 5 3 5 5 5 3 5 5 5 3 5 5 5 5 5 3 5 5 5 3 3 5 3 5 5 3 5 5 5 5 3 5 5 3 3 5 5 5 3 3 5 3 5 5 5 5 5 5 5 3 5 5 3 5 5 5 3 5 3 5 3 5 5 5 5 5 5 5 5 5 3 5 5 3 5 5 5 5 5 5 5 5 5 5 5 3 5 5 3 5 5 5 5 5 5 5 3 5 5 5 5 5 5 5 5 5 3 5 3 5 3 5 5 5 5 3 5 5 5 3 3 5 5 5 3 5 5 5 5 5 5 5 3 5 5 3 5 5 3 5 5 5 5 5 5 5 5 3 5 5 5 5 5 5 3 5 5 5 5 5 5 5 5 5 5 3 5 5 5 5 5 5 5 5 5 5 5 5 5 5 5 5 5 5 5 5 5 5 5 5 5 5 5 5 5 5 5 5 5 5 5 3 5 5 5 5 5 5 5 5 5 5 5 5 5 3 5 5 5 5 3 3 3 5 5 5 5 5 5 5 5 5 5 5 5 5 5 5 3 5 5 5 5 5 3 5 3 5 5 5 5 5 5 3 5 5 5 5 5 3 5 5 5 5 5 3 5 5 5 5 5 5 3 5 5 3 5 5 5 5 3 5 5 5 5 5 5 5 5 5 5 5 5 5 5 5 5 3 5 5 5 5 5 5 5 5 3 5 5 5 5 5 5 5 5 5 3 5 5 5 5 5 5 5 5 5 5 5 5 3 5 5 5 5 3 5 5 5 5 5 5 3 3 3 5 5 5 5 5 3 3 3 5 5 5 5 5 5 5 3 3 5 5 5 5 5 5 3 5 5 5 3 5 5 5 5 5 5 5 5 5 5 5 5 3 5 5 5 5 5 3 5 5 5 5 3 5 5 5 5 3 5 5 5 5 5 5 3 3 3 5 5 5 5 5 5 5 5 5 5 5 3 5 5 5 5 5 5 5 5 5 5 5 5 5 5 5 5 5 5 5 5 5 5 5 5 5 5 5 5 5 5 5 5 5 5 5 5 5 5 5 5 5 5 5 5 5 5 3 5 3 5 5 5 5 5 5 5 5 3 5 3 5 5 5 5 5 5 3 5 5 3 5 5 5 5 5 5 5 3 5 3 5 3 5 5 5 5 3 5 3 5 5 3 5 5 5 5 5 5 5 5 5 5 3 5 5 5 3 5 5 5 5 5 5 5 3 5 5 5 5 5 5 5 5 5 5 5 5 5 5 5 5 5 5 5 5 5 5 5 5 5 5 3 5 5 5 3 5 5 3 5 5 5 5 5 5 5 5 5 3 5 5 5 5 5 5 5 5 5 5 3 5 5 3 5 5 5 5 5 5 5 5 5 5 5 5 5 5 5 5 5 5 5 5 5 5 5 5 5 5 5 3 5 5 3 5 5 5 3 5 3 5 5 5 5 5 5 5 5 3 5 5 5 3 5 5 5 5 5 5 5 3 5 5 5 5 3 5 5 3 5 5 3 5 5 5 3 5 5 5 3 5 5 3 3 5 5 3 3 5 5 5 5 5 5 5 5 5 5 3 5 5 5 5 3 5 5 5 5 5 5 5 5 5 5 5 5 3 5 3 5 5 5 5 5 5 3 5 5 3 5 5 5 5 5 5 5 5 5 5 5 5 3 5 5 5 5 3 5 5 5 3 3 5 5 5 5 5 5 5 3 5 5 5 5 5 5 5 5 5 5 3 5 5 5 5 5 5 5 5 5 5 5 5 5 3 3 5 5 3 5 5 5 5 5 5 3 5 3 5 5 5 5 3 5 3 5 5 3 3 5 5 5 5 5 5 5 5 5 5 5 5 5 5 5 5 5 5 5 5 5 5 5 5 5 5 5 5 5 5 5 5 5 5 5 5 5 5 5 5 5 5 5 5 5 5 5 5 5 5 5 5 5 5 5 5 5 5 5 3 5 5 5 5 5 5 5 5 3 5 5 3 5 5 5 5 5 5 5 5 5 5 5 5 5 5 5 5 5 5 5 5 5 5 5 5 5 5 5 5 3 5 5 5 5 5 5 5 5 3 5 3 5 5 3 5 3 5 5 5 3 5 5 5 3 5 3 5 5 5 5 5 5 5 5 5 5 5 5 5 5 5 3 5 5 3 5 5 5 5 5 5 3 5 5 3 5 5 3 5 5 5 5 5 3 5 5 3 5 5 5 3 5 5 5 5 5 5 3 3 5 5 5 3 3 3 3 5 5 5 3 5 3 5 5 5 5 5 3 5 5 5 5 5 5 3 5 5 5 5 5 5 5 5 5 5 5 5 5 5 3 5 5 5 5 3 3 5 5 5 5 5 5 5 5 5 5 5 5 5 3 5 5 3 3 5 5 3 5 5 5 5 5 5 5 5 5 5 3 5 5 5 5 5 5 5 3 5 5 5 5 5 5 5 5 5 5 3 5 5 5 5 5 5 5 5 3 5 5 5 5 5 5 5 5 5 5 5 5 5 5 5 5 5 3 5 5 5 5 3 5 3 5 5 5 5 5 5 5 5 5 5 5 5 3 5 3 5 3 5 5 5 5 5 3 5 3 5 3 5 5 5 3 3 3 5 5 5 5 3 5 5 5 3 5 3 5 5 5 5 5 5 5 3 5 3 5 5 5 5 5 5 5 3 5 3 5 5 5 5 5 3 5 5 5 3 3 5 3 5 5 5 5 5 5 5 5 3 5 5 5 5 3 5 5 5 5 5 5 5 3 5 5 5 5 5 5 5 5 5 5 5 5 5 5 5 5 5 5 5 5 5 5 5 5 3 3 5 5 5 5 5 3 3 3 5 5 3 5 5 5 5 5 5 3 5 5 3 3 5 5 5 5 5 5 5 5 5 5 5 5 3 5 5 5 5 5 5 5 5 5 5 5 5 5 5 5 5 5 5 5 5 5 5 5 5 3 3 5 3 5 5 5 5 5 5 5 5 5 5 5 5 5 3 5 5 5 5 5 5 5 3 3 5 5 5 5 5 5 5 5 3 5 3 5 5 5 3 3 3 5 3 5 5 3 5 5 3 5 5 5 5 5 5 5 5 5 5 5 5 5 5 5 5 5 5 3 5 5 5 5 5 5 5 5 5 5 5 3 5 5 5 5 5 5 5 5 3 5 5 5 5 5 5 5 5 5 5 5 5 5 5 5 5 5 5 5 5 3 5 5 5 5 5 5 3 3 5 5 5 5 5 5 3 5 5 5 5 3 5 5 5 5 5 5 5 5 5 5 5 5 5 5 5 3 5 5 5 3 5 5 5 5 5 5 5 5 5 5 5 5 5 5 5 3 5 5 5 5 5 5 3 3 3 5 5 5 5 5 5 3 5 5 3 5 5 5 5 5 5 3 5 3 5 5 5 5 5 5 5 5 3 3 3 5 5 5 5 5 5 5 5 5 5 3 5 5 3 5 5 3 3 5 5 5 5 5 5 5 5 5 3 5 5 5 5 3 3 5 3 5 5 5 5 5 5 5 5 5 3 3 5 3 5 5 5 3 5 3 5 5 5 5 5 5 5 5 5 5 5 5 5 5 3 5 5 3 5 5 5 3 5 5 5 5 3 5 5 5 5 5 5 5 5 5 5 5 5 5 3 5 5 5 5 5 5 3 5 5 5 5 5 5 5 3 5 3 5 5 5 3 5 5 5 3 5 5 5 5 5 5 3 5 3 5 5 5 5 5 5 5 3 3 5 5 3 5 5 5 3 5 5 3 5 5 5 3 5 5 5 5 5 5 3 3 5 5 5 3 3 5 3 3 5 5 5 3 3 5 5 5 5 5 3 5 5 5 5 5 5 5 5 5 5 5 5 5 5 5 5 5 5 5 5 5 5 5 5 5 5 5 3 5 5 5 5 5 5 5 5 5 5 5 5 5 3 3 5 3 3 5 5 3 3 3 5 5 3 5 3 5 5 5 5 3 5 5 5 3 5 3 5 5 3 5 5 5 5 3 3 5 5 5 5 3 5 5 3 5 5 5 5 5 5 5 5 5 3 5 5 5 3 5 5 3 3 5 5 5 5 5 5 3 5 5 5 5 5 5 3 5 5 5 5 5 5 5 5 5 3 3 5 3 5 5 5 5 5 5 5 5 5 5 5 5 5 5 5 5 5 5 5 5 5 5 5 5 5 5 5 5 5 5 5 5 5 5 3 5 5 5 5 5 5 5 5 5 5 5 5 5 3 5 5 3 3 5 5 5 5 5 5 3 5 5 3 5 5 5 3 3 5 5 5 5 5 5 5 5 3 5 5 3 5 5 5 5 5 5 5 5 5 5 5 5 3 3 5 3 5 5 3 5 5 3 5 5 5 5 3 5 5 3 5 5 3 5 5 3 5 5 3 3 5 3 5 5 5 3 5 5 5 5 5 5 5 5 5 3 5 5 5 5 5 3 5 5 3 5 5 5 5 5 5 3 5 5 5 3 3 5 5 5 5 5 3 5 3 5 5 5 3 5 5 5 5 5 5 5 5 5 5 5 5 5 5 5 3 5 5 5 5 5 5 5 5 5 5 5 5 5 5 5 3 5 5 5 5 5 5 5 5 3 5 5 5 5 5 5 5 5 5 5 5 5 5 5 5 5 5 5 5 5 5 5 5 5 5 5 5 5 5 5 5 5 5 5 5 5 5 5 5 5 3 5 3 5 5 5 5 5 5 5 5 5 5 5 5 5 5 5 5 5 5 5 5 5 5 5 5 5 5 5 5 5 5 5 5 3 5 5 5 5 5 5 3 5 5 5 5 5 5 5 5 5 5 5 5 5 3 3 5 5 3 5 5 5 5 5 5 5 5 3 5 5 5 5 5 5 5 5 5 5 5 5 5 5 5 5 5 5 5 5 5 5 5 5 5 3 3 5 5 3 5 3 5 5 5 5 5 5 5 5 5 5 5 5 5 5 5 5 5 5 3 5 3 5 3 5 5 5 5 5 5 5 5 3 5 5 5 5 5 5 5 5 3 5 5 5 5 5 5 5 5 5 5 5 5 5 5 5 5 5 5 5 5 5 5 3 5 5 5 3 3 5 5 5 5 5 5 5 5 5 5 5 5 5 5 5 3 5 5 5 5 5 5 5 5 3 5 5 5 5 5 5 5 5 5 5 5 5 5 5 5 5 5 5 5 5 3 5 5 5 5 5 5 5 5 5 5 5 3 5 5 3 5 5 5 5 5 5 5 3 5 5 3 5 5 5 5 3 5 5 3 3 5 5 5 3 5 5 5 5 5 5 3 5 5 5 5 5 5 5 5 3 5 5 5 5 5 3 5 5 5 5 5 5 3 5 5 3 5 5 5 5 5 5 5 5 5 5 3 3 5 5 3 3 5 5 5 5 5 3 5 5 3 5 3 5 5 3 5 3 5 3 5 3 5 3 5 3 5 5 5 5 5 3 5 5 5 5 3 5 3 5 5 5 3 3 5 5 5 5 5 5 5 5 5 5 5 3 5 5 5 5 5 5 5 5 5 5 5 5 5 5 5 5 5 5 5 5 5 5 5 3 5 5 5 5 5 5 5 5 5 5 5 3 5 5 3 3 3 5 5 5 5 5 5 5 5 5 5 3 3 5 5 5 5 3 5 5 5 5 5 5 3 5 5 5 5 5 5 5 5 5 3 5 3 5 5 5 5 5 5 3 5 5 5 5 5 5 5 5 5 5 5 5 5 5 5 5 5 5 5 5 5 5 5 5 5 5 5 5 5 3 5 5 3 5 5 5 5 5 5 5 3 5 5 5 5 5 5 3 5 5 5 5 3 5 3 5 5 3 5 5 5 5 5 5 5 3 5 5 5 5 3 5 5 5 5 5 3 5 5 5 5 5 3 5 5 3 5 5 5 5 5 5 5 5 5 3 5 5 5 5 5 5 5 5 3 5 3 5 3 5 5 5 5 5 5 5 5 5 5 5 5 5 5 3 5 5 5 5 3 5 3 5 3 5 5 5 3 5 5 5 3 5 3 5 5 5 5 5 5 5 5 3 5 5 5 5 5 5 5 5 3 5 5 5 5 5 5 5 5 5 5 5 5 5 5 5 5 5 5 5 5 5 5 3 3 5 5 5 3 5 3 5 3 5 5 3 5 5 3 5 5 5 3 5 5 5 5 5 5 5 5 3 5 5 3 5 5 5 5 5 5 5 5 5 3 3 5 5 5 5 3 5 5 5 5 5 5 5 5 5 5 5 5 5 3 5 5 5 3 5 3 5 3 5 5 5 3 5 5 5 5 5 5 5 5 5 5 5 5 5 5 5 5 5 5 5 5 5 5 3 5 5 5 5 5 3 5 3 5 5 5 3 5 5 5 5 5 5 5 5 5 5 5 5 5 5 5 5 5 5 5 5 5 5 5 5 5 5 5 5 5 5 5 5 5 5 5 5 5 5 5 5 5 3 5 5 5 5 5 5 5 5 5 5 5 5 5 5 5 3 5 5 5 5 5 5 5 5 5 5 5 5 5 5 3 5 5 3 5 5 5 5 5 5 5 5 5 5 5 3 5 5 5 5 3 3 5 3 3 3 5 5 5 5 5 3 5 5 3 3 5 5 5 5 5 5 5 5 5 3 5 5 5 5 3 3 3 5 5 3 5 5 3 5 3 3 5 5 5 5 5 5 5 5 5 5 5 5 5 5 3 5 5 5 5 3 5 5 3 5 3 3 5 3 3 5 5 5 3 5 5 5 3 5 5 5 5 5 5 5 5 3 5 5 3 3 3 5 5 5 5 3 5 5 5 5 3 5 5 5 5 5 5 5 5 5 3 5 5 5 5 5 3 3 5 5 5 5 5 5 5 5 5 5 5 5 5 5 5 5 5 5 5 5 5 5 5 3 5 3 5 5 3 5 5 5 5 5 5 5 5 5 5 3 5 3 5 5 5 5 3 5 5 5 5 5 5 5 5 5 5 5 5 3 5 5 3 5 3 5 3 3 5 5 5 5 3 5 3 5 3 3 5 5 3 5 5 5 5 3 5 3 5 5 5 5 3 5 5 5 5 5 5 5 5 5 5 5 5 5 5 5 3 3 5 5 5 3 5 3 5 5 3 5 3 3 5 5 5 5 5 5 3 5 5 5 3 5 5 5 3 5 5 5 5 5 5 5 5 5 5 5 5 5 5 3 5 5 5 3 5 5 3 5 5 3 5 5 5 5 5 5 5 5 3 3 5 3 5 3 5 3 3 3 3 3 5 5 5 5 5 3 5 5 5 5 3 3 5 5 3 5 3 5 5 3 3 5 3 5 5 5 5 5 5 3 3 5 5 5 5 5 5 3 5 5 5 5 3 5 3 5 5 5 5 5 5 5 5 5 5 5 5 3 5 3 5 3 5 3 5 5 3 5 3 5 5 5 5 5 5 5 5 5 5 3 5 5 5 5 5 5 5 5 3 5 5 5 5 5 3 5 5 5 5 5 3 3 5 5 5 5 3 3 5 5 5 5 5 5 5 5 5 5 5 5 3 5 5 3 5 5 5 5 3 3 3 5 5 5 3 3 5 5 3 5 5 5 5 5 5 3 5 3 3 5 5 5 5 3 3 3 5 5 3 5 5 5 3 5 5 3 5 5 5 5 5 3 3 5 5 3 5 5 5 3 5 5 5 5 5 5 5 5 5 5 5 5 5 5 3 3 5 5 3 5 3 5 5 5 5 3 5 5 5 5 5 5 3 5 3 5 5 5 5 3 3 5 3 5 5 5 3 3 5 5 3 5 5 5 5 5 5 5 3 5 5 5 3 5 5 3 5 5 3 5 5 5 3 3 5 5 3 5 5 5 5 5 5 5 5 5 5 3 5 5 5 5 5 5 5 5 5 5 5 5 5 5 3 5 5 5 5 5 5 5 5 5 5 5 5 5 5 5 5 5 5 5 5 5 3 5 5 5 5 5 3 5 5 5 5 5 5 5 5 5 5 5 5 5 5 5 5 5 5 5 5 5 5 5 5 5 5 3 5 5 5 5 5 5 5 3 5 3 5 5 5 5 5 5 3 5 5 3 5 5 5 5 5 5 5 5 5 5 5 5 5 5 5 5 5 5 5 5 5 5 5 5 5 5 5 5 3 5 5 3 5 5 5 5 5 5 5 5 5 5 5 5 5 3 5 5 5 5 3 5 5 5 5 3 5 5 5 5 5 3 5 5 5 5 3 5 5 3 5 5 5 3 5 5 5 5 3 5 5 5 5 3 5 5 5 3 3 3 5 5 3 5 5 5 5 3 3 5 3 5 5 3 5 5 5 3 5 5 3 5 5 3 3 5 5 3 5 5 5 5 5 5 5 5 5 5 5 5 5 5 5 3 5 5 5 5 5 5 5 5 5 5 5 5 5 5 5 5 5 5 5 3 5 5 5 3 5 3 5 3 5 5 5 5 3 5 5 5 5 5 5 5 5 5 5 5 5 3 5 5 5 5 5 5 5 5 3 5 5 5 5 5 5 5 5 5 5 5 5 5 5 5 5 5 5 5 5 3 5 5 5 5 5 5 5 5 3 5 5 5 5 5 5 5 5 5 5 5 5 5 3 5 3 5 3 5 5 5 5 5 5 5 5 5 5 3 5 3 5 5 5 5 5 5 5 5 5 3 5 3 5 5 3 5 5 5 5 5 5 3 5 5 5 3 3 5 5 5 5 5 5 5 5 5 5 5 5 3 5 3 5 5 5 5 5 5 5 5 5 5 5 5 5 5 3 5 5 5 5 5 3 5 5 5 5 5 5 5 5 5 5 5 5 5 5 5 5 5 5 5 5 5 5 5 5 5 5 5 5 5 5 5 5 5 5 5 3 5 5 3 5 5 3 5 5 5 5 5 5 5 5 5 5 5 5 5 5 5 5 5 5 5 5 5 5 5 5 5 5 5 5 5 5 5 5 3 5 5 5 5 5 5 5 5 5 5 5 5 5 5 3 5 5 3 5 5 3 5 5 5 5 5 5 3 3 5 5 5 5 5 5 5 5 5 5 5 5 5 5 5 5 5 5 5 5 5 5 5 5 5 5 5 5 5 5 5 5 5 5 5 5 5 5 5 5 5 5 5 5 3 5 5 5 5 5 3 3 5 5 5 5 5 5 5 5 5 5 5 5 5 5 5 5 5 5 5 5 5 5 5 5 3 5 5 5 5 5 3 5 5 5 5 5 5 5 3 5 5 5 5 5 5 5 3 5 5 5 5 5 5 5 5 5 3 5 5 5 5 5 5 5 3 5 5 3 5 5 5 5 5 5 5 5 5 5 5 5 5 5 5 5 3 5 5 3 5 5 5 5 5 5 5 5 5 5 5 5 5 5 5 5 5 5 5 5 5 3 5 5 5 5 5 5 5 3 5 5 5 5 3 5 5 5 5 5 5 5 5 5 3 5 5 5 5 5 3 5 5 5 3 5 5 5 3 5 5 3 3 5 5 5 3 5 3 5 5 5 5 5 3 5 5 5 5 5 5 5 5 5 5 5 5 3 5 3 5 5 5 5 5 5 3 5 5 5 5 5 3 5 5 5 3 5 5 5 5 5 5 5 5 3 5 5 5 5 5 5 3 5 5 5 5 5 3 5 5 3 5 3 5 5 5 5 5 5 3 5 5 5 5 3 5 5 5 5 5 3 5 5 5 5 5 5 5 5 5 5 5 5 5 5 5 3 5 5 5 5 3 3 5 5 5 5 5 5 5 5 3 5 5 5 5 5 5 5 5 5 5 5 5 3 5 5 3 5 5 3 5 5 5 5 5 5 5 3 5 3 3 5 5 3 5 5 5 5 5 5 3 5 5 3 5 3 5 5 5 5 5 5 5 5 5 5 5 5 5 3 5 5 5 5 5 5 3 5 5 5 5 5 5 5 5 5 5 5 3 5 5 3 5 5 5 3 5 5 5 5 5 5 5 5 5 3 5 5 5 5 5 5 5 3 5 5 5 5 5 5 5 3 5 5 5 3 5 5 5 5 3 5 5 5 5 5 5 3 5 5 5 5 5 5 5 5 5 5 5 5 5 5 5 3 5 3 5 5 3 5 5 5 5 5 5 5 3 5 5 5 5 5 5 5 5 5 5 5 5 5 5 5 5 5 5 5 5 5 5 5 5 5 5 5 5 5 5 5 5 5 3 5 5 5 5 5 5 5 5 5 5 5 5 3 5 5 3 5 5 5 3 5 5 5 5 3 5 5 5 5 5 3 5 5 5 5 5 5 5 5 5 5 5 5 5 5 5 5 5 5 5 5 3 3 5 5 5 3 5 5 5 5 3 5 5 5 3 5 5 3 5 5 5 5 5 5 5 3 5 5 5 5 5 5 5 5 5 5 3 5 5 5 5 5 5 5 5 5 5 5 5 5 5 5 5 5 5 5 5 5 5 5 5 5 5 5 5 5 5 5 5 3 5 5 3 5 5 5 5 5 5 3 5 5 3 5 5 5 5 5 5 5 5 5 5 5 5 3 5 3 5 5 5 5 5 5 5 5 3 5 5 5 3 5 5 5 5 5 5 3 5 5 5 5 5 5 5 5 5 5 5 5 5 5 5 3 5 5 5 5 5 5 5 5 5 5 5 5 5 5 5 5 5 5 5 5 5 5 5 5 5 5 5 5 5 5 5 5 5 5 5 5 5 3 5 5 5 3 5 5 5 5 5 5 3 5 5 5 3 5 5 5 3 5 3 3 5 5 5 5 5 5 5 5 5 5 5 5 5 3 5 5 5 5 3 5 5 5 5 3 3 5 3 5 3 5 5 5 5 5 5 3 5 5 5 3 5 5 3 5 5 3 5 5 3 5 5 3 5 5 3 5 5 3 5 5 3 5 5 3 3 5 5 5 5 5 5 5 5 5 5 5 5 5 5 5 5 5 5 5 5 5 5 5 5 5 3 5 5 5 5 5 5 3 5 5 5 5 3 5 5 3 5 3 5 5 3 5 5 5 3 5 5 5 5 5 5 5 5 5 5 5 3 5 5 5 5 5 5 5 3 5 5 5 5 5 5 3 5 5 5 5 5 5 5 5 3 5 5 5 3 5 5 5 5 5 5 5 5 5 5 5 5 5 5 5 3 3 5 5 5 5 5 5 5 5 5 5 5 5 5 5 5 5 5 5 5 5 5 5 5 5 5 5 5 5 5 5 3 5 5 5 5 5 5 5 5 3 5 5 5 5 5 5 3 5 5 5 5 5 3 5 3 5 5 5 5 5 3 5 5 5 5 5 5 5 5 5 5 3 5 5 5 5 5 5 5 5 5 3 5 5 5 5 5 5 5 5 5 5 5 3 5 5 5 5 5 5 5 5 5 5 5 5 5 3 5 5 5 3 5 5 5 3 5 5 5 3 5 5 3 5 5 5 5 5 5 5 5 5 5 5 5 5 5 5 5 5 5 5 5 5 3 5 5 5 5 5 3 5 5 5 5 5 3 5 5 5 5 5 5 5 5 5 5 5 5 5 5 5 5 5 3 5 5 5 5 5 5 5 5 5 5 5 5 5 5 5 5 5 5 5 5 5 5 3 5 5 5 5 5 5 5 5 5 5 5 5 5 5 5 5 5 5 5 5 5 5 5 5 5 5 5 5 5 5 5 5 3 5 5 5 5 5 3 3 5 5 3 5 5 5 5 5 5 5 5 5 5 5 5 5 5 5 5 5 5 5 5 5 5 5 5 5 5 5 5 5 5 3 5 5 5 3 3 5 3 5 5 3 5 5 3 5 5 3 5 5 5 3 5 3 3 5 3 5 3 5 5 5 5 3 5 5 5 5 5 3 5 5 5 5 5 5 5 3 5 5 5 3 5 5 5 5 5 3 5 3 5 5 5 5 5 5 5 3 3 5 5 5 5 5 5 3 5 5 5 5 5 3 5 5 3 5 5 3 5 5 5 5 5 5 5 5 5 5 5 5 3 5 5 5 5 5 5 5 5 5 5 5 5 3 5 5 3 5 5 5 3 5 5 5 5 5 5 5 5 5 5 5 5 5 3 5 3 5 5 5 5 5 3 5 5 5 5 5 5 5 5 5 5 5 5 5 5 5 5 5 5 3 5 3 5 5 3 3 5 5 5 5 5 5 5 3 5 5 5 5 5 3 5 3 5 5 5 3 5 3 5 5 5 5 5 3 5 5 5 5 5 5 5 5 5 5 5 5 5 5 5 3 5 5 5 5 5 5 5 5 5 5 5 5 3 5 5 5 5 5 5 5 5 3 5 5 5 5 5 3 3 5 5 3 5 3 5 3 5 5 5 5 5 5 5 5 5 5 5 5 5 5 5 5 5 5 5 5 3 5 3 5 5 5 5 3 5 5 5 5 5 5 5 5 5 3 5 5 3 5 3 5 5 5 3 3 5 3 5 5 5 5 5 5 5 5 3 3 3 5 5 5 5 5 5 3 5 5 5 5 5 5 5 5 5 5 3 5 5 5 3 5 5 5 5 5 5 5 5 5 5 3 5 5 5 3 3 5 5 5 3 5 3 3 5 5 3 5 5 5 3 5 3 5 5 5 5 5 5 5 5 5 3 3 5 5 5 3 5 5 5 5 5 5 5 3 5 5 5 5 5 5 5 3 5 5 5 5 5 5 5 5 3 5 5 5 5 5 5 5 5 3 5 5 5 3 5 5 5 5 5 3 5 5 5 5 5 5 5 5 5 5 5 3 5 5 3 5 5 5 3 5 5 5 5 5 5 5 5 5 3 5 5 5 5 3 5 5 5 5 5 5 5 5 3 5 5 5 5 5 5 5 5 5 5 3 5 5 5 5 5 5 5 3 5 5 5 5 5 3 5 5 5 5 5 3 5 5 5 5 5 5 5 5 5 5 5 5 5 5 3 5 5 5 5 5 5 5 5 5 5 5 3 5 3 5 5 5 5 5 5 5 5 5 5 5 5 5 5 3 3 5 5 3 5 5 5 3 5 5 5 5 5 3 3 5 5 3 5 5 5 5 5 5 3 5 3 5 5 5 5 5 5 5 5 5 5 5 5 5 3 5 5 5 3 3 5 5 5 5 5 5 5 5 5 5 3 5 3 5 5 5 5 5 3 5 5 3 5 5 5 5 3 5 5 3 5 3 5 3 5 5 3 5 3 3 5 3 5 5 5 3 3 5 5 3 5 5 5 3 3 3 5 5 5 5 5 5 3 5 5 5 3 3 5 5 5 3 5 5 3 5 5 5 5 3 5 3 5 5 5 5 5 3 5 5 5 5 5 5 5 5 5 5 5 5 5 5 5 5 5 5 5 5 5 5 3 5 5 5 5 5 3 3 5 3 5 5 5 5 5 3 5 5 5 5 5 3 5 5 5 3 5 3 5 5 5 5 5 3 5 3 5 5 5 5 5 5 5 5 5 3 5 5 5 3 5 5 5 3 5 5 5 5 5 5 3 5 5 3 5 5 5 5 5 5 5 3 5 5 5 5 5 5 5 5 5 5 5 5 5 5 5 5 5 3 5 5 5 5 5 5 3 5 5 5 3 3 5 5 5 5 5 5 5 5 5 5 5 5 3 3 5 5 5 5 3 5 3 5 5 5 5 5 5 5 5 5 5 5 5 5 5 5 5 5 5 5 5 5 5 5 5 5 5 5 5 5 5 5 5 5 5 5 5 5 5 5 5 5 5 5 5 3 5 5 5 5 5 3 5 5 5 5 5 5 5 3 5 3 5 5 5 5 5 5 5 3 5 5 5 5 5 5 3 5 5 5 5 5 5 5 5 5 5 5 5 5 5 3 5 5 5 5 5 5 5 5 5 5 3 5 5 5 5 5 5 5 5 5 5 5 5 5 5 5 5 5 5 5 5 5 5 5 5 5 5 5 5 5 5 5 5 3 5 5 3 5 3 5 5 3 5 5 3 5 5 3 5 5 5 5 5 5 5 3 3 5 5 5 3 5 5 5 5 5 5 5 5 5 5 5 5 5 5 5 5 5 5 5 5 5 5 5 5 5 5 5 5 5 3 5 5 5 5 5 5 5 5 5 5 5 5 5 5 5 5 5 3 5 5 5 5 5 5 3 5 5 5 5 5 5 3 5 5 5 5 5 5 5 5 5 3 3 5 5 5 5 5 5 5 5 5 3 5 5 5 5 5 5 5 5 5 5 5 5 5 5 3 5 5 5 5 5 5 5 5 3 5 5 5 5 5 3 5 5 5 3 5 5 5 5 3 3 5 5 5 5 5 5 5 3 5 5 5 5 3 5 3 5 5 5 3 5 5 3 5 5 5 5 5 5 5 5 5 5 5 5 5 5 3 5 3 5 5 3 5 5 5 3 5 5 5 5 5 5 5 5 5 5 5 5 5 5 5 5 5 5 5 5 5 5 5 5 5 5 5 5 5 5 3 5 5 5 5 5 5 5 5 5 5 5 5 5 5 5 5 3 5 5 5 5 5 3 5 5 5 5 5 5 3 5 5 5 5 5 5 5 3 5 3 3 5 5 5 5 3 5 3 5 3 3 5 3 5 3 3 5 3 3 3 5 5 5 5 3 5 3 3 5 5 3 5 5 5 3 5 5 3 5 5 3 5 5 3 5 3 5 5 3 5 5 5 5 5 5 5 5 5 5 3 5 3 3 5 5 5 5 3 3 5 5 5 5 3 5 5 3 3 5 5 5 5 5 5 5 5 5 5 5 5 5 3 5 5 5 5 5 5 3 3 3 3 5 5 5 5 5 5 5 5 5 3 5 5 5 5 5 5 5 5 5 5 5 5 5 5 5 5 5 5 5 5 3 5 5 5 3 5 5 5 5 5 3 5 3 5 5 5 5 3 3 5 5 5 5 5 5 5 5 5 5 5 5 5 5 5 5 5 3 5 5 5 5 5 5 5 5 5 5 5 5 5 3 5 5 3 3 5 5 5 5 5 3 5 5 5 5 5 5 5 5 3 5 5 3 5 5 5 5 5 5 5 5 5 5 5 5 5 5 5 5 5 5 5 5 5 5 5 5 5 5 3 5 5 5 5 5 5 3 5 5 5 5 5 5 5 5 5 5 5 5 5 5 5 5 5 5 5 5 5 5 5 3 5 5 5 5 5 5 5 5 5 5 5 5 5 5 5 5 5 5 5 5 5 5 5 5 5 5 5 5 5 5 5 5 5 5 5 5 5 5 5 5 5 5 5 5 5 5 5 5 5 5 5 5 5 5 5 5 5 5 5 5 5 5 5 5 5 3 5 5 5 5 5 5 5 5 5 5 5 5 5 5 5 3 5 5 3 3 5 5 5 5 5 5 5 5 3 5 5 3 5 5 5 3 5 5 5 5 5 5 5 5 5 3 5 5 5 3 5 5 5 3 5 5 5 5 5 5 5 5 5 3 5 5 3 3 3 5 5 5 5 3 5 5 5 5 3 5 5 5 5 3 5 5 5 5 5 5 5 5 5 5 5 5 5 5 5 5 5 5 5 5 5 5 5 5 5 5 5 5 5 5 5 5 5 5 5 5 5 5 5 5 5 5 5 5 5 5 5 5 5 5 5 5 5 5 5 5 5 5 5 3 3 5 5 5 5 5 5 5 5 5 5 5 5 5 5 5 5 5 5 5 5 3 5 5 5 5 5 3 5 5 5 5 5 5 5 5 5 5 5 5 5 5 5 5 5 5 5 5 5 3 5 5 5 5 5 3 5 5 5 5 3 5 5 5 5 5 5 5 5 5 5 5 5 5 5 5 5 5 5 5 5 5 5 5 5 5 3 5 5 5 5 3 5 5 5 5 5 5 5 5 5 5 5 5 5 5 5 5 5 5 5 5 5 5 5 5 5 5 5 5 5 5 5 5 5 5 5 5 5 5 5 5 5 5 5 5 5 5 5 5 5 5 5 5 5 5 5 5 5 5 5 5 5 5 5 5 5 5 5 5 5 5 5 5 5 5 5 3 5 5 5 5 5 5 5 5 5 5 5 5 5 5 5 5 5 5 5 5 5 5 5 5 5 5 3 5 5 5 5 5 5 5 5 5 5 5 5 5 5 5 5 5 5 5 5 5 5 5 5 5 5 5 5 3 5 5 5 5 5 5 5 5 5 5 5 5 5 5 5 5 5 5 5 5 5 5 5 5 3 5 5 5 5 5 5 5 5 5 5 3 3 5 5 5 5 5 5 5 3 5 5 5 5 5 5 5 5 5 5 5 5 5 5 5 5 3 5 5 5 5 5 5 5 5 5 5 3 5 5 5 5 3 5 5 5 5 5 5 5 5 5 3 5 5 5 5 5 5 3 3 5 5 5 5 5 5 5 5 5 5 3 5 5 5 5 3 5 5 5 3 5 5 5 5 5 5 5 5 3 5 5 5 3 5 5 5 5 5 5 5 5 5 5 5 5 3 5 5 5 5 5 3 5 5 5 3 5 5 5 5 5 3 5 5 3 3 5 3 5 5 5 5 5 5 5 5 5 5 5 5 5 5 5 5 3 5 5 5 5 5 5 5 5 5 5 5 5 5 5 5 5 5 5 5 5 5 5 5 5 5 5 5 5 5 5 5 5 5 5 5 5 5 5 3 5 5 5 5 5 5 3 5 3 5 5 5 5 3 5 5 5 5 5 5 5 5 5 5 5 5 5 5 5 3 5 5 5 5 5 5 5 3 5 5 5 5 5 5 5 5 5 5 5 5 5 5 5 5 5 5 5 5 5 5 5 5 5 5 5 5 5 5 5 5 5 5 5 5 5 5 5 5 5 5 5 5 5 5 5 5 5 5 5 5 5 5 5 5 5 5 5 5 5 5 5 5 5 5 5 5 5 5 5 5 5 5 5 5 5 5 5 5 5 5 5 5 5 5 5 5 5 5 5 5 3 5 5 5 5 5 5 5 5 5 5 5 5 5 5 5 5 5 5 5 5 5 5 5 5 5 5 5 5 5 5 5 3 5 5 3 5 3 5 5 5 3 5 5 5 5 5 3 5 5 5 3 5 3 3 3 5 5 5 5 3 5 5 5 5 5 5 5 5 5 5 5 5 3 5 3 5 5 5 5 5 5 3 5 5 3 5 5 3 5 5 5 3 5 5 5 5 5 5 5 3 5 5 5 5 3 5 3 5 3 5 5 5 5 3 5 5 5 5 5 3 5 3 5 3 5 5 3 3 5 5 5 5 5 5 3 5 5 5 5 5 5 5 5 5 3 5 5 3 5 5 5 5 5 5 5 5 3 5 5 5 3 5 5 3 5 5 3 5 5 3 3 3 5 5 5 5 3 5 5 5 5 5 5 5 3 3 3 3 3 5 5 5 5 5 5 5 5 5 5 5 5 5 5 3 5 5 3 5 5 5 5 5 5 5 5 5 5 5 3 5 5 5 5 5 5 5 5 5 5 3 5 5 5 5 5 5 5 5 5 5 3 5 5 5 5 5 5 5 5 5 5 5 5 5 5 5 5 5 5 5 5 5 5 5 5 5 5 5 5 5 5 5 5 5 5 5 5 5 5 5 5 5 5 5 5 5 3 5 5 3 5 5 5 5 5 5 3 5 3 5 5 5 5 5 3 3 5 5 5 5 3 5 5 5 5 5 5 5 5 5 
</DataArray>
</Cells>
<PointData Scalars="" Vectors="displacement," Tensors="">
<DataArray type="Float64" Name="displacement" NumberOfComponents="3" format="ascii">
-4.2828490390991113e-07 -0.024997907487608047 0 -4.2775953508879888e-05 -0.024788320912373409 0 2.7913335261540518e-08 -0.025000084638780711 0 -4.2828490390991113e-07 -0.024997907487608047 0 6.7743580820221159e-07 -0.023697995792623307 0 -4.2775953508879888e-05 -0.024788320912373409 0 6.7743580820221159e-07 -0.023697995792623307 0 0.00011900684583201693 -0.024478040586007211 0 0.00037492551582137635 -0.024525474441451936 0 6.7743580820221159e-07 -0.023697995792623307 0 0.00011900684583201693 -0.024478040586007211 0 -4.2775953508879888e-05 -0.024788320912373409 0 0.00011900684583201693 -0.024478040586007211 0 0.00011489511834748701 -0.024673915072254825 0 0.00037492551582137635 -0.024525474441451936 0 0.00011900684583201693 -0.024478040586007211 0 0.00011489511834748701 -0.024673915072254825 0 -4.2775953508879888e-05 -0.024788320912373409 0 -4.2775953508879888e-05 -0.024788320912373409 0 2.7913335261540518e-08 -0.025000084638780711 0 1.2828067367895974e-05 -0.024882699363589309 0 0.00011489511834748701 -0.024673915072254825 0 -4.2775953508879888e-05 -0.024788320912373409 0 5.4884131454055437e-05 -0.024745345139788419 0 -4.2775953508879888e-05 -0.024788320912373409 0 5.4884131454055437e-05 -0.024745345139788419 0 1.2828067367895974e-05 -0.024882699363589309 0 0.00011489511834748701 -0.024673915072254825 0 5.4884131454055437e-05 -0.024745345139788419 0 0.00012899430436506151 -0.024622276464935137 0 5.4884131454055437e-05 -0.024745345139788419 0 0.00011952237604050544 -0.024841759000471291 0 0.00012899430436506151 -0.024622276464935137 0 5.4884131454055437e-05 -0.024745345139788419 0 1.2828067367895974e-05 -0.024882699363589309 0 0.00011952237604050544 -0.024841759000471291 0 1.2828067367895974e-05 -0.024882699363589309 0 0.00011952237604050544 -0.024841759000471291 0 1.3210473662227051e-05 -0.024990387424866783 0 -4.7654931489911661e-05 -0.022007115843503195 0 0.00011891709403835135 -0.022276156381530868 0 0.00010500351083539326 -0.022758626593511321 0 0.0001693177935515283 -0.023089737895572431 0 -8.8598194346840983e-05 -0.023485035708005531 0 0.00010500351083539326 -0.022758626593511321 0 -8.8598194346840983e-05 -0.023485035708005531 0 0.00011459373106090197 -0.022171939958286369 0 -0.00015927590024135874 -0.020661647840735663 0 0.00018195027539946008 -0.021043047482597881 0 0.00011459373106090197 -0.022171939958286369 0 0.00010500351083539326 -0.022758626593511321 0 0.00016440157025284467 -0.02282270912999277 0 0.0001693177935515283 -0.023089737895572431 0 0.00010500351083539326 -0.022758626593511321 0 0.00016440157025284467 -0.02282270912999277 0 9.4359235440955315e-05 -0.02275280313003274 0 0.00037115375165182324 -0.022951076216796949 0 0.0001693177935515283 -0.023089737895572431 0 0.00020069079705905437 -0.023396577542842918 0 0.00016440157025284467 -0.02282270912999277 0 0.00037115375165182324 -0.022951076216796949 0 0.0001693177935515283 -0.023089737895572431 0 0.0001693177935515283 -0.023089737895572431 0 0.00020069079705905437 -0.023396577542842918 0 -8.8598194346840983e-05 -0.023485035708005531 0 0.00037115375165182324 -0.022951076216796949 0 0.00020069079705905437 -0.023396577542842918 0 0.00032321862234357078 -0.024070777274764425 0 0.00017178684580291119 -0.025019286812099455 0 0.0002473749100014748 -0.023224041645421595 0 0.00022093229024508398 -0.0239145035472378 0 0.00031167626038227731 -0.024049489953501445 0 0.00011952237604050544 -0.024841759000471291 0 0.00012899430436506151 -0.024622276464935137 0 0.00032321862234357078 -0.024070777274764425 0 0.00020069079705905437 -0.023396577542842918 0 -8.8598194346840983e-05 -0.023485035708005531 0 0.00032321862234357078 -0.024070777274764425 0 -0.00015927590024135874 -0.020661647840735663 0 -3.0691148615868392e-05 -0.020685785873806012 0 0.00018195027539946008 -0.021043047482597881 0 -0.00015927590024135874 -0.020661647840735663 0 -8.0640573193190429e-06 -0.021072531025139809 0 -3.0691148615868392e-05 -0.020685785873806012 0 -8.0640573193190429e-06 -0.021072531025139809 0 -5.055637219571445e-05 -0.021116118942511825 0 -3.0691148615868392e-05 -0.020685785873806012 0 -8.0640573193190429e-06 -0.021072531025139809 0 0.00059588198113608496 -0.021347773915146123 0 -2.5672509541071206e-05 -0.021746465203814968 0 -0.00015927590024135874 -0.020661647840735663 0 -8.0640573193190429e-06 -0.021072531025139809 0 0.00059588198113608496 -0.021347773915146123 0 -8.0640573193190429e-06 -0.021072531025139809 0 -2.5672509541071206e-05 -0.021746465203814968 0 -5.055637219571445e-05 -0.021116118942511825 0 -8.8598194346840983e-05 -0.023485035708005531 0 0.00032321862234357078 -0.024070777274764425 0 0.00040178972239422105 -0.023961832630801087 0 0.00011489511834748701 -0.024673915072254825 0 0.00012899430436506151 -0.024622276464935137 0 0.00037492551582137635 -0.024525474441451936 0 0.00012899430436506151 -0.024622276464935137 0 0.00032321862234357078 -0.024070777274764425 0 0.00040178972239422105 -0.023961832630801087 0 -4.7654931489911661e-05 -0.022007115843503195 0 0.0002473749100014748 -0.023224041645421595 0 0.00059588198113608496 -0.021347773915146123 0 1.7289317269579479e-06 -0.022978511558274576 0 -2.5672509541071206e-05 -0.021746465203814968 0 2.3255294561154015e-07 -0.023695022126275812 0 0.0002473749100014748 -0.023224041645421595 0 -5.2522013692280947e-09 -0.023691715149867731 0 1.60877092806155e-06 -0.023127022333810462 0 6.8594855355072014e-09 -0.02298364510589301 0 0.0002473749100014748 -0.023224041645421595 0 2.7509301124844887e-07 -0.022979587681780052 0 -2.5672509541071206e-05 -0.021746465203814968 0 -7.6260775920022736e-07 -0.021588826921263272 0 -5.055637219571445e-05 -0.021116118942511825 0 1.7289317269579479e-06 -0.022978511558274576 0 -2.5672509541071206e-05 -0.021746465203814968 0 -7.6260775920022736e-07 -0.021588826921263272 0 -7.6260775920022736e-07 -0.021588826921263272 0 -5.055637219571445e-05 -0.021116118942511825 0 -4.5873101481050498e-05 -0.020647966997433015 0 -4.5873101481050498e-05 -0.020647966997433015 0 2.5082708704113314e-07 -0.020196739759212837 0 8.5090637457636874e-05 -0.019902393693859117 0 -7.6260775920022736e-07 -0.021588826921263272 0 -4.5873101481050498e-05 -0.020647966997433015 0 2.5082708704113314e-07 -0.020196739759212837 0 -4.5873101481050498e-05 -0.020647966997433015 0 8.5090637457636874e-05 -0.019902393693859117 0 1.4838372089423933e-05 -0.02034871174830202 0 -4.5873101481050498e-05 -0.020647966997433015 0 -3.0691148615868392e-05 -0.020685785873806012 0 1.4838372089423933e-05 -0.02034871174830202 0 -5.055637219571445e-05 -0.021116118942511825 0 -4.5873101481050498e-05 -0.020647966997433015 0 -3.0691148615868392e-05 -0.020685785873806012 0 2.0550179728651756e-07 -0.018805229369660559 0 0.00015071011150916347 -0.01929449420522077 0 5.6711599375971089e-05 -0.018368261875248676 0 2.0550179728651756e-07 -0.018805229369660559 0 0.00015071011150916347 -0.01929449420522077 0 2.5082708704113314e-07 -0.020196739759212837 0 0.00015071011150916347 -0.01929449420522077 0 2.5082708704113314e-07 -0.020196739759212837 0 8.5090637457636874e-05 -0.019902393693859117 0 0.00015071011150916347 -0.01929449420522077 0 8.5090637457636874e-05 -0.019902393693859117 0 0.00048989338985017095 -0.018866686075134229 0 0.00015071011150916347 -0.01929449420522077 0 0.00048989338985017095 -0.018866686075134229 0 5.6711599375971089e-05 -0.018368261875248676 0 0.00048989338985017095 -0.018866686075134229 0 0.0010957068250166853 -0.017456740037766479 0 0.00019308634722712143 -0.017405374169408287 0 0.00048989338985017095 -0.018866686075134229 0 7.2687395052843049e-05 -0.017962738134186026 0 0.00019308634722712143 -0.017405374169408287 0 0.00053461207325725504 -0.018955010999882269 0 0.00075735447631625609 -0.018737501628619764 0 8.5090637457636874e-05 -0.019902393693859117 0 0.00048989338985017095 -0.018866686075134229 0 0.00013122644044097893 -0.020127530536565272 0 0.00048989338985017095 -0.018866686075134229 0 0.00013122644044097893 -0.020127530536565272 0 0.00042240126754104285 -0.020226049895698355 0 0.00013122644044097893 -0.020127530536565272 0 0.00042240126754104285 -0.020226049895698355 0 0.0002697673190277135 -0.020557589537579173 0 0.00075735447631625609 -0.018737501628619764 0 0.00035583590180866901 -0.019131559633187901 0 0.0010957068250166853 -0.017456740037766479 0 0.00049771282841947644 -0.016781790965492604 0 0.00019308634722712143 -0.017405374169408287 0 0.0010957068250166853 -0.017456740037766479 0 0.00049771282841947644 -0.016781790965492604 0 0.001315346743096174 -0.016742990542666179 0 -3.0691148615868392e-05 -0.020685785873806012 0 1.4838372089423933e-05 -0.02034871174830202 0 7.9031187359578057e-05 -0.020595999507754398 0 -3.0691148615868392e-05 -0.020685785873806012 0 7.9031187359578057e-05 -0.020595999507754398 0 0.00018195027539946008 -0.021043047482597881 0 8.5090637457636874e-05 -0.019902393693859117 0 0.00013122644044097893 -0.020127530536565272 0 1.4838372089423933e-05 -0.02034871174830202 0 0.00013122644044097893 -0.020127530536565272 0 1.4838372089423933e-05 -0.02034871174830202 0 7.9031187359578057e-05 -0.020595999507754398 0 0.000205461647202324 -0.021126527953535632 0 0.00035583590180866901 -0.019131559633187901 0 7.9031187359578057e-05 -0.020595999507754398 0 0.0001028043393041215 -0.020874013488545791 0 0.00031984484957161831 -0.020875547512534166 0 0.00013122644044097893 -0.020127530536565272 0 7.9031187359578057e-05 -0.020595999507754398 0 0.0002697673190277135 -0.020557589537579173 0 7.9031187359578057e-05 -0.020595999507754398 0 0.0001028043393041215 -0.020874013488545791 0 0.00018195027539946008 -0.021043047482597881 0 0.00011459373106090197 -0.022171939958286369 0 0.00063223199358447514 -0.022925100165258634 0 0.00033679869318990069 -0.023096937064857416 0 0.00021200716488210461 -0.021136458250348541 0 0.00035511305571760501 -0.021851156005501322 0 0.0001028043393041215 -0.020874013488545791 0 0.00018195027539946008 -0.021043047482597881 0 0.00010922167117250572 -0.020892632540775762 0 0.00018195027539946008 -0.021043047482597881 0 0.00011459373106090197 -0.022171939958286369 0 0.00063223199358447514 -0.022925100165258634 0 0.0001028043393041215 -0.020874013488545791 0 0.00010922167117250572 -0.020892632540775762 0 0.00016533370852985407 -0.02092341046083835 0 0.00016533370852985407 -0.02092341046083835 0 0.00023320867005731778 -0.02098359360448426 0 0.00031984484957161831 -0.020875547512534166 0 0.0001028043393041215 -0.020874013488545791 0 0.00016533370852985407 -0.02092341046083835 0 0.00031984484957161831 -0.020875547512534166 0 0.00023320867005731778 -0.02098359360448426 0 0.00015883146520494435 -0.020996640347850246 0 0.00018912899822139253 -0.021125378365812138 0 0.00016533370852985407 -0.02092341046083835 0 0.00023320867005731778 -0.02098359360448426 0 0.00015883146520494435 -0.020996640347850246 0 0.00063223199358447514 -0.022925100165258634 0 0.00080153373290990323 -0.02370013457453822 0 0.00033679869318990069 -0.023096937064857416 0 0.00080153373290990323 -0.02370013457453822 0 0.0004139273360101981 -0.023644698053574997 0 0.00033679869318990069 -0.023096937064857416 0 0.00010922167117250572 -0.020892632540775762 0 0.00015883146520494435 -0.020996640347850246 0 9.8474160688395213e-05 -0.021090204336636421 0 0.00035511305571760501 -0.021851156005501322 0 0.00047820608145208001 -0.022597037002418805 0 0.00010922167117250572 -0.020892632540775762 0 0.00016533370852985407 -0.02092341046083835 0 0.00015883146520494435 -0.020996640347850246 0 0.00049771282841947644 -0.016781790965492604 0 0.001315346743096174 -0.016742990542666179 0 0.00071575156403020604 -0.016240162517029477 0 -1.0662609764283624e-05 -0.019876564819630276 0 0.00035583590180866901 -0.019131559633187901 0 -0.000152094156757389 -0.018505413352916389 0 -2.5822353599273594e-05 -0.018229674270762743 0 0.00017965319279129456 -0.018427597752589047 0 0.00035583590180866901 -0.019131559633187901 0 0.00042726869939609303 -0.017239767633106178 0 -0.000152094156757389 -0.018505413352916389 0 0.00017965319279129456 -0.018427597752589047 0 -2.0754844179315083e-05 -0.018728946042455143 0 0.00017965319279129456 -0.018427597752589047 0 -2.0754844179315083e-05 -0.018728946042455143 0 0.00038948477490040578 -0.018629662849738136 0 0.00042726869939609303 -0.017239767633106178 0 0.00029666543165374567 -0.016552797626977794 0 -2.0754844179315083e-05 -0.018728946042455143 0 0.00021196888851716912 -0.018965777335354206 0 0.00038948477490040578 -0.018629662849738136 0 0.0002721064079244833 -0.016954994854498685 0 0.00029666543165374567 -0.016552797626977794 0 -2.0754844179315083e-05 -0.018728946042455143 0 1.2234391094745558e-05 -0.018941202393056304 0 -0.00019069378612325056 -0.018958993641165878 0 1.2234391094745558e-05 -0.018941202393056304 0 0.00021196888851716912 -0.018965777335354206 0 3.7918655818349108e-05 -0.019260462361929923 0 -2.0754844179315083e-05 -0.018728946042455143 0 1.2234391094745558e-05 -0.018941202393056304 0 0.00021196888851716912 -0.018965777335354206 0 1.2234391094745558e-05 -0.018941202393056304 0 -0.00019069378612325056 -0.018958993641165878 0 3.7918655818349108e-05 -0.019260462361929923 0 9.8474160688395213e-05 -0.021090204336636421 0 0.00018912899822139253 -0.021125378365812138 0 0.00011771762376151779 -0.021301235925376888 0 0.00080153373290990323 -0.02370013457453822 0 0.00063111093739587549 -0.02401133588671046 0 0.0004139273360101981 -0.023644698053574997 0 -0.000152094156757389 -0.018505413352916389 0 -2.0754844179315083e-05 -0.018728946042455143 0 -0.00029408557897142601 -0.018789234261330421 0 -1.0662609764283624e-05 -0.019876564819630276 0 -8.2441776847758023e-06 -0.019686823176756168 0 0.00015883146520494435 -0.020996640347850246 0 9.8474160688395213e-05 -0.021090204336636421 0 0.00018912899822139253 -0.021125378365812138 0 -2.0754844179315083e-05 -0.018728946042455143 0 -0.00029408557897142601 -0.018789234261330421 0 -0.00019069378612325056 -0.018958993641165878 0 -8.2441776847758023e-06 -0.019686823176756168 0 0.00026513728735470614 -0.021857761418564426 0 -0.00029408557897142601 -0.018789234261330421 0 -0.00019069378612325056 -0.018958993641165878 0 -0.00051744550653949075 -0.019220258554221516 0 -0.00019069378612325056 -0.018958993641165878 0 -0.00051744550653949075 -0.019220258554221516 0 -0.00024863399766567582 -0.01933672145910716 0 0.00080153373290990323 -0.02370013457453822 0 0.00080713856266799195 -0.024252244565219277 0 0.00063111093739587549 -0.02401133588671046 0 0.00080713856266799195 -0.024252244565219277 0 0.00061394586521891525 -0.024260493740644883 0 0.00078074529010617954 -0.024283643242038216 0 0.00047820608145208001 -0.022597037002418805 0 0.00026513728735470614 -0.021857761418564426 0 0.00026513728735470614 -0.021857761418564426 0 0.0001615615555051629 -0.022357252706958843 0 0.00080713856266799195 -0.024252244565219277 0 0.00063111093739587549 -0.02401133588671046 0 0.00061394586521891525 -0.024260493740644883 0 0.00069407549536710633 -0.024498803916237783 0 0.00040358606102806254 -0.024030515202780763 0 0.00063292293805830276 -0.024509687225704836 0 0.00018773988229137334 -0.024516125657500595 0 0.00040491831884994844 -0.02403455762213039 0 0.00018773988229137334 -0.024516125657500595 0 0.00040491831884994844 -0.02403455762213039 0 -1.3389249340801504e-05 -0.024275182528185404 0 0.00063111093739587549 -0.02401133588671046 0 0.00061394586521891525 -0.024260493740644883 0 0.00040491831884994844 -0.02403455762213039 0 0.00063111093739587549 -0.02401133588671046 0 0.00040491831884994844 -0.02403455762213039 0 0.0004139273360101981 -0.023644698053574997 0 0.00040491831884994844 -0.02403455762213039 0 0.0004139273360101981 -0.023644698053574997 0 8.0472508529710771e-05 -0.023708311628779729 0 0.0004139273360101981 -0.023644698053574997 0 8.0472508529710771e-05 -0.023708311628779729 0 0.00017195843064828032 -0.023241468333197089 0 0.00040491831884994844 -0.02403455762213039 0 8.0472508529710771e-05 -0.023708311628779729 0 -1.3389249340801504e-05 -0.024275182528185404 0 8.0472508529710771e-05 -0.023708311628779729 0 -1.3389249340801504e-05 -0.024275182528185404 0 -0.00038016078147276784 -0.023814421047956266 0 0.00018773988229137334 -0.024516125657500595 0 -1.3389249340801504e-05 -0.024275182528185404 0 -0.00013018420712601592 -0.024827104673022109 0 -4.8627311760729977e-08 -0.024999811371123892 0 -5.5332493782930578e-05 -0.024969688622887155 0 -0.00013018420712601592 -0.024827104673022109 0 -0.00019465958418401474 -0.024383434703491063 0 -0.00015502526016647803 -0.024772818036528924 0 -1.3389249340801504e-05 -0.024275182528185404 0 -0.00038016078147276784 -0.023814421047956266 0 -0.00013018420712601592 -0.024827104673022109 0 -4.8627311760729977e-08 -0.024999811371123892 0 -5.5332493782930578e-05 -0.024969688622887155 0 1.3210473662227051e-05 -0.024990387424866783 0 -0.00019465958418401474 -0.024383434703491063 0 -6.1966516277055581e-05 -0.02396711057653636 0 2.7913335261540518e-08 -0.025000084638780711 0 1.2828067367895974e-05 -0.024882699363589309 0 1.3210473662227051e-05 -0.024990387424866783 0 2.7913335261540518e-08 -0.025000084638780711 0 -4.8627311760729977e-08 -0.024999811371123892 0 1.3210473662227051e-05 -0.024990387424866783 0 0.00016440157025284467 -0.02282270912999277 0 -0.00017616436153259011 -0.022887191383795826 0 9.4359235440955315e-05 -0.02275280313003274 0 0.00022093229024508398 -0.0239145035472378 0 -6.1966516277055581e-05 -0.02396711057653636 0 -0.00017616436153259011 -0.022887191383795826 0 9.4359235440955315e-05 -0.02275280313003274 0 9.7953188501645718e-05 -0.022875771431624503 0 0.00016440157025284467 -0.02282270912999277 0 0.00037115375165182324 -0.022951076216796949 0 -0.00017616436153259011 -0.022887191383795826 0 0.00011459373106090197 -0.022171939958286369 0 9.9582186582715081e-05 -0.02258532092215974 0 0.00033679869318990069 -0.023096937064857416 0 0.00010500351083539326 -0.022758626593511321 0 9.4359235440955315e-05 -0.02275280313003274 0 9.9582186582715081e-05 -0.02258532092215974 0 9.4359235440955315e-05 -0.02275280313003274 0 9.9582186582715081e-05 -0.02258532092215974 0 9.7953188501645718e-05 -0.022875771431624503 0 0.00010500351083539326 -0.022758626593511321 0 0.00011459373106090197 -0.022171939958286369 0 9.9582186582715081e-05 -0.02258532092215974 0 9.9582186582715081e-05 -0.02258532092215974 0 9.7953188501645718e-05 -0.022875771431624503 0 0.00033679869318990069 -0.023096937064857416 0 9.7953188501645718e-05 -0.022875771431624503 0 0.00033679869318990069 -0.023096937064857416 0 0.00017195843064828032 -0.023241468333197089 0 0.0004139273360101981 -0.023644698053574997 0 0.00033679869318990069 -0.023096937064857416 0 0.00017195843064828032 -0.023241468333197089 0 -0.00017616436153259011 -0.022887191383795826 0 9.7953188501645718e-05 -0.022875771431624503 0 0.00017195843064828032 -0.023241468333197089 0 8.0472508529710771e-05 -0.023708311628779729 0 -0.00038016078147276784 -0.023814421047956266 0 -0.00017616436153259011 -0.022887191383795826 0 8.0472508529710771e-05 -0.023708311628779729 0 -0.00017616436153259011 -0.022887191383795826 0 0.00017195843064828032 -0.023241468333197089 0 0.00065504370965529146 -0.013074994551374588 0 0.00043441136313588681 -0.013124610120018121 0 0.00086518995602273649 -0.011211931985925292 0 0.00065523835534233514 -0.011717179675294578 0 0.00024932303778070453 -0.011453110430516295 0 0.00018697180519206103 -0.015327224253936787 0 -6.454604737399557e-05 -0.014928451317009947 0 0.00036128860380243083 -0.014433367981408986 0 0.00018697180519206103 -0.015327224253936787 0 -6.454604737399557e-05 -0.014928451317009947 0 -0.00013266163227501846 -0.015468159413272745 0 -6.454604737399557e-05 -0.014928451317009947 0 -0.00031056712281910995 -0.015427979124520732 0 -0.00013266163227501846 -0.015468159413272745 0 -6.454604737399557e-05 -0.014928451317009947 0 -0.0001147037980927349 -0.014137173624970264 0 -0.00025275757205897429 -0.015011322292970961 0 -6.454604737399557e-05 -0.014928451317009947 0 0.00036128860380243083 -0.014433367981408986 0 -0.0001147037980927349 -0.014137173624970264 0 0.00036128860380243083 -0.014433367981408986 0 -0.0001147037980927349 -0.014137173624970264 0 0.0002837082446037508 -0.01264650629780702 0 -3.0157699995537534e-08 -0.013238020027953833 0 -0.0001147037980927349 -0.014137173624970264 0 0.0002837082446037508 -0.01264650629780702 0 -3.0157699995537534e-08 -0.013238020027953833 0 -0.0001147037980927349 -0.014137173624970264 0 -3.3506618365717127e-07 -0.014629988964987189 0 -0.0001147037980927349 -0.014137173624970264 0 -0.00018682477173773818 -0.015175013081633184 0 -0.00025275757205897429 -0.015011322292970961 0 -0.0001147037980927349 -0.014137173624970264 0 -3.3506618365717127e-07 -0.014629988964987189 0 -0.00018682477173773818 -0.015175013081633184 0 -3.3506618365717127e-07 -0.014629988964987189 0 -0.00018682477173773818 -0.015175013081633184 0 -3.314795741907579e-07 -0.016021647245317051 0 -0.00018682477173773818 -0.015175013081633184 0 -0.00026724020544276439 -0.015958020049090357 0 -3.314795741907579e-07 -0.016021647245317051 0 -0.00018682477173773818 -0.015175013081633184 0 -0.00034016049076146434 -0.01566548843688953 0 -0.00026724020544276439 -0.015958020049090357 0 -0.00018682477173773818 -0.015175013081633184 0 -0.00034016049076146434 -0.01566548843688953 0 -0.00025275757205897429 -0.015011322292970961 0 -6.454604737399557e-05 -0.014928451317009947 0 -0.00025275757205897429 -0.015011322292970961 0 -0.00031056712281910995 -0.015427979124520732 0 -0.00034016049076146434 -0.01566548843688953 0 -0.00025275757205897429 -0.015011322292970961 0 -0.00031056712281910995 -0.015427979124520732 0 -0.00034016049076146434 -0.01566548843688953 0 -0.00031056712281910995 -0.015427979124520732 0 -0.00037498192621407547 -0.015757922477702049 0 -0.00034016049076146434 -0.01566548843688953 0 -0.00036233359958481675 -0.016369294897819298 0 -0.00037498192621407547 -0.015757922477702049 0 -0.00039772541138511979 -0.016289218988904671 0 -0.00061678314485195886 -0.016016123744811876 0 -0.00036233359958481675 -0.016369294897819298 0 -0.00015191714626254394 -0.016688058651583258 0 -0.00030121717922204622 -0.016247656280369827 0 -0.00036233359958481675 -0.016369294897819298 0 -0.00025629545085197259 -0.01674061883882598 0 -0.00015191714626254394 -0.016688058651583258 0 -0.00036233359958481675 -0.016369294897819298 0 -0.00025629545085197259 -0.01674061883882598 0 -0.00026724020544276439 -0.015958020049090357 0 -0.00034016049076146434 -0.01566548843688953 0 -0.00036233359958481675 -0.016369294897819298 0 -0.00026724020544276439 -0.015958020049090357 0 -0.00026724020544276439 -0.015958020049090357 0 -3.314795741907579e-07 -0.016021647245317051 0 -0.00015595041818654921 -0.016683259746536123 0 -3.314795741907579e-07 -0.016021647245317051 0 -0.00015595041818654921 -0.016683259746536123 0 -2.3095061592687461e-07 -0.017413468397110062 0 -0.00025629545085197259 -0.01674061883882598 0 -0.00015595041818654921 -0.016683259746536123 0 -0.00010508353424643357 -0.017428263063252621 0 -0.00025629545085197259 -0.01674061883882598 0 -0.00026724020544276439 -0.015958020049090357 0 -0.00015595041818654921 -0.016683259746536123 0 -0.00010508353424643357 -0.017428263063252621 0 -2.3095061592687461e-07 -0.017413468397110062 0 5.6711599375971089e-05 -0.018368261875248676 0 -0.00015595041818654921 -0.016683259746536123 0 -0.00010508353424643357 -0.017428263063252621 0 -2.3095061592687461e-07 -0.017413468397110062 0 2.0550179728651756e-07 -0.018805229369660559 0 -2.3095061592687461e-07 -0.017413468397110062 0 5.6711599375971089e-05 -0.018368261875248676 0 -0.00010508353424643357 -0.017428263063252621 0 5.6711599375971089e-05 -0.018368261875248676 0 7.2687395052843049e-05 -0.017962738134186026 0 0.00048989338985017095 -0.018866686075134229 0 5.6711599375971089e-05 -0.018368261875248676 0 7.2687395052843049e-05 -0.017962738134186026 0 -0.00010508353424643357 -0.017428263063252621 0 7.2687395052843049e-05 -0.017962738134186026 0 -9.5139385450060485e-05 -0.017197505660200934 0 7.2687395052843049e-05 -0.017962738134186026 0 -9.5139385450060485e-05 -0.017197505660200934 0 0.00019308634722712143 -0.017405374169408287 0 -0.00025629545085197259 -0.01674061883882598 0 -9.5139385450060485e-05 -0.017197505660200934 0 -0.00015191714626254394 -0.016688058651583258 0 -0.00025629545085197259 -0.01674061883882598 0 -0.00010508353424643357 -0.017428263063252621 0 -9.5139385450060485e-05 -0.017197505660200934 0 -9.5139385450060485e-05 -0.017197505660200934 0 -0.00015191714626254394 -0.016688058651583258 0 3.7146025388663455e-05 -0.016795290561710797 0 0.00049771282841947644 -0.016781790965492604 0 3.7146025388663455e-05 -0.016795290561710797 0 0.00019308634722712143 -0.017405374169408287 0 -9.5139385450060485e-05 -0.017197505660200934 0 3.7146025388663455e-05 -0.016795290561710797 0 0.00019308634722712143 -0.017405374169408287 0 0.00049771282841947644 -0.016781790965492604 0 0.00071575156403020604 -0.016240162517029477 0 -5.5745944561989445e-05 -0.016416088031402563 0 0.00049771282841947644 -0.016781790965492604 0 3.7146025388663455e-05 -0.016795290561710797 0 -5.5745944561989445e-05 -0.016416088031402563 0 -0.00015191714626254394 -0.016688058651583258 0 0.00023618439529863986 -0.016059401591257579 0 -0.00030121717922204622 -0.016247656280369827 0 -0.00015191714626254394 -0.016688058651583258 0 3.7146025388663455e-05 -0.016795290561710797 0 -5.5745944561989445e-05 -0.016416088031402563 0 0.00023618439529863986 -0.016059401591257579 0 -0.00010022990366675451 -0.015896165442063615 0 -0.00030121717922204622 -0.016247656280369827 0 -0.00015727213617704167 -0.016702948216738598 0 0.00014458093291583896 -0.016086969805501887 0 0.00023618439529863986 -0.016059401591257579 0 -0.00010022990366675451 -0.015896165442063615 0 3.5108697495616667e-05 -0.015592066723124848 0 -0.00010022990366675451 -0.015896165442063615 0 3.5108697495616667e-05 -0.015592066723124848 0 -0.00021034853619111431 -0.015569041699273365 0 0.00071575156403020604 -0.016240162517029477 0 -5.5745944561989445e-05 -0.016416088031402563 0 0.00026687257727968529 -0.015807170656315744 0 0.00023618439529863986 -0.016059401591257579 0 0.00045481515233969301 -0.015607521274129595 0 3.5108697495616667e-05 -0.015592066723124848 0 0.00014458093291583896 -0.016086969805501887 0 0.00029666543165374567 -0.016552797626977794 0 0.00011007464502018587 -0.015349824352246161 0 8.8211316668808525e-05 -0.015213438002166015 0 1.9580187900389745e-05 -0.015227241296789066 0 0.00029666543165374567 -0.016552797626977794 0 -7.2536556815901626e-05 -0.014895170492797706 0 0.00017041117672073278 -0.015226127416563009 0 8.8211316668808525e-05 -0.015213438002166015 0 9.1944081821502657e-05 -0.015085686582959961 0 0.00017041117672073278 -0.015226127416563009 0 0.00011007464502018587 -0.015349824352246161 0 8.8211316668808525e-05 -0.015213438002166015 0 -7.5891536402166495e-05 -0.015189605485037829 0 5.8822203543514849e-06 -0.015156393738020302 0 1.9580187900389745e-05 -0.015227241296789066 0 -7.5891536402166495e-05 -0.015189605485037829 0 5.8822203543514849e-06 -0.015156393738020302 0 -8.6107651428440305e-05 -0.01512915511456216 0 8.8211316668808525e-05 -0.015213438002166015 0 5.8822203543514849e-06 -0.015156393738020302 0 1.9580187900389745e-05 -0.015227241296789066 0 -7.5891536402166495e-05 -0.015189605485037829 0 1.9580187900389745e-05 -0.015227241296789066 0 -0.00014793232638598687 -0.015277489906498199 0 1.9580187900389745e-05 -0.015227241296789066 0 3.5108697495616667e-05 -0.015592066723124848 0 -0.00014793232638598687 -0.015277489906498199 0 0.00045481515233969301 -0.015607521274129595 0 1.9580187900389745e-05 -0.015227241296789066 0 3.5108697495616667e-05 -0.015592066723124848 0 3.5108697495616667e-05 -0.015592066723124848 0 -0.00021034853619111431 -0.015569041699273365 0 -0.00014793232638598687 -0.015277489906498199 0 -0.00014793232638598687 -0.015277489906498199 0 -0.0006644700968791384 -0.015095469574458677 0 -0.00050301699286031351 -0.015496152819506418 0 -0.00021034853619111431 -0.015569041699273365 0 -0.00014793232638598687 -0.015277489906498199 0 -0.00050301699286031351 -0.015496152819506418 0 -0.0001650841922211421 -0.01525720927436959 0 -0.00046450977764490989 -0.015136531577608687 0 -7.5891536402166495e-05 -0.015189605485037829 0 -0.00014793232638598687 -0.015277489906498199 0 -0.00016036464676558943 -0.015151730368221612 0 -0.00014793232638598687 -0.015277489906498199 0 -0.00016036464676558943 -0.015151730368221612 0 -0.00026541126668944587 -0.015169704165125728 0 -7.5891536402166495e-05 -0.015189605485037829 0 -0.00016036464676558943 -0.015151730368221612 0 -8.6107651428440305e-05 -0.01512915511456216 0 -0.00016036464676558943 -0.015151730368221612 0 -0.00026541126668944587 -0.015169704165125728 0 -0.00020987275819850927 -0.015061710929014087 0 -0.00026541126668944587 -0.015169704165125728 0 -0.00032344140553229388 -0.015040597810523323 0 -0.00020987275819850927 -0.015061710929014087 0 -0.0006644700968791384 -0.015095469574458677 0 -0.00050301699286031351 -0.015496152819506418 0 -0.00098120069996610157 -0.015445333963040469 0 -0.00050301699286031351 -0.015496152819506418 0 -0.00040484556151212513 -0.015870804066149335 0 -0.00082034991352421586 -0.01586491953078949 0 -0.00050301699286031351 -0.015496152819506418 0 -0.00082034991352421586 -0.01586491953078949 0 -0.00098120069996610157 -0.015445333963040469 0 -0.00040484556151212513 -0.015870804066149335 0 -0.00052285669930043465 -0.016147336504336769 0 -0.00082034991352421586 -0.01586491953078949 0 -0.00021034853619111431 -0.015569041699273365 0 -0.00050301699286031351 -0.015496152819506418 0 -0.00040484556151212513 -0.015870804066149335 0 -0.00010022990366675451 -0.015896165442063615 0 -0.00021034853619111431 -0.015569041699273365 0 -0.00040484556151212513 -0.015870804066149335 0 -0.00036233359958481675 -0.016369294897819298 0 -0.00030121717922204622 -0.016247656280369827 0 -0.00052285669930043465 -0.016147336504336769 0 -0.00040484556151212513 -0.015870804066149335 0 -0.00030121717922204622 -0.016247656280369827 0 -0.00052285669930043465 -0.016147336504336769 0 -0.00010022990366675451 -0.015896165442063615 0 -0.00040484556151212513 -0.015870804066149335 0 -0.00030121717922204622 -0.016247656280369827 0 -0.00052285669930043465 -0.016147336504336769 0 -0.00078759585351415354 -0.016277260731415166 0 -0.00082034991352421586 -0.01586491953078949 0 -0.00036233359958481675 -0.016369294897819298 0 -0.00052285669930043465 -0.016147336504336769 0 -0.00078759585351415354 -0.016277260731415166 0 -0.00031056712281910995 -0.015427979124520732 0 -0.00037498192621407547 -0.015757922477702049 0 -0.00031687680619297642 -0.015595963632351717 0 -0.00078759585351415354 -0.016277260731415166 0 -0.0012496926914482981 -0.016067640664558271 0 -0.00082034991352421586 -0.01586491953078949 0 -0.00061678314485195886 -0.016016123744811876 0 -0.00076072120463835391 -0.015982173334785039 0 -0.00076072120463835391 -0.015982173334785039 0 -0.0004952210745811414 -0.013976861783771647 0 -0.00031056712281910995 -0.015427979124520732 0 -0.00031687680619297642 -0.015595963632351717 0 -0.00013266163227501846 -0.015468159413272745 0 -0.0012536598210399796 -0.015729320941981612 0 -0.0015105197151763824 -0.015420259351869196 0 -0.0017136465256967972 -0.015843794179870453 0 -0.0012496926914482981 -0.016067640664558271 0 -0.0012536598210399796 -0.015729320941981612 0 -0.0017136465256967972 -0.015843794179870453 0 -0.0012536598210399796 -0.015729320941981612 0 -0.00082034991352421586 -0.01586491953078949 0 -0.00098120069996610157 -0.015445333963040469 0 -0.0012496926914482981 -0.016067640664558271 0 -0.0012536598210399796 -0.015729320941981612 0 -0.00082034991352421586 -0.01586491953078949 0 -0.0006644700968791384 -0.015095469574458677 0 -0.00098120069996610157 -0.015445333963040469 0 -0.0011179290704035148 -0.015141065139807307 0 -0.00046450977764490989 -0.015136531577608687 0 -0.00080872708147845221 -0.015001504345948349 0 -0.00026541126668944587 -0.015169704165125728 0 -0.00042735806201620838 -0.015077230457533395 0 -0.00032344140553229388 -0.015040597810523323 0 -0.0006644700968791384 -0.015095469574458677 0 -0.0011179290704035148 -0.015141065139807307 0 -0.0012167538421719404 -0.014922325270856792 0 -0.0012167538421719404 -0.014922325270856792 0 -0.0012244308545842747 -0.014916956814289336 0 -0.00099755142723921986 -0.014909915037062373 0 -0.00080872708147845221 -0.015001504345948349 0 -0.00079839284123899338 -0.01493475854060795 0 -0.0011179290704035148 -0.015141065139807307 0 -0.0012167538421719404 -0.014922325270856792 0 -0.0012244308545842747 -0.014916956814289336 0 -0.0011179290704035148 -0.015141065139807307 0 -0.0012244308545842747 -0.014916956814289336 0 -0.0015105197151763824 -0.015420259351869196 0 -0.0012536598210399796 -0.015729320941981612 0 -0.00098120069996610157 -0.015445333963040469 0 -0.0015105197151763824 -0.015420259351869196 0 -0.00098120069996610157 -0.015445333963040469 0 -0.0011179290704035148 -0.015141065139807307 0 -0.0015105197151763824 -0.015420259351869196 0 -0.0012244308545842747 -0.014916956814289336 0 -0.0011163695549662625 -0.014512610923952488 0 -0.0010447774171831444 -0.014766560032597489 0 -0.0011962163230625684 -0.014823292808832163 0 -0.0014258808967174503 -0.015210982297806971 0 -0.0011163695549662625 -0.014512610923952488 0 -0.00090786796658970555 -0.014577651920784728 0 -0.00097234903530438307 -0.014412688558254264 0 -0.0011163695549662625 -0.014512610923952488 0 -0.00090786796658970555 -0.014577651920784728 0 -0.0010447774171831444 -0.014766560032597489 0 -0.00090786796658970555 -0.014577651920784728 0 -0.0010447774171831444 -0.014766560032597489 0 -0.00083008512543583874 -0.014800014056160526 0 -0.00099755142723921986 -0.014909915037062373 0 -0.0010447774171831444 -0.014766560032597489 0 -0.00083008512543583874 -0.014800014056160526 0 -0.0012244308545842747 -0.014916956814289336 0 -0.00099755142723921986 -0.014909915037062373 0 -0.0010447774171831444 -0.014766560032597489 0 -0.00099755142723921986 -0.014909915037062373 0 -0.00083008512543583874 -0.014800014056160526 0 -0.00076309297324552794 -0.014850705704286473 0 -0.0010467936926425534 -0.013993467515799385 0 -0.00087748313306234465 -0.014309314291976807 0 -0.00090786796658970555 -0.014577651920784728 0 -0.00083008512543583874 -0.014800014056160526 0 -0.00076326156385323396 -0.014667503409790133 0 -0.00090786796658970555 -0.014577651920784728 0 -0.00076326156385323396 -0.014667503409790133 0 -0.00090722091429505213 -0.014290397790138203 0 -0.0011262995037094391 -0.013614891431797867 0 -0.0012192803408850052 -0.014063551604366413 0 -0.00090722091429505213 -0.014290397790138203 0 -0.0012192803408850052 -0.014063551604366413 0 -0.00087657963553224635 -0.014319649559861741 0 -0.00090722091429505213 -0.014290397790138203 0 -0.00031039089183786919 -0.012059439183882158 0 -0.0004952210745811414 -0.013976861783771647 0 0.00053270653915173658 -0.010425624439969429 0 0.001100069571658284 -0.010724965067981922 0 0.00071252815234807006 -0.010820169575061839 0 -0.00090786796658970555 -0.014577651920784728 0 -0.00097234903530438307 -0.014412688558254264 0 -0.00090722091429505213 -0.014290397790138203 0 -0.00097234903530438307 -0.014412688558254264 0 -0.00087657963553224635 -0.014319649559861741 0 -0.00090722091429505213 -0.014290397790138203 0 -0.0011163695549662625 -0.014512610923952488 0 -0.00097234903530438307 -0.014412688558254264 0 -0.00087657963553224635 -0.014319649559861741 0 -0.0014258808967174503 -0.015210982297806971 0 -0.0004952210745811414 -0.013976861783771647 0 0.00065504370965529146 -0.013074994551374588 0 -0.0004952210745811414 -0.013976861783771647 0 -0.00031687680619297642 -0.015595963632351717 0 -4.0447910067612836e-05 -0.015727468644120925 0 -0.00013266163227501846 -0.015468159413272745 0 0.00018697180519206103 -0.015327224253936787 0 -4.0447910067612836e-05 -0.015727468644120925 0 -0.00013266163227501846 -0.015468159413272745 0 0.00086518995602273649 -0.011211931985925292 0 0.001100069571658284 -0.010724965067981922 0 0.00071252815234807006 -0.010820169575061839 0 0.00086518995602273649 -0.011211931985925292 0 0.00071252815234807006 -0.010820169575061839 0 0.00024449347963261556 -0.010981760329714246 0 -0.00050092293457160099 -0.014693630372029672 0 -0.00048079276875513812 -0.014699642550938204 0 -0.00051000730610544745 -0.01465854792495962 0 -0.00050092293457160099 -0.014693630372029672 0 -0.00047673852849369156 -0.014710061286252454 0 -0.00048079276875513812 -0.014699642550938204 0 -0.00050092293457160099 -0.014693630372029672 0 -0.00047673852849369156 -0.014710061286252454 0 -0.00048096161229697562 -0.014736955105622354 0 -0.00047673852849369156 -0.014710061286252454 0 -0.0004582848148234703 -0.014709180183416756 0 -0.00046958026020541417 -0.014702626474395844 0 -0.00047673852849369156 -0.014710061286252454 0 -0.00044819585829311917 -0.014744890720793141 0 -0.0004582848148234703 -0.014709180183416756 0 -0.00047673852849369156 -0.014710061286252454 0 -0.00048096161229697562 -0.014736955105622354 0 -0.00044819585829311917 -0.014744890720793141 0 -0.00048096161229697562 -0.014736955105622354 0 -0.00050495227358947532 -0.014732404408813831 0 -0.00045077832673119878 -0.014831251811883975 0 -0.00048096161229697562 -0.014736955105622354 0 -0.00045077832673119878 -0.014831251811883975 0 -0.00044819585829311917 -0.014744890720793141 0 -0.00050092293457160099 -0.014693630372029672 0 -0.00048096161229697562 -0.014736955105622354 0 -0.00050495227358947532 -0.014732404408813831 0 -0.00069356448963900396 -0.014660472056488448 0 -0.00065138309192220396 -0.01481021563949866 0 -0.00074246550123946149 -0.014748640892267436 0 -0.00059524960980765441 -0.014971095211024113 0 -0.00065138309192220396 -0.01481021563949866 0 -0.00076309297324552794 -0.014850705704286473 0 -0.00065138309192220396 -0.01481021563949866 0 -0.00074246550123946149 -0.014748640892267436 0 -0.00076309297324552794 -0.014850705704286473 0 -0.00079839284123899338 -0.01493475854060795 0 -0.00076947601148927053 -0.014871137124146202 0 -0.00059524960980765441 -0.014971095211024113 0 -0.00065138309192220396 -0.01481021563949866 0 -0.00049409552444249231 -0.014789670246808027 0 -0.00035818927885293285 -0.0154786248787285 0 -0.00054558388964175467 -0.014688095618159236 0 -0.00069356448963900396 -0.014660472056488448 0 -0.00065138309192220396 -0.01481021563949866 0 -0.00049409552444249231 -0.014789670246808027 0 -0.00042735806201620838 -0.015077230457533395 0 -0.00059524960980765441 -0.014971095211024113 0 -0.00042628117122320026 -0.014950703622965484 0 -0.00059524960980765441 -0.014971095211024113 0 -0.00049409552444249231 -0.014789670246808027 0 -0.00042628117122320026 -0.014950703622965484 0 -0.00042628117122320026 -0.014950703622965484 0 -0.00032344140553229388 -0.015040597810523323 0 -0.00028623251341726441 -0.014946541011986759 0 -0.00042735806201620838 -0.015077230457533395 0 -0.00042628117122320026 -0.014950703622965484 0 -0.00032344140553229388 -0.015040597810523323 0 -0.00045077832673119878 -0.014831251811883975 0 -0.00037945474696610051 -0.0147873203410502 0 -0.00028623251341726441 -0.014946541011986759 0 -0.00037945474696610051 -0.0147873203410502 0 -0.00025333017878639965 -0.014809286362614093 0 -0.00028623251341726441 -0.014946541011986759 0 -0.00054558388964175467 -0.014688095618159236 0 -0.00025716605630451522 -0.014970666101159222 0 -0.00049409552444249231 -0.014789670246808027 0 -0.00042628117122320026 -0.014950703622965484 0 -0.00028623251341726441 -0.014946541011986759 0 -0.00021980765446134802 -0.014897994686568172 0 -0.00016642320403645607 -0.014940496096405237 0 -0.00037945474696610051 -0.0147873203410502 0 -0.00036732958299390587 -0.01471500910040854 0 -0.00025333017878639965 -0.014809286362614093 0 -0.00045077832673119878 -0.014831251811883975 0 -0.00037945474696610051 -0.0147873203410502 0 -0.00044819585829311917 -0.014744890720793141 0 -0.00037945474696610051 -0.0147873203410502 0 -0.00044819585829311917 -0.014744890720793141 0 -0.00042355849744942365 -0.014726473314353197 0 -0.00021980765446134802 -0.014897994686568172 0 -0.00028722157943161401 -0.014928064257777049 0 -0.00036732958299390587 -0.01471500910040854 0 -0.00045604768065507094 -0.01469303948767758 0 -0.00044916189922020205 -0.01470320534124878 0 -0.00042355849744942365 -0.014726473314353197 0 -0.00036732958299390587 -0.01471500910040854 0 -0.00044916189922020205 -0.01470320534124878 0 -0.00044819585829311917 -0.014744890720793141 0 -0.00042355849744942365 -0.014726473314353197 0 -0.0004582848148234703 -0.014709180183416756 0 -0.00042355849744942365 -0.014726473314353197 0 -0.0004582848148234703 -0.014709180183416756 0 -0.00044916189922020205 -0.01470320534124878 0 -0.0004582848148234703 -0.014709180183416756 0 -0.00046170942122065268 -0.014702370703342502 0 -0.00044916189922020205 -0.01470320534124878 0 -7.5838718017914698e-05 -0.015084589074326136 0 -7.8309500895825047e-05 -0.015089666079706021 0 -7.8025319137258449e-05 -0.015083965221832292 0 -0.00037945474696610051 -0.0147873203410502 0 -0.00042355849744942365 -0.014726473314353197 0 -0.00036732958299390587 -0.01471500910040854 0 -8.9079640364876026e-05 -0.015081537058912572 0 -7.9170571015872636e-05 -0.015081333718275565 0 -7.8309500895825047e-05 -0.015089666079706021 0 -7.5838718017914698e-05 -0.015084589074326136 0 -7.9170571015872636e-05 -0.015081333718275565 0 -7.8309500895825047e-05 -0.015089666079706021 0 0.00019083314489917182 -0.014846303051525346 0 6.6106112112402533e-06 -0.015268437619511011 0 -8.9079640364876026e-05 -0.015081537058912572 0 -0.00010721512350472085 -0.015066457471759756 0 -0.00010759479307450681 -0.015092902482460299 0 -8.9079640364876026e-05 -0.015081537058912572 0 -0.00010759479307450681 -0.015092902482460299 0 -7.8309500895825047e-05 -0.015089666079706021 0 -7.5838718017914698e-05 -0.015084589074326136 0 -7.9170571015872636e-05 -0.015081333718275565 0 -7.5154986897767452e-05 -0.015065362366531266 0 -8.9079640364876026e-05 -0.015081537058912572 0 -0.00010721512350472085 -0.015066457471759756 0 -7.5154986897767452e-05 -0.015065362366531266 0 -8.9079640364876026e-05 -0.015081537058912572 0 -7.9170571015872636e-05 -0.015081333718275565 0 -7.5154986897767452e-05 -0.015065362366531266 0 -0.00025333017878639965 -0.014809286362614093 0 -0.00020629162425148513 -0.014984399774955541 0 -0.00011968145165156173 -0.01500346401989943 0 -0.00025333017878639965 -0.014809286362614093 0 -0.00020629162425148513 -0.014984399774955541 0 -0.00028623251341726441 -0.014946541011986759 0 -0.00016642320403645607 -0.014940496096405237 0 -0.00012337132334300311 -0.014994527535109161 0 -0.00032344140553229388 -0.015040597810523323 0 -0.00028623251341726441 -0.014946541011986759 0 -0.00020987275819850927 -0.015061710929014087 0 -0.00020629162425148513 -0.014984399774955541 0 -0.00020987275819850927 -0.015061710929014087 0 -0.00015070051716300578 -0.01503163645870559 0 -0.00020629162425148513 -0.014984399774955541 0 -0.00028623251341726441 -0.014946541011986759 0 -0.00020987275819850927 -0.015061710929014087 0 -0.00016036464676558943 -0.015151730368221612 0 -8.6107651428440305e-05 -0.01512915511456216 0 -0.00013401268904436991 -0.015077976485141326 0 -8.6107651428440305e-05 -0.01512915511456216 0 -0.00013401268904436991 -0.015077976485141326 0 -4.468712351410161e-05 -0.015094639462003831 0 -0.00016036464676558943 -0.015151730368221612 0 -0.00020987275819850927 -0.015061710929014087 0 -0.00013401268904436991 -0.015077976485141326 0 -0.00020987275819850927 -0.015061710929014087 0 -0.00013401268904436991 -0.015077976485141326 0 -0.00015070051716300578 -0.01503163645870559 0 -0.00013401268904436991 -0.015077976485141326 0 -0.00015070051716300578 -0.01503163645870559 0 -0.00010595557954185313 -0.015032046700399313 0 -0.00013401268904436991 -0.015077976485141326 0 -0.00010595557954185313 -0.015032046700399313 0 -4.468712351410161e-05 -0.015094639462003831 0 -0.00015070051716300578 -0.01503163645870559 0 -0.00010595557954185313 -0.015032046700399313 0 -0.00011968145165156173 -0.01500346401989943 0 -0.00010721512350472085 -0.015066457471759756 0 -0.00011968145165156173 -0.01500346401989943 0 -0.00011443429940774616 -0.015049751711436984 0 -0.00010721512350472085 -0.015066457471759756 0 -7.5154986897767452e-05 -0.015065362366531266 0 -0.00011968145165156173 -0.01500346401989943 0 -0.00010595557954185313 -0.015032046700399313 0 -0.00011968145165156173 -0.01500346401989943 0 -0.00011443429940774616 -0.015049751711436984 0 -0.00020629162425148513 -0.014984399774955541 0 -0.00015070051716300578 -0.01503163645870559 0 -0.00011968145165156173 -0.01500346401989943 0 -0.00010595557954185313 -0.015032046700399313 0 -0.00011486983846667829 -0.015073991157769117 0 -0.00011546967130441082 -0.015100244420891746 0 -0.00011443429940774616 -0.015049751711436984 0 -0.00011486983846667829 -0.015073991157769117 0 -0.00011417645621606389 -0.015082838171084443 0 -0.00010595557954185313 -0.015032046700399313 0 -0.00011443429940774616 -0.015049751711436984 0 -0.00011486983846667829 -0.015073991157769117 0 5.8822203543514849e-06 -0.015156393738020302 0 -4.468712351410161e-05 -0.015094639462003831 0 9.1944081821502657e-05 -0.015085686582959961 0 -0.00010595557954185313 -0.015032046700399313 0 -4.468712351410161e-05 -0.015094639462003831 0 9.1944081821502657e-05 -0.015085686582959961 0 -0.00013690293424631114 -0.015137413878498793 0 7.5878088465937288e-05 -0.014698681264639678 0 5.8822203543514849e-06 -0.015156393738020302 0 -8.6107651428440305e-05 -0.01512915511456216 0 -4.468712351410161e-05 -0.015094639462003831 0 8.8211316668808525e-05 -0.015213438002166015 0 5.8822203543514849e-06 -0.015156393738020302 0 9.1944081821502657e-05 -0.015085686582959961 0 -0.00011546967130441082 -0.015100244420891746 0 -0.00011320032181987289 -0.015096256371535898 0 -0.0001030900924580644 -0.01511555483428588 0 -0.00011486983846667829 -0.015073991157769117 0 -0.00011546967130441082 -0.015100244420891746 0 -0.00011320032181987289 -0.015096256371535898 0 -0.00011320032181987289 -0.015096256371535898 0 -0.0001126454960490936 -0.015108498694883506 0 -0.0001030900924580644 -0.01511555483428588 0 -0.00011320032181987289 -0.015096256371535898 0 -0.00011417645621606389 -0.015082838171084443 0 -0.0001126454960490936 -0.015108498694883506 0 -0.00010721512350472085 -0.015066457471759756 0 -0.00011417645621606389 -0.015082838171084443 0 -0.00010759479307450681 -0.015092902482460299 0 -0.00010721512350472085 -0.015066457471759756 0 -0.00011443429940774616 -0.015049751711436984 0 -0.00011417645621606389 -0.015082838171084443 0 -0.00011486983846667829 -0.015073991157769117 0 -0.00011320032181987289 -0.015096256371535898 0 -0.00011417645621606389 -0.015082838171084443 0 0.00043030553638926685 -0.0154605496275576 0 0.00088339839012039614 -0.0156316889537726 0 0.0006883713703733879 -0.015286828257404027 0 0.00019083314489917182 -0.014846303051525346 0 -4.5167644466784676e-05 -0.018486853924200134 0 -0.00011417645621606389 -0.015082838171084443 0 -0.00010759479307450681 -0.015092902482460299 0 -0.0001126454960490936 -0.015108498694883506 0 -4.5167644466784676e-05 -0.018486853924200134 0 0.00021805936248165783 -0.019064285172299716 0 -0.00064028526760729059 -0.022056915997857349 0 -0.00031566125487285406 -0.022668066157690313 0 -0.00079370306878734733 -0.022342431937566836 0 -0.00031566125487285406 -0.022668066157690313 0 -0.00071180416868708992 -0.022811725870309142 0 -0.00045866772411801371 -0.023251072250297978 0 -0.00031566125487285406 -0.022668066157690313 0 -0.00071180416868708992 -0.022811725870309142 0 -0.00079370306878734733 -0.022342431937566836 0 0.00021805936248165783 -0.019064285172299716 0 0.00023567771864322601 -0.018950365410444505 0 0.0006883713703733879 -0.015286828257404027 0 0.00048986243430033472 -0.014987200165847828 0 0.00040015568333028382 -0.015198048385129849 0 0.00043030553638926685 -0.0154605496275576 0 0.0006883713703733879 -0.015286828257404027 0 0.00040015568333028382 -0.015198048385129849 0 -0.0001128887565147153 -0.02323527421186667 0 -0.00045866772411801371 -0.023251072250297978 0 -0.00028541391454341738 -0.023679553779986859 0 -0.00031566125487285406 -0.022668066157690313 0 -0.0001128887565147153 -0.02323527421186667 0 -0.00045866772411801371 -0.023251072250297978 0 -0.00071180416868708992 -0.022811725870309142 0 -0.00045866772411801371 -0.023251072250297978 0 -0.00097251469630426095 -0.023170549212922383 0 -0.00045866772411801371 -0.023251072250297978 0 -0.00048570295265157223 -0.023774337647476822 0 -0.00097251469630426095 -0.023170549212922383 0 -0.00045866772411801371 -0.023251072250297978 0 -0.00048570295265157223 -0.023774337647476822 0 -0.00028541391454341738 -0.023679553779986859 0 -0.00048570295265157223 -0.023774337647476822 0 -0.0003930626057836438 -0.023736778416104692 0 -0.00028541391454341738 -0.023679553779986859 0 -0.00048570295265157223 -0.023774337647476822 0 -0.0003930626057836438 -0.023736778416104692 0 -0.00034818272997881708 -0.023787594038862568 0 -0.0003930626057836438 -0.023736778416104692 0 -0.00034818272997881708 -0.023787594038862568 0 -0.00029591252223835077 -0.023728409916800728 0 -0.00038462964735673223 -0.023672679676060921 0 -0.00028541391454341738 -0.023679553779986859 0 -0.00044657930389914717 -0.02371497351405245 0 -0.0003930626057836438 -0.023736778416104692 0 -0.00038462964735673223 -0.023672679676060921 0 -0.00028541391454341738 -0.023679553779986859 0 0.00014604054345747878 -0.023594581704995642 0 -0.00088728800898269498 -0.020437017595851169 0 -0.0001128887565147153 -0.02323527421186667 0 -0.00028541391454341738 -0.023679553779986859 0 0.00013278360068073237 -0.02372331226881811 0 0.00030439767240690585 -0.014718864429396478 0 7.5998428973017589e-05 -0.014816831153657964 0 0.00019337046923683407 -0.015022246996969984 0 0.00023567771864322601 -0.018950365410444505 0 -0.00088728800898269498 -0.020437017595851169 0 -0.00038462964735673223 -0.023672679676060921 0 -0.00044657930389914717 -0.02371497351405245 0 -0.00047191106710638505 -0.023605086727982293 0 -0.00088728800898269498 -0.020437017595851169 0 -0.001403016675302465 -0.022103824615122673 0 -0.00044657930389914717 -0.02371497351405245 0 -0.00047191106710638505 -0.023605086727982293 0 -0.00060982179341613333 -0.023594788314044966 0 -0.0026733580784586704 -0.019294102992331391 0 -0.0014893465291362709 -0.019497975870480987 0 -0.0021103834135574352 -0.020266678017786029 0 0.00030439767240690585 -0.014718864429396478 0 7.5998428973017589e-05 -0.014816831153657964 0 -5.2913369641716961e-05 -0.014629182847030521 0 -0.00088728800898269498 -0.020437017595851169 0 -0.0009822519101913682 -0.016603305297183023 0 7.5998428973017589e-05 -0.014816831153657964 0 0.00019337046923683407 -0.015022246996969984 0 -8.602037027875657e-05 -0.014923316600444049 0 0.00019337046923683407 -0.015022246996969984 0 -3.3685304497688288e-05 -0.015098588833883628 0 -8.602037027875657e-05 -0.014923316600444049 0 0.00048986243430033472 -0.014987200165847828 0 0.00019337046923683407 -0.015022246996969984 0 0.00040015568333028382 -0.015198048385129849 0 0.00048986243430033472 -0.014987200165847828 0 0.00030439767240690585 -0.014718864429396478 0 0.00019337046923683407 -0.015022246996969984 0 0.00019337046923683407 -0.015022246996969984 0 0.00040015568333028382 -0.015198048385129849 0 0.00020199537990128904 -0.015209434984347479 0 0.00043030553638926685 -0.0154605496275576 0 0.00020199537990128904 -0.015209434984347479 0 3.5490705463123791e-05 -0.015278787229953418 0 0.00043030553638926685 -0.0154605496275576 0 0.00040015568333028382 -0.015198048385129849 0 0.00020199537990128904 -0.015209434984347479 0 0.00020199537990128904 -0.015209434984347479 0 3.5490705463123791e-05 -0.015278787229953418 0 -3.3685304497688288e-05 -0.015098588833883628 0 0.00019337046923683407 -0.015022246996969984 0 0.00020199537990128904 -0.015209434984347479 0 -3.3685304497688288e-05 -0.015098588833883628 0 6.6106112112402533e-06 -0.015268437619511011 0 -0.00028722157943161401 -0.014928064257777049 0 3.5490705463123791e-05 -0.015278787229953418 0 -0.00016598504243078277 -0.015084198830254062 0 -0.00032509184639117081 -0.015105797497707019 0 -0.00016598504243078277 -0.015084198830254062 0 -3.3685304497688288e-05 -0.015098588833883628 0 -0.00019279364550548651 -0.01498040799671802 0 3.5490705463123791e-05 -0.015278787229953418 0 -0.00016598504243078277 -0.015084198830254062 0 -3.3685304497688288e-05 -0.015098588833883628 0 -0.00028722157943161401 -0.014928064257777049 0 -0.00048624906807625856 -0.014766710310742207 0 -0.00046962784225752568 -0.014694807399232172 0 -0.00046694856315931564 -0.014697748578602661 0 -0.00046225809524824587 -0.014763422933255549 0 -0.00032509184639117081 -0.015105797497707019 0 -0.00030952137871593735 -0.014951050912833774 0 -0.00046225809524824587 -0.014763422933255549 0 -0.00046170942122065268 -0.014702370703342502 0 -0.00046694856315931564 -0.014697748578602661 0 -0.00046958026020541417 -0.014702626474395844 0 -0.0004582848148234703 -0.014709180183416756 0 -0.00046170942122065268 -0.014702370703342502 0 -0.00046958026020541417 -0.014702626474395844 0 -0.00046170942122065268 -0.014702370703342502 0 -0.00044916189922020205 -0.01470320534124878 0 -0.00046694856315931564 -0.014697748578602661 0 -0.00045604768065507094 -0.01469303948767758 0 -0.00044916189922020205 -0.01470320534124878 0 -0.00046694856315931564 -0.014697748578602661 0 -0.00028722157943161401 -0.014928064257777049 0 -0.00031629257850758681 -0.014913989018995056 0 -0.00016598504243078277 -0.015084198830254062 0 -0.00032509184639117081 -0.015105797497707019 0 -0.00030952137871593735 -0.014951050912833774 0 -0.00016598504243078277 -0.015084198830254062 0 -0.00030952137871593735 -0.014951050912833774 0 -0.00019279364550548651 -0.01498040799671802 0 -0.00030952137871593735 -0.014951050912833774 0 -0.00029805697715427546 -0.014838915514684642 0 -0.00046225809524824587 -0.014763422933255549 0 -0.00030952137871593735 -0.014951050912833774 0 -0.00029805697715427546 -0.014838915514684642 0 -0.00019279364550548651 -0.01498040799671802 0 -0.00029805697715427546 -0.014838915514684642 0 -8.602037027875657e-05 -0.014923316600444049 0 -0.00021641324063343439 -0.014732221753345556 0 -0.00029805697715427546 -0.014838915514684642 0 -0.00019279364550548651 -0.01498040799671802 0 -8.602037027875657e-05 -0.014923316600444049 0 -3.3685304497688288e-05 -0.015098588833883628 0 -0.00019279364550548651 -0.01498040799671802 0 -8.602037027875657e-05 -0.014923316600444049 0 -0.00021641324063343439 -0.014732221753345556 0 -5.2913369641716961e-05 -0.014629182847030521 0 -0.00034253893617401513 -0.014576813290243797 0 7.5998428973017589e-05 -0.014816831153657964 0 -0.00021641324063343439 -0.014732221753345556 0 -5.2913369641716961e-05 -0.014629182847030521 0 7.5998428973017589e-05 -0.014816831153657964 0 -8.602037027875657e-05 -0.014923316600444049 0 -0.00021641324063343439 -0.014732221753345556 0 -0.0014893465291362709 -0.019497975870480987 0 -0.00064155348836427903 -0.019844956832008855 0 -0.00080093469524799914 -0.020191241190627179 0 -0.0014893465291362709 -0.019497975870480987 0 -0.0021103834135574352 -0.020266678017786029 0 -0.00080093469524799914 -0.020191241190627179 0 -0.0009822519101913682 -0.016603305297183023 0 -0.0001623502294803684 -0.017809106152007433 0 -0.00064155348836427903 -0.019844956832008855 0 -0.0006683213368718525 -0.020001651794279884 0 -0.00080093469524799914 -0.020191241190627179 0 -0.00029805697715427546 -0.014838915514684642 0 -0.00021641324063343439 -0.014732221753345556 0 -0.00044663099012043567 -0.014666117440520076 0 -0.00021641324063343439 -0.014732221753345556 0 -0.00034253893617401513 -0.014576813290243797 0 -0.00044663099012043567 -0.014666117440520076 0 -0.00034253893617401513 -0.014576813290243797 0 -0.00044663099012043567 -0.014666117440520076 0 -0.00051899588391374207 -0.014547533775674443 0 -0.00064155348836427903 -0.019844956832008855 0 -0.00060310944676196065 -0.019895917710986689 0 -0.0006683213368718525 -0.020001651794279884 0 -0.0001623502294803684 -0.017809106152007433 0 -0.0015938749674210861 -0.012522050105954311 0 -0.0041710181841665417 -0.0072344961631217392 0 -0.0034739194420748357 -0.0056863383620534436 0 -0.003095727956420049 -0.0068609875814801321 0 -0.0015938749674210861 -0.012522050105954311 0 -0.002888328041849663 -0.0075817395658708871 0 -0.0041710181841665417 -0.0072344961631217392 0 -0.002718436326605417 -0.0075767868370684617 0 -0.003095727956420049 -0.0068609875814801321 0 -0.0041710181841665417 -0.0072344961631217392 0 -0.0034739194420748357 -0.0056863383620534436 0 -0.0033309146505677177 -0.0050223871836920881 0 -0.00044663099012043567 -0.014666117440520076 0 -0.00051899588391374207 -0.014547533775674443 0 -0.00052659637204844083 -0.014666544122802863 0 -0.0015938749674210861 -0.012522050105954311 0 -0.0019850840680190468 -0.0095477500600942809 0 -0.00049214180803807349 -0.01470392599668347 0 -0.00052659637204844083 -0.014666544122802863 0 -0.00046225809524824587 -0.014763422933255549 0 -0.00029805697715427546 -0.014838915514684642 0 -0.00044663099012043567 -0.014666117440520076 0 -0.00046225809524824587 -0.014763422933255549 0 -0.00044663099012043567 -0.014666117440520076 0 -0.00052659637204844083 -0.014666544122802863 0 -0.00046225809524824587 -0.014763422933255549 0 -0.00046694856315931564 -0.014697748578602661 0 -0.00046225809524824587 -0.014763422933255549 0 -0.00046958026020541417 -0.014702626474395844 0 -0.00049214180803807349 -0.01470392599668347 0 -0.00046225809524824587 -0.014763422933255549 0 -0.00048079276875513812 -0.014699642550938204 0 -0.00046225809524824587 -0.014763422933255549 0 -0.00046958026020541417 -0.014702626474395844 0 -0.00048079276875513812 -0.014699642550938204 0 -0.00047673852849369156 -0.014710061286252454 0 -0.00046958026020541417 -0.014702626474395844 0 -0.00048079276875513812 -0.014699642550938204 0 -0.00049214180803807349 -0.01470392599668347 0 -0.00048079276875513812 -0.014699642550938204 0 -0.00051000730610544745 -0.01465854792495962 0 -4.8627311760729977e-08 -0.024999811371123892 0 -1.323387102136353e-07 -0.02499974591572245 0 -0.00013018420712601592 -0.024827104673022109 0 5.6616953910254865e-05 -0.024923226248179383 0 6.081666362599838e-05 -0.024940158524710477 0 -9.113154416919146e-06 -0.024964313635586665 0 5.6616953910254865e-05 -0.024923226248179383 0 -9.113154416919146e-06 -0.024964313635586665 0 -2.1625755944877114e-05 -0.024928534290058854 0 5.6616953910254865e-05 -0.024923226248179383 0 6.081666362599838e-05 -0.024940158524710477 0 8.0240404340744728e-05 -0.024903391473681005 0 5.6616953910254865e-05 -0.024923226248179383 0 8.7965161187743886e-05 -0.024892330732531102 0 8.0240404340744728e-05 -0.024903391473681005 0 6.081666362599838e-05 -0.024940158524710477 0 8.0240404340744728e-05 -0.024903391473681005 0 7.7684635712998854e-05 -0.024906065004616382 0 2.1389231448709795e-05 -0.024962607940051944 0 3.3322617259522138e-05 -0.024961112717967051 0 2.4402346045036726e-05 -0.024979786185140747 0 3.9331501588220977e-05 -0.024950749593665257 0 6.4177152333261272e-05 -0.024925001772583208 0 2.1389231448709795e-05 -0.024962607940051944 0 3.3322617259522138e-05 -0.024961112717967051 0 4.8527235376275617e-05 -0.024941289994921199 0 3.9331501588220977e-05 -0.024950749593665257 0 -1.0981203046494302e-06 -0.024973420503854028 0 2.1389231448709795e-05 -0.024962607940051944 0 5.4861635204491222e-06 -0.02498254844998575 0 1.2595111136461174e-05 -0.02498068665876059 0 5.4861635204491222e-06 -0.02498254844998575 0 1.2595111136461174e-05 -0.02498068665876059 0 2.682839900625842e-06 -0.024991822627176606 0 -2.3350331325560117e-09 -0.024999985726400858 0 3.6535639706540749e-09 -0.024999988162769136 0 2.682839900625842e-06 -0.024991822627176606 0 5.4861635204491222e-06 -0.02498254844998575 0 -2.3350331325560117e-09 -0.024999985726400858 0 2.682839900625842e-06 -0.024991822627176606 0 -1.0981203046494302e-06 -0.024973420503854028 0 -5.012808663460568e-09 -0.024999988463703111 0 -9.113154416919146e-06 -0.024964313635586665 0 -1.323387102136353e-07 -0.02499974591572245 0 -2.1625755944877114e-05 -0.024928534290058854 0 -1.323387102136353e-07 -0.02499974591572245 0 -2.1625755944877114e-05 -0.024928534290058854 0 -0.00013018420712601592 -0.024827104673022109 0 -2.1625755944877114e-05 -0.024928534290058854 0 -0.00013018420712601592 -0.024827104673022109 0 0.00011847694487626314 -0.024864090429514679 0 0.00018773988229137334 -0.024516125657500595 0 -0.00013018420712601592 -0.024827104673022109 0 0.00011847694487626314 -0.024864090429514679 0 5.6616953910254865e-05 -0.024923226248179383 0 -2.1625755944877114e-05 -0.024928534290058854 0 0.00011847694487626314 -0.024864090429514679 0 8.7965161187743886e-05 -0.024892330732531102 0 0.00011847694487626314 -0.024864090429514679 0 9.0542974995103616e-05 -0.024884588307921559 0 5.6616953910254865e-05 -0.024923226248179383 0 8.7965161187743886e-05 -0.024892330732531102 0 0.00011847694487626314 -0.024864090429514679 0 0.00011847694487626314 -0.024864090429514679 0 8.3926742083602327e-05 -0.024890455358353644 0 9.0542974995103616e-05 -0.024884588307921559 0 0.00020791184407314002 -0.025089127536907299 0 0.00030978455282644008 -0.023918242955756425 0 0.00063292293805830276 -0.024509687225704836 0 0.00011847694487626314 -0.024864090429514679 0 0.00086529205920814992 -0.024891369086006081 0 0.00063292293805830276 -0.024509687225704836 0 0.00018773988229137334 -0.024516125657500595 0 0.00011847694487626314 -0.024864090429514679 0 0.00069407549536710633 -0.024498803916237783 0 0.00030978455282644008 -0.023918242955756425 0 0.00080988633558656039 -0.024450669360220806 0 0.00075674086332439526 -0.024453964543919158 0 0.00078074529010617954 -0.024283643242038216 0 -0.0007853373109041015 -0.02230190810547578 0 0.00030978455282644008 -0.023918242955756425 0 0.00079659323980219455 -0.024247159825792602 0 0.00080988633558656039 -0.024450669360220806 0 0.00078074529010617954 -0.024283643242038216 0 0.00026513728735470614 -0.021857761418564426 0 -0.0007853373109041015 -0.02230190810547578 0 0.00061394586521891525 -0.024260493740644883 0 0.00075674086332439526 -0.024453964543919158 0 0.00078074529010617954 -0.024283643242038216 0 -0.00048526637253343789 -0.01959203486233237 0 -0.00024863399766567582 -0.01933672145910716 0 0.00020227650492068451 -0.019580719756757552 0 -0.00051744550653949075 -0.019220258554221516 0 -0.00048526637253343789 -0.01959203486233237 0 -0.00024863399766567582 -0.01933672145910716 0 -0.0007853373109041015 -0.02230190810547578 0 -0.00032843227349281355 -0.018302646249141352 0 -0.00053690962029134879 -0.023435954092964045 0 0.00013446803765557674 -0.025368461496067109 0 -0.0019740297503795215 -0.020863778711676616 0 -0.0015388684101865374 -0.021097160497495632 0 -0.001086715675729825 -0.02084441557888778 0 -0.0019740297503795215 -0.020863778711676616 0 -0.0019450709388514275 -0.021114271975034033 0 -0.0015388684101865374 -0.021097160497495632 0 -0.0019450709388514275 -0.021114271975034033 0 -0.0015388684101865374 -0.021097160497495632 0 -0.0014922594888022382 -0.021564852799070916 0 7.9811127992815116e-05 -0.02488515135135028 0 8.3749488517179997e-05 -0.024888836818306257 0 9.0542974995103616e-05 -0.024884588307921559 0 7.9811127992815116e-05 -0.02488515135135028 0 8.3749488517179997e-05 -0.024888836818306257 0 7.1717989582795554e-05 -0.024882589777889562 0 8.7965161187743886e-05 -0.024892330732531102 0 8.3749488517179997e-05 -0.024888836818306257 0 9.0542974995103616e-05 -0.024884588307921559 0 -0.00056468713622323378 -0.023169854603165334 0 -0.00064018931493998142 -0.023169898289234298 0 -0.00054878658386327403 -0.023325781767493715 0 -0.0007853373109041015 -0.02230190810547578 0 -0.00053690962029134879 -0.023435954092964045 0 0.00030978455282644008 -0.023918242955756425 0 -0.00053690962029134879 -0.023435954092964045 0 8.3926742083602327e-05 -0.024890455358353644 0 7.9811127992815116e-05 -0.02488515135135028 0 9.0542974995103616e-05 -0.024884588307921559 0 7.5878088465937288e-05 -0.014698681264639678 0 -0.00032843227349281355 -0.018302646249141352 0 0.00017041117672073278 -0.015226127416563009 0 9.1944081821502657e-05 -0.015085686582959961 0 0.00021891638219973141 -0.015133826878253055 0 0.0002721064079244833 -0.016954994854498685 0 -0.00032843227349281355 -0.018302646249141352 0 -0.00019069378612325056 -0.018958993641165878 0 -0.00024863399766567582 -0.01933672145910716 0 0.00020227650492068451 -0.019580719756757552 0 4.7958943257771171e-05 -0.019447916782757636 0 -0.00032843227349281355 -0.018302646249141352 0 -0.0015388684101865374 -0.021097160497495632 0 -0.001086715675729825 -0.02084441557888778 0 -0.0014922594888022382 -0.021564852799070916 0 -0.0010338567753549483 -0.020626878079650406 0 -0.00060486035333791918 -0.021353574649127963 0 -0.0010474410094087484 -0.021416983456265373 0 -0.0010338567753549483 -0.020626878079650406 0 -0.0010474410094087484 -0.021416983456265373 0 -0.0014922594888022382 -0.021564852799070916 0 -0.00032843227349281355 -0.018302646249141352 0 -0.0018663292177209078 -0.022474325158489208 0 -0.00011546967130441082 -0.015100244420891746 0 -8.954301546726433e-05 -0.015152329984350449 0 -0.0001030900924580644 -0.01511555483428588 0 -0.00032843227349281355 -0.018302646249141352 0 -0.00041075455945988374 -0.018155193894720631 0 -0.00021707297875534927 -0.021970837518054998 0 -0.00060486035333791918 -0.021353574649127963 0 -0.00081344974853003781 -0.021867329118104059 0 -4.5167644466784676e-05 -0.018486853924200134 0 -0.00041075455945988374 -0.018155193894720631 0 -0.00060486035333791918 -0.021353574649127963 0 -0.00081344974853003781 -0.021867329118104059 0 -0.0010474410094087484 -0.021416983456265373 0 -0.00081344974853003781 -0.021867329118104059 0 -0.0012088742400084148 -0.021654853568330048 0 -0.0014745913323462399 -0.02177686686261409 0 -0.00088593421541493058 -0.021916638359025794 0 -0.0014474922538137507 -0.021783836529946476 0 -0.00081344974853003781 -0.021867329118104059 0 -0.0010474410094087484 -0.021416983456265373 0 -0.0012088742400084148 -0.021654853568330048 0 -0.0010474410094087484 -0.021416983456265373 0 -0.0012088742400084148 -0.021654853568330048 0 -0.0014922594888022382 -0.021564852799070916 0 -0.0012088742400084148 -0.021654853568330048 0 -0.0014745913323462399 -0.02177686686261409 0 -0.0014922594888022382 -0.021564852799070916 0 -0.00080209139118145041 -0.023244530357177436 0 -0.00065383669237812345 -0.023635493329787743 0 8.6081484047376649e-05 -0.024910534417294867 0 9.1311444345633212e-05 -0.024888626500389529 0 9.1192969550661209e-05 -0.024914388340388397 0 -0.0010747545256492078 -0.021941826586119009 0 -0.0014745913323462399 -0.02177686686261409 0 -0.0012589527437071894 -0.022406640689322577 0 -0.0014745913323462399 -0.02177686686261409 0 -0.0015651649984756765 -0.021791525326566863 0 -0.0012589527437071894 -0.022406640689322577 0 -0.00064028526760729059 -0.022056915997857349 0 -0.0010747545256492078 -0.021941826586119009 0 -0.00079370306878734733 -0.022342431937566836 0 -4.5167644466784676e-05 -0.018486853924200134 0 -0.00088593421541493058 -0.021916638359025794 0 -0.0010747545256492078 -0.021941826586119009 0 -0.00079370306878734733 -0.022342431937566836 0 -0.0012589527437071894 -0.022406640689322577 0 -0.001006969926898472 -0.022288335259674368 0 -0.00065383669237812345 -0.023635493329787743 0 8.0240404340744728e-05 -0.024903391473681005 0 7.1717989582795554e-05 -0.024882589777889562 0 7.7684635712998854e-05 -0.024906065004616382 0 8.7965161187743886e-05 -0.024892330732531102 0 8.3749488517179997e-05 -0.024888836818306257 0 8.0240404340744728e-05 -0.024903391473681005 0 8.3749488517179997e-05 -0.024888836818306257 0 8.0240404340744728e-05 -0.024903391473681005 0 7.1717989582795554e-05 -0.024882589777889562 0 6.5008088567978267e-05 -0.024799540518923389 0 7.1717989582795554e-05 -0.024882589777889562 0 9.1311444345633212e-05 -0.024888626500389529 0 -0.00053690962029134879 -0.023435954092964045 0 -0.00080209139118145041 -0.023244530357177436 0 -0.0019450709388514275 -0.021114271975034033 0 -0.0014922594888022382 -0.021564852799070916 0 -0.0015651649984756765 -0.021791525326566863 0 -0.0014745913323462399 -0.02177686686261409 0 -0.0014922594888022382 -0.021564852799070916 0 -0.0015651649984756765 -0.021791525326566863 0 7.1717989582795554e-05 -0.024882589777889562 0 9.1311444345633212e-05 -0.024888626500389529 0 8.2153927602812959e-05 -0.024898753614801945 0 8.6081484047376649e-05 -0.024910534417294867 0 8.2153927602812959e-05 -0.024898753614801945 0 7.7684635712998854e-05 -0.024906065004616382 0 7.1717989582795554e-05 -0.024882589777889562 0 8.2153927602812959e-05 -0.024898753614801945 0 7.7684635712998854e-05 -0.024906065004616382 0 8.6733150508759113e-05 -0.024913596529828764 0 6.4177152333261272e-05 -0.024925001772583208 0 8.6081484047376649e-05 -0.024910534417294867 0 4.8527235376275617e-05 -0.024941289994921199 0 5.5522445980318784e-05 -0.024954595206546259 0 8.6081484047376649e-05 -0.024910534417294867 0 9.1311444345633212e-05 -0.024888626500389529 0 8.2153927602812959e-05 -0.024898753614801945 0 3.3322617259522138e-05 -0.024961112717967051 0 4.8527235376275617e-05 -0.024941289994921199 0 5.5522445980318784e-05 -0.024954595206546259 0 3.3322617259522138e-05 -0.024961112717967051 0 5.5522445980318784e-05 -0.024954595206546259 0 2.4402346045036726e-05 -0.024979786185140747 0 9.8765036586240453e-06 -0.024546432222605656 0 7.3842509487082128e-06 -0.024619550339961126 0 -1.025685369671e-05 -0.024690339994518695 0 0.00013669689474426721 -0.024879684126475822 0 -5.5749290880103307e-06 -0.024820212028134059 0 9.8765036586240453e-06 -0.024546432222605656 0 -7.2254329376494791e-05 -0.02439501250933435 0 -0.00023746266146015699 -0.024565839372400106 0 8.6081484047376649e-05 -0.024910534417294867 0 5.5522445980318784e-05 -0.024954595206546259 0 9.1192969550661209e-05 -0.024914388340388397 0 9.8765036586240453e-06 -0.024546432222605656 0 -7.2254329376494791e-05 -0.02439501250933435 0 7.3842509487082128e-06 -0.024619550339961126 0 0.00013669689474426721 -0.024879684126475822 0 -0.00065383669237812345 -0.023635493329787743 0 -7.2254329376494791e-05 -0.02439501250933435 0 -4.1870082017454969e-06 -0.024066570813521419 0 -0.00014476065194147749 -0.024018047445354084 0 -8.0116053253735341e-05 -0.024411658933302875 0 -2.0907112032063603e-05 -0.024376907958739032 0 7.3842509487082128e-06 -0.024619550339961126 0 1.5518514830047391e-05 -0.024650959321026462 0 -1.5663056684054357e-05 -0.024756707268579752 0 -7.2254329376494791e-05 -0.02439501250933435 0 7.3842509487082128e-06 -0.024619550339961126 0 1.5518514830047391e-05 -0.024650959321026462 0 -0.00071180416868708992 -0.022811725870309142 0 -0.00079370306878734733 -0.022342431937566836 0 -0.0013944121564187955 -0.022489566339091997 0 -0.00065383669237812345 -0.023635493329787743 0 -0.00070797299815413656 -0.023662552426584407 0 -0.00071180416868708992 -0.022811725870309142 0 -0.0013944121564187955 -0.022489566339091997 0 -0.00097251469630426095 -0.023170549212922383 0 -7.2254329376494791e-05 -0.02439501250933435 0 -0.00023746266146015699 -0.024565839372400106 0 -0.00023442874643403458 -0.024212973773800467 0 -7.2254329376494791e-05 -0.02439501250933435 0 -0.00023442874643403458 -0.024212973773800467 0 -0.00014476065194147749 -0.024018047445354084 0 -0.00023746266146015699 -0.024565839372400106 0 -0.00023442874643403458 -0.024212973773800467 0 -0.00041358448646432741 -0.024222400404981807 0 -0.00023442874643403458 -0.024212973773800467 0 -0.00041358448646432741 -0.024222400404981807 0 -0.00029965969505874436 -0.023928584924733907 0 -0.00048570295265157223 -0.023774337647476822 0 -0.00041358448646432741 -0.024222400404981807 0 -0.00029965969505874436 -0.023928584924733907 0 -0.00048570295265157223 -0.023774337647476822 0 -0.00029965969505874436 -0.023928584924733907 0 -0.00034818272997881708 -0.023787594038862568 0 -0.00050243499501595782 -0.0237975969220874 0 -0.00070797299815413656 -0.023662552426584407 0 -0.00023442874643403458 -0.024212973773800467 0 -0.00029965969505874436 -0.023928584924733907 0 -0.00014476065194147749 -0.024018047445354084 0 -0.00029965969505874436 -0.023928584924733907 0 -0.00019675038311270371 -0.023826321105826487 0 -0.00014476065194147749 -0.024018047445354084 0 -0.00029965969505874436 -0.023928584924733907 0 -0.00019675038311270371 -0.023826321105826487 0 -0.00034818272997881708 -0.023787594038862568 0 -0.00019675038311270371 -0.023826321105826487 0 -0.00034818272997881708 -0.023787594038862568 0 -0.00029591252223835077 -0.023728409916800728 0 -4.1870082017454969e-06 -0.024066570813521419 0 -8.9516454527549931e-05 -0.023905051296759173 0 -3.7543859544815467e-05 -0.023936121187869846 0 -2.0907112032063603e-05 -0.024376907958739032 0 -1.094017849937807e-05 -0.024331932582011846 0 -4.1870082017454969e-06 -0.024066570813521419 0 -0.00014476065194147749 -0.024018047445354084 0 -8.9516454527549931e-05 -0.023905051296759173 0 -0.00019675038311270371 -0.023826321105826487 0 -8.9516454527549931e-05 -0.023905051296759173 0 -0.00015705918717375921 -0.023806779778544666 0 -0.00019675038311270371 -0.023826321105826487 0 -0.00014476065194147749 -0.024018047445354084 0 -8.9516454527549931e-05 -0.023905051296759173 0 -8.9516454527549931e-05 -0.023905051296759173 0 -3.7543859544815467e-05 -0.023936121187869846 0 -8.8813508608457642e-05 -0.023874619417876462 0 -1.1180935837098109e-05 -0.024789469810385274 0 -1.3863761231602895e-05 -0.024810844483037116 0 -5.7970930901341955e-06 -0.024786688086481379 0 6.6155728238815089e-06 -0.02459844159925938 0 -1.094017849937807e-05 -0.024331932582011846 0 -3.6624144600176173e-05 -0.023888416849880023 0 -3.7543859544815467e-05 -0.023936121187869846 0 -8.8813508608457642e-05 -0.023874619417876462 0 6.6155728238815089e-06 -0.02459844159925938 0 2.6536499986218851e-05 -0.024979417783952382 0 5.0467570253247939e-05 -0.024961420484081741 0 -3.0761606440095997e-06 -0.024883215314699132 0 4.7696611744499238e-06 -0.024952101724307053 0 -1.1180935837098109e-05 -0.024789469810385274 0 -1.3863761231602895e-05 -0.024810844483037116 0 -3.0761606440095997e-06 -0.024883215314699132 0 -1.3863761231602895e-05 -0.024810844483037116 0 -1.5663056684054357e-05 -0.024756707268579752 0 -3.0761606440095997e-06 -0.024883215314699132 0 1.5518514830047391e-05 -0.024650959321026462 0 -5.7970930901341955e-06 -0.024786688086481379 0 -1.5663056684054357e-05 -0.024756707268579752 0 -1.3863761231602895e-05 -0.024810844483037116 0 -5.7970930901341955e-06 -0.024786688086481379 0 -1.5663056684054357e-05 -0.024756707268579752 0 7.3842509487082128e-06 -0.024619550339961126 0 -1.5663056684054357e-05 -0.024756707268579752 0 -1.025685369671e-05 -0.024690339994518695 0 -1.5663056684054357e-05 -0.024756707268579752 0 -1.1816300481865738e-05 -0.024849866983694891 0 -3.0761606440095997e-06 -0.024883215314699132 0 -1.5663056684054357e-05 -0.024756707268579752 0 -1.025685369671e-05 -0.024690339994518695 0 -1.1816300481865738e-05 -0.024849866983694891 0 -5.5749290880103307e-06 -0.024820212028134059 0 9.2982114048375018e-06 -0.024920813157525885 0 2.1389231448709795e-05 -0.024962607940051944 0 1.2595111136461174e-05 -0.02498068665876059 0 2.4402346045036726e-05 -0.024979786185140747 0 1.2595111136461174e-05 -0.02498068665876059 0 2.4402346045036726e-05 -0.024979786185140747 0 6.0830104934143311e-06 -0.024993687304011591 0 3.6535639706540749e-09 -0.024999988162769136 0 2.682839900625842e-06 -0.024991822627176606 0 -2.8585274294327377e-09 -0.025000003854235526 0 2.682839900625842e-06 -0.024991822627176606 0 6.0830104934143311e-06 -0.024993687304011591 0 -2.8585274294327377e-09 -0.025000003854235526 0 1.2595111136461174e-05 -0.02498068665876059 0 2.682839900625842e-06 -0.024991822627176606 0 6.0830104934143311e-06 -0.024993687304011591 0 -1.1816300481865738e-05 -0.024849866983694891 0 -2.3802446853526616e-08 -0.024999769929921905 0 -3.0761606440095997e-06 -0.024883215314699132 0 9.2982114048375018e-06 -0.024920813157525885 0 1.3071479087356712e-08 -0.024999966673582917 0 -2.3802446853526616e-08 -0.024999769929921905 0 -3.0761606440095997e-06 -0.024883215314699132 0 -2.3366335454478866e-08 -0.024999947344184946 0 -3.0761606440095997e-06 -0.024883215314699132 0 4.7696611744499238e-06 -0.024952101724307053 0 -2.3366335454478866e-08 -0.024999947344184946 0 4.7696611744499238e-06 -0.024952101724307053 0 -2.3366335454478866e-08 -0.024999947344184946 0 4.8616354308976679e-06 -0.024978032832716504 0 4.8616354308976679e-06 -0.024978032832716504 0 1.3845393435438473e-05 -0.024955485812016384 0 2.1236058876034463e-08 -0.024999950814998211 0 -2.3366335454478866e-08 -0.024999947344184946 0 4.8616354308976679e-06 -0.024978032832716504 0 2.1236058876034463e-08 -0.024999950814998211 0 4.7696611744499238e-06 -0.024952101724307053 0 4.8616354308976679e-06 -0.024978032832716504 0 1.2424198636306849e-05 -0.024977332239352844 0 -1.7096980984920466e-05 -0.02498580250686416 0 2.5334382644727849e-05 -0.024947885985296542 0 4.8616354308976679e-06 -0.024978032832716504 0 1.2424198636306849e-05 -0.024977332239352844 0 1.3845393435438473e-05 -0.024955485812016384 0 1.848322317087039e-05 -0.02494875260081084 0 1.3845393435438473e-05 -0.024955485812016384 0 2.044038874508488e-05 -0.024898907774047567 0 1.3845393435438473e-05 -0.024955485812016384 0 2.044038874508488e-05 -0.024898907774047567 0 1.3969506446538647e-05 -0.024916334146814337 0 1.3845393435438473e-05 -0.024955485812016384 0 2.1236058876034463e-08 -0.024999950814998211 0 6.0320793898060821e-09 -0.024999899410999511 0 6.6155728238815089e-06 -0.02459844159925938 0 -0.00011665550347036674 -0.024358466001534601 0 -3.6624144600176173e-05 -0.023888416849880023 0 -0.00012897873548082015 -0.023845509024873229 0 -8.8813508608457642e-05 -0.023874619417876462 0 -1.3212358764500782e-05 -0.024984911106974657 0 -1.1582812423686253e-05 -0.024937508704242099 0 -7.2546363966952924e-05 -0.024922966283010412 0 5.0467570253247939e-05 -0.024961420484081741 0 4.7696611744499238e-06 -0.024952101724307053 0 1.2424198636306849e-05 -0.024977332239352844 0 6.6155728238815089e-06 -0.02459844159925938 0 -1.7096980984920466e-05 -0.02498580250686416 0 -1.3212358764500782e-05 -0.024984911106974657 0 1.848322317087039e-05 -0.02494875260081084 0 -1.1582812423686253e-05 -0.024937508704242099 0 -1.1582812423686253e-05 -0.024937508704242099 0 2.044038874508488e-05 -0.024898907774047567 0 -7.2546363966952924e-05 -0.024922966283010412 0 2.044038874508488e-05 -0.024898907774047567 0 -7.2546363966952924e-05 -0.024922966283010412 0 2.6293949296853054e-05 -0.024788000863248318 0 1.848322317087039e-05 -0.02494875260081084 0 -1.1582812423686253e-05 -0.024937508704242099 0 2.044038874508488e-05 -0.024898907774047567 0 -7.2546363966952924e-05 -0.024922966283010412 0 2.6293949296853054e-05 -0.024788000863248318 0 -0.0002069390015360556 -0.024717505350228614 0 2.6293949296853054e-05 -0.024788000863248318 0 -0.00017376662759831523 -0.024466175460150494 0 -0.0002069390015360556 -0.024717505350228614 0 2.044038874508488e-05 -0.024898907774047567 0 2.6293949296853054e-05 -0.024788000863248318 0 1.3969506446538647e-05 -0.024916334146814337 0 2.6293949296853054e-05 -0.024788000863248318 0 6.7991392731498005e-05 -0.024920902555724465 0 1.7821188121309967e-05 -0.024939202798983786 0 2.6293949296853054e-05 -0.024788000863248318 0 1.0631872452770461e-06 -0.024939653406469989 0 1.7821188121309967e-05 -0.024939202798983786 0 2.6055967055192544e-05 -0.024773055902624588 0 9.4146720616040057e-07 -0.024693053703845846 0 2.6293949296853054e-05 -0.024788000863248318 0 -5.6335788642328229e-05 -0.024449180680265258 0 -0.00017376662759831523 -0.024466175460150494 0 1.3845393435438473e-05 -0.024955485812016384 0 6.0320793898060821e-09 -0.024999899410999511 0 1.3969506446538647e-05 -0.024916334146814337 0 6.0320793898060821e-09 -0.024999899410999511 0 1.3969506446538647e-05 -0.024916334146814337 0 1.0631872452770461e-06 -0.024939653406469989 0 2.6293949296853054e-05 -0.024788000863248318 0 1.3969506446538647e-05 -0.024916334146814337 0 1.0631872452770461e-06 -0.024939653406469989 0 6.0320793898060821e-09 -0.024999899410999511 0 1.0631872452770461e-06 -0.024939653406469989 0 -1.7644702875142974e-08 -0.024999962773768439 0 -1.7644702875142974e-08 -0.024999962773768439 0 2.1281723095598228e-06 -0.02498864482035627 0 9.0985144364700258e-06 -0.024972565621107185 0 -1.7644702875142974e-08 -0.024999962773768439 0 2.1281723095598228e-06 -0.02498864482035627 0 9.8438867134819081e-09 -0.024999988585305478 0 2.1281723095598228e-06 -0.02498864482035627 0 9.0985144364700258e-06 -0.024972565621107185 0 8.9898676316955518e-07 -0.024985646783702846 0 1.0631872452770461e-06 -0.024939653406469989 0 -1.7644702875142974e-08 -0.024999962773768439 0 9.0985144364700258e-06 -0.024972565621107185 0 1.0631872452770461e-06 -0.024939653406469989 0 9.0985144364700258e-06 -0.024972565621107185 0 1.7821188121309967e-05 -0.024939202798983786 0 6.7991392731498005e-05 -0.024920902555724465 0 1.7821188121309967e-05 -0.024939202798983786 0 3.2821073304551641e-05 -0.024976680197343476 0 9.0985144364700258e-06 -0.024972565621107185 0 1.7821188121309967e-05 -0.024939202798983786 0 3.2821073304551641e-05 -0.024976680197343476 0 9.4146720616040057e-07 -0.024693053703845846 0 -3.6436658092313501e-05 -0.024657995067089065 0 6.7991392731498005e-05 -0.024920902555724465 0 6.3170814496847809e-05 -0.02496251605885107 0 3.2821073304551641e-05 -0.024976680197343476 0 -5.6335788642328229e-05 -0.024449180680265258 0 -0.00014383875325524613 -0.024364405869288026 0 -0.00017376662759831523 -0.024466175460150494 0 6.3170814496847809e-05 -0.02496251605885107 0 3.2821073304551641e-05 -0.024976680197343476 0 6.6912784419202837e-05 -0.024991797269358192 0 9.0985144364700258e-06 -0.024972565621107185 0 3.2821073304551641e-05 -0.024976680197343476 0 8.9898676316955518e-07 -0.024985646783702846 0 3.2821073304551641e-05 -0.024976680197343476 0 3.2745591387353299e-05 -0.024994218845648661 0 8.9898676316955518e-07 -0.024985646783702846 0 2.315211135676645e-05 -0.024990281871332155 0 -1.0714378334009078e-06 -0.024980433220484131 0 3.2821073304551641e-05 -0.024976680197343476 0 3.2745591387353299e-05 -0.024994218845648661 0 6.6912784419202837e-05 -0.024991797269358192 0 -1.9677497745455744e-05 -0.024952754850768758 0 -4.5071295634112801e-05 -0.024898477849015083 0 -7.5154998904745045e-05 -0.024955865887046364 0 2.315211135676645e-05 -0.024990281871332155 0 -9.8899119605535589e-05 -0.02474920020869989 0 -1.9677497745455744e-05 -0.024952754850768758 0 -4.5071295634112801e-05 -0.024898477849015083 0 -1.6323433017749298e-05 -0.02493149142175911 0 -1.9677497745455744e-05 -0.024952754850768758 0 8.9898676316955518e-07 -0.024985646783702846 0 -1.6323433017749298e-05 -0.02493149142175911 0 4.2737338902684068e-07 -0.024976456689690413 0 8.9898676316955518e-07 -0.024985646783702846 0 -1.6323433017749298e-05 -0.02493149142175911 0 4.2737338902684068e-07 -0.024976456689690413 0 9.8438867134819081e-09 -0.024999988585305478 0 9.6483774794877515e-10 -0.024999951523577917 0 4.2737338902684068e-07 -0.024976456689690413 0 9.8438867134819081e-09 -0.024999988585305478 0 8.9898676316955518e-07 -0.024985646783702846 0 2.1281723095598228e-06 -0.02498864482035627 0 9.8438867134819081e-09 -0.024999988585305478 0 8.9898676316955518e-07 -0.024985646783702846 0 1.4926273555044238e-05 -0.024566959229163472 0 -3.1806555116886608e-05 -0.024706412950949108 0 -5.528786463807672e-05 -0.024628416674042686 0 8.2604486980857926e-06 -0.024510288615796582 0 -0.00011041001036613298 -0.024504194544911349 0 1.4926273555044238e-05 -0.024566959229163472 0 3.5895816029058895e-05 -0.024643634332433471 0 -3.1806555116886608e-05 -0.024706412950949108 0 1.4926273555044238e-05 -0.024566959229163472 0 3.5895816029058895e-05 -0.024643634332433471 0 0.00010867191878157222 -0.024604936559093075 0 3.5895816029058895e-05 -0.024643634332433471 0 7.1706389921785931e-06 -0.024709940633288952 0 6.5761418902659748e-05 -0.024700365584185709 0 7.1706389921785931e-06 -0.024709940633288952 0 -3.1806555116886608e-05 -0.024706412950949108 0 -3.7086344679314892e-05 -0.024774341497505573 0 3.5895816029058895e-05 -0.024643634332433471 0 7.1706389921785931e-06 -0.024709940633288952 0 -3.1806555116886608e-05 -0.024706412950949108 0 -3.1806555116886608e-05 -0.024706412950949108 0 -0.00015256093052066092 -0.024660614706787657 0 -8.7065233375197172e-05 -0.024820329186158945 0 -4.5071295634112801e-05 -0.024898477849015083 0 -7.5154998904745045e-05 -0.024955865887046364 0 -8.7065233375197172e-05 -0.024820329186158945 0 -9.8899119605535589e-05 -0.02474920020869989 0 -9.0916663430106162e-05 -0.024845630850301777 0 -3.1806555116886608e-05 -0.024706412950949108 0 -0.00015256093052066092 -0.024660614706787657 0 -5.528786463807672e-05 -0.024628416674042686 0 -9.8899119605535589e-05 -0.02474920020869989 0 -0.00011041001036613298 -0.024504194544911349 0 -0.00017663325979044503 -0.024387406946671845 0 -0.00015439200239128202 -0.024429788516670405 0 -0.00019739899566596414 -0.024365008690400574 0 -0.00015439200239128202 -0.024429788516670405 0 -0.00019739899566596414 -0.024365008690400574 0 -0.00011257442058715929 -0.024355750957198309 0 -0.00014383875325524613 -0.024364405869288026 0 -0.00017663325979044503 -0.024387406946671845 0 -0.00019739899566596414 -0.024365008690400574 0 -3.6436658092313501e-05 -0.024657995067089065 0 -9.8899119605535589e-05 -0.02474920020869989 0 -0.00014383875325524613 -0.024364405869288026 0 -0.00019739899566596414 -0.024365008690400574 0 -0.00017376662759831523 -0.024466175460150494 0 -0.00019739899566596414 -0.024365008690400574 0 -0.00011257442058715929 -0.024355750957198309 0 -0.00023559767659383151 -0.024299818880512511 0 -1.816376559479931e-05 -0.024458850104798178 0 -0.00015439200239128202 -0.024429788516670405 0 -0.00011257442058715929 -0.024355750957198309 0 -1.816376559479931e-05 -0.024458850104798178 0 -0.00011257442058715929 -0.024355750957198309 0 5.907128900701092e-05 -0.024321068313963117 0 -0.00011257442058715929 -0.024355750957198309 0 5.907128900701092e-05 -0.024321068313963117 0 -6.0443802411250303e-05 -0.024187495725635482 0 5.907128900701092e-05 -0.024321068313963117 0 -6.0443802411250303e-05 -0.024187495725635482 0 8.9393839450982565e-05 -0.024058151865417848 0 -0.00011257442058715929 -0.024355750957198309 0 -6.0443802411250303e-05 -0.024187495725635482 0 -0.00023559767659383151 -0.024299818880512511 0 -6.0443802411250303e-05 -0.024187495725635482 0 -0.00018503275578830318 -0.023950698113263714 0 -0.0001179648972217008 -0.02377930530690265 0 -8.4230161360091248e-05 -0.023737053029938671 0 -0.00012420788682755747 -0.02375901455316996 0 -6.0443802411250303e-05 -0.024187495725635482 0 8.9393839450982565e-05 -0.024058151865417848 0 -0.0001179648972217008 -0.02377930530690265 0 -0.00017376662759831523 -0.024466175460150494 0 -0.00023559767659383151 -0.024299818880512511 0 -0.0002069390015360556 -0.024717505350228614 0 -0.00019739899566596414 -0.024365008690400574 0 -0.00017376662759831523 -0.024466175460150494 0 -0.00023559767659383151 -0.024299818880512511 0 -6.0443802411250303e-05 -0.024187495725635482 0 -0.00023559767659383151 -0.024299818880512511 0 -0.00018503275578830318 -0.023950698113263714 0 -0.00022447002362348611 -0.024319111259585999 0 -0.00020919132576412079 -0.024333270061932116 0 -0.00023559767659383151 -0.024299818880512511 0 -0.00018503275578830318 -0.023950698113263714 0 -0.00025524628932481605 -0.023914141611943791 0 -0.00012897873548082015 -0.023845509024873229 0 -0.00025524628932481605 -0.023914141611943791 0 -0.00015705918717375921 -0.023806779778544666 0 -0.00011665550347036674 -0.024358466001534601 0 -0.00020919132576412079 -0.024333270061932116 0 -0.00018503275578830318 -0.023950698113263714 0 -0.00025524628932481605 -0.023914141611943791 0 -0.00015705918717375921 -0.023806779778544666 0 -0.00018503275578830318 -0.023950698113263714 0 -0.00015705918717375921 -0.023806779778544666 0 -0.0001179648972217008 -0.02377930530690265 0 -0.00012897873548082015 -0.023845509024873229 0 -0.00015705918717375921 -0.023806779778544666 0 -8.8813508608457642e-05 -0.023874619417876462 0 -8.9516454527549931e-05 -0.023905051296759173 0 -0.00015705918717375921 -0.023806779778544666 0 -8.8813508608457642e-05 -0.023874619417876462 0 -0.00022782133349782765 -0.023426042908214685 0 -0.0001179648972217008 -0.02377930530690265 0 -0.00027130674239137447 -0.023621180395258779 0 -0.0001179648972217008 -0.02377930530690265 0 -0.00018047576681750745 -0.023761348726040184 0 -0.00027130674239137447 -0.023621180395258779 0 -0.00015705918717375921 -0.023806779778544666 0 -0.0001179648972217008 -0.02377930530690265 0 -0.00018047576681750745 -0.023761348726040184 0 -0.00019675038311270371 -0.023826321105826487 0 -0.00018047576681750745 -0.023761348726040184 0 -0.00029591252223835077 -0.023728409916800728 0 -0.00019675038311270371 -0.023826321105826487 0 -0.00015705918717375921 -0.023806779778544666 0 -0.00018047576681750745 -0.023761348726040184 0 -0.00018047576681750745 -0.023761348726040184 0 -0.00029591252223835077 -0.023728409916800728 0 -0.00027130674239137447 -0.023621180395258779 0 -0.00029591252223835077 -0.023728409916800728 0 -0.00027130674239137447 -0.023621180395258779 0 -0.00039142988400682878 -0.023610186686409965 0 -0.0003930626057836438 -0.023736778416104692 0 -0.00029591252223835077 -0.023728409916800728 0 -0.00039142988400682878 -0.023610186686409965 0 -0.00027130674239137447 -0.023621180395258779 0 -0.00039142988400682878 -0.023610186686409965 0 -0.00041259491666996678 -0.023387805909493225 0 -0.00039142988400682878 -0.023610186686409965 0 -0.00053497907972730569 -0.023421331283192418 0 -0.00041259491666996678 -0.023387805909493225 0 -0.0003930626057836438 -0.023736778416104692 0 -0.00038462964735673223 -0.023672679676060921 0 -0.00039142988400682878 -0.023610186686409965 0 -0.00038462964735673223 -0.023672679676060921 0 -0.00039142988400682878 -0.023610186686409965 0 -0.00047191106710638505 -0.023605086727982293 0 -0.00047191106710638505 -0.023605086727982293 0 -0.00060982179341613333 -0.023594788314044966 0 -0.00053497907972730569 -0.023421331283192418 0 -0.00039142988400682878 -0.023610186686409965 0 -0.00047191106710638505 -0.023605086727982293 0 -0.00053497907972730569 -0.023421331283192418 0 -0.001403016675302465 -0.022103824615122673 0 -0.0011202597972604154 -0.022416336885546808 0 -0.00060982179341613333 -0.023594788314044966 0 -0.00053497907972730569 -0.023421331283192418 0 -0.00075365016279771403 -0.023333316270118584 0 -0.00053497907972730569 -0.023421331283192418 0 -0.00066380279022407098 -0.023177195318329596 0 -0.00075365016279771403 -0.023333316270118584 0 -0.00053497907972730569 -0.023421331283192418 0 -0.00056233073603002295 -0.02322769021296614 0 -0.00041259491666996678 -0.023387805909493225 0 -0.00056233073603002295 -0.02322769021296614 0 -0.00049607827480207319 -0.023184857863383077 0 -0.00041259491666996678 -0.023387805909493225 0 -0.00053497907972730569 -0.023421331283192418 0 -0.00056233073603002295 -0.02322769021296614 0 -0.00066380279022407098 -0.023177195318329596 0 -0.00056233073603002295 -0.02322769021296614 0 -0.00066380279022407098 -0.023177195318329596 0 -0.00068525813929255341 -0.023066547510046428 0 -0.00068525813929255341 -0.023066547510046428 0 -0.00059620527206871536 -0.023103821472557271 0 -0.0006599560444599706 -0.023047979587119145 0 -0.00056233073603002295 -0.02322769021296614 0 -0.00068525813929255341 -0.023066547510046428 0 -0.00059620527206871536 -0.023103821472557271 0 -0.00049607827480207319 -0.023184857863383077 0 -0.00059620527206871536 -0.023103821472557271 0 -0.00053289229768559252 -0.023031730996992017 0 -0.00056233073603002295 -0.02322769021296614 0 -0.00049607827480207319 -0.023184857863383077 0 -0.00059620527206871536 -0.023103821472557271 0 -0.00010120935974938278 -0.023688047028779458 0 -0.00013595260761531494 -0.023705905181240824 0 -0.00049607827480207319 -0.023184857863383077 0 -0.00036672205554288576 -0.023187787128431187 0 -0.00053289229768559252 -0.023031730996992017 0 -0.00049607827480207319 -0.023184857863383077 0 -0.00036672205554288576 -0.023187787128431187 0 -0.00041259491666996678 -0.023387805909493225 0 5.907128900701092e-05 -0.024321068313963117 0 8.9393839450982565e-05 -0.024058151865417848 0 0.00017958857158584712 -0.024198786733886365 0 -8.4230161360091248e-05 -0.023737053029938671 0 -0.00010120935974938278 -0.023688047028779458 0 -0.00022782133349782765 -0.023426042908214685 0 -0.00036672205554288576 -0.023187787128431187 0 -0.00041259491666996678 -0.023387805909493225 0 -0.00022782133349782765 -0.023426042908214685 0 -0.00027130674239137447 -0.023621180395258779 0 -0.00041259491666996678 -0.023387805909493225 0 -0.0028460588499598211 -0.0092091792062449721 0 -0.0025415811030050721 -0.0084264641692735082 0 -0.0031920675278307577 -0.0086616007668524272 0 -0.0028460588499598211 -0.0092091792062449721 0 -0.0025415811030050721 -0.0084264641692735082 0 -0.0023124629359651178 -0.0088317932487051339 0 -0.0015938749674210861 -0.012522050105954311 0 -0.0020463045258019919 -0.01465968245740773 0 -0.0028369127103271071 -0.0077825559748455611 0 -0.0025415811030050721 -0.0084264641692735082 0 -0.0021402282154094772 -0.0078526113234560942 0 -0.0028369127103271071 -0.0077825559748455611 0 -0.0025415811030050721 -0.0084264641692735082 0 -0.0031920675278307577 -0.0086616007668524272 0 -0.00060310944676196065 -0.019895917710986689 0 -0.0006683213368718525 -0.020001651794279884 0 -0.00070944239117839503 -0.019985423562566138 0 -0.0006683213368718525 -0.020001651794279884 0 -0.00070944239117839503 -0.019985423562566138 0 -0.00070222892946173625 -0.020005938943044154 0 -0.0020463045258019919 -0.01465968245740773 0 -0.0021431692711535518 -0.014148276272615107 0 -0.0028460588499598211 -0.0092091792062449721 0 -0.0031920675278307577 -0.0086616007668524272 0 -0.0036171055447764026 -0.0095834181583868087 0 -0.00070944239117839503 -0.019985423562566138 0 -0.00070222892946173625 -0.020005938943044154 0 -0.00077379814775035353 -0.019785676172967153 0 -0.00060100304568467221 -0.019886297115722533 0 -0.00070222892946173625 -0.020005938943044154 0 -0.00080093469524799914 -0.020191241190627179 0 -0.00037295387475846508 -0.021742512707196009 0 -0.00084207638199370683 -0.01989079580792041 0 -0.00060100304568467221 -0.019886297115722533 0 -0.00070222892946173625 -0.020005938943044154 0 -0.00077379814775035353 -0.019785676172967153 0 -0.0006683213368718525 -0.020001651794279884 0 -0.00070222892946173625 -0.020005938943044154 0 -0.00080093469524799914 -0.020191241190627179 0 -0.0021103834135574352 -0.020266678017786029 0 -0.00080093469524799914 -0.020191241190627179 0 -0.001545545402789335 -0.021551246257302682 0 -0.00046460123506026783 -0.022122555092810595 0 -0.00080093469524799914 -0.020191241190627179 0 -0.001545545402789335 -0.021551246257302682 0 -0.00066380279022407098 -0.023177195318329596 0 -0.00068525813929255341 -0.023066547510046428 0 -0.00075021448612205127 -0.022833144509334911 0 -0.00066380279022407098 -0.023177195318329596 0 -0.00075365016279771403 -0.023333316270118584 0 -0.00075021448612205127 -0.022833144509334911 0 -0.00046460123506026783 -0.022122555092810595 0 -0.001545545402789335 -0.021551246257302682 0 -0.00075021448612205127 -0.022833144509334911 0 -0.0011202597972604154 -0.022416336885546808 0 -0.00078247369560134009 -0.022843919314661901 0 -0.00068525813929255341 -0.023066547510046428 0 -0.00070216488958492528 -0.023067354634169739 0 -0.0006599560444599706 -0.023047979587119145 0 -0.00068525813929255341 -0.023066547510046428 0 -0.00070216488958492528 -0.023067354634169739 0 -0.00075021448612205127 -0.022833144509334911 0 -0.0015788361541009387 -0.018062991210401464 0 -0.0021431692711535518 -0.014148276272615107 0 -0.00070216488958492528 -0.023067354634169739 0 -0.0005648558175454034 -0.023142213897654786 0 -0.00075021448612205127 -0.022833144509334911 0 -0.0042741278869703799 -0.011100217354777101 0 -0.0035682687088606766 -0.010932489059567894 0 -0.0041075603395636555 -0.012055445771819715 0 -0.00037295387475846508 -0.021742512707196009 0 -0.0015788361541009387 -0.018062991210401464 0 -0.00060100304568467221 -0.019886297115722533 0 -0.00066353713845190799 -0.019432733579580617 0 -0.00077379814775035353 -0.019785676172967153 0 -0.00046460123506026783 -0.022122555092810595 0 -0.0005648558175454034 -0.023142213897654786 0 -0.00075021448612205127 -0.022833144509334911 0 -0.0028460588499598211 -0.0092091792062449721 0 -0.0036171055447764026 -0.0095834181583868087 0 -0.0031235226710889753 -0.0098364066652174079 0 -0.0036171055447764026 -0.0095834181583868087 0 -0.0031235226710889753 -0.0098364066652174079 0 -0.0035682687088606766 -0.010932489059567894 0 -0.0042741278869703799 -0.011100217354777101 0 -0.0036171055447764026 -0.0095834181583868087 0 -0.0035682687088606766 -0.010932489059567894 0 -0.0033414039859736878 -0.010320517303283587 0 -0.0029576372284017783 -0.010500190122725862 0 -0.0030151418275107893 -0.010166589845614988 0 -0.0033414039859736878 -0.010320517303283587 0 -0.0029576372284017783 -0.010500190122725862 0 -0.0032243122551741808 -0.010717536101352523 0 -0.0031750474245220974 -0.0099902605741620677 0 -0.0033790359165104481 -0.010496660336343579 0 -0.0031235226710889753 -0.0098364066652174079 0 -0.0033414039859736878 -0.010320517303283587 0 -0.0030151418275107893 -0.010166589845614988 0 -0.0030151418275107893 -0.010166589845614988 0 -0.0027385926252472765 -0.01028103715552112 0 -0.0027260451971921184 -0.0099054831868062802 0 -0.0029576372284017783 -0.010500190122725862 0 -0.0027385926252472765 -0.01028103715552112 0 -0.0025945207956882357 -0.010643569312476637 0 -0.0029576372284017783 -0.010500190122725862 0 -0.0030151418275107893 -0.010166589845614988 0 -0.0027385926252472765 -0.01028103715552112 0 -0.0027385926252472765 -0.01028103715552112 0 -0.0025945207956882357 -0.010643569312476637 0 -0.0022786905437317297 -0.010252433762219839 0 -0.0027385926252472765 -0.01028103715552112 0 -0.0027260451971921184 -0.0099054831868062802 0 -0.0022786905437317297 -0.010252433762219839 0 -0.0027260451971921184 -0.0099054831868062802 0 -0.0023457623693502712 -0.0096746622472230759 0 -0.0022786905437317297 -0.010252433762219839 0 -0.0028460588499598211 -0.0092091792062449721 0 -0.0027260451971921184 -0.0099054831868062802 0 -0.0023457623693502712 -0.0096746622472230759 0 -0.0028460588499598211 -0.0092091792062449721 0 -0.0023457623693502712 -0.0096746622472230759 0 -0.0019768160910961295 -0.0092147204183770388 0 -0.0028460588499598211 -0.0092091792062449721 0 -0.0031235226710889753 -0.0098364066652174079 0 -0.0027260451971921184 -0.0099054831868062802 0 -0.0031235226710889753 -0.0098364066652174079 0 -0.0030151418275107893 -0.010166589845614988 0 -0.0027260451971921184 -0.0099054831868062802 0 -0.0029470863381652573 -0.011739353045854342 0 -0.0019163324125721507 -0.011629462176672099 0 -0.0025554562628056464 -0.011363494183618041 0 -0.0030074489953982038 -0.011755290414246021 0 -0.0020782998418729924 -0.011617374676687844 0 -0.0025554562628056464 -0.011363494183618041 0 -0.0029138188131027799 -0.01125523571587099 0 -0.0030074489953982038 -0.011755290414246021 0 -0.0025554562628056464 -0.011363494183618041 0 -0.0026250290552415055 -0.011011213170190482 0 -0.0029138188131027799 -0.01125523571587099 0 -0.0025554562628056464 -0.011363494183618041 0 -0.0026250290552415055 -0.011011213170190482 0 -0.0021603712409210482 -0.010929784752369659 0 -0.0025945207956882357 -0.010643569312476637 0 -0.0021603712409210482 -0.010929784752369659 0 -0.0022786905437317297 -0.010252433762219839 0 -0.0025945207956882357 -0.010643569312476637 0 -0.0026250290552415055 -0.011011213170190482 0 -0.0021603712409210482 -0.010929784752369659 0 -0.0029576372284017783 -0.010500190122725862 0 -0.0025945207956882357 -0.010643569312476637 0 -0.0029008498121159019 -0.010865601403473703 0 -0.0025945207956882357 -0.010643569312476637 0 -0.0026250290552415055 -0.011011213170190482 0 -0.0029008498121159019 -0.010865601403473703 0 -0.0026250290552415055 -0.011011213170190482 0 -0.0029008498121159019 -0.010865601403473703 0 -0.0029138188131027799 -0.01125523571587099 0 -0.0029008498121159019 -0.010865601403473703 0 -0.0032122641013290678 -0.011081224413594977 0 -0.0029138188131027799 -0.01125523571587099 0 -0.0029008498121159019 -0.010865601403473703 0 -0.0032243122551741808 -0.010717536101352523 0 -0.0032122641013290678 -0.011081224413594977 0 -0.0029576372284017783 -0.010500190122725862 0 -0.0029008498121159019 -0.010865601403473703 0 -0.0032243122551741808 -0.010717536101352523 0 -0.0033790359165104481 -0.010496660336343579 0 -0.0034975143831817521 -0.012620684664102481 0 -0.0033414039859736878 -0.010320517303283587 0 -0.0032243122551741808 -0.010717536101352523 0 -0.0036294579967581985 -0.010867154366788052 0 -0.0032243122551741808 -0.010717536101352523 0 -0.0032122641013290678 -0.011081224413594977 0 -0.0036294579967581985 -0.010867154366788052 0 -0.0032122641013290678 -0.011081224413594977 0 -0.0035708389335707457 -0.011221055843904832 0 -0.0036294579967581985 -0.010867154366788052 0 -0.0032122641013290678 -0.011081224413594977 0 -0.0032988825076023152 -0.011448533235244288 0 -0.0035708389335707457 -0.011221055843904832 0 -0.0032988825076023152 -0.011448533235244288 0 -0.0036449397311730265 -0.01154412189024084 0 -0.0035708389335707457 -0.011221055843904832 0 -0.0032122641013290678 -0.011081224413594977 0 -0.0029138188131027799 -0.01125523571587099 0 -0.0032988825076023152 -0.011448533235244288 0 -0.0029138188131027799 -0.01125523571587099 0 -0.0032988825076023152 -0.011448533235244288 0 -0.0030074489953982038 -0.011755290414246021 0 -0.0032988825076023152 -0.011448533235244288 0 -0.00351756352356754 -0.011884819617334636 0 -0.0030074489953982038 -0.011755290414246021 0 -0.0032988825076023152 -0.011448533235244288 0 -0.0036449397311730265 -0.01154412189024084 0 -0.00351756352356754 -0.011884819617334636 0 -0.0021646015902082481 -0.017251657404248427 0 -0.0022316092103472768 -0.017066936905796738 0 -0.0024369695798570784 -0.017548872222729883 0 -0.0036449397311730265 -0.01154412189024084 0 -0.0039372062651554319 -0.011773092955662546 0 -0.00351756352356754 -0.011884819617334636 0 -0.0036449397311730265 -0.01154412189024084 0 -0.0039372062651554319 -0.011773092955662546 0 -0.0039296264136717387 -0.011408474880280283 0 -0.0039372062651554319 -0.011773092955662546 0 -0.0039296264136717387 -0.011408474880280283 0 -0.0042519763884948355 -0.012001218301419755 0 -0.0030604439881961394 -0.014321954423470574 0 -0.0029633831983004008 -0.015933457866852765 0 -0.0036449397311730265 -0.01154412189024084 0 -0.0039296264136717387 -0.011408474880280283 0 -0.0035708389335707457 -0.011221055843904832 0 -0.0039296264136717387 -0.011408474880280283 0 -0.0035708389335707457 -0.011221055843904832 0 -0.0036299626742906372 -0.010872293886821796 0 -0.0036804266789417779 -0.011059466109634054 0 -0.0034975143831817521 -0.012620684664102481 0 -0.0020300308204705439 -0.016614684255958589 0 -0.0019863657552601681 -0.016908614937592062 0 -0.0022316092103472768 -0.017066936905796738 0 -0.0015788361541009387 -0.018062991210401464 0 -0.0015651703065486041 -0.020474692232505774 0 -0.0030604439881961394 -0.014321954423470574 0 -0.0034975143831817521 -0.012620684664102481 0 -0.00070216488958492528 -0.023067354634169739 0 -0.0005648558175454034 -0.023142213897654786 0 -0.00069910923147154761 -0.023038940514949417 0 -0.0015788361541009387 -0.018062991210401464 0 -0.0034975143831817521 -0.012620684664102481 0 -0.0021646015902082481 -0.017251657404248427 0 -0.0019863657552601681 -0.016908614937592062 0 -0.0022316092103472768 -0.017066936905796738 0 -0.00070216488958492528 -0.023067354634169739 0 -0.00069910923147154761 -0.023038940514949417 0 -0.00067922872791298231 -0.023028116349801672 0 -0.00070216488958492528 -0.023067354634169739 0 -0.00067922872791298231 -0.023028116349801672 0 -0.0006599560444599706 -0.023047979587119145 0 -0.00067922872791298231 -0.023028116349801672 0 -0.00070087662016349674 -0.022939813978416466 0 -0.00064073785989511491 -0.023004482238124051 0 -0.0015651703065486041 -0.020474692232505774 0 -0.0014975296401641442 -0.01945728606469304 0 -0.00069910923147154761 -0.023038940514949417 0 -0.00067922872791298231 -0.023028116349801672 0 -0.00070087662016349674 -0.022939813978416466 0 -0.0014975296401641442 -0.01945728606469304 0 -8.8199068137682996e-05 -0.023382629023930315 0 -0.0021646015902082481 -0.017251657404248427 0 -0.0024369695798570784 -0.017548872222729883 0 -0.0023519753661481145 -0.017607299482413342 0 -0.0042519763884948355 -0.012001218301419755 0 -0.0046848190783385785 -0.012848011142451118 0 -0.0041566359508888057 -0.012317802189439972 0 -0.0014975296401641442 -0.01945728606469304 0 -0.0017216462135310898 -0.017869959838400302 0 -0.0029633831983004008 -0.015933457866852765 0 -0.0030377696236973811 -0.015311449833611646 0 -0.0017617519093730642 -0.021390254963330146 0 -0.0010026384999400381 -0.019502265362200757 0 2.8851528748814716e-05 -0.020324852690556026 0 -0.002304724730472222 -0.017115233428136156 0 -0.0022933118347484658 -0.017121572691088442 0 -0.0023468517838552581 -0.017187070101836833 0 -0.0014975296401641442 -0.01945728606469304 0 -0.0029633831983004008 -0.015933457866852765 0 -0.0046848190783385785 -0.012848011142451118 0 -0.0038709134446204422 -0.012849098839489467 0 -0.0041566359508888057 -0.012317802189439972 0 -0.0022933118347484658 -0.017121572691088442 0 -0.0023411976501896618 -0.017190839019070692 0 -0.0023468517838552581 -0.017187070101836833 0 -0.0019404962315530895 -0.016253815945621617 0 -0.0020746597832164981 -0.016148354039738338 0 -0.0025838247606438333 -0.017499470540300058 0 -0.0030377696236973811 -0.015311449833611646 0 -0.0017216462135310898 -0.017869959838400302 0 -0.0030377696236973811 -0.015311449833611646 0 -0.0020896033684763993 -0.01749308893733616 0 -0.0046848190783385785 -0.012848011142451118 0 -0.0038709134446204422 -0.012849098839489467 0 -0.0036385018154140008 -0.013674870871711625 0 -0.0038709134446204422 -0.012849098839489467 0 -0.0038499583511384782 -0.012413971238693216 0 -0.0041566359508888057 -0.012317802189439972 0 -0.0038709134446204422 -0.012849098839489467 0 -0.0034924119862754246 -0.012658374166676128 0 -0.0033444141860467765 -0.013169087434146015 0 -0.0038709134446204422 -0.012849098839489467 0 -0.0038499583511384782 -0.012413971238693216 0 -0.0034924119862754246 -0.012658374166676128 0 -0.0035131223908586224 -0.012276847564580059 0 -0.0038499583511384782 -0.012413971238693216 0 -0.0038642350031559097 -0.012104236978584799 0 -0.0035131223908586224 -0.012276847564580059 0 -0.0038499583511384782 -0.012413971238693216 0 -0.0034924119862754246 -0.012658374166676128 0 -0.0038499583511384782 -0.012413971238693216 0 -0.0041566359508888057 -0.012317802189439972 0 -0.0038642350031559097 -0.012104236978584799 0 -0.0042519763884948355 -0.012001218301419755 0 -0.0041566359508888057 -0.012317802189439972 0 -0.0038642350031559097 -0.012104236978584799 0 -0.0039372062651554319 -0.011773092955662546 0 -0.0042519763884948355 -0.012001218301419755 0 -0.0038642350031559097 -0.012104236978584799 0 -0.0039372062651554319 -0.011773092955662546 0 -0.0038642350031559097 -0.012104236978584799 0 -0.00351756352356754 -0.011884819617334636 0 -0.0035131223908586224 -0.012276847564580059 0 -0.0038642350031559097 -0.012104236978584799 0 -0.00351756352356754 -0.011884819617334636 0 -0.00351756352356754 -0.011884819617334636 0 -0.0030074489953982038 -0.011755290414246021 0 -0.0031541006459703375 -0.012268259638461836 0 -0.0031541006459703375 -0.012268259638461836 0 -0.0029030900907725918 -0.012767569276428121 0 -0.0024401067330274764 -0.012283409392618188 0 -0.0030074489953982038 -0.011755290414246021 0 -0.0031541006459703375 -0.012268259638461836 0 -0.0024401067330274764 -0.012283409392618188 0 -0.0035131223908586224 -0.012276847564580059 0 -0.0031541006459703375 -0.012268259638461836 0 -0.0034924119862754246 -0.012658374166676128 0 -0.0035131223908586224 -0.012276847564580059 0 -0.00351756352356754 -0.011884819617334636 0 -0.0031541006459703375 -0.012268259638461836 0 -0.0031541006459703375 -0.012268259638461836 0 -0.0034924119862754246 -0.012658374166676128 0 -0.0029030900907725918 -0.012767569276428121 0 -0.0034924119862754246 -0.012658374166676128 0 -0.0033444141860467765 -0.013169087434146015 0 -0.0029030900907725918 -0.012767569276428121 0 -0.0033444141860467765 -0.013169087434146015 0 -0.0029030900907725918 -0.012767569276428121 0 -0.0028212872246660215 -0.013319993070082503 0 -0.0029030900907725918 -0.012767569276428121 0 -0.0022600128920809426 -0.012943252322355952 0 -0.0024401067330274764 -0.012283409392618188 0 -0.0022600128920809426 -0.012943252322355952 0 -0.0024401067330274764 -0.012283409392618188 0 -0.0017157110922053072 -0.012334525300654335 0 -0.0029030900907725918 -0.012767569276428121 0 -0.0022600128920809426 -0.012943252322355952 0 -0.0028212872246660215 -0.013319993070082503 0 -0.0030074489953982038 -0.011755290414246021 0 -0.0024401067330274764 -0.012283409392618188 0 -0.0017285052278206501 -0.011626955038941473 0 0.00022585844075069677 -0.024408333844295596 0 0.00014075999292258482 -0.024458594606868306 0 0.00016460965027573484 -0.02433615761327957 0 0.00022585844075069677 -0.024408333844295596 0 0.00014075999292258482 -0.024458594606868306 0 0.00020731037312291925 -0.024523968493926601 0 -1.816376559479931e-05 -0.024458850104798178 0 5.907128900701092e-05 -0.024321068313963117 0 0.00014075999292258482 -0.024458594606868306 0 8.2604486980857926e-06 -0.024510288615796582 0 0.00013700765432639396 -0.024466105768431088 0 5.907128900701092e-05 -0.024321068313963117 0 0.00014075999292258482 -0.024458594606868306 0 0.00016460965027573484 -0.02433615761327957 0 5.907128900701092e-05 -0.024321068313963117 0 0.00017958857158584712 -0.024198786733886365 0 0.00016460965027573484 -0.02433615761327957 0 0.00017958857158584712 -0.024198786733886365 0 0.00016460965027573484 -0.02433615761327957 0 0.0002669144279534403 -0.024315201638312852 0 0.00022585844075069677 -0.024408333844295596 0 0.00016460965027573484 -0.02433615761327957 0 0.0002669144279534403 -0.024315201638312852 0 -0.00013595260761531494 -0.023705905181240824 0 -8.8199068137682996e-05 -0.023382629023930315 0 -0.00059620527206871536 -0.023103821472557271 0 -0.00053289229768559252 -0.023031730996992017 0 -0.0006599560444599706 -0.023047979587119145 0 -0.0006286634132531961 -0.02292418214867098 0 -8.8199068137682996e-05 -0.023382629023930315 0 -0.00053289229768559252 -0.023031730996992017 0 -0.0006599560444599706 -0.023047979587119145 0 -0.00064818715686279472 -0.022956591779534161 0 -0.00067922872791298231 -0.023028116349801672 0 -0.0006599560444599706 -0.023047979587119145 0 -0.00064073785989511491 -0.023004482238124051 0 0.0002669144279534403 -0.024315201638312852 0 0.00029036466903604601 -0.024368888302813741 0 0.00026808351956679065 -0.024374306104580828 0 0.00022585844075069677 -0.024408333844295596 0 0.0002669144279534403 -0.024315201638312852 0 0.00026808351956679065 -0.024374306104580828 0 0.00029036466903604601 -0.024368888302813741 0 0.00026808351956679065 -0.024374306104580828 0 0.00027163822621187534 -0.024385886356762275 0 0.00022585844075069677 -0.024408333844295596 0 0.00026808351956679065 -0.024374306104580828 0 0.00027163822621187534 -0.024385886356762275 0 0.00017291526171546155 -0.024363008110565403 0 0.00045118945397795121 -0.024562296645189958 0 0.00028356607714698998 -0.02449322205594677 0 0.00031978945724092618 -0.024523789070308916 0 0.0002473476639757499 -0.024588516888324211 0 0.00022585844075069677 -0.024408333844295596 0 0.00028356607714698998 -0.02449322205594677 0 0.00020731037312291925 -0.024523968493926601 0 0.00028356607714698998 -0.02449322205594677 0 0.0002473476639757499 -0.024588516888324211 0 0.00020731037312291925 -0.024523968493926601 0 0.00029036466903604601 -0.024368888302813741 0 0.00027163822621187534 -0.024385886356762275 0 0.00027729156269989616 -0.024374549437177633 0 -8.8199068137682996e-05 -0.023382629023930315 0 9.5219095186721241e-05 -0.022645927217360275 0 -0.0017617519093730642 -0.021390254963330146 0 -0.00011426813781669215 -0.022576931096632249 0 2.8851528748814716e-05 -0.020324852690556026 0 0.00045118945397795121 -0.024562296645189958 0 9.5219095186721241e-05 -0.022645927217360275 0 -0.0012441984116261327 -0.020611352631094992 0 -0.00050034066975201302 -0.021205419536949831 0 -0.00041204103988389104 -0.019721472233227479 0 9.5219095186721241e-05 -0.022645927217360275 0 -3.7590475912710964e-05 -0.022153689710221657 0 -0.0017216462135310898 -0.017869959838400302 0 -0.0020896033684763993 -0.01749308893733616 0 -0.0017216462135310898 -0.017869959838400302 0 9.5219095186721241e-05 -0.022645927217360275 0 0.00036397725080839275 -0.024891731874567849 0 -3.7590475912710964e-05 -0.022153689710221657 0 0.00031978945724092618 -0.024523789070308916 0 0.0002473476639757499 -0.024588516888324211 0 0.00030604128127451313 -0.024580409813466021 0 0.00036397725080839275 -0.024891731874567849 0 2.0244279299503211e-05 -0.024525903796485556 0 0.0002473476639757499 -0.024588516888324211 0 0.00020731037312291925 -0.024523968493926601 0 0.00010867191878157222 -0.024604936559093075 0 0.00012584763303299641 -0.02464802965117302 0 0.00010867191878157222 -0.024604936559093075 0 6.5761418902659748e-05 -0.024700365584185709 0 0.00014075999292258482 -0.024458594606868306 0 0.00020731037312291925 -0.024523968493926601 0 0.00010867191878157222 -0.024604936559093075 0 1.4926273555044238e-05 -0.024566959229163472 0 0.00014075999292258482 -0.024458594606868306 0 0.00010867191878157222 -0.024604936559093075 0 3.5895816029058895e-05 -0.024643634332433471 0 0.00010867191878157222 -0.024604936559093075 0 6.5761418902659748e-05 -0.024700365584185709 0 6.5761418902659748e-05 -0.024700365584185709 0 3.733472663142783e-05 -0.02475059840589959 0 6.7668186656171249e-05 -0.024735165268060608 0 3.733472663142783e-05 -0.02475059840589959 0 6.7668186656171249e-05 -0.024735165268060608 0 4.6857235804018952e-05 -0.024763797398311763 0 6.5761418902659748e-05 -0.024700365584185709 0 6.7668186656171249e-05 -0.024735165268060608 0 9.6706975820151821e-05 -0.024704494702670499 0 9.459071060871296e-05 -0.024727654639125678 0 6.7668186656171249e-05 -0.024735165268060608 0 9.6706975820151821e-05 -0.024704494702670499 0 0.00012584763303299641 -0.02464802965117302 0 6.5761418902659748e-05 -0.024700365584185709 0 9.6706975820151821e-05 -0.024704494702670499 0 0.00012584763303299641 -0.02464802965117302 0 9.6706975820151821e-05 -0.024704494702670499 0 0.00012502453798303169 -0.024678971096430052 0 0.00012584763303299641 -0.02464802965117302 0 0.00012502453798303169 -0.024678971096430052 0 0.00014358536278367097 -0.024653768062264658 0 -0.0012441984116261327 -0.020611352631094992 0 -0.00083104636164395599 -0.019505918972753163 0 -0.00041204103988389104 -0.019721472233227479 0 -3.7590475912710964e-05 -0.022153689710221657 0 -0.00094777889204947815 -0.02223518364665427 0 0.00012502453798303169 -0.024678971096430052 0 0.00014358536278367097 -0.024653768062264658 0 0.00014029142977333827 -0.024689646927174676 0 -0.0011430675481813638 -0.019453395541472868 0 -0.00105696312104097 -0.020103207100732299 0 -0.0012292291775785826 -0.020588921855970898 0 -0.00074131618836479913 -0.019652235331436507 0 -0.0011430675481813638 -0.019453395541472868 0 -0.00088016469777907422 -0.019921726186777542 0 -0.0020896033684763993 -0.01749308893733616 0 -3.7590475912710964e-05 -0.022153689710221657 0 -0.001279951895655171 -0.018627986969650963 0 -0.0013106668814274044 -0.018366885827968665 0 -0.0027227113131264268 -0.014679657312905131 0 -0.0027227215558255206 -0.014675479595511765 0 -0.0027237965792614488 -0.014659150210834018 0 -0.0011430675481813638 -0.019453395541472868 0 -0.00105696312104097 -0.020103207100732299 0 -0.00088016469777907422 -0.019921726186777542 0 -0.0027227215558255206 -0.014675479595511765 0 -0.0027267631338788179 -0.014673643191670648 0 -0.0027237965792614488 -0.014659150210834018 0 -0.0020896033684763993 -0.01749308893733616 0 -0.0016625717419300927 -0.017600808595705744 0 -0.00105696312104097 -0.020103207100732299 0 -0.00088016469777907422 -0.019921726186777542 0 -0.0010438938682175828 -0.02023379617549317 0 -0.0016625717419300927 -0.017600808595705744 0 -0.0013106668814274044 -0.018366885827968665 0 -0.0018826505062141659 -0.018830809810447918 0 -0.0018762480255173873 -0.018789903930292222 0 -0.0019178323911064003 -0.018706937261252023 0 -0.0013106668814274044 -0.018366885827968665 0 -0.0024669997567627017 -0.016295478739243002 0 -0.0027267631338788179 -0.014673643191670648 0 -0.0027583495337563458 -0.014692904261796317 0 -0.0027237965792614488 -0.014659150210834018 0 -0.0015769956625784822 -0.020737204774138242 0 -0.00074699811493358654 -0.0191414652767103 0 -0.0016454119945360644 -0.021736708292926787 0 -0.0013106668814274044 -0.018366885827968665 0 -0.0010848088250164647 -0.021341591915560329 0 -0.00094777889204947815 -0.02223518364665427 0 -0.0010848088250164647 -0.021341591915560329 0 -0.00094777889204947815 -0.02223518364665427 0 -0.0013106668814274044 -0.018366885827968665 0 -0.00105696312104097 -0.020103207100732299 0 -0.0012292291775785826 -0.020588921855970898 0 -0.0010442258509457858 -0.020235841552370192 0 -0.00094777889204947815 -0.02223518364665427 0 2.3041408544820124e-05 -0.024786255451986195 0 0.00027280009697469077 -0.024077507858599828 0 0.00027700725479638593 -0.024153523506177461 0 0.00015692377056330693 -0.024428949688752241 0 9.6706975820151821e-05 -0.024704494702670499 0 0.00012502453798303169 -0.024678971096430052 0 0.00011461997035671852 -0.024706510551650948 0 0.00012502453798303169 -0.024678971096430052 0 0.00014029142977333827 -0.024689646927174676 0 0.00011461997035671852 -0.024706510551650948 0 0.00014029142977333827 -0.024689646927174676 0 0.00011461997035671852 -0.024706510551650948 0 0.00011368744607081154 -0.024733772156590676 0 9.459071060871296e-05 -0.024727654639125678 0 9.6706975820151821e-05 -0.024704494702670499 0 0.00011461997035671852 -0.024706510551650948 0 9.459071060871296e-05 -0.024727654639125678 0 0.00011461997035671852 -0.024706510551650948 0 0.00011368744607081154 -0.024733772156590676 0 9.459071060871296e-05 -0.024727654639125678 0 0.00011368744607081154 -0.024733772156590676 0 9.5551174273627031e-05 -0.024739180498181669 0 0.00027700725479638593 -0.024153523506177461 0 0.00015692377056330693 -0.024428949688752241 0 0.00015597229284253407 -0.024679112547685421 0 2.3041408544820124e-05 -0.024786255451986195 0 0.00013535331664300441 -0.024633435028603747 0 0.00015692377056330693 -0.024428949688752241 0 9.854249292690137e-05 -0.024731447666876568 0 0.00015597229284253407 -0.024679112547685421 0 0.00011368744607081154 -0.024733772156590676 0 9.5551174273627031e-05 -0.024739180498181669 0 9.854249292690137e-05 -0.024731447666876568 0 -0.0018762480255173873 -0.018789903930292222 0 -0.0019178323911064003 -0.018706937261252023 0 -0.0019045635307971026 -0.018697458346777822 0 -0.0018762480255173873 -0.018789903930292222 0 -0.0019045635307971026 -0.018697458346777822 0 -0.0018955165241608097 -0.018681803347940288 0 -0.00095370848006726442 -0.021339215388161983 0 -0.00096665936574016117 -0.021458610697200998 0 -0.0010075544445101198 -0.021461382264118721 0 -0.0010848088250164647 -0.021341591915560329 0 -0.00040135788848142805 -0.023581648948684773 0 -0.0010848088250164647 -0.021341591915560329 0 -0.0017390170525279386 -0.019283112675111683 0 -0.0016886684765201289 -0.019059698252775977 0 -0.0017390170525279386 -0.019283112675111683 0 -0.0018997165085282558 -0.0186906968598359 0 -0.0018880332116832464 -0.018646434485169516 0 -0.0019289942247342888 -0.018652533875244823 0 -0.0019178323911064003 -0.018706937261252023 0 -0.0019045635307971026 -0.018697458346777822 0 -0.0019289942247342888 -0.018652533875244823 0 -0.0019045635307971026 -0.018697458346777822 0 -0.0018997165085282558 -0.0186906968598359 0 -0.0019289942247342888 -0.018652533875244823 0 -0.0017390170525279386 -0.019283112675111683 0 -0.0019035597378049183 -0.01845159739708209 0 -0.0024669997567627017 -0.016295478739243002 0 -0.0023231611282390346 -0.017022688589185216 0 -0.00040135788848142805 -0.023581648948684773 0 -0.00081008709045852579 -0.021757800857881912 0 -0.0017390170525279386 -0.019283112675111683 0 -0.00081008709045852579 -0.021757800857881912 0 9.854249292690137e-05 -0.024731447666876568 0 0.00015597229284253407 -0.024679112547685421 0 7.3904266920382284e-05 -0.024825459613378204 0 -0.00096665936574016117 -0.021458610697200998 0 -0.0010075544445101198 -0.021461382264118721 0 -0.0010590997033589221 -0.02158702489447209 0 9.854249292690137e-05 -0.024731447666876568 0 5.6811601216135154e-05 -0.024788833226346434 0 7.3904266920382284e-05 -0.024825459613378204 0 9.5551174273627031e-05 -0.024739180498181669 0 9.854249292690137e-05 -0.024731447666876568 0 6.9282057768683017e-05 -0.024759100174886754 0 9.854249292690137e-05 -0.024731447666876568 0 5.6811601216135154e-05 -0.024788833226346434 0 6.9282057768683017e-05 -0.024759100174886754 0 5.6811601216135154e-05 -0.024788833226346434 0 6.9282057768683017e-05 -0.024759100174886754 0 3.1146548282368837e-05 -0.024798003872241337 0 3.1146548282368837e-05 -0.024798003872241337 0 4.6857235804018952e-05 -0.024763797398311763 0 -2.2483011205802201e-06 -0.024797471374463073 0 6.9282057768683017e-05 -0.024759100174886754 0 3.1146548282368837e-05 -0.024798003872241337 0 4.6857235804018952e-05 -0.024763797398311763 0 3.733472663142783e-05 -0.02475059840589959 0 4.6857235804018952e-05 -0.024763797398311763 0 -2.2483011205802201e-06 -0.024797471374463073 0 6.7668186656171249e-05 -0.024735165268060608 0 4.6857235804018952e-05 -0.024763797398311763 0 7.7641852061292112e-05 -0.024744388871520192 0 9.459071060871296e-05 -0.024727654639125678 0 9.5551174273627031e-05 -0.024739180498181669 0 7.7641852061292112e-05 -0.024744388871520192 0 9.459071060871296e-05 -0.024727654639125678 0 6.7668186656171249e-05 -0.024735165268060608 0 7.7641852061292112e-05 -0.024744388871520192 0 9.5551174273627031e-05 -0.024739180498181669 0 6.9282057768683017e-05 -0.024759100174886754 0 7.7641852061292112e-05 -0.024744388871520192 0 6.9282057768683017e-05 -0.024759100174886754 0 4.6857235804018952e-05 -0.024763797398311763 0 7.7641852061292112e-05 -0.024744388871520192 0 -0.0024224361379383947 -0.014816119056954008 0 -0.0023838356037097276 -0.013119370584968648 0 -0.0024886748197244161 -0.014104852127759686 0 -0.0023613296016682839 -0.014970272997454088 0 -0.0015409081032563806 -0.014285576720511487 0 -0.0025593460943721912 -0.014479208964006153 0 -0.0024886748197244161 -0.014104852127759686 0 -0.0024362869915004939 -0.014784778278312507 0 -0.0025593460943721912 -0.014479208964006153 0 -0.0024886748197244161 -0.014104852127759686 0 -0.0027442490732760062 -0.01380462084571195 0 -0.0024886748197244161 -0.014104852127759686 0 -0.0024282017497898136 -0.013551392637741362 0 -0.0018501743014406784 -0.013579073854287981 0 -0.0022600128920809426 -0.012943252322355952 0 -0.0024282017497898136 -0.013551392637741362 0 -0.0018501743014406784 -0.013579073854287981 0 -0.0022600128920809426 -0.012943252322355952 0 -0.0024282017497898136 -0.013551392637741362 0 -0.0028212872246660215 -0.013319993070082503 0 -0.0024282017497898136 -0.013551392637741362 0 -0.0027442490732760062 -0.01380462084571195 0 -0.0028212872246660215 -0.013319993070082503 0 -0.0024886748197244161 -0.014104852127759686 0 -0.0024282017497898136 -0.013551392637741362 0 -0.0027442490732760062 -0.01380462084571195 0 -0.0027442490732760062 -0.01380462084571195 0 -0.0031086898770044326 -0.013695394040976881 0 -0.0028212872246660215 -0.013319993070082503 0 -0.0033444141860467765 -0.013169087434146015 0 -0.0031086898770044326 -0.013695394040976881 0 -0.0028212872246660215 -0.013319993070082503 0 -0.0033444141860467765 -0.013169087434146015 0 -0.0031086898770044326 -0.013695394040976881 0 -0.0036385018154140008 -0.013674870871711625 0 -0.0026736026012584729 -0.014569985216673716 0 -0.0027054366018000454 -0.014596093484182867 0 -0.0027058025903937228 -0.014642863817420098 0 -0.0024910853608768649 -0.014602633173604532 0 -0.003365827287181827 -0.013830989030023052 0 -0.0025593460943721912 -0.014479208964006153 0 -0.0026736026012584729 -0.014569985216673716 0 -0.0027279044255900842 -0.0146076324895421 0 -0.0025593460943721912 -0.014479208964006153 0 -0.0031086898770044326 -0.013695394040976881 0 -0.0036385018154140008 -0.013674870871711625 0 -0.0025593460943721912 -0.014479208964006153 0 -0.0027442490732760062 -0.01380462084571195 0 -0.0031086898770044326 -0.013695394040976881 0 -0.0025593460943721912 -0.014479208964006153 0 -0.0026736026012584729 -0.014569985216673716 0 -0.0027058025903937228 -0.014642863817420098 0 -0.0026075713163167553 -0.014655173642025421 0 -0.0029726846313508945 -0.014475296005289356 0 -0.0027054366018000454 -0.014596093484182867 0 -0.0027208519279780597 -0.014647585016139398 0 -0.0027184647770003541 -0.014648017366887428 0 -0.0027054366018000454 -0.014596093484182867 0 -0.0027279044255900842 -0.0146076324895421 0 -0.0026746932188256639 -0.014611560590586973 0 -0.0027054366018000454 -0.014596093484182867 0 -0.0027184647770003541 -0.014648017366887428 0 -0.0027004474238959031 -0.014659284197987444 0 -0.0026736026012584729 -0.014569985216673716 0 -0.0027054366018000454 -0.014596093484182867 0 -0.0027279044255900842 -0.0146076324895421 0 -0.0030377696236973811 -0.015311449833611646 0 -0.003365827287181827 -0.013830989030023052 0 -0.0027279044255900842 -0.0146076324895421 0 -0.0026746932188256639 -0.014611560590586973 0 -0.0026633962753511613 -0.014655174530125008 0 -0.0038709134446204422 -0.012849098839489467 0 -0.0033444141860467765 -0.013169087434146015 0 -0.0036385018154140008 -0.013674870871711625 0 -0.0026416746044585666 -0.014734117710929154 0 -0.0027279044255900842 -0.0146076324895421 0 -0.0026633962753511613 -0.014655174530125008 0 -0.0027227113131264268 -0.014679657312905131 0 -0.0027208519279780597 -0.014647585016139398 0 -0.0027237965792614488 -0.014659150210834018 0 -0.0025953108280522994 -0.014664710386694329 0 -0.0026746932188256639 -0.014611560590586973 0 -0.0026633962753511613 -0.014655174530125008 0 -0.0020896033684763993 -0.01749308893733616 0 -0.0029726846313508945 -0.014475296005289356 0 -0.0026416746044585666 -0.014734117710929154 0 -0.0025953108280522994 -0.014664710386694329 0 -0.0026633962753511613 -0.014655174530125008 0 -0.0027583495337563458 -0.014692904261796317 0 -0.0027237965792614488 -0.014659150210834018 0 -0.0027184647770003541 -0.014648017366887428 0 -0.0027208519279780597 -0.014647585016139398 0 -0.0027237965792614488 -0.014659150210834018 0 -0.0027184647770003541 -0.014648017366887428 0 -0.0027583495337563458 -0.014692904261796317 0 -0.0027184647770003541 -0.014648017366887428 0 -0.0027004474238959031 -0.014659284197987444 0 -0.0027583495337563458 -0.014692904261796317 0 -0.0027175432953165037 -0.014734666936368971 0 -0.0027004474238959031 -0.014659284197987444 0 -0.0027583495337563458 -0.014692904261796317 0 -0.0027175432953165037 -0.014734666936368971 0 -0.0027772367893956025 -0.014811443098852387 0 -0.0027175432953165037 -0.014734666936368971 0 -0.0026945888839233463 -0.014805553266756038 0 -0.0027772367893956025 -0.014811443098852387 0 -0.0027175432953165037 -0.014734666936368971 0 -0.002649859744788736 -0.014743684543862675 0 -0.0026945888839233463 -0.014805553266756038 0 -0.0025970860940837384 -0.01396185758298071 0 -0.0025152065552980691 -0.01372610646748294 0 -0.002649859744788736 -0.014743684543862675 0 -0.0025603045593718984 -0.014741595940990752 0 -0.0026541423064766786 -0.014822225012711838 0 -0.0027175432953165037 -0.014734666936368971 0 -0.002649859744788736 -0.014743684543862675 0 -0.0027004474238959031 -0.014659284197987444 0 -0.0027054366018000454 -0.014596093484182867 0 -0.0027004474238959031 -0.014659284197987444 0 -0.0027058025903937228 -0.014642863817420098 0 -0.002649859744788736 -0.014743684543862675 0 -0.0027004474238959031 -0.014659284197987444 0 -0.0025741037098003703 -0.014646192405184668 0 -0.0027009652949781461 -0.014648758353534141 0 -0.0026253044715902289 -0.014716304999031041 0 -0.0026253044715902289 -0.014716304999031041 0 -0.0023838356037097276 -0.013119370584968648 0 -0.0025741037098003703 -0.014646192405184668 0 -0.0025603045593718984 -0.014741595940990752 0 -0.0024487137235606653 -0.014637116608333521 0 -0.002649859744788736 -0.014743684543862675 0 -0.0025741037098003703 -0.014646192405184668 0 -0.0025603045593718984 -0.014741595940990752 0 -0.0025970860940837384 -0.01396185758298071 0 -0.0023838356037097276 -0.013119370584968648 0 -0.0023838356037097276 -0.013119370584968648 0 -0.0024381644655126458 -0.01164398402743746 0 -0.002493359448526558 -0.012947505779038688 0 -0.0026304718509928427 -0.013063233058744432 0 -0.0026842168854645247 -0.012847107918727304 0 -0.0025593460943721912 -0.014479208964006153 0 -0.0027058025903937228 -0.014642863817420098 0 -0.0024362869915004939 -0.014784778278312507 0 -0.0025387065997612445 -0.012732843765398922 0 -0.0026842168854645247 -0.012847107918727304 0 -0.0027256012624399255 -0.012630066976086259 0 -0.0025631368622151323 -0.013433987611066395 0 -0.0025691863136049664 -0.01334421864759288 0 -0.0026735376093035986 -0.013358731982997772 0 -0.0025693363141447247 -0.013113274764111994 0 -0.0024377605969527019 -0.012157959587941044 0 -0.002493359448526558 -0.012947505779038688 0 -0.0025387065997612445 -0.012732843765398922 0 -0.0026842168854645247 -0.012847107918727304 0 -0.0025693363141447247 -0.013113274764111994 0 -0.0025152065552980691 -0.01372610646748294 0 -0.002493359448526558 -0.012947505779038688 0 -0.0025387065997612445 -0.012732843765398922 0 -0.002356491942914111 -0.01283472523737166 0 -0.0025631368622151323 -0.013433987611066395 0 -0.00249760219005849 -0.013408940981963588 0 -0.0024585821321072205 -0.01349841105811681 0 -0.0025631368622151323 -0.013433987611066395 0 -0.00249760219005849 -0.013408940981963588 0 -0.0025691863136049664 -0.01334421864759288 0 -0.00249760219005849 -0.013408940981963588 0 -0.0024346950312821524 -0.013408547511619068 0 -0.0024585821321072205 -0.01349841105811681 0 -0.00249760219005849 -0.013408940981963588 0 -0.0024346950312821524 -0.013408547511619068 0 -0.0024670978691510724 -0.013356421064698224 0 -0.002649859744788736 -0.014743684543862675 0 -0.0026541423064766786 -0.014822225012711838 0 -0.0026945888839233463 -0.014805553266756038 0 -0.0025152065552980691 -0.01372610646748294 0 -0.0024750086089052915 -0.014492327596298258 0 -0.0026297623084863566 -0.014833549208405867 0 -0.0026945888839233463 -0.014805553266756038 0 -0.0027657872078391556 -0.014969265623704096 0 -0.0026945888839233463 -0.014805553266756038 0 -0.0027772367893956025 -0.014811443098852387 0 -0.0027657872078391556 -0.014969265623704096 0 -0.0024346950312821524 -0.013408547511619068 0 -0.0023708481328742538 -0.01336786482931469 0 -0.0023652684510439134 -0.013428323400794924 0 -0.0025152065552980691 -0.01372610646748294 0 -0.002358376541842319 -0.015730352794787829 0 -0.0024346950312821524 -0.013408547511619068 0 -0.0024585821321072205 -0.01349841105811681 0 -0.0023652684510439134 -0.013428323400794924 0 -0.0024346950312821524 -0.013408547511619068 0 -0.0023708481328742538 -0.01336786482931469 0 -0.0024670978691510724 -0.013356421064698224 0 -0.0023849714418042456 -0.011250863863831121 0 -0.0023428775188509194 -0.011261748636694607 0 -0.0023272259783675116 -0.011215509265525501 0 -0.0023190367993531267 -0.014217369460007574 0 -0.0023889971870601581 -0.012130651634878422 0 -0.0023190367993531267 -0.014217369460007574 0 -0.002358376541842319 -0.015730352794787829 0 -0.0023849714418042456 -0.011250863863831121 0 -0.0023428775188509194 -0.011261748636694607 0 -0.002383712711498745 -0.011309029934079737 0 -0.0023190367993531267 -0.014217369460007574 0 -0.0027107978058787049 -0.014100752667052432 0 -0.0023428775188509194 -0.011261748636694607 0 -0.0023272259783675116 -0.011215509265525501 0 -0.0022817828973724962 -0.011239423914257958 0 -0.0023428775188509194 -0.011261748636694607 0 -0.0022817828973724962 -0.011239423914257958 0 -0.002327502093039501 -0.01129714069261782 0 -0.00249760219005849 -0.013408940981963588 0 -0.0024670978691510724 -0.013356421064698224 0 -0.0025691863136049664 -0.01334421864759288 0 -0.0023272259783675116 -0.011215509265525501 0 -0.0022562145203412483 -0.011184645900399484 0 -0.0022817828973724962 -0.011239423914257958 0 -0.0023889971870601581 -0.012130651634878422 0 -0.0024188671717069294 -0.012320287989742688 0 -0.0022817828973724962 -0.011239423914257958 0 -0.0022215564522546135 -0.011200407967451437 0 -0.0022323378954861471 -0.01123711377726078 0 -0.0022215564522546135 -0.011200407967451437 0 -0.0021678635218473573 -0.011187596803670699 0 -0.0022323378954861471 -0.01123711377726078 0 -0.0022562145203412483 -0.011184645900399484 0 -0.0022817828973724962 -0.011239423914257958 0 -0.0022215564522546135 -0.011200407967451437 0 -0.0025691863136049664 -0.01334421864759288 0 -0.0026775449236067306 -0.013334531440196164 0 -0.0026735376093035986 -0.013358731982997772 0 -0.0022562145203412483 -0.011184645900399484 0 -0.0022215564522546135 -0.011200407967451437 0 -0.0022065625152545903 -0.011177459079517744 0 -0.0024188671717069294 -0.012320287989742688 0 -0.0024541891316885128 -0.011725610611833973 0 -0.00057311628779762919 -0.022004436698201412 0 -0.00066422576983952606 -0.022014673843726452 0 -0.0004737951388161682 -0.021759089366040922 0 -0.0010809010875814738 -0.020033354866668539 0 -0.00081008709045852579 -0.021757800857881912 0 -0.00032483300702736357 -0.023576688294899877 0 -0.00081008709045852579 -0.021757800857881912 0 3.0481760349152575e-05 -0.024848515902091403 0 2.1230765346165047e-06 -0.024849547254203741 0 2.8255298054070611e-05 -0.024829724784525529 0 2.1230765346165047e-06 -0.024849547254203741 0 2.8255298054070611e-05 -0.024829724784525529 0 -1.0289547291571794e-05 -0.024844728852828447 0 3.1146548282368837e-05 -0.024798003872241337 0 2.8255298054070611e-05 -0.024829724784525529 0 -1.0289547291571794e-05 -0.024844728852828447 0 5.6811601216135154e-05 -0.024788833226346434 0 2.8255298054070611e-05 -0.024829724784525529 0 7.3904266920382284e-05 -0.024825459613378204 0 5.6811601216135154e-05 -0.024788833226346434 0 3.1146548282368837e-05 -0.024798003872241337 0 2.8255298054070611e-05 -0.024829724784525529 0 3.0481760349152575e-05 -0.024848515902091403 0 2.8255298054070611e-05 -0.024829724784525529 0 7.3904266920382284e-05 -0.024825459613378204 0 -0.0018937629663032815 -0.018830772268551909 0 -0.0017800133286075244 -0.018654242140803176 0 -0.0018880332116832464 -0.018646434485169516 0 -0.0017800133286075244 -0.018654242140803176 0 -0.0018880332116832464 -0.018646434485169516 0 -0.0018417971209694301 -0.018570544557960499 0 -0.0023231611282390346 -0.017022688589185216 0 -0.002358376541842319 -0.015730352794787829 0 -0.0018880332116832464 -0.018646434485169516 0 -0.0019289942247342888 -0.018652533875244823 0 -0.0019525442651172468 -0.018536918481673777 0 -0.0018880332116832464 -0.018646434485169516 0 -0.0019525442651172468 -0.018536918481673777 0 -0.0018417971209694301 -0.018570544557960499 0 -0.0019525442651172468 -0.018536918481673777 0 -0.0018417971209694301 -0.018570544557960499 0 -0.0018563531552339286 -0.018469544245672251 0 -0.0017502579751464188 -0.018564046564080863 0 -0.0018417971209694301 -0.018570544557960499 0 -0.0018563531552339286 -0.018469544245672251 0 -0.0017502579751464188 -0.018564046564080863 0 -0.0017800133286075244 -0.018654242140803176 0 -0.0018417971209694301 -0.018570544557960499 0 -0.002563550731366414 -0.017186988260304063 0 -0.001007756268669439 -0.020653209383690876 0 -0.0023190367993531267 -0.014217369460007574 0 -0.002563550731366414 -0.017186988260304063 0 -0.002358376541842319 -0.015730352794787829 0 -0.002563550731366414 -0.017186988260304063 0 -0.0029213590049884078 -0.017292702217503331 0 -0.0024939210316218137 -0.017280735166932629 0 -0.002726918914081093 -0.017023112583621405 0 -0.0021922128876696403 -0.015895002088930632 0 -0.0022300331571368116 -0.015544196343373709 0 -0.002687256740776676 -0.01594265995848802 0 -0.002726918914081093 -0.017023112583621405 0 -0.0024904649046695025 -0.01683840292998429 0 -0.0030082366126696499 -0.016673036602075437 0 -0.0024939210316218137 -0.017280735166932629 0 -0.002726918914081093 -0.017023112583621405 0 -0.0024904649046695025 -0.01683840292998429 0 -0.0029213590049884078 -0.017292702217503331 0 -0.002726918914081093 -0.017023112583621405 0 -0.0030082366126696499 -0.016673036602075437 0 -0.0024939210316218137 -0.017280735166932629 0 -0.0024904649046695025 -0.01683840292998429 0 -0.0020279168414043982 -0.016960651920586326 0 -0.002563550731366414 -0.017186988260304063 0 -0.0020715921841082518 -0.017036423634192485 0 -0.0026238476691256077 -0.017479547171795541 0 -0.0020279168414043982 -0.016960651920586326 0 -0.0018488812442153772 -0.017418635988137591 0 -0.0020279168414043982 -0.016960651920586326 0 -0.0018488812442153772 -0.017418635988137591 0 -0.0016582928130149659 -0.016859979877764563 0 -0.0017502579751464188 -0.018564046564080863 0 -0.0018563531552339286 -0.018469544245672251 0 -0.0017125033598517883 -0.01848407420728472 0 -0.0010809010875814738 -0.020033354866668539 0 -0.001007756268669439 -0.020653209383690876 0 -0.00057311628779762919 -0.022004436698201412 0 -0.00066422576983952606 -0.022014673843726452 0 -0.00067247555945291917 -0.022258695558129166 0 2.1230765346165047e-06 -0.024849547254203741 0 -4.2217964385801006e-06 -0.02487024844315543 0 -2.6437295019916687e-05 -0.024856310408927385 0 -0.00066422576983952606 -0.022014673843726452 0 -0.00067247555945291917 -0.022258695558129166 0 -0.00085664696008763664 -0.022282305386659595 0 3.0481760349152575e-05 -0.024848515902091403 0 2.1230765346165047e-06 -0.024849547254203741 0 -4.2217964385801006e-06 -0.02487024844315543 0 -0.00032483300702736357 -0.023576688294899877 0 -0.00035752624048700519 -0.023921670641539234 0 -0.001007756268669439 -0.020653209383690876 0 -0.00035752624048700519 -0.023921670641539234 0 -0.001007756268669439 -0.020653209383690876 0 -0.00090305814165557582 -0.020826172255347698 0 -5.6437481573419504e-05 -0.024341300704192673 0 -0.00013761073808292234 -0.024370425609259921 0 -0.00011166171251606353 -0.024488539021182972 0 -0.00013761073808292234 -0.024370425609259921 0 -0.00011166171251606353 -0.024488539021182972 0 -0.00016005192261076619 -0.024575039248531952 0 -0.00036361676713014357 -0.02487821994834713 0 -0.00016005192261076619 -0.024575039248531952 0 -0.00017014725693846052 -0.02461349250947769 0 -0.00035752624048700519 -0.023921670641539234 0 -0.00018179827425174878 -0.024825744325909348 0 -0.00036361676713014357 -0.02487821994834713 0 -0.00010204165458208371 -0.024740041303505066 0 -5.5392725998460121e-05 -0.02484802711115509 0 -0.00036361676713014357 -0.02487821994834713 0 -0.00010204165458208371 -0.024740041303505066 0 -0.00017014725693846052 -0.02461349250947769 0 -5.4543444323612065e-05 -0.024754406160969314 0 -5.5392725998460121e-05 -0.02484802711115509 0 -2.431167723589446e-06 -0.024818378011531098 0 -5.4543444323612065e-05 -0.024754406160969314 0 -0.00010204165458208371 -0.024740041303505066 0 -0.00017014725693846052 -0.02461349250947769 0 -5.4543444323612065e-05 -0.024754406160969314 0 -0.00010204165458208371 -0.024740041303505066 0 -5.5392725998460121e-05 -0.02484802711115509 0 -5.5392725998460121e-05 -0.02484802711115509 0 -2.1715847019978466e-05 -0.024879197411204795 0 -9.8200109885687289e-06 -0.024868141923903846 0 -5.5392725998460121e-05 -0.02484802711115509 0 -2.6437295019916687e-05 -0.024856310408927385 0 -2.1715847019978466e-05 -0.024879197411204795 0 -4.2217964385801006e-06 -0.02487024844315543 0 -5.5392725998460121e-05 -0.02484802711115509 0 -2.6437295019916687e-05 -0.024856310408927385 0 -0.00035752624048700519 -0.023921670641539234 0 -1.0080719624960162e-06 -0.02507161238140538 0 2.1230765346165047e-06 -0.024849547254203741 0 -2.6437295019916687e-05 -0.024856310408927385 0 -1.0289547291571794e-05 -0.024844728852828447 0 -2.6437295019916687e-05 -0.024856310408927385 0 -2.1715847019978466e-05 -0.024879197411204795 0 -1.0289547291571794e-05 -0.024844728852828447 0 -1.009226352713476e-05 -0.024849428224918146 0 -2.4780600561039453e-05 -0.02486519917874162 0 -2.1715847019978466e-05 -0.024879197411204795 0 -1.0289547291571794e-05 -0.024844728852828447 0 -1.4790543549085421e-05 -0.024898379016245774 0 -1.7843635305199108e-06 -0.024907472209013012 0 8.6230919074760266e-06 -0.024929268621548331 0 4.6543775238718431e-06 -0.024922503140606189 0 -2.1715847019978466e-05 -0.024879197411204795 0 -1.7843635305199108e-06 -0.024907472209013012 0 -1.4790543549085421e-05 -0.024898379016245774 0 -2.1715847019978466e-05 -0.024879197411204795 0 5.590743289180332e-06 -0.024896268272837599 0 -9.8200109885687289e-06 -0.024868141923903846 0 -2.1715847019978466e-05 -0.024879197411204795 0 -1.7843635305199108e-06 -0.024907472209013012 0 5.590743289180332e-06 -0.024896268272837599 0 -1.7843635305199108e-06 -0.024907472209013012 0 5.590743289180332e-06 -0.024896268272837599 0 8.6230919074760266e-06 -0.024929268621548331 0 5.590743289180332e-06 -0.024896268272837599 0 1.5603324438317198e-05 -0.024870834975667024 0 1.8192835617447457e-05 -0.024910756283317952 0 5.590743289180332e-06 -0.024896268272837599 0 -9.8200109885687289e-06 -0.024868141923903846 0 1.5603324438317198e-05 -0.024870834975667024 0 -5.5392725998460121e-05 -0.02484802711115509 0 -9.8200109885687289e-06 -0.024868141923903846 0 -2.431167723589446e-06 -0.024818378011531098 0 -5.4543444323612065e-05 -0.024754406160969314 0 -2.431167723589446e-06 -0.024818378011531098 0 3.7467882798225819e-06 -0.024749781569594249 0 -2.431167723589446e-06 -0.024818378011531098 0 1.2942751752064088e-05 -0.024826191512232101 0 3.7467882798225819e-06 -0.024749781569594249 0 -9.8200109885687289e-06 -0.024868141923903846 0 -2.431167723589446e-06 -0.024818378011531098 0 1.5603324438317198e-05 -0.024870834975667024 0 -2.431167723589446e-06 -0.024818378011531098 0 1.5603324438317198e-05 -0.024870834975667024 0 1.2942751752064088e-05 -0.024826191512232101 0 1.5603324438317198e-05 -0.024870834975667024 0 1.2942751752064088e-05 -0.024826191512232101 0 1.88247822056961e-05 -0.024859604102013037 0 1.2942751752064088e-05 -0.024826191512232101 0 1.88247822056961e-05 -0.024859604102013037 0 1.8467890029110373e-05 -0.024820357047659572 0 1.88247822056961e-05 -0.024859604102013037 0 2.2181359527376603e-05 -0.024895739677937116 0 1.9209322967861946e-05 -0.024879752446288671 0 1.5603324438317198e-05 -0.024870834975667024 0 1.88247822056961e-05 -0.024859604102013037 0 2.2181359527376603e-05 -0.024895739677937116 0 2.2181359527376603e-05 -0.024895739677937116 0 2.9304785244554285e-05 -0.024918102820153578 0 1.9209322967861946e-05 -0.024879752446288671 0 2.9304785244554285e-05 -0.024918102820153578 0 1.8553661914605585e-05 -0.024931704136210715 0 8.3769350343050073e-06 -0.02495603053145715 0 2.2181359527376603e-05 -0.024895739677937116 0 2.9304785244554285e-05 -0.024918102820153578 0 1.8553661914605585e-05 -0.024931704136210715 0 1.8553661914605585e-05 -0.024931704136210715 0 6.6464798631090616e-06 -0.024962763474748084 0 1.1999685809935673e-05 -0.024941107427487161 0 1.8553661914605585e-05 -0.024931704136210715 0 1.8192835617447457e-05 -0.024910756283317952 0 1.1999685809935673e-05 -0.024941107427487161 0 2.2181359527376603e-05 -0.024895739677937116 0 1.8553661914605585e-05 -0.024931704136210715 0 1.8192835617447457e-05 -0.024910756283317952 0 5.590743289180332e-06 -0.024896268272837599 0 1.8192835617447457e-05 -0.024910756283317952 0 1.2075054602034642e-05 -0.024919295865563827 0 1.5603324438317198e-05 -0.024870834975667024 0 2.2181359527376603e-05 -0.024895739677937116 0 1.8192835617447457e-05 -0.024910756283317952 0 -7.1452198889712247e-10 -0.024999954718990774 0 6.6464798631090616e-06 -0.024962763474748084 0 9.0759599741986405e-07 -0.024980186960388645 0 1.8553661914605585e-05 -0.024931704136210715 0 6.6464798631090616e-06 -0.024962763474748084 0 8.3769350343050073e-06 -0.02495603053145715 0 6.6464798631090616e-06 -0.024962763474748084 0 8.3769350343050073e-06 -0.02495603053145715 0 9.0759599741986405e-07 -0.024980186960388645 0 -7.1452198889712247e-10 -0.024999954718990774 0 6.6464798631090616e-06 -0.024962763474748084 0 5.8532761977439946e-09 -0.024999951068401544 0 6.6464798631090616e-06 -0.024962763474748084 0 5.8532761977439946e-09 -0.024999951068401544 0 2.1246947264071716e-06 -0.024972141583444393 0 6.6464798631090616e-06 -0.024962763474748084 0 2.1246947264071716e-06 -0.024972141583444393 0 1.1999685809935673e-05 -0.024941107427487161 0 2.1246947264071716e-06 -0.024972141583444393 0 -1.5248644562222479e-06 -0.024956940492748238 0 1.1999685809935673e-05 -0.024941107427487161 0 5.8532761977439946e-09 -0.024999951068401544 0 2.1246947264071716e-06 -0.024972141583444393 0 -4.0165404432388726e-09 -0.024999952367434724 0 2.1246947264071716e-06 -0.024972141583444393 0 -1.5248644562222479e-06 -0.024956940492748238 0 -4.0165404432388726e-09 -0.024999952367434724 0 1.8192835617447457e-05 -0.024910756283317952 0 1.2075054602034642e-05 -0.024919295865563827 0 1.1999685809935673e-05 -0.024941107427487161 0 1.2075054602034642e-05 -0.024919295865563827 0 1.1999685809935673e-05 -0.024941107427487161 0 8.6230919074760266e-06 -0.024929268621548331 0 5.590743289180332e-06 -0.024896268272837599 0 1.2075054602034642e-05 -0.024919295865563827 0 8.6230919074760266e-06 -0.024929268621548331 0 -1.5248644562222479e-06 -0.024956940492748238 0 1.1999685809935673e-05 -0.024941107427487161 0 8.6230919074760266e-06 -0.024929268621548331 0 -1.5248644562222479e-06 -0.024956940492748238 0 8.6230919074760266e-06 -0.024929268621548331 0 -1.1249210390145516e-05 -0.024922225657014338 0 8.6230919074760266e-06 -0.024929268621548331 0 -1.1249210390145516e-05 -0.024922225657014338 0 4.6543775238718431e-06 -0.024922503140606189 0 -1.1249210390145516e-05 -0.024922225657014338 0 -4.9841791349218521e-05 -0.02486872367341373 0 -4.862620899330658e-05 -0.024847387963029991 0 -1.2553759613629757e-05 -0.024916357015697513 0 -2.351081271131641e-05 -0.024886444920206141 0 -1.5248644562222479e-06 -0.024956940492748238 0 -4.0165404432388726e-09 -0.024999952367434724 0 -4.1440207064328592e-06 -0.024964871783970024 0 -1.5248644562222479e-06 -0.024956940492748238 0 -1.1249210390145516e-05 -0.024922225657014338 0 -4.1440207064328592e-06 -0.024964871783970024 0 -1.1249210390145516e-05 -0.024922225657014338 0 -4.1440207064328592e-06 -0.024964871783970024 0 -3.4752739103405928e-06 -0.024965613556516619 0 -4.1440207064328592e-06 -0.024964871783970024 0 -3.6646177988795589e-09 -0.024999941716399837 0 -3.4752739103405928e-06 -0.024965613556516619 0 -4.0165404432388726e-09 -0.024999952367434724 0 -4.1440207064328592e-06 -0.024964871783970024 0 -3.6646177988795589e-09 -0.024999941716399837 0 -1.1249210390145516e-05 -0.024922225657014338 0 -3.4752739103405928e-06 -0.024965613556516619 0 -1.6323433017749298e-05 -0.02493149142175911 0 -3.6646177988795589e-09 -0.024999941716399837 0 -3.4752739103405928e-06 -0.024965613556516619 0 9.6483774794877515e-10 -0.024999951523577917 0 4.2737338902684068e-07 -0.024976456689690413 0 -3.4752739103405928e-06 -0.024965613556516619 0 -1.6323433017749298e-05 -0.02493149142175911 0 4.2737338902684068e-07 -0.024976456689690413 0 -3.4752739103405928e-06 -0.024965613556516619 0 9.6483774794877515e-10 -0.024999951523577917 0 -1.1249210390145516e-05 -0.024922225657014338 0 -4.9841791349218521e-05 -0.02486872367341373 0 -1.6323433017749298e-05 -0.02493149142175911 0 -4.5071295634112801e-05 -0.024898477849015083 0 -4.9841791349218521e-05 -0.02486872367341373 0 -1.6323433017749298e-05 -0.02493149142175911 0 -4.5071295634112801e-05 -0.024898477849015083 0 -4.9841791349218521e-05 -0.02486872367341373 0 -8.7065233375197172e-05 -0.024820329186158945 0 -4.9841791349218521e-05 -0.02486872367341373 0 -8.7065233375197172e-05 -0.024820329186158945 0 -4.8521155959992911e-05 -0.024820237982554477 0 -3.1806555116886608e-05 -0.024706412950949108 0 -8.7065233375197172e-05 -0.024820329186158945 0 -3.7086344679314892e-05 -0.024774341497505573 0 -8.7065233375197172e-05 -0.024820329186158945 0 -4.8521155959992911e-05 -0.024820237982554477 0 -3.7086344679314892e-05 -0.024774341497505573 0 7.1706389921785931e-06 -0.024709940633288952 0 -3.7086344679314892e-05 -0.024774341497505573 0 -1.7449975884492925e-06 -0.024763970344749586 0 7.1706389921785931e-06 -0.024709940633288952 0 6.5761418902659748e-05 -0.024700365584185709 0 -1.7449975884492925e-06 -0.024763970344749586 0 3.733472663142783e-05 -0.02475059840589959 0 -1.7449975884492925e-06 -0.024763970344749586 0 -2.2483011205802201e-06 -0.024797471374463073 0 6.5761418902659748e-05 -0.024700365584185709 0 3.733472663142783e-05 -0.02475059840589959 0 -1.7449975884492925e-06 -0.024763970344749586 0 -4.8521155959992911e-05 -0.024820237982554477 0 -1.7449975884492925e-06 -0.024763970344749586 0 -2.2483011205802201e-06 -0.024797471374463073 0 -4.8521155959992911e-05 -0.024820237982554477 0 -3.7086344679314892e-05 -0.024774341497505573 0 -1.7449975884492925e-06 -0.024763970344749586 0 -4.8521155959992911e-05 -0.024820237982554477 0 -2.2483011205802201e-06 -0.024797471374463073 0 -3.8927716985235541e-05 -0.024833848808786446 0 -1.0289547291571794e-05 -0.024844728852828447 0 -2.2483011205802201e-06 -0.024797471374463073 0 -3.8927716985235541e-05 -0.024833848808786446 0 3.1146548282368837e-05 -0.024798003872241337 0 -1.0289547291571794e-05 -0.024844728852828447 0 -2.2483011205802201e-06 -0.024797471374463073 0 -1.7843635305199108e-06 -0.024907472209013012 0 -1.4790543549085421e-05 -0.024898379016245774 0 4.6543775238718431e-06 -0.024922503140606189 0 -2.4780600561039453e-05 -0.02486519917874162 0 -2.351081271131641e-05 -0.024886444920206141 0 -4.8521155959992911e-05 -0.024820237982554477 0 -3.8927716985235541e-05 -0.024833848808786446 0 -4.862620899330658e-05 -0.024847387963029991 0 -4.9841791349218521e-05 -0.02486872367341373 0 -4.8521155959992911e-05 -0.024820237982554477 0 -4.862620899330658e-05 -0.024847387963029991 0 -0.0024884909510774441 -0.00063045308110807057 0 -0.0025569156843445783 -0.00060539668822969536 0 -0.0024693171000553364 -0.00052631426745299709 0 -0.0028547543940908074 0.00015656756999245147 0 -0.001785769859745276 -0.0025623002616373711 0 -0.0024039911433009239 -0.00054588661242736792 0 -0.0024884909510774441 -0.00063045308110807057 0 -0.0024693171000553364 -0.00052631426745299709 0 -0.0024039911433009239 -0.00054588661242736792 0 -0.0025792879810184071 -0.0003406728594328049 0 -0.0022943038050719832 -0.00040457310333877669 0 -0.0024039911433009239 -0.00054588661242736792 0 -0.0024096077539291997 -0.00068398464293708541 0 -0.0024884909510774441 -0.00063045308110807057 0 -0.0024096077539291997 -0.00068398464293708541 0 -0.0024884909510774441 -0.00063045308110807057 0 -0.0025405501033778461 -0.00073273086476065394 0 -0.0024884909510774441 -0.00063045308110807057 0 -0.0025569156843445783 -0.00060539668822969536 0 -0.0025405501033778461 -0.00073273086476065394 0 -0.0014126095755868915 -0.004560609125162097 0 -0.0024473852455963543 -0.0022087463486318544 0 -0.0026311182358382834 -0.00069763711502409266 0 -0.0025569156843445783 -0.00060539668822969536 0 -0.0025405501033778461 -0.00073273086476065394 0 -0.0011976544232071371 -0.0048635600856995666 0 -0.0017195248736598058 -0.0045300607577481574 0 -0.00158147722333507 -0.0044367811897033172 0 -0.00060441274425502179 -0.0073255692743970022 0 -0.00061061616139242191 -0.0073404872398445571 0 -0.0006092511495409019 -0.0073387708021879928 0 -0.0011976544232071371 -0.0048635600856995666 0 -0.00158147722333507 -0.0044367811897033172 0 -0.00092084421751431719 -0.0046757849348829364 0 -0.0014126095755868915 -0.004560609125162097 0 -0.00087438213019806949 -0.0064169160679352945 0 -0.0015085944920735074 -0.0062024500842086253 0 -0.0017196125170807937 -0.0063420904772810366 0 -0.0014795994151413706 -0.0064632056443420299 0 -0.0015085944920735074 -0.0062024500842086253 0 -0.0014795994151413706 -0.0064632056443420299 0 -0.0012438407387593698 -0.006404734629858775 0 -0.0014126095755868915 -0.004560609125162097 0 -0.0022879930110288305 -0.0035191547997355881 0 -0.0017196125170807937 -0.0063420904772810366 0 -0.0016543111624255237 -0.0065470209399080669 0 -0.0014795994151413706 -0.0064632056443420299 0 -0.0016543111624255237 -0.0065470209399080669 0 -0.0014795994151413706 -0.0064632056443420299 0 -0.0014243788937787585 -0.0067074894311272629 0 -0.0014795994151413706 -0.0064632056443420299 0 -0.0014243788937787585 -0.0067074894311272629 0 -0.0013365444277953305 -0.006571254040896723 0 -0.0016543111624255237 -0.0065470209399080669 0 -0.0014243788937787585 -0.0067074894311272629 0 -0.0017205515454712943 -0.0067526469920479847 0 -0.0009042147402038293 -0.0046140125042035554 0 -0.001785769859745276 -0.0025623002616373711 0 -0.00040696544796189307 -0.0018793222625973359 0 -0.00070560395648943872 -0.001820006743933985 0 -0.00070201939226517056 -0.0020548930008739376 0 -0.00040696544796189307 -0.0018793222625973359 0 -0.00068526942477311757 -0.0015554378710493295 0 -0.00070560395648943872 -0.001820006743933985 0 -0.0022879930110288305 -0.0035191547997355881 0 -0.001785769859745276 -0.0025623002616373711 0 -0.0017196125170807937 -0.0063420904772810366 0 -0.0016543111624255237 -0.0065470209399080669 0 -0.0019319474696623414 -0.0064697838493456743 0 -0.0016543111624255237 -0.0065470209399080669 0 -0.0017205515454712943 -0.0067526469920479847 0 -0.0019319474696623414 -0.0064697838493456743 0 -0.0025792879810184071 -0.0003406728594328049 0 -0.0023714203036841988 -0.00016416662772734362 0 -0.0022943038050719832 -0.00040457310333877669 0 -0.001785769859745276 -0.0025623002616373711 0 -0.0017392491807475413 -0.0011787845082700016 0 -0.00070560395648943872 -0.001820006743933985 0 -0.00095617994547167722 -0.0017343944975679196 0 -0.00090812346254666421 -0.0019643407476117726 0 -0.00068526942477311757 -0.0015554378710493295 0 -0.00070560395648943872 -0.001820006743933985 0 -0.00095617994547167722 -0.0017343944975679196 0 -0.0017392491807475413 -0.0011787845082700016 0 -0.001836879820243244 0.0027600791105129485 0 -0.00095617994547167722 -0.0017343944975679196 0 -0.00090812346254666421 -0.0019643407476117726 0 -0.0012350535091601119 -0.0018992934980628347 0 -0.0023714203036841988 -0.00016416662772734362 0 -0.0021908066441269532 -0.00026870280893349382 0 -0.0021687310383605974 1.2908624464145779e-05 0 -0.0021908066441269532 -0.00026870280893349382 0 -0.00201692597455302 -0.00023620556323882742 0 -0.0021687310383605974 1.2908624464145779e-05 0 -0.0020135923165353377 0.0088749580507506472 0 -0.0020425153054642068 0.0090784038263740426 0 -0.0017696386274143464 0.0087551367470848126 0 -0.0021132047969385573 0.0046678854970308497 0 -0.001836879820243244 0.0027600791105129485 0 -0.0021908066441269532 -0.00026870280893349382 0 -0.0020372826215732083 -0.00036102051379791815 0 -0.0021664289669508581 -0.00046148261159413545 0 -0.0021908066441269532 -0.00026870280893349382 0 -0.00201692597455302 -0.00023620556323882742 0 -0.0020372826215732083 -0.00036102051379791815 0 -0.0021908066441269532 -0.00026870280893349382 0 -0.0022943038050719832 -0.00040457310333877669 0 -0.0021664289669508581 -0.00046148261159413545 0 -0.0023714203036841988 -0.00016416662772734362 0 -0.0021908066441269532 -0.00026870280893349382 0 -0.0022943038050719832 -0.00040457310333877669 0 -0.0022322711703253511 0.0091599777720597179 0 -0.0021849797963058156 0.0091437613012894346 0 -0.0022213556324242613 0.0091763316446522424 0 -0.0021765020758498675 0.0089010280582478441 0 -0.0021719452116746659 0.0091010788217868194 0 -0.0022213556324242613 0.0091763316446522424 0 -0.0023648847284565705 0.0092874592276656238 0 -0.0021318077969998479 0.0090594496130592811 0 -0.0021765020758498675 0.0089010280582478441 0 -0.0021037951213726943 0.0089925561916552928 0 -0.0021719452116746659 0.0091010788217868194 0 -0.0021765020758498675 0.0089010280582478441 0 -0.0021037951213726943 0.0089925561916552928 0 -0.0020135923165353377 0.0088749580507506472 0 -0.0021037951213726943 0.0089925561916552928 0 -0.0020135923165353377 0.0088749580507506472 0 -0.0020425153054642068 0.0090784038263740426 0 -0.0021132047969385573 0.0046678854970308497 0 -0.0021532035691655725 0.0045654614186639089 0 -0.00201692597455302 -0.00023620556323882742 0 -0.0019900894154210383 -0.00040109309249186458 0 -0.0020372826215732083 -0.00036102051379791815 0 -0.0020425153054642068 0.0090784038263740426 0 -0.0021719452116746659 0.0091010788217868194 0 -0.0022386835063867962 0.0091220797681662111 0 -0.0021037951213726943 0.0089925561916552928 0 -0.0020425153054642068 0.0090784038263740426 0 -0.0021719452116746659 0.0091010788217868194 0 -0.0021719452116746659 0.0091010788217868194 0 -0.0022122775371630093 0.0091445743778133543 0 -0.0022386835063867962 0.0091220797681662111 0 -0.0021719452116746659 0.0091010788217868194 0 -0.0022122775371630093 0.0091445743778133543 0 -0.0022213556324242613 0.0091763316446522424 0 -0.0022386835063867962 0.0091220797681662111 0 -0.0021975191140743791 0.0091641975006579481 0 -0.0022557231685996298 0.0089311047312784827 0 -0.0022122775371630093 0.0091445743778133543 0 -0.0022386835063867962 0.0091220797681662111 0 -0.0021975191140743791 0.0091641975006579481 0 -0.0020471704777355972 -0.0003284475655377902 0 -0.0016394720617998034 -0.00049821610724694397 0 -0.0019900894154210383 -0.00040109309249186458 0 -0.001971477634093909 -0.00042233177401233981 0 -0.0020669816134691529 -0.00016150683470002707 0 -0.0019900894154210383 -0.00040109309249186458 0 -0.001971477634093909 -0.00042233177401233981 0 -0.0020372826215732083 -0.00036102051379791815 0 -0.001971477634093909 -0.00042233177401233981 0 -0.0020087876597854677 -0.00052863101695280591 0 -0.0020703801768363096 -0.00049837664577517631 0 -0.001971477634093909 -0.00042233177401233981 0 -0.0020372826215732083 -0.00036102051379791815 0 -0.0020703801768363096 -0.00049837664577517631 0 -0.0020087876597854677 -0.00052863101695280591 0 -0.0020703801768363096 -0.00049837664577517631 0 -0.0020695035707628587 -0.00060316310051001772 0 -0.0020087876597854677 -0.00052863101695280591 0 -0.0019988145652999121 -0.00061126330461748945 0 -0.0020695035707628587 -0.00060316310051001772 0 -0.0019988145652999121 -0.00061126330461748945 0 -0.0020695035707628587 -0.00060316310051001772 0 -0.0020180711098183668 -0.00070911667763946568 0 -0.0019988145652999121 -0.00061126330461748945 0 -0.0019624025179287483 -0.00067477950082698484 0 -0.0020180711098183668 -0.00070911667763946568 0 -0.0019171136104159459 -0.00064588543839516372 0 -0.0019624025179287483 -0.00067477950082698484 0 -0.0019193804441589987 -0.0007303683798182385 0 -0.0019988145652999121 -0.00061126330461748945 0 -0.0019171136104159459 -0.00064588543839516372 0 -0.0019624025179287483 -0.00067477950082698484 0 -0.0019988145652999121 -0.00061126330461748945 0 -0.0019171136104159459 -0.00064588543839516372 0 -0.0019484339675901331 -0.00056311827799521749 0 -0.001971477634093909 -0.00042233177401233981 0 -0.0020087876597854677 -0.00052863101695280591 0 -0.0019484339675901331 -0.00056311827799521749 0 -0.001971477634093909 -0.00042233177401233981 0 -0.0019484339675901331 -0.00056311827799521749 0 -0.001847142503099132 -0.00059513712003142071 0 -0.0020087876597854677 -0.00052863101695280591 0 -0.0019988145652999121 -0.00061126330461748945 0 -0.0019484339675901331 -0.00056311827799521749 0 -0.0021532035691655725 0.0045654614186639089 0 -0.0022870889443512106 0.0030714954653977963 0 -0.0019900894154210383 -0.00040109309249186458 0 -0.0020669816134691529 -0.00016150683470002707 0 -0.0023249383328089613 6.1996907195565313e-05 0 -0.0019171136104159459 -0.00064588543839516372 0 -0.0019484339675901331 -0.00056311827799521749 0 -0.001847142503099132 -0.00059513712003142071 0 -0.0019171136104159459 -0.00064588543839516372 0 -0.001847142503099132 -0.00059513712003142071 0 -0.0018673075631214801 -0.00068759832185083145 0 -0.0019171136104159459 -0.00064588543839516372 0 -0.0018673075631214801 -0.00068759832185083145 0 -0.0019193804441589987 -0.0007303683798182385 0 -0.001847142503099132 -0.00059513712003142071 0 -0.0018673075631214801 -0.00068759832185083145 0 -0.0018232692559684367 -0.00069983532330709247 0 -0.0016394720617998034 -0.00049821610724694397 0 -0.0022870889443512106 0.0030714954653977963 0 -0.0022943038050719832 -0.00040457310333877669 0 -0.0021664289669508581 -0.00046148261159413545 0 -0.0022593299844719593 -0.00060504945922730275 0 -0.0024039911433009239 -0.00054588661242736792 0 -0.0022943038050719832 -0.00040457310333877669 0 -0.0022593299844719593 -0.00060504945922730275 0 -0.0020372826215732083 -0.00036102051379791815 0 -0.0020703801768363096 -0.00049837664577517631 0 -0.0021664289669508581 -0.00046148261159413545 0 -0.0020703801768363096 -0.00049837664577517631 0 -0.0021664289669508581 -0.00046148261159413545 0 -0.002147373044181479 -0.00058903778789357844 0 -0.002147373044181479 -0.00058903778789357844 0 -0.0021988714480050972 -0.00067823740812879426 0 -0.0022593299844719593 -0.00060504945922730275 0 -0.0021664289669508581 -0.00046148261159413545 0 -0.002147373044181479 -0.00058903778789357844 0 -0.0022593299844719593 -0.00060504945922730275 0 -0.0020703801768363096 -0.00049837664577517631 0 -0.002147373044181479 -0.00058903778789357844 0 -0.0020695035707628587 -0.00060316310051001772 0 -0.002147373044181479 -0.00058903778789357844 0 -0.0020695035707628587 -0.00060316310051001772 0 -0.0021145777286653523 -0.0006835718805647754 0 -0.0020695035707628587 -0.00060316310051001772 0 -0.0021145777286653523 -0.0006835718805647754 0 -0.0020180711098183668 -0.00070911667763946568 0 -0.002147373044181479 -0.00058903778789357844 0 -0.0021145777286653523 -0.0006835718805647754 0 -0.0021988714480050972 -0.00067823740812879426 0 -0.0021988714480050972 -0.00067823740812879426 0 -0.0022593299844719593 -0.00060504945922730275 0 -0.0022766041790262342 -0.00075449963031064033 0 -0.0024096077539291997 -0.00068398464293708541 0 -0.0022593299844719593 -0.00060504945922730275 0 -0.0022766041790262342 -0.00075449963031064033 0 -0.0024039911433009239 -0.00054588661242736792 0 -0.0024096077539291997 -0.00068398464293708541 0 -0.0022593299844719593 -0.00060504945922730275 0 -0.0022766041790262342 -0.00075449963031064033 0 -0.0022531945237885 -0.00090505514364557676 0 -0.0024114559866355149 -0.00083213885489595671 0 -0.0022766041790262342 -0.00075449963031064033 0 -0.0021994379047658012 -0.00082004150650806257 0 -0.0022531945237885 -0.00090505514364557676 0 -0.0021988714480050972 -0.00067823740812879426 0 -0.0022766041790262342 -0.00075449963031064033 0 -0.0021668065995745474 -0.00074755990220803687 0 -0.0022766041790262342 -0.00075449963031064033 0 -0.0021668065995745474 -0.00074755990220803687 0 -0.0021994379047658012 -0.00082004150650806257 0 -0.0021145777286653523 -0.0006835718805647754 0 -0.0021988714480050972 -0.00067823740812879426 0 -0.0021668065995745474 -0.00074755990220803687 0 -0.0021145777286653523 -0.0006835718805647754 0 -0.0021668065995745474 -0.00074755990220803687 0 -0.0020728742767931181 -0.00076505150933991529 0 -0.0021145777286653523 -0.0006835718805647754 0 -0.0020728742767931181 -0.00076505150933991529 0 -0.0020180711098183668 -0.00070911667763946568 0 -0.0021668065995745474 -0.00074755990220803687 0 -0.0020728742767931181 -0.00076505150933991529 0 -0.0021157241093369239 -0.00082097211463398416 0 -0.0020728742767931181 -0.00076505150933991529 0 -0.0021157241093369239 -0.00082097211463398416 0 -0.0020392140967777283 -0.00085408229955901706 0 -0.0020728742767931181 -0.00076505150933991529 0 -0.0020392140967777283 -0.00085408229955901706 0 -0.002004922227931341 -0.00079624768644343143 0 -0.0021157241093369239 -0.00082097211463398416 0 -0.0020392140967777283 -0.00085408229955901706 0 -0.0020962162805125803 -0.00087581316895106529 0 -0.0021668065995745474 -0.00074755990220803687 0 -0.0021157241093369239 -0.00082097211463398416 0 -0.0021994379047658012 -0.00082004150650806257 0 -0.0021157241093369239 -0.00082097211463398416 0 -0.0021994379047658012 -0.00082004150650806257 0 -0.0021748632320662989 -0.00087717050457149074 0 -0.0021994379047658012 -0.00082004150650806257 0 -0.0021748632320662989 -0.00087717050457149074 0 -0.0022531945237885 -0.00090505514364557676 0 -0.002085520045120312 -0.00092317373906978216 0 -0.0022531945237885 -0.00090505514364557676 0 -0.0019675593756550073 -0.0010850979432933281 0 -0.002362820609913655 -0.00080215846962810005 0 -0.0018879756011039566 -0.0011420634892486319 0 -0.0021060188609187272 -0.0011432690122483325 0 -0.0021247776376752308 -0.0011604529780650898 0 -0.0019675593756550073 -0.0010850979432933281 0 -0.0021748632320662989 -0.00087717050457149074 0 -0.002085520045120312 -0.00092317373906978216 0 -0.0022531945237885 -0.00090505514364557676 0 -0.0021157241093369239 -0.00082097211463398416 0 -0.0021748632320662989 -0.00087717050457149074 0 -0.0020962162805125803 -0.00087581316895106529 0 -0.0020392140967777283 -0.00085408229955901706 0 -0.002085520045120312 -0.00092317373906978216 0 -0.0019595806392895478 -0.00094278896261982105 0 -0.0020392140967777283 -0.00085408229955901706 0 -0.0020962162805125803 -0.00087581316895106529 0 -0.002085520045120312 -0.00092317373906978216 0 -0.0021748632320662989 -0.00087717050457149074 0 -0.0020962162805125803 -0.00087581316895106529 0 -0.002085520045120312 -0.00092317373906978216 0 -0.0013630282988812928 -0.0046977856687929189 0 -0.0013842211365843599 -0.0050944939301270755 0 -0.0013842211365843599 -0.0050944939301270755 0 -0.0017300317256979758 -0.0034534104344252307 0 -0.0013842211365843599 -0.0050944939301270755 0 -0.00060911788854514995 -0.0079395838914969787 0 -0.002362820609913655 -0.00080215846962810005 0 -0.0017300317256979758 -0.0034534104344252307 0 -0.0021234562863774679 -0.0011338390569936877 0 -0.0021247776376752308 -0.0011604529780650898 0 -0.0019954282907739258 -0.0012503323214671307 0 -0.0021060188609187272 -0.0011432690122483325 0 -0.0021234562863774679 -0.0011338390569936877 0 -0.0021247776376752308 -0.0011604529780650898 0 -0.0018592992795075038 -0.0007519257067208372 0 -0.0018232692559684367 -0.00069983532330709247 0 -0.0018540981939951958 -0.00078275579932706124 0 -0.0018673075631214801 -0.00068759832185083145 0 -0.0018592992795075038 -0.0007519257067208372 0 -0.0018232692559684367 -0.00069983532330709247 0 -0.0018673075631214801 -0.00068759832185083145 0 -0.0018592992795075038 -0.0007519257067208372 0 -0.0019193804441589987 -0.0007303683798182385 0 -0.0018592992795075038 -0.0007519257067208372 0 -0.0018977080919111186 -0.00078720591756315731 0 -0.0019193804441589987 -0.0007303683798182385 0 -0.0018592992795075038 -0.0007519257067208372 0 -0.0018977080919111186 -0.00078720591756315731 0 -0.0018759763738293871 -0.00081901941195127912 0 -0.0018977080919111186 -0.00078720591756315731 0 -0.0019385585510971902 -0.00079198542290753954 0 -0.001924102658632653 -0.00083857541267073031 0 -0.0019385585510971902 -0.00079198542290753954 0 -0.0019710545764261758 -0.0008534640482623974 0 -0.001924102658632653 -0.00083857541267073031 0 -0.0018977080919111186 -0.00078720591756315731 0 -0.0019385585510971902 -0.00079198542290753954 0 -0.0019193804441589987 -0.0007303683798182385 0 -0.0019385585510971902 -0.00079198542290753954 0 -0.0019193804441589987 -0.0007303683798182385 0 -0.0020180711098183668 -0.00070911667763946568 0 -0.0019624025179287483 -0.00067477950082698484 0 -0.0019193804441589987 -0.0007303683798182385 0 -0.0020180711098183668 -0.00070911667763946568 0 -0.0020728742767931181 -0.00076505150933991529 0 -0.0020180711098183668 -0.00070911667763946568 0 -0.002004922227931341 -0.00079624768644343143 0 -0.0019385585510971902 -0.00079198542290753954 0 -0.0020180711098183668 -0.00070911667763946568 0 -0.002004922227931341 -0.00079624768644343143 0 -0.0019385585510971902 -0.00079198542290753954 0 -0.002004922227931341 -0.00079624768644343143 0 -0.0019710545764261758 -0.0008534640482623974 0 -0.0020392140967777283 -0.00085408229955901706 0 -0.002004922227931341 -0.00079624768644343143 0 -0.0019710545764261758 -0.0008534640482623974 0 -0.0019595806392895478 -0.00094278896261982105 0 -0.0018759763738293871 -0.00081901941195127912 0 -0.0018477466191774315 -0.00079503966780285608 0 -0.0019595806392895478 -0.00094278896261982105 0 -0.0019675593756550073 -0.0010850979432933281 0 -0.0016568551157552431 -0.0012670064773450398 0 -0.0019595806392895478 -0.00094278896261982105 0 -0.001924102658632653 -0.00083857541267073031 0 -0.0018759763738293871 -0.00081901941195127912 0 -0.0019556788023682463 -0.00093285174240368232 0 -0.0017647937310702464 -0.001029370837921532 0 -0.0020392140967777283 -0.00085408229955901706 0 -0.0019710545764261758 -0.0008534640482623974 0 -0.0019595806392895478 -0.00094278896261982105 0 -0.0019710545764261758 -0.0008534640482623974 0 -0.0019595806392895478 -0.00094278896261982105 0 -0.001924102658632653 -0.00083857541267073031 0 -0.002085520045120312 -0.00092317373906978216 0 -0.0019595806392895478 -0.00094278896261982105 0 -0.0019675593756550073 -0.0010850979432933281 0 -0.0018977080919111186 -0.00078720591756315731 0 -0.001924102658632653 -0.00083857541267073031 0 -0.0018759763738293871 -0.00081901941195127912 0 -0.0018759763738293871 -0.00081901941195127912 0 -0.0018477466191774315 -0.00079503966780285608 0 -0.0018540981939951958 -0.00078275579932706124 0 -0.0018592992795075038 -0.0007519257067208372 0 -0.0018759763738293871 -0.00081901941195127912 0 -0.0018540981939951958 -0.00078275579932706124 0 -0.0016568551157552431 -0.0012670064773450398 0 -0.0019113928662889319 -0.0013310707729567981 0 -0.0015526306861942357 -0.0016193701962805226 0 -0.0019675593756550073 -0.0010850979432933281 0 -0.0016568551157552431 -0.0012670064773450398 0 -0.0019113928662889319 -0.0013310707729567981 0 -0.0014996179914874652 -0.0078818064372183395 0 -0.0020308907399659458 -0.0076357648416178992 0 -0.0014042911316427069 -0.0074613734537084756 0 -0.0017595389981817074 -0.0045299678846728794 0 -0.0018055073510381458 -0.0046162926771319548 0 -0.0010325809458194932 -0.0080857136101034465 0 -0.00082176361358514492 -0.0077808981539507632 0 -0.001107703612772919 -0.0078037216972351728 0 -0.0010325809458194932 -0.0080857136101034465 0 -0.00082176361358514492 -0.0077808981539507632 0 -0.00063371650341226152 -0.0079061631709937113 0 -0.0013842211365843599 -0.0050944939301270755 0 -0.0017595389981817074 -0.0045299678846728794 0 -0.0021060188609187272 -0.0011432690122483325 0 -0.0019675593756550073 -0.0010850979432933281 0 -0.0019113928662889319 -0.0013310707729567981 0 -0.0021060188609187272 -0.0011432690122483325 0 -0.0021354935526106782 -0.0011545763169729542 0 -0.0019113928662889319 -0.0013310707729567981 0 -0.0010325809458194932 -0.0080857136101034465 0 -0.0014996179914874652 -0.0078818064372183395 0 -0.001107703612772919 -0.0078037216972351728 0 -0.0014996179914874652 -0.0078818064372183395 0 -0.001107703612772919 -0.0078037216972351728 0 -0.0014042911316427069 -0.0074613734537084756 0 -0.001107703612772919 -0.0078037216972351728 0 -0.00098687244952326428 -0.0075629520124730603 0 -0.0014042911316427069 -0.0074613734537084756 0 -0.00082176361358514492 -0.0077808981539507632 0 -0.001107703612772919 -0.0078037216972351728 0 -0.00098687244952326428 -0.0075629520124730603 0 -0.00082176361358514492 -0.0077808981539507632 0 -0.00098687244952326428 -0.0075629520124730603 0 -0.00078593498454172805 -0.0076223112897890336 0 -0.00078593498454172805 -0.0076223112897890336 0 -0.0006321359340627664 -0.00769736549087662 0 -0.00069151097724966368 -0.0075600588741685038 0 -0.0006321359340627664 -0.00769736549087662 0 -0.00047229343593816842 -0.0076905184015389127 0 -0.00063371650341226152 -0.0079061631709937113 0 -0.0006321359340627664 -0.00769736549087662 0 -0.00053556266148055756 -0.0076179189642479493 0 -0.00069151097724966368 -0.0075600588741685038 0 -0.00082176361358514492 -0.0077808981539507632 0 -0.00078593498454172805 -0.0076223112897890336 0 -0.0006321359340627664 -0.00769736549087662 0 -0.0006321359340627664 -0.00769736549087662 0 -0.00047229343593816842 -0.0076905184015389127 0 -0.00053556266148055756 -0.0076179189642479493 0 -0.00047229343593816842 -0.0076905184015389127 0 -0.00048185115595899186 -0.0077104716686457239 0 -0.00044619092934842673 -0.007697829377932096 0 -0.00047229343593816842 -0.0076905184015389127 0 -0.00044619092934842673 -0.007697829377932096 0 -0.00045419821368192974 -0.0076695083281121948 0 -0.00047229343593816842 -0.0076905184015389127 0 -0.00045419821368192974 -0.0076695083281121948 0 -0.00053556266148055756 -0.0076179189642479493 0 -0.00047229343593816842 -0.0076905184015389127 0 -0.00046150277084324739 -0.007706226847029183 0 -0.00048185115595899186 -0.0077104716686457239 0 -0.00047229343593816842 -0.0076905184015389127 0 -0.00063371650341226152 -0.0079061631709937113 0 -0.00046150277084324739 -0.007706226847029183 0 -0.00060911788854514995 -0.0079395838914969787 0 -0.00060083581545461136 -0.00755954004921336 0 -0.00064584986744225603 -0.0073842647575087204 0 -0.00069668268548058257 -0.0073682582298466746 0 -0.00069680912273507791 -0.0074678072272796403 0 -0.00082176361358514492 -0.0077808981539507632 0 -0.0006321359340627664 -0.00769736549087662 0 -0.00063371650341226152 -0.0079061631709937113 0 -0.00062080393921376835 -0.0073311167709848102 0 -0.00064584986744225603 -0.0073842647575087204 0 -0.00064823887948228928 -0.0073222481332631323 0 -0.00064584986744225603 -0.0073842647575087204 0 -0.00069668268548058257 -0.0073682582298466746 0 -0.00064823887948228928 -0.0073222481332631323 0 -0.0024473852455963543 -0.0022087463486318544 0 -0.0017300317256979758 -0.0034534104344252307 0 -0.00069668268548058257 -0.0073682582298466746 0 -0.00064823887948228928 -0.0073222481332631323 0 -0.00071829681998228422 -0.0072928898596790331 0 -0.0017195248736598058 -0.0045300607577481574 0 -0.0022322414953858021 -0.0041951237508050018 0 -0.00158147722333507 -0.0044367811897033172 0 -0.0017300317256979758 -0.0034534104344252307 0 -0.0010511502492964672 -0.0061415680769232968 0 -0.0024096077539291997 -0.00068398464293708541 0 -0.0025405501033778461 -0.00073273086476065394 0 -0.0024114559866355149 -0.00083213885489595671 0 -0.0024096077539291997 -0.00068398464293708541 0 -0.0022766041790262342 -0.00075449963031064033 0 -0.0024114559866355149 -0.00083213885489595671 0 -0.0010511502492964672 -0.0061415680769232968 0 -0.00087438213019806949 -0.0064169160679352945 0 -0.00077726573677950348 -0.0073176519549383512 0 -0.00071829681998228422 -0.0072928898596790331 0 -0.00085903025573812598 -0.0072351695180463355 0 -0.00077726573677950348 -0.0073176519549383512 0 -0.00084566287082731408 -0.0072902746861929785 0 -0.00082694068928450997 -0.0073520820223372677 0 -0.00077726573677950348 -0.0073176519549383512 0 -0.00084566287082731408 -0.0072902746861929785 0 -0.00085903025573812598 -0.0072351695180463355 0 -0.00069668268548058257 -0.0073682582298466746 0 -0.00077726573677950348 -0.0073176519549383512 0 -0.00071829681998228422 -0.0072928898596790331 0 -0.00069668268548058257 -0.0073682582298466746 0 -0.00076224618485377395 -0.0074098353868996773 0 -0.00069680912273507791 -0.0074678072272796403 0 -0.00069668268548058257 -0.0073682582298466746 0 -0.00077726573677950348 -0.0073176519549383512 0 -0.00076224618485377395 -0.0074098353868996773 0 -0.00077726573677950348 -0.0073176519549383512 0 -0.00076224618485377395 -0.0074098353868996773 0 -0.00082694068928450997 -0.0073520820223372677 0 -0.00076224618485377395 -0.0074098353868996773 0 -0.00082694068928450997 -0.0073520820223372677 0 -0.00085952932307324485 -0.0074200098422019392 0 -0.00076224618485377395 -0.0074098353868996773 0 -0.0007848418598083172 -0.0074903802016145059 0 -0.00085952932307324485 -0.0074200098422019392 0 -0.0007848418598083172 -0.0074903802016145059 0 -0.00069680912273507791 -0.0074678072272796403 0 -0.00078053915435874932 -0.0076131397065854409 0 -0.0007848418598083172 -0.0074903802016145059 0 -0.00078053915435874932 -0.0076131397065854409 0 -0.00091158364320929159 -0.0075278560218466194 0 -0.00076224618485377395 -0.0074098353868996773 0 -0.0007848418598083172 -0.0074903802016145059 0 -0.00069680912273507791 -0.0074678072272796403 0 -0.00060083581545461136 -0.00755954004921336 0 -0.00078081314991752945 -0.007626781699199621 0 -0.00046150277084324739 -0.007706226847029183 0 -0.00055254543330455303 -0.0077359380869085779 0 -0.00066369977798024784 -0.0077208719494662546 0 -0.00046150277084324739 -0.007706226847029183 0 -0.00055254543330455303 -0.0077359380869085779 0 -0.00048185115595899186 -0.0077104716686457239 0 -0.00055254543330455303 -0.0077359380869085779 0 -0.00048185115595899186 -0.0077104716686457239 0 -0.00048958434154525068 -0.0077406912003509963 0 -0.00048185115595899186 -0.0077104716686457239 0 -0.00048958434154525068 -0.0077406912003509963 0 -0.00044619092934842673 -0.007697829377932096 0 -0.00046150277084324739 -0.007706226847029183 0 -0.00078053915435874932 -0.0076131397065854409 0 -0.00066369977798024784 -0.0077208719494662546 0 -0.00066369977798024784 -0.0077208719494662546 0 -0.00076103413446613284 -0.0077754199686886046 0 -0.00063926846147135952 -0.0078262803451188117 0 -0.00055254543330455303 -0.0077359380869085779 0 -0.00066369977798024784 -0.0077208719494662546 0 -0.00063926846147135952 -0.0078262803451188117 0 -0.00078053915435874932 -0.0076131397065854409 0 -0.00066369977798024784 -0.0077208719494662546 0 -0.00076103413446613284 -0.0077754199686886046 0 -0.00078053915435874932 -0.0076131397065854409 0 -0.00076103413446613284 -0.0077754199686886046 0 -0.00093605122175851002 -0.007761882248878217 0 -0.00093605122175851002 -0.007761882248878217 0 -0.00091158364320929159 -0.0075278560218466194 0 -0.001055100094667426 -0.0076141711266421701 0 -0.00078053915435874932 -0.0076131397065854409 0 -0.00093605122175851002 -0.007761882248878217 0 -0.00091158364320929159 -0.0075278560218466194 0 -0.00094126999743004687 -0.0078475751063769271 0 -0.0011201838177541544 -0.008930734339300599 0 -0.00091158364320929159 -0.0075278560218466194 0 -0.001055100094667426 -0.0076141711266421701 0 -0.00098026810590575299 -0.0074124895873320844 0 -0.0007848418598083172 -0.0074903802016145059 0 -0.00091158364320929159 -0.0075278560218466194 0 -0.00085952932307324485 -0.0074200098422019392 0 -0.00090595994963342356 -0.0092833150267285173 0 -0.0011438211878427699 -0.0090615610868867037 0 -0.00079804424233147599 -0.0088076835033185866 0 -0.0011201838177541544 -0.008930734339300599 0 -0.00087199123493755565 -0.0079754744737560099 0 -0.0016179106106053217 -0.010945320670391461 0 -0.0017020030618483195 -0.010969551114102877 0 -0.0016882258412750208 -0.010880315908833193 0 -0.0011201838177541544 -0.008930734339300599 0 -0.001313208356925132 -0.0099986574364612293 0 -0.0011201838177541544 -0.008930734339300599 0 -0.0016070650659248825 -0.01016120727059513 0 -0.0016179106106053217 -0.010945320670391461 0 -0.0017042936069231196 -0.011037137027768811 0 -0.0016953169360090588 -0.011128219584794301 0 -0.0007658584985767359 -0.0082524921179296887 0 -0.0010750351601092429 -0.0076863537965490558 0 -0.0010334983796401981 -0.0085100974981261908 0 -0.0016179106106053217 -0.010945320670391461 0 -0.0017042936069231196 -0.011037137027768811 0 -0.0017020030618483195 -0.010969551114102877 0 -0.0017042936069231196 -0.011037137027768811 0 -0.0017500760388219369 -0.011027640517106457 0 -0.0017020030618483195 -0.010969551114102877 0 -0.0017500760388219369 -0.011027640517106457 0 -0.0018237820433830391 -0.010989425170998355 0 -0.0017570569061039767 -0.010929441480119454 0 -0.0017500760388219369 -0.011027640517106457 0 -0.0017020030618483195 -0.010969551114102877 0 -0.0017570569061039767 -0.010929441480119454 0 -0.0018237820433830391 -0.010989425170998355 0 -0.0018886740433406398 -0.011055462286126562 0 -0.0018154053030761195 -0.01107876741566946 0 -0.0017500760388219369 -0.011027640517106457 0 -0.0018237820433830391 -0.010989425170998355 0 -0.0018154053030761195 -0.01107876741566946 0 -0.0018237820433830391 -0.010989425170998355 0 -0.0018886740433406398 -0.011055462286126562 0 -0.0019258121868966278 -0.01093903755542818 0 -0.0018237820433830391 -0.010989425170998355 0 -0.0018397810899465057 -0.010872740842175922 0 -0.0019258121868966278 -0.01093903755542818 0 -0.0018397810899465057 -0.010872740842175922 0 -0.0017570569061039767 -0.010929441480119454 0 -0.0017577980540508372 -0.010807788191978505 0 -0.0018237820433830391 -0.010989425170998355 0 -0.0018397810899465057 -0.010872740842175922 0 -0.0017570569061039767 -0.010929441480119454 0 -0.0014461531264217118 -0.010118134246110711 0 -0.0016007017613063473 -0.0098717935919160442 0 -0.001766542717061785 -0.010351323462151268 0 -0.0016852332779455294 -0.010505281088304183 0 -0.0019230152244626344 -0.010846818000865694 0 -0.0017570569061039767 -0.010929441480119454 0 -0.0016882258412750208 -0.010880315908833193 0 -0.0017577980540508372 -0.010807788191978505 0 -0.0017020030618483195 -0.010969551114102877 0 -0.0017570569061039767 -0.010929441480119454 0 -0.0016882258412750208 -0.010880315908833193 0 -0.001313208356925132 -0.0099986574364612293 0 -0.0013541732099449019 -0.0096901301691613307 0 -0.0013541732099449019 -0.0096901301691613307 0 -0.00091112102522287314 -0.0090931224533493497 0 -0.0011644112790805752 -0.0098322694483814563 0 -0.0011874708456734032 -0.0094666913609404504 0 -0.00078477128896599238 -0.0095526829564910234 0 -0.0011438211878427699 -0.0090615610868867037 0 -0.0013840182125251848 -0.0088386597181024391 0 -0.0010393082361691405 -0.0085825634396443813 0 -0.0011644112790805752 -0.0098322694483814563 0 -0.0015600084176898227 -0.0094770844174745534 0 -0.0011874708456734032 -0.0094666913609404504 0 -0.0013541732099449019 -0.0096901301691613307 0 -0.0014525463407368262 -0.0095720827073568476 0 -0.0011280826945291361 -0.0098857214128448175 0 -0.0016007017613063473 -0.0098717935919160442 0 -0.0015600084176898227 -0.0094770844174745534 0 -0.0014461531264217118 -0.010118134246110711 0 -0.0011280826945291361 -0.0098857214128448175 0 -0.0016007017613063473 -0.0098717935919160442 0 -0.0016852332779455294 -0.010505281088304183 0 -0.0013541732099449019 -0.0096901301691613307 0 -0.0015600084176898227 -0.0094770844174745534 0 -0.0011874708456734032 -0.0094666913609404504 0 -0.0015520910749742521 -0.0090425138662235689 0 -0.0011874708456734032 -0.0094666913609404504 0 -0.00097600595441638333 -0.0091543321579881307 0 -0.0015520910749742521 -0.0090425138662235689 0 -0.0011874708456734032 -0.0094666913609404504 0 -0.00078477128896599238 -0.0095526829564910234 0 -0.00097600595441638333 -0.0091543321579881307 0 -0.00078477128896599238 -0.0095526829564910234 0 -0.00040457895072856499 -0.0092591633849077003 0 -0.00097600595441638333 -0.0091543321579881307 0 -0.00091112102522287314 -0.0090931224533493497 0 -0.00068782784614284536 -0.0080182181325184031 0 -0.00068782784614284536 -0.0080182181325184031 0 -0.00081001840046549878 -0.0083524627529269618 0 -0.0010393082361691405 -0.0085825634396443813 0 -0.00068834233996163381 -0.0083187441316358163 0 -0.00079804424233147599 -0.0088076835033185866 0 -0.00068782784614284536 -0.0080182181325184031 0 -0.00087199123493755565 -0.0079754744737560099 0 -0.00093075825644772228 -0.0072707601594132277 0 -0.00089718316068481134 -0.0073173264182587947 0 -0.00098026810590575299 -0.0074124895873320844 0 -0.00084566287082731408 -0.0072902746861929785 0 -0.00093075825644772228 -0.0072707601594132277 0 -0.00089718316068481134 -0.0073173264182587947 0 -0.00084566287082731408 -0.0072902746861929785 0 -0.00091408329443103684 -0.0072785504555985849 0 -0.00085903025573812598 -0.0072351695180463355 0 -0.00097389342315901367 -0.0073919625167729909 0 -0.00068782784614284536 -0.0080182181325184031 0 -0.00084566287082731408 -0.0072902746861929785 0 -0.00082694068928450997 -0.0073520820223372677 0 -0.00089718316068481134 -0.0073173264182587947 0 -0.00082694068928450997 -0.0073520820223372677 0 -0.00089718316068481134 -0.0073173264182587947 0 -0.00085952932307324485 -0.0074200098422019392 0 -0.00089718316068481134 -0.0073173264182587947 0 -0.00085952932307324485 -0.0074200098422019392 0 -0.00098026810590575299 -0.0074124895873320844 0 -0.00091158364320929159 -0.0075278560218466194 0 -0.00085952932307324485 -0.0074200098422019392 0 -0.00098026810590575299 -0.0074124895873320844 0 -0.0011438211878427699 -0.0090615610868867037 0 -0.0010393082361691405 -0.0085825634396443813 0 -0.00079804424233147599 -0.0088076835033185866 0 -0.0024541891316885128 -0.011725610611833973 0 -0.0024377605969527019 -0.012157959587941044 0 -0.0021899825876739885 -0.011043971326246856 0 -0.0021471888957945752 -0.011064879431331375 0 -0.0021526405057200608 -0.011042253844406777 0 -0.0024144924912966647 -0.011745304402400522 0 -0.0023674112883037084 -0.011740418573047286 0 -0.0024203493097490888 -0.011717036285842315 0 -0.0024541891316885128 -0.011725610611833973 0 -0.0022416771497563034 -0.01141676098276531 0 -0.0022416771497563034 -0.01141676098276531 0 -0.0024377605969527019 -0.012157959587941044 0 -0.0021899825876739885 -0.011043971326246856 0 -0.0021471888957945752 -0.011064879431331375 0 -0.0021386552152355409 -0.011103781941730921 0 -0.0022215564522546135 -0.011200407967451437 0 -0.0022065625152545903 -0.011177459079517744 0 -0.0021678635218473573 -0.011187596803670699 0 -0.0024541891316885128 -0.011725610611833973 0 -0.0021251994751832273 -0.010935938478755781 0 -0.0021899825876739885 -0.011043971326246856 0 -0.0021678635218473573 -0.011187596803670699 0 -0.0021386552152355409 -0.011103781941730921 0 -0.0021678635218473573 -0.011187596803670699 0 -0.0020973706712266765 -0.011112846019762666 0 -0.0021386552152355409 -0.011103781941730921 0 -0.0021678635218473573 -0.011187596803670699 0 -0.0020973706712266765 -0.011112846019762666 0 -0.0020570125281506742 -0.011121150084657571 0 -0.0020942343723378636 -0.011088613647496807 0 -0.0020812198645855009 -0.01107338689119217 0 -0.0020632053006751257 -0.011087374569398492 0 -0.0020942343723378636 -0.011088613647496807 0 -0.0021067962827159537 -0.011069620189336013 0 -0.0020812198645855009 -0.01107338689119217 0 -0.0020973706712266765 -0.011112846019762666 0 -0.0020942343723378636 -0.011088613647496807 0 -0.0020632053006751257 -0.011087374569398492 0 -0.0020942343723378636 -0.011088613647496807 0 -0.0021386552152355409 -0.011103781941730921 0 -0.0021067962827159537 -0.011069620189336013 0 -0.0020973706712266765 -0.011112846019762666 0 -0.0020942343723378636 -0.011088613647496807 0 -0.0021386552152355409 -0.011103781941730921 0 -0.0021471888957945752 -0.011064879431331375 0 -0.0021386552152355409 -0.011103781941730921 0 -0.0021067962827159537 -0.011069620189336013 0 -0.0022416771497563034 -0.01141676098276531 0 -0.0020759310620905285 -0.011177821611134722 0 -0.0022416771497563034 -0.01141676098276531 0 -0.0021900089478532965 -0.011204293376750739 0 -0.0021471888957945752 -0.011064879431331375 0 -0.0021526405057200608 -0.011042253844406777 0 -0.0021067962827159537 -0.011069620189336013 0 -0.002123329711141755 -0.011064415288803737 0 -0.0021067962827159537 -0.011069620189336013 0 -0.0020993318396810164 -0.011061735551420841 0 -0.0020812198645855009 -0.01107338689119217 0 -0.0020993318396810164 -0.011061735551420841 0 -0.0020824753583388381 -0.011055855462377471 0 -0.0021067962827159537 -0.011069620189336013 0 -0.0020812198645855009 -0.01107338689119217 0 -0.0020993318396810164 -0.011061735551420841 0 -0.0020632053006751257 -0.011087374569398492 0 -0.0020241718046718222 -0.011085159347167403 0 -0.0020617822209437718 -0.011057289902954355 0 -0.0020812198645855009 -0.01107338689119217 0 -0.0020617822209437718 -0.011057289902954355 0 -0.0020824753583388381 -0.011055855462377471 0 -0.0020812198645855009 -0.01107338689119217 0 -0.0020632053006751257 -0.011087374569398492 0 -0.0020617822209437718 -0.011057289902954355 0 -0.0020853775965081322 -0.011172502709594244 0 -0.0019230152244626344 -0.010846818000865694 0 -0.0020632053006751257 -0.011087374569398492 0 -0.0020570125281506742 -0.011121150084657571 0 -0.0020241718046718222 -0.011085159347167403 0 -0.0020973706712266765 -0.011112846019762666 0 -0.0020632053006751257 -0.011087374569398492 0 -0.0020570125281506742 -0.011121150084657571 0 -0.0020570125281506742 -0.011121150084657571 0 -0.0018886740433406398 -0.011055462286126562 0 -0.0019155164830111308 -0.010966832787196778 0 -0.0018833583151288947 -0.011069343247938859 0 -0.0019230152244626344 -0.010846818000865694 0 -0.0020241718046718222 -0.011085159347167403 0 -0.002044794944407772 -0.011024494527201898 0 -0.0020617822209437718 -0.011057289902954355 0 -0.0016007017613063473 -0.0098717935919160442 0 -0.0015600084176898227 -0.0094770844174745534 0 -0.0019598640647482219 -0.009618589490981478 0 -0.0016007017613063473 -0.0098717935919160442 0 -0.001766542717061785 -0.010351323462151268 0 -0.0019598640647482219 -0.009618589490981478 0 -0.0019230152244626344 -0.010846818000865694 0 -0.0020246561221534854 -0.010359153324861191 0 -0.0015600084176898227 -0.0094770844174745534 0 -0.0019598640647482219 -0.009618589490981478 0 -0.0015520910749742521 -0.0090425138662235689 0 -0.002044794944407772 -0.011024494527201898 0 -0.0020831168082623055 -0.011004156490508387 0 -0.0020628697473675413 -0.01096698102066374 0 -0.002044794944407772 -0.011024494527201898 0 -0.0020785904409957338 -0.011035220645734038 0 -0.0020831168082623055 -0.011004156490508387 0 -0.0020246561221534854 -0.010359153324861191 0 -0.0018933398343590952 -0.0096307405809665306 0 -0.002044794944407772 -0.011024494527201898 0 -0.0020785904409957338 -0.011035220645734038 0 -0.0020617822209437718 -0.011057289902954355 0 -0.0020785904409957338 -0.011035220645734038 0 -0.0020617822209437718 -0.011057289902954355 0 -0.0020824753583388381 -0.011055855462377471 0 -0.0020785904409957338 -0.011035220645734038 0 -0.0020960125393770092 -0.01104849408180756 0 -0.0020824753583388381 -0.011055855462377471 0 -0.0020993318396810164 -0.011061735551420841 0 -0.0020960125393770092 -0.01104849408180756 0 -0.0020824753583388381 -0.011055855462377471 0 -0.0020993318396810164 -0.011061735551420841 0 -0.0020960125393770092 -0.01104849408180756 0 -0.0021103411831754413 -0.01105492226215145 0 -0.0021177701661031284 -0.011068084312039711 0 -0.0020993318396810164 -0.011061735551420841 0 -0.0021103411831754413 -0.01105492226215145 0 -0.0020960125393770092 -0.01104849408180756 0 -0.0021103411831754413 -0.01105492226215145 0 -0.0021099889929443584 -0.0110319343511952 0 -0.0020785904409957338 -0.011035220645734038 0 -0.0020960125393770092 -0.01104849408180756 0 -0.0021099889929443584 -0.0110319343511952 0 -0.0020831168082623055 -0.011004156490508387 0 -0.0021099889929443584 -0.0110319343511952 0 -0.0021150699356650856 -0.010996063428878083 0 -0.0020785904409957338 -0.011035220645734038 0 -0.0020831168082623055 -0.011004156490508387 0 -0.0021099889929443584 -0.0110319343511952 0 -0.0021099889929443584 -0.0110319343511952 0 -0.0021409067594327937 -0.01101696513188276 0 -0.0021150699356650856 -0.010996063428878083 0 -0.0024381644655126458 -0.01164398402743746 0 -0.0024377605969527019 -0.012157959587941044 0 -0.0021099889929443584 -0.0110319343511952 0 -0.0021409067594327937 -0.01101696513188276 0 -0.0021328637378181894 -0.011063711632066823 0 -0.0021177701661031284 -0.011068084312039711 0 -0.0021103411831754413 -0.01105492226215145 0 -0.0021328637378181894 -0.011063711632066823 0 -0.0021103411831754413 -0.01105492226215145 0 -0.0021099889929443584 -0.0110319343511952 0 -0.0021328637378181894 -0.011063711632066823 0 -0.0023838356037097276 -0.013119370584968648 0 -0.0020992771800584739 -0.011040349955025053 0 -0.0024239991560480096 -0.011223385534358454 0 -0.0019843377474158029 -0.011221610862764896 0 -0.0020740213889468896 -0.010909597009370357 0 -0.0023838356037097276 -0.013119370584968648 0 -0.0019018339140265455 -0.012752090023302942 0 -0.0021513803350326345 -0.010986916089526701 0 -0.0021150699356650856 -0.010996063428878083 0 -0.0021117030206624296 -0.010967531556638797 0 -0.0021513803350326345 -0.010986916089526701 0 -0.0021409067594327937 -0.01101696513188276 0 -0.0021150699356650856 -0.010996063428878083 0 -0.0020831168082623055 -0.011004156490508387 0 -0.0021150699356650856 -0.010996063428878083 0 -0.002086061451563267 -0.010968026590408388 0 -0.0021150699356650856 -0.010996063428878083 0 -0.002086061451563267 -0.010968026590408388 0 -0.0021117030206624296 -0.010967531556638797 0 -0.002086061451563267 -0.010968026590408388 0 -0.0021117030206624296 -0.010967531556638797 0 -0.0020649592966728303 -0.010946198738269899 0 -0.0020992771800584739 -0.011040349955025053 0 -0.0014587494710956433 -0.009296027789376226 0 -0.0019843377474158029 -0.011221610862764896 0 -0.0015855285275800817 -0.011219670767372633 0 -0.0016681455238537525 -0.010927592576777693 0 -0.0014587494710956433 -0.009296027789376226 0 -0.001364408210722893 -0.0088154439367702075 0 -0.0011444881694750628 -0.0073803241438843165 0 -0.0011251083036823107 -0.0074433299921671759 0 -0.00096045147990433564 -0.0073614230202078742 0 -0.0008445220585515165 -0.0074041329263393402 0 -0.00077776471012979732 -0.0073274988360222618 0 -0.00087854881286674737 -0.0073174217752271196 0 -0.0014587494710956433 -0.009296027789376226 0 -0.0018933398343590952 -0.0096307405809665306 0 -0.0020831168082623055 -0.011004156490508387 0 -0.002086061451563267 -0.010968026590408388 0 -0.0020628697473675413 -0.01096698102066374 0 -0.002086061451563267 -0.010968026590408388 0 -0.0020649592966728303 -0.010946198738269899 0 -0.0020602805923913472 -0.010960494199549099 0 -0.0019878433837550225 -0.010603091246853335 0 -0.0018933398343590952 -0.0096307405809665306 0 -0.0018933398343590952 -0.0096307405809665306 0 -0.0012250345023189116 -0.0080887194375711263 0 -0.0011251083036823107 -0.0074433299921671759 0 -0.00096045147990433564 -0.0073614230202078742 0 -0.00091756581095185381 -0.0074479517266434472 0 -0.0019598640647482219 -0.009618589490981478 0 -0.0021475710674888093 -0.0089298390909909996 0 -0.0015520910749742521 -0.0090425138662235689 0 -0.0008445220585515165 -0.0074041329263393402 0 -0.00072658351050561211 -0.0073776674544420188 0 -0.00077776471012979732 -0.0073274988360222618 0 -0.0014587494710956433 -0.009296027789376226 0 -0.00076632657578417935 -0.0072472463671337025 0 -0.00072658351050561211 -0.0073776674544420188 0 -0.00072381042385739078 -0.007325825244846729 0 -0.00077776471012979732 -0.0073274988360222618 0 -0.00077776471012979732 -0.0073274988360222618 0 -0.00072450748933613432 -0.0072791954124891882 0 -0.0007927817406840911 -0.0072274266461026786 0 -0.00072381042385739078 -0.007325825244846729 0 -0.00077776471012979732 -0.0073274988360222618 0 -0.00072450748933613432 -0.0072791954124891882 0 -0.00074828288351430606 -0.0070385805620043068 0 -0.00078164347441381135 -0.0070490346305777567 0 -0.0007927817406840911 -0.0072274266461026786 0 -0.00067221363402384922 -0.0072193198473781183 0 -0.00077054130436115446 -0.007065323876409622 0 -0.00072450748933613432 -0.0072791954124891882 0 -0.0007927817406840911 -0.0072274266461026786 0 -0.00067221363402384922 -0.0072193198473781183 0 -0.0007927817406840911 -0.0072274266461026786 0 -0.00092479477056849773 -0.0072122524704696838 0 -0.00077054130436115446 -0.007065323876409622 0 -0.0010514819911376671 -0.010942483455506821 0 -0.00053142737853439882 -0.0095032595066372461 0 -0.0007927817406840911 -0.0072274266461026786 0 -0.00087854881286674737 -0.0073174217752271196 0 -0.00092479477056849773 -0.0072122524704696838 0 -0.00077776471012979732 -0.0073274988360222618 0 -0.0007927817406840911 -0.0072274266461026786 0 -0.00087854881286674737 -0.0073174217752271196 0 -0.0019843377474158029 -0.011221610862764896 0 -0.0016681455238537525 -0.010927592576777693 0 -0.0020740213889468896 -0.010909597009370357 0 -0.0016681455238537525 -0.010927592576777693 0 -0.0017503021918010234 -0.010629899467501522 0 -0.0020740213889468896 -0.010909597009370357 0 -0.0010514819911376671 -0.010942483455506821 0 -0.0019018339140265455 -0.012752090023302942 0 -0.001364408210722893 -0.0088154439367702075 0 -0.0010514819911376671 -0.010942483455506821 0 -0.0010514819911376671 -0.010942483455506821 0 -0.00094568132872574733 -0.0128626092827967 0 -0.00074271121593364137 -0.013595624241191401 0 -0.0018501743014406784 -0.013579073854287981 0 -0.0015112674055456922 -0.013034424997321157 0 -0.0022600128920809426 -0.012943252322355952 0 -0.0018501743014406784 -0.013579073854287981 0 -0.0015112674055456922 -0.013034424997321157 0 -0.00074271121593364137 -0.013595624241191401 0 -0.0018501743014406784 -0.013579073854287981 0 -0.0015409081032563806 -0.014285576720511487 0 -0.0024886748197244161 -0.014104852127759686 0 -0.0018501743014406784 -0.013579073854287981 0 -0.0015409081032563806 -0.014285576720511487 0 -0.00061752533021218014 -0.0073256772217151966 0 -0.00064404017827686725 -0.0073274363776370749 0 -0.00063914206820777297 -0.0072955293418576162 0 -0.0006409496223185845 -0.0073394403191581678 0 -0.00061752533021218014 -0.0073256772217151966 0 -0.00064404017827686725 -0.0073274363776370749 0 -0.0006409496223185845 -0.0073394403191581678 0 -0.00061752533021218014 -0.0073256772217151966 0 -0.00061859114562910756 -0.0073392159401171296 0 -0.0014126095755868915 -0.004560609125162097 0 -0.00076152907067781293 -0.0071946818031345403 0 -0.00060441274425502179 -0.0073255692743970022 0 -0.00061752533021218014 -0.0073256772217151966 0 -0.00061061616139242191 -0.0073404872398445571 0 -0.00061752533021218014 -0.0073256772217151966 0 -0.00061859114562910756 -0.0073392159401171296 0 -0.00061061616139242191 -0.0073404872398445571 0 -0.00061859114562910756 -0.0073392159401171296 0 -0.0006114696457328704 -0.0073651421435734438 0 -0.00061061616139242191 -0.0073404872398445571 0 -0.0006114696457328704 -0.0073651421435734438 0 -0.00061061616139242191 -0.0073404872398445571 0 -0.0006092511495409019 -0.0073387708021879928 0 -0.00068782784614284536 -0.0080182181325184031 0 -0.00087438213019806949 -0.0064169160679352945 0 -0.00042835243553147618 -0.0072600691382488005 0 -0.00087438213019806949 -0.0064169160679352945 0 -0.00059841968628665532 -0.0074327138967047899 0 -0.0006114696457328704 -0.0073651421435734438 0 -0.0005400918453492661 -0.0073854349083624952 0 -0.0006409496223185845 -0.0073394403191581678 0 -0.0006114696457328704 -0.0073651421435734438 0 -0.0007293420041272991 -0.0074406745872788223 0 -0.00059841968628665532 -0.0074327138967047899 0 -0.0006114696457328704 -0.0073651421435734438 0 -0.0007293420041272991 -0.0074406745872788223 0 -0.0006409496223185845 -0.0073394403191581678 0 -0.00061859114562910756 -0.0073392159401171296 0 -0.0006114696457328704 -0.0073651421435734438 0 -0.0006409496223185845 -0.0073394403191581678 0 -0.0007293420041272991 -0.0074406745872788223 0 -0.00078813959374741602 -0.0073459503745803584 0 -0.0007293420041272991 -0.0074406745872788223 0 -0.00091756581095185381 -0.0074479517266434472 0 -0.00078813959374741602 -0.0073459503745803584 0 -0.00096045147990433564 -0.0073614230202078742 0 -0.00091756581095185381 -0.0074479517266434472 0 -0.00078813959374741602 -0.0073459503745803584 0 -0.00081001840046549878 -0.0083524627529269618 0 -0.0012250345023189116 -0.0080887194375711263 0 -0.00072658351050561211 -0.0073776674544420188 0 -0.00065883931202475622 -0.0073488104629394783 0 -0.00067543270304768128 -0.0073120012097934225 0 -0.00076632657578417935 -0.0072472463671337025 0 -0.00073911571470972981 -0.0073566795173195471 0 -0.00072658351050561211 -0.0073776674544420188 0 -0.00072381042385739078 -0.007325825244846729 0 -0.00067543270304768128 -0.0073120012097934225 0 -0.00064404017827686725 -0.0073274363776370749 0 -0.00065883931202475622 -0.0073488104629394783 0 -0.00067543270304768128 -0.0073120012097934225 0 -0.0006409496223185845 -0.0073394403191581678 0 -0.00064404017827686725 -0.0073274363776370749 0 -0.00065883931202475622 -0.0073488104629394783 0 -0.00064104228184475682 -0.0073412046176829322 0 -0.00073911571470972981 -0.0073566795173195471 0 -0.00064404017827686725 -0.0073274363776370749 0 -0.00063914206820777297 -0.0072955293418576162 0 -0.00067543270304768128 -0.0073120012097934225 0 -0.00087729509729869454 -0.0068994906412369996 0 -0.00074828288351430606 -0.0070385805620043068 0 -0.00063914206820777297 -0.0072955293418576162 0 -0.00067543270304768128 -0.0073120012097934225 0 -0.00067221363402384922 -0.0072193198473781183 0 -0.00072450748933613432 -0.0072791954124891882 0 -0.00067543270304768128 -0.0073120012097934225 0 -0.00067221363402384922 -0.0072193198473781183 0 -0.00072381042385739078 -0.007325825244846729 0 -0.00072450748933613432 -0.0072791954124891882 0 -0.00067543270304768128 -0.0073120012097934225 0 -0.0010090084244912688 -0.0066199205365815384 0 -0.00082565997907145495 -0.0068460647478548404 0 -0.0010183446579254054 -0.0068272405466165862 0 -0.00082565997907145495 -0.0068460647478548404 0 -0.0010183446579254054 -0.0068272405466165862 0 -0.00094249346313338004 -0.0069844347423517654 0 -0.0010183446579254054 -0.0068272405466165862 0 -0.0011974884698089691 -0.0067046391382485082 0 -0.0011221428230362605 -0.0069231794353630605 0 -0.0010090084244912688 -0.0066199205365815384 0 -0.0010183446579254054 -0.0068272405466165862 0 -0.0011974884698089691 -0.0067046391382485082 0 -0.0011974884698089691 -0.0067046391382485082 0 -0.00130514066483492 -0.0068679338655502457 0 -0.0011221428230362605 -0.0069231794353630605 0 -0.0012438407387593698 -0.006404734629858775 0 -0.0010090084244912688 -0.0066199205365815384 0 -0.0011974884698089691 -0.0067046391382485082 0 -0.00076152907067781293 -0.0071946818031345403 0 -0.00087729509729869454 -0.0068994906412369996 0 -0.0012438407387593698 -0.006404734629858775 0 -0.0011974884698089691 -0.0067046391382485082 0 -0.0013365444277953305 -0.006571254040896723 0 -0.0014795994151413706 -0.0064632056443420299 0 -0.0012438407387593698 -0.006404734629858775 0 -0.0013365444277953305 -0.006571254040896723 0 -0.0014243788937787585 -0.0067074894311272629 0 -0.0011974884698089691 -0.0067046391382485082 0 -0.00130514066483492 -0.0068679338655502457 0 -0.0014243788937787585 -0.0067074894311272629 0 -0.0011974884698089691 -0.0067046391382485082 0 -0.0013365444277953305 -0.006571254040896723 0 -0.00130514066483492 -0.0068679338655502457 0 -0.0012859681113220544 -0.0069964042768028136 0 -0.0015077502311026567 -0.0070123807072272702 0 -0.00130514066483492 -0.0068679338655502457 0 -0.0012859681113220544 -0.0069964042768028136 0 -0.0011221428230362605 -0.0069231794353630605 0 -0.0012859681113220544 -0.0069964042768028136 0 -0.0012857316794416872 -0.0072249234450427312 0 -0.0015077502311026567 -0.0070123807072272702 0 -0.0012859681113220544 -0.0069964042768028136 0 -0.0012216853724688228 -0.0070905316939018003 0 -0.0012857316794416872 -0.0072249234450427312 0 -0.0013036694019691272 -0.0072461163170104165 0 -0.0012857316794416872 -0.0072249234450427312 0 -0.0015077502311026567 -0.0070123807072272702 0 -0.0012859681113220544 -0.0069964042768028136 0 -0.0012216853724688228 -0.0070905316939018003 0 -0.0011623484269130241 -0.0070317259548432123 0 -0.0012216853724688228 -0.0070905316939018003 0 -0.0012057545783708476 -0.0071639128063882623 0 -0.0012857316794416872 -0.0072249234450427312 0 -0.0011390790193839735 -0.0071160597568412165 0 -0.0010028336907804752 -0.0071329695306577689 0 -0.0010846895559136257 -0.0071885996186462874 0 -0.0011390790193839735 -0.0071160597568412165 0 -0.0011480212613115489 -0.0072052625058985778 0 -0.0010846895559136257 -0.0071885996186462874 0 -0.0012057545783708476 -0.0071639128063882623 0 -0.0011390790193839735 -0.0071160597568412165 0 -0.0011480212613115489 -0.0072052625058985778 0 -0.0012216853724688228 -0.0070905316939018003 0 -0.0012057545783708476 -0.0071639128063882623 0 -0.0011390790193839735 -0.0071160597568412165 0 -0.0012216853724688228 -0.0070905316939018003 0 -0.0011390790193839735 -0.0071160597568412165 0 -0.0011623484269130241 -0.0070317259548432123 0 -0.0011390790193839735 -0.0071160597568412165 0 -0.0010709653691151407 -0.0070387069351012764 0 -0.0010028336907804752 -0.0071329695306577689 0 -0.0011390790193839735 -0.0071160597568412165 0 -0.0011623484269130241 -0.0070317259548432123 0 -0.0010709653691151407 -0.0070387069351012764 0 -0.0011623484269130241 -0.0070317259548432123 0 -0.0010709653691151407 -0.0070387069351012764 0 -0.0011221428230362605 -0.0069231794353630605 0 -0.0012859681113220544 -0.0069964042768028136 0 -0.0011623484269130241 -0.0070317259548432123 0 -0.0011221428230362605 -0.0069231794353630605 0 -0.0010183446579254054 -0.0068272405466165862 0 -0.0011221428230362605 -0.0069231794353630605 0 -0.00094249346313338004 -0.0069844347423517654 0 -0.0010709653691151407 -0.0070387069351012764 0 -0.0011221428230362605 -0.0069231794353630605 0 -0.00094249346313338004 -0.0069844347423517654 0 -0.00094249346313338004 -0.0069844347423517654 0 -0.00081789301519864278 -0.0071023254019113406 0 -0.00080682156373398949 -0.0070055145829698746 0 -0.00082565997907145495 -0.0068460647478548404 0 -0.00094249346313338004 -0.0069844347423517654 0 -0.00080682156373398949 -0.0070055145829698746 0 -0.00043397503198820171 -0.0094777229383284783 0 -3.1359072006206433e-05 -0.0095592920152674839 0 -0.00081789301519864278 -0.0071023254019113406 0 -0.0010028336907804752 -0.0071329695306577689 0 -0.0009578414100510919 -0.0072574309576532853 0 -0.0010709653691151407 -0.0070387069351012764 0 -0.00094249346313338004 -0.0069844347423517654 0 -0.0010028336907804752 -0.0071329695306577689 0 -0.00094249346313338004 -0.0069844347423517654 0 -0.00081789301519864278 -0.0071023254019113406 0 -0.0010028336907804752 -0.0071329695306577689 0 -0.00092307912248343956 -0.0084426110791333171 0 -3.1359072006206433e-05 -0.0095592920152674839 0 -0.0010028336907804752 -0.0071329695306577689 0 -0.0010311207681486317 -0.0072687441639091212 0 -0.0010846895559136257 -0.0071885996186462874 0 -0.0010028336907804752 -0.0071329695306577689 0 -0.0010311207681486317 -0.0072687441639091212 0 -0.0009578414100510919 -0.0072574309576532853 0 -3.1359072006206433e-05 -0.0095592920152674839 0 -8.7874114605287777e-06 -0.011642089444316139 0 0.00087645301757747704 -0.011300635206965847 0 0.00030983350708648671 -0.010739162417562797 0 -0.00015924260050200799 -0.011392110481540084 0 3.5023163663619617e-05 -0.01184140597503862 0 0.00051356435816483394 -0.011403632799157471 0 -0.00015580411911690097 -0.011483453295821006 0 0.00087645301757747704 -0.011300635206965847 0 0.00092565725311695955 -0.010517254223163538 0 0.0017222050283496695 -0.010577081668045722 0 0.00087645301757747704 -0.011300635206965847 0 0.00030983350708648671 -0.010739162417562797 0 0.00092565725311695955 -0.010517254223163538 0 0.00030983350708648671 -0.010739162417562797 0 0.00092565725311695955 -0.010517254223163538 0 0.00061765402186924061 -0.0099590263838636849 0 0.00092565725311695955 -0.010517254223163538 0 0.0017222050283496695 -0.010577081668045722 0 0.0013130917072276909 -0.01005752920748995 0 0.00052063855838321003 -0.0084922098982388346 0 0.0018284618935333929 -0.010626250498285823 0 0.00046451331590346501 -0.0059874448816291904 0 0.0006401609577408793 -0.0059926912106673755 0 0.00065009187780444241 -0.0058181021109152114 0 0.00052063855838321003 -0.0084922098982388346 0 0.0016586087777450077 -0.0078280104555415696 0 0.0006401609577408793 -0.0059926912106673755 0 0.00063712157038588592 -0.0061847114465068895 0 0.00081047814185343297 -0.0059766293044337115 0 0.00046451331590346501 -0.0059874448816291904 0 0.0006401609577408793 -0.0059926912106673755 0 0.00063712157038588592 -0.0061847114465068895 0 0.0006401609577408793 -0.0059926912106673755 0 0.00065009187780444241 -0.0058181021109152114 0 0.00081047814185343297 -0.0059766293044337115 0 0.00052063855838321003 -0.0084922098982388346 0 -0.00033779447982124549 -0.0050476625437307762 0 -0.0011412743304853928 -0.0074497706366268256 0 -0.0013033151490011734 -0.007247512880990967 0 -0.0012140343901696031 -0.0072416870407420574 0 -0.00033779447982124549 -0.0050476625437307762 0 -0.00065094872272145336 -0.0055091496713179106 0 -0.0013033151490011734 -0.007247512880990967 0 -0.0012140343901696031 -0.0072416870407420574 0 -0.0012857316794416872 -0.0072249234450427312 0 -0.0012057545783708476 -0.0071639128063882623 0 -0.0012140343901696031 -0.0072416870407420574 0 -0.0012857316794416872 -0.0072249234450427312 0 -0.0011412743304853928 -0.0074497706366268256 0 -0.0010933642968559061 -0.0072501166526014399 0 -0.0011527730669893843 -0.0072749293509137237 0 -3.1359072006206433e-05 -0.0095592920152674839 0 0.00052063855838321003 -0.0084922098982388346 0 -0.0012057545783708476 -0.0071639128063882623 0 -0.0012140343901696031 -0.0072416870407420574 0 -0.0011480212613115489 -0.0072052625058985778 0 -0.0010311207681486317 -0.0072687441639091212 0 -0.0011412743304853928 -0.0074497706366268256 0 -0.0010933642968559061 -0.0072501166526014399 0 -0.0010311207681486317 -0.0072687441639091212 0 -0.00093321003222678707 -0.00726910182600505 0 -0.0011412743304853928 -0.0074497706366268256 0 -0.0011412743304853928 -0.0074497706366268256 0 -0.0012140343901696031 -0.0072416870407420574 0 -0.0011527730669893843 -0.0072749293509137237 0 -0.0012140343901696031 -0.0072416870407420574 0 -0.0011480212613115489 -0.0072052625058985778 0 -0.0011527730669893843 -0.0072749293509137237 0 -0.0011480212613115489 -0.0072052625058985778 0 -0.0010933642968559061 -0.0072501166526014399 0 -0.0011527730669893843 -0.0072749293509137237 0 -0.0011480212613115489 -0.0072052625058985778 0 -0.0010846895559136257 -0.0071885996186462874 0 -0.0010933642968559061 -0.0072501166526014399 0 -0.0010311207681486317 -0.0072687441639091212 0 -0.0010846895559136257 -0.0071885996186462874 0 -0.0010933642968559061 -0.0072501166526014399 0 -0.0024401067330274764 -0.012283409392618188 0 -0.0017157110922053072 -0.012334525300654335 0 -0.0017285052278206501 -0.011626955038941473 0 -0.0017157110922053072 -0.012334525300654335 0 -0.0012969435589451469 -0.0117640967388373 0 -0.0017285052278206501 -0.011626955038941473 0 -0.0022600128920809426 -0.012943252322355952 0 -0.0017157110922053072 -0.012334525300654335 0 -0.0015112674055456922 -0.013034424997321157 0 -0.0017157110922053072 -0.012334525300654335 0 -0.0015112674055456922 -0.013034424997321157 0 -0.00099447612268114562 -0.012705745274739314 0 -0.00074271121593364137 -0.013595624241191401 0 -0.0015112674055456922 -0.013034424997321157 0 -0.00099447612268114562 -0.012705745274739314 0 -0.0012969435589451469 -0.0117640967388373 0 -0.00080972167122355233 -0.011929795611867924 0 -0.00080875163077932972 -0.011551172737113558 0 -0.0010726029880546732 -0.012206633812826133 0 -0.0012969435589451469 -0.0117640967388373 0 -0.00080972167122355233 -0.011929795611867924 0 -0.0017157110922053072 -0.012334525300654335 0 -0.00099447612268114562 -0.012705745274739314 0 -0.0012969435589451469 -0.0117640967388373 0 -0.00094568132872574733 -0.0128626092827967 0 -0.0013044121159555345 -0.011665577940211917 0 -0.00046826396313900834 -0.011822517071345746 0 -0.00080972167122355233 -0.011929795611867924 0 -0.00045352234346852379 -0.012268020236862593 0 -0.00046826396313900834 -0.011822517071345746 0 -0.00080972167122355233 -0.011929795611867924 0 -0.00080875163077932972 -0.011551172737113558 0 -0.00092892760150615344 -0.012658066543347063 0 -0.0010726029880546732 -0.012206633812826133 0 -0.00045352234346852379 -0.012268020236862593 0 -0.0010726029880546732 -0.012206633812826133 0 -0.00080972167122355233 -0.011929795611867924 0 -0.00045352234346852379 -0.012268020236862593 0 -0.00092479477056849773 -0.0072122524704696838 0 -0.00077054130436115446 -0.007065323876409622 0 -0.00076477668140945794 -0.0070447380979499147 0 -0.00043397503198820171 -0.0094777229383284783 0 -0.00053142737853439882 -0.0095032595066372461 0 -0.00081789301519864278 -0.0071023254019113406 0 -0.00080682156373398949 -0.0070055145829698746 0 -0.00076477668140945794 -0.0070447380979499147 0 -0.00082565997907145495 -0.0068460647478548404 0 -0.00077054130436115446 -0.007065323876409622 0 -0.00080682156373398949 -0.0070055145829698746 0 -0.00077054130436115446 -0.007065323876409622 0 -0.00080682156373398949 -0.0070055145829698746 0 -0.00076477668140945794 -0.0070447380979499147 0 3.5023163663619617e-05 -0.01184140597503862 0 -0.00046826396313900834 -0.011822517071345746 0 -0.00015580411911690097 -0.011483453295821006 0 3.5023163663619617e-05 -0.01184140597503862 0 -0.00046826396313900834 -0.011822517071345746 0 -0.00045352234346852379 -0.012268020236862593 0 0.00030983350708648671 -0.010739162417562797 0 -0.00015924260050200799 -0.011392110481540084 0 -0.00025337719102300037 -0.010838170037418429 0 -0.00015924260050200799 -0.011392110481540084 0 -0.00025337719102300037 -0.010838170037418429 0 -0.00063465567191017846 -0.011003459006188144 0 0.00030983350708648671 -0.010739162417562797 0 -0.00025337719102300037 -0.010838170037418429 0 -0.00052690537128621795 -0.010220049316334074 0 -0.00025337719102300037 -0.010838170037418429 0 -0.00063465567191017846 -0.011003459006188144 0 -0.00052690537128621795 -0.010220049316334074 0 -0.00063465567191017846 -0.011003459006188144 0 -0.0011017571324435521 -0.010856678515736637 0 -0.00052690537128621795 -0.010220049316334074 0 -0.0011017571324435521 -0.010856678515736637 0 -0.0015838542588693355 -0.010459831765484158 0 -0.00052690537128621795 -0.010220049316334074 0 -8.7874114605287777e-06 -0.011642089444316139 0 -0.00099935307036201322 -0.011501714639860149 0 -0.00046826396313900834 -0.011822517071345746 0 -0.00015580411911690097 -0.011483453295821006 0 -0.00080875163077932972 -0.011551172737113558 0 -0.00015924260050200799 -0.011392110481540084 0 -0.00063465567191017846 -0.011003459006188144 0 -0.001125050441610977 -0.011498108229001075 0 -0.00063465567191017846 -0.011003459006188144 0 -0.0011017571324435521 -0.010856678515736637 0 -0.001125050441610977 -0.011498108229001075 0 -0.0011017571324435521 -0.010856678515736637 0 -0.001125050441610977 -0.011498108229001075 0 -0.0016224443080200123 -0.01110054111560776 0 -0.001125050441610977 -0.011498108229001075 0 -0.0016224443080200123 -0.01110054111560776 0 -0.0020782998418729924 -0.011617374676687844 0 -0.00099935307036201322 -0.011501714639860149 0 -0.0019163324125721507 -0.011629462176672099 0 -0.0012969435589451469 -0.0117640967388373 0 -0.00080875163077932972 -0.011551172737113558 0 -0.0017285052278206501 -0.011626955038941473 0 -0.0011017571324435521 -0.010856678515736637 0 -0.0016224443080200123 -0.01110054111560776 0 -0.0015838542588693355 -0.010459831765484158 0 -0.0016224443080200123 -0.01110054111560776 0 -0.0021603712409210482 -0.010929784752369659 0 -0.0015838542588693355 -0.010459831765484158 0 -0.0021603712409210482 -0.010929784752369659 0 -0.0022786905437317297 -0.010252433762219839 0 -0.0015838542588693355 -0.010459831765484158 0 -0.0016224443080200123 -0.01110054111560776 0 -0.0021603712409210482 -0.010929784752369659 0 -0.0020782998418729924 -0.011617374676687844 0 -0.0025554562628056464 -0.011363494183618041 0 -0.0021603712409210482 -0.010929784752369659 0 -0.0020782998418729924 -0.011617374676687844 0 -0.0018783109823092333 -0.0098111213488367086 0 -0.0023457623693502712 -0.0096746622472230759 0 -0.0019768160910961295 -0.0092147204183770388 0 -0.0018783109823092333 -0.0098111213488367086 0 -0.0023457623693502712 -0.0096746622472230759 0 -0.0022786905437317297 -0.010252433762219839 0 -0.0018783109823092333 -0.0098111213488367086 0 -0.0022786905437317297 -0.010252433762219839 0 -0.0015838542588693355 -0.010459831765484158 0 -0.0018783109823092333 -0.0098111213488367086 0 -0.0015838542588693355 -0.010459831765484158 0 -0.0012559752455034625 -0.0096631169280431365 0 -0.0018783109823092333 -0.0098111213488367086 0 -0.0012559752455034625 -0.0096631169280431365 0 -0.0019768160910961295 -0.0092147204183770388 0 -0.0012559752455034625 -0.0096631169280431365 0 -0.00046568637152751496 -0.0092651893051983927 0 -0.00034061816247559266 -0.010321622406069927 0 -0.0012559752455034625 -0.0096631169280431365 0 -0.00046568637152751496 -0.0092651893051983927 0 -0.0012710677490296862 -0.0088740648831703087 0 -0.0015838542588693355 -0.010459831765484158 0 -0.0012559752455034625 -0.0096631169280431365 0 -0.00034061816247559266 -0.010321622406069927 0 -0.0015252687221449109 -0.010446104062768016 0 -0.00044470100078697707 -0.010267319036513315 0 -0.00046568637152751496 -0.0092651893051983927 0 0.00024377664744384386 -0.0096366608920682804 0 0.00026739804195076482 -0.0088236827683676258 0 -0.00046568637152751496 -0.0092651893051983927 0 -0.00034061816247559266 -0.010321622406069927 0 0.00024377664744384386 -0.0096366608920682804 0 -0.00046568637152751496 -0.0092651893051983927 0 -0.00056415140179333226 -0.0081879916367225882 0 0.00026739804195076482 -0.0088236827683676258 0 -0.0012997104227856742 -0.0071964417464592404 0 -0.00037676248860960535 -0.0079800520654532102 0 -0.0013547181964825982 -0.0062363302198257158 0 -0.0020595036735598662 -0.0062023776102468576 0 -0.0010409256605315236 -0.0071337524077926618 0 -0.0013547181964825982 -0.0062363302198257158 0 -0.0020595036735598662 -0.0062023776102468576 0 -0.0016927798665824054 -0.0055624136744982094 0 -0.00046568637152751496 -0.0092651893051983927 0 -0.00056415140179333226 -0.0081879916367225882 0 -0.0012710677490296862 -0.0088740648831703087 0 -0.0012710677490296862 -0.0088740648831703087 0 -0.0018820537195648119 -0.0084770958191087258 0 -0.0019768160910961295 -0.0092147204183770388 0 -0.0012559752455034625 -0.0096631169280431365 0 -0.0012710677490296862 -0.0088740648831703087 0 -0.0019768160910961295 -0.0092147204183770388 0 -0.0012710677490296862 -0.0088740648831703087 0 -0.001445150154148446 -0.0083757096534852939 0 -0.0018820537195648119 -0.0084770958191087258 0 -0.00056415140179333226 -0.0081879916367225882 0 -0.0014397858817873322 -0.0078353617108146787 0 -0.001445150154148446 -0.0083757096534852939 0 -0.00056415140179333226 -0.0081879916367225882 0 -0.0012710677490296862 -0.0088740648831703087 0 -0.001445150154148446 -0.0083757096534852939 0 -0.0014397858817873322 -0.0078353617108146787 0 -0.001445150154148446 -0.0083757096534852939 0 -0.0018820537195648119 -0.0084770958191087258 0 -0.0025415811030050721 -0.0084264641692735082 0 -0.0018820537195648119 -0.0084770958191087258 0 -0.0023124629359651178 -0.0088317932487051339 0 -0.0014397858817873322 -0.0078353617108146787 0 -0.0018820537195648119 -0.0084770958191087258 0 -0.0021402282154094772 -0.0078526113234560942 0 -0.0025415811030050721 -0.0084264641692735082 0 -0.0018820537195648119 -0.0084770958191087258 0 -0.0021402282154094772 -0.0078526113234560942 0 -0.0028460588499598211 -0.0092091792062449721 0 -0.0023124629359651178 -0.0088317932487051339 0 -0.0019768160910961295 -0.0092147204183770388 0 -0.0018820537195648119 -0.0084770958191087258 0 -0.0023124629359651178 -0.0088317932487051339 0 -0.0019768160910961295 -0.0092147204183770388 0 0.0015423260236548258 -0.0081752986297216959 0 0.0017335236527890861 -0.0092698767138321182 0 0.00027642166463764744 -0.0081765701078852469 0 0.0018741991612455321 -0.0096331779922872278 0 0.00070963408881466873 -0.008805485431741698 0 0.0015423260236548258 -0.0081752986297216959 0 0.00027642166463764744 -0.0081765701078852469 0 0.00076012771865296806 -0.0074189144900866878 0 0.0015423260236548258 -0.0081752986297216959 0 0.0026180281115938363 -0.0081268984783528769 0 0.0022374519728898443 -0.0087292495207105646 0 0.0015423260236548258 -0.0081752986297216959 0 0.0026180281115938363 -0.0081268984783528769 0 0.0017130817989333444 -0.0074006058854288077 0 0.0026180281115938363 -0.0081268984783528769 0 0.0022374519728898443 -0.0087292495207105646 0 0.0030748898433972096 -0.0092014858917979711 0 0.0015423260236548258 -0.0081752986297216959 0 0.0022374519728898443 -0.0087292495207105646 0 0.0017335236527890861 -0.0092698767138321182 0 0.0022374519728898443 -0.0087292495207105646 0 0.0017335236527890861 -0.0092698767138321182 0 0.0030748898433972096 -0.0092014858917979711 0 0.0018741991612455321 -0.0096331779922872278 0 0.0029240307909654782 -0.0092086230757693708 0 0.0022229359157317917 -0.0098002127652045291 0 0.0017256841923087836 -0.0094799253711137215 0 0.0030748898433972096 -0.0092014858917979711 0 0.0020706176973046128 -0.0097412743429856567 0 0.0018741991612455321 -0.0096331779922872278 0 0.0024804382837806042 -0.0099207357097754415 0 0.0022229359157317917 -0.0098002127652045291 0 0.0030748898433972096 -0.0092014858917979711 0 0.0024804382837806042 -0.0099207357097754415 0 0.0022229359157317917 -0.0098002127652045291 0 0.0018998083186985803 -0.0099890253609289017 0 0.0017103891696935265 -0.010550101893663937 0 0.0024804382837806042 -0.0099207357097754415 0 0.0018998083186985803 -0.0099890253609289017 0 0.0022229359157317917 -0.0098002127652045291 0 0.0018998083186985803 -0.0099890253609289017 0 0.0018877292406194177 -0.0096515490601062608 0 0.0017103891696935265 -0.010550101893663937 0 0.0018998083186985803 -0.0099890253609289017 0 0.0013130917072276909 -0.01005752920748995 0 0.0018877292406194177 -0.0096515490601062608 0 0.0013130917072276909 -0.01005752920748995 0 0.00061765402186924061 -0.0099590263838636849 0 0.0018998083186985803 -0.0099890253609289017 0 0.0018877292406194177 -0.0096515490601062608 0 0.0013130917072276909 -0.01005752920748995 0 0.00092565725311695955 -0.010517254223163538 0 0.0013130917072276909 -0.01005752920748995 0 0.00061765402186924061 -0.0099590263838636849 0 0.0018741991612455321 -0.0096331779922872278 0 0.00075454569484497281 -0.010083213784860953 0 0.0019929946624069701 -0.010009820403196952 0 0.00084482046177928433 -0.010154883952381229 0 0.0011337899446428983 -0.0094292598068535377 0 -0.00044470100078697707 -0.010267319036513315 0 0.00075454569484497281 -0.010083213784860953 0 0.00030983350708648671 -0.010739162417562797 0 -0.00052690537128621795 -0.010220049316334074 0 0.00061765402186924061 -0.0099590263838636849 0 -0.00034061816247559266 -0.010321622406069927 0 0.00084482046177928433 -0.010154883952381229 0 0.00024377664744384386 -0.0096366608920682804 0 0.00024377664744384386 -0.0096366608920682804 0 0.0011337899446428983 -0.0094292598068535377 0 0.00026739804195076482 -0.0088236827683676258 0 0.00084482046177928433 -0.010154883952381229 0 0.00024377664744384386 -0.0096366608920682804 0 0.0011337899446428983 -0.0094292598068535377 0 0.00027642166463764744 -0.0081765701078852469 0 0.00076012771865296806 -0.0074189144900866878 0 -0.00018994253904364988 -0.0069125406361900234 0 0.00076012771865296806 -0.0074189144900866878 0 -0.00018994253904364988 -0.0069125406361900234 0 0.00051383704519894209 -0.0064660978236779102 0 0.00070963408881466873 -0.008805485431741698 0 -0.00037676248860960535 -0.0079800520654532102 0 0.00027642166463764744 -0.0081765701078852469 0 -0.00018994253904364988 -0.0069125406361900234 0 -0.0010409256605315236 -0.0071337524077926618 0 -0.00018994253904364988 -0.0069125406361900234 0 -0.0010409256605315236 -0.0071337524077926618 0 -0.000873345239236507 -0.0065259147579390898 0 -0.00018994253904364988 -0.0069125406361900234 0 -0.000873345239236507 -0.0065259147579390898 0 -0.00065908182419811086 -0.0059623066699198632 0 -0.0013547181964825982 -0.0062363302198257158 0 -0.0010409256605315236 -0.0071337524077926618 0 -0.000873345239236507 -0.0065259147579390898 0 -0.0012342592985604497 -0.0056673933389411344 0 -0.00074533587568245251 -0.0058830003535968543 0 -0.0013181728757074268 -0.0054516420087280257 0 -0.0013547181964825982 -0.0062363302198257158 0 -0.000873345239236507 -0.0065259147579390898 0 -0.00065908182419811086 -0.0059623066699198632 0 -0.00072117941963865733 -0.0058781418545970103 0 -0.00030356206916163557 -0.0057744033943626701 0 -0.00082188561562345939 -0.0054077511175824339 0 -0.00013118199926837214 -0.0059883115581475937 0 -0.0015227686141644197 -0.0053817052073410606 0 -0.00018994253904364988 -0.0069125406361900234 0 -0.00065908182419811086 -0.0059623066699198632 0 0.00051383704519894209 -0.0064660978236779102 0 -0.00094329501783894302 -0.0058377509463574109 0 -0.00013118199926837214 -0.0059883115581475937 0 -0.00013118199926837214 -0.0059883115581475937 0 0.00044275469833881463 -0.0061266970138605841 0 -0.00072117941963865733 -0.0058781418545970103 0 -0.00030356206916163557 -0.0057744033943626701 0 -3.4899701433089975e-05 -0.006190142119070337 0 0.00076012771865296806 -0.0074189144900866878 0 0.00051383704519894209 -0.0064660978236779102 0 0.0017130817989333444 -0.0074006058854288077 0 -0.00013118199926837214 -0.0059883115581475937 0 0.0015155060836936848 -0.0067245149031548955 0 0.00052317392833575575 -0.0058023890716869574 0 0.00080721982808928028 -0.006017782406442327 0 0.00089632675582776433 -0.0059693872511636693 0 0.0015423260236548258 -0.0081752986297216959 0 0.00076012771865296806 -0.0074189144900866878 0 0.0017130817989333444 -0.0074006058854288077 0 0.0010127958176740566 -0.0061290301245973235 0 0.00089632675582776433 -0.0059693872511636693 0 0.0012197007208699468 -0.0061082590388014009 0 -3.4899701433089975e-05 -0.006190142119070337 0 0.00022334026674413209 -0.005969286803545441 0 0.00062392925960931371 -0.0064836049923735596 0 0.0013785913338585278 -0.0063552954726242786 0 0.0015155060836936848 -0.0067245149031548955 0 0.0010127958176740566 -0.0061290301245973235 0 0.00080721982808928028 -0.006017782406442327 0 0.00089632675582776433 -0.0059693872511636693 0 0.0024401997111198402 -0.007544163750611942 0 0.0015155060836936848 -0.0067245149031548955 0 0.0017956922042148161 -0.0065946084469006502 0 0.0017784611168352642 -0.0066088378696122236 0 0.0019219558710431629 -0.0066982109882104315 0 6.0865752798242567e-05 -0.0056791573831805322 0 -0.00025344866222941912 -0.0052249801874897934 0 -0.00030356206916163557 -0.0057744033943626701 0 -3.4899701433089975e-05 -0.006190142119070337 0 0.00022334026674413209 -0.005969286803545441 0 4.4890779124458174e-06 -0.0053436777161733912 0 2.6021608001484378e-05 -0.0050865703058361042 0 -0.00031999713036692947 -0.0050390461974628422 0 -0.00030356206916163557 -0.0057744033943626701 0 0.00022334026674413209 -0.005969286803545441 0 -0.00017817086547125004 -0.0054325663363953246 0 4.4890779124458174e-06 -0.0053436777161733912 0 0.00019110559072601501 -0.0052102135934018485 0 2.6021608001484378e-05 -0.0050865703058361042 0 0.00019110559072601501 -0.0052102135934018485 0 2.6021608001484378e-05 -0.0050865703058361042 0 0.00029907326645869898 -0.0050288680302614241 0 4.4890779124458174e-06 -0.0053436777161733912 0 0.00019110559072601501 -0.0052102135934018485 0 0.0003069281250271343 -0.0053915677413719646 0 0.00019110559072601501 -0.0052102135934018485 0 0.00039166151665616009 -0.0052183581229598352 0 0.0003069281250271343 -0.0053915677413719646 0 0.00019110559072601501 -0.0052102135934018485 0 0.00039166151665616009 -0.0052183581229598352 0 0.00029907326645869898 -0.0050288680302614241 0 0.00039166151665616009 -0.0052183581229598352 0 0.00063250004429088187 -0.0051058258939622701 0 0.00029907326645869898 -0.0050288680302614241 0 0.00039166151665616009 -0.0052183581229598352 0 0.00063250004429088187 -0.0051058258939622701 0 0.00052298112872257443 -0.0053722911361257101 0 0.00063250004429088187 -0.0051058258939622701 0 0.00052298112872257443 -0.0053722911361257101 0 0.00077617299625817307 -0.0053575082862234438 0 0.00039166151665616009 -0.0052183581229598352 0 0.00052298112872257443 -0.0053722911361257101 0 0.0003069281250271343 -0.0053915677413719646 0 0.00052298112872257443 -0.0053722911361257101 0 0.00045472990798785121 -0.0055365667654514667 0 0.0003069281250271343 -0.0053915677413719646 0 0.00052298112872257443 -0.0053722911361257101 0 0.00066010745347082204 -0.0056003327923451023 0 0.00045472990798785121 -0.0055365667654514667 0 0.00052298112872257443 -0.0053722911361257101 0 0.00066010745347082204 -0.0056003327923451023 0 0.00077617299625817307 -0.0053575082862234438 0 0.00066010745347082204 -0.0056003327923451023 0 0.00045472990798785121 -0.0055365667654514667 0 0.00051739426069087136 -0.0056430532828895402 0 0.00045472990798785121 -0.0055365667654514667 0 0.00051739426069087136 -0.0056430532828895402 0 0.00031306488197612668 -0.0056871325271324073 0 4.4890779124458174e-06 -0.0053436777161733912 0 0.0003069281250271343 -0.0053915677413719646 0 0.00031306488197612668 -0.0056871325271324073 0 6.0865752798242567e-05 -0.0056791573831805322 0 0.00095220327276065476 -0.0057956256547584649 0 0.00045472990798785121 -0.0055365667654514667 0 0.0003069281250271343 -0.0053915677413719646 0 0.00031306488197612668 -0.0056871325271324073 0 0.00044275469833881463 -0.0061266970138605841 0 0.00095220327276065476 -0.0057956256547584649 0 0.0009257992394778277 -0.005161272232094281 0 0.00098936287218865195 -0.0053597661470898622 0 0.001494586564721407 -0.005101879080338787 0 0.00098936287218865195 -0.0053597661470898622 0 0.0011230569119335715 -0.0054908820656137539 0 0.001494586564721407 -0.005101879080338787 0 0.0009257992394778277 -0.005161272232094281 0 0.00077617299625817307 -0.0053575082862234438 0 0.00098936287218865195 -0.0053597661470898622 0 0.00063250004429088187 -0.0051058258939622701 0 0.0009257992394778277 -0.005161272232094281 0 0.00077617299625817307 -0.0053575082862234438 0 0.00066010745347082204 -0.0056003327923451023 0 0.00077617299625817307 -0.0053575082862234438 0 0.00091692658585601624 -0.0055319300175058084 0 0.00077617299625817307 -0.0053575082862234438 0 0.00091692658585601624 -0.0055319300175058084 0 0.00098936287218865195 -0.0053597661470898622 0 0.00091692658585601624 -0.0055319300175058084 0 0.00098936287218865195 -0.0053597661470898622 0 0.0011230569119335715 -0.0054908820656137539 0 0.0015333595899230973 0.0015154422836384733 0 0.0013536068812112585 0.0017445315758265393 0 0.0011553371581915846 0.0015694741578819844 0 0.0015333595899230973 0.0015154422836384733 0 0.001531343572766359 0.0019222262074473878 0 0.0019882424212308305 0.002056910362296837 0 0.001531343572766359 0.0019222262074473878 0 0.0019882424212308305 0.002056910362296837 0 0.0015815621068560911 0.0022809061857649638 0 0.001531343572766359 0.0019222262074473878 0 0.0015815621068560911 0.0022809061857649638 0 0.0011912876261168535 0.0019783133646756128 0 0.0015333595899230973 0.0015154422836384733 0 0.001531343572766359 0.0019222262074473878 0 0.0013536068812112585 0.0017445315758265393 0 0.001531343572766359 0.0019222262074473878 0 0.0013536068812112585 0.0017445315758265393 0 0.0011912876261168535 0.0019783133646756128 0 0.00091692658585601624 -0.0055319300175058084 0 0.0011230569119335715 -0.0054908820656137539 0 0.00088572615405704813 -0.0056663585411365017 0 0.0012727551169339571 -0.0022973875642936354 0 0.0012256903957918448 1.997584392894514e-05 0 0.00091692658585601624 -0.0055319300175058084 0 0.00088572615405704813 -0.0056663585411365017 0 0.00082266806496191966 -0.0056295172050323042 0 0.00045010827055223546 -0.0061247070925543861 0 0.0015360817636120416 -0.0036120130234179541 0 0.00066010745347082204 -0.0056003327923451023 0 0.00091692658585601624 -0.0055319300175058084 0 0.00068097722595779884 -0.0058534932840520826 0 0.0020679944727669177 0.0019119366654841341 0 0.0022151883408857436 0.0021059358040267195 0 0.0023979622432489002 0.0019956836711086372 0 0.0020679944727669177 0.0019119366654841341 0 0.0023985376306087029 0.0017450285975767323 0 0.0023979622432489002 0.0019956836711086372 0 0.0012256903957918448 1.997584392894514e-05 0 0.0015360817636120416 -0.0036120130234179541 0 0.0017087806237569292 0.00029387630220667667 0 0.0019946897347004953 0.0027049420145946693 0 0.0020301708326426588 0.0022633398140199375 0 0.0024547359207395302 0.0022705381485984008 0 0.0018263871703781303 0.0027007039744919394 0 0.0012256903957918448 1.997584392894514e-05 0 0.0016021460325008916 0.0022675748015663724 0 0.0020981894323077836 0.0019650686133510786 0 0.0020301708326426588 0.0022633398140199375 0 0.0015815621068560911 0.0022809061857649638 0 0.0022151883408857436 0.0021059358040267195 0 0.0020301708326426588 0.0022633398140199375 0 0.0024547359207395302 0.0022705381485984008 0 0.0020981894323077836 0.0019650686133510786 0 0.0022151883408857436 0.0021059358040267195 0 0.0020301708326426588 0.0022633398140199375 0 0.0022151883408857436 0.0021059358040267195 0 0.0023979622432489002 0.0019956836711086372 0 0.0024547359207395302 0.0022705381485984008 0 0.0012256903957918448 1.997584392894514e-05 0 0.0020388694104314228 0.001277560684141361 0 0.0015815621068560911 0.0022809061857649638 0 0.0014451042256830833 0.0026527024884800444 0 0.0010983414763074397 0.0025456249994788476 0 0.0015815621068560911 0.0022809061857649638 0 0.0014451042256830833 0.0026527024884800444 0 0.0018263871703781303 0.0027007039744919394 0 0.0020301708326426588 0.0022633398140199375 0 0.0015815621068560911 0.0022809061857649638 0 0.0018263871703781303 0.0027007039744919394 0 0.0010127958176740566 -0.0061290301245973235 0 0.0012057630148695601 -0.0062390360987738787 0 0.0012197007208699468 -0.0061082590388014009 0 0.0016833881816046526 -0.0055327966341975326 0 0.0015091795399127001 -0.0050702680363331988 0 0.0016833881816046526 -0.0055327966341975326 0 0.0017221600064411464 -0.0065568797774057993 0 0.0026180281115938363 -0.0081268984783528769 0 0.0035859237896156762 -0.0089090534481402178 0 0.0030748898433972096 -0.0092014858917979711 0 0.0017784611168352642 -0.0066088378696122236 0 0.0015989699314521695 -0.0064880810112204913 0 0.0016371450094772187 -0.0064569252645276442 0 0.0024401997111198402 -0.007544163750611942 0 0.0017221600064411464 -0.0065568797774057993 0 0.0013785913338585278 -0.0063552954726242786 0 0.0016833881816046526 -0.0055327966341975326 0 0.0017956922042148161 -0.0065946084469006502 0 0.0017784611168352642 -0.0066088378696122236 0 0.0016371450094772187 -0.0064569252645276442 0 0.0012057630148695601 -0.0062390360987738787 0 0.0012197007208699468 -0.0061082590388014009 0 0.001274984571793289 -0.0061778268421034278 0 0.00095220327276065476 -0.0057956256547584649 0 0.0015091795399127001 -0.0050702680363331988 0 0.00095220327276065476 -0.0057956256547584649 0 0.0012600061461786464 -0.0051868168050464795 0 0.00051739426069087136 -0.0056430532828895402 0 0.00031306488197612668 -0.0056871325271324073 0 0.00045247925867432549 -0.0057470100802114914 0 0.00051739426069087136 -0.0056430532828895402 0 0.00045247925867432549 -0.0057470100802114914 0 0.0005744374942493782 -0.0057260376664705426 0 0.0017711002612884046 -0.0040690419748414721 0 0.001935618990312469 -0.0039287023719763196 0 0.0015464549155921766 -0.0037346965603676043 0 0.0011824182364917133 -0.0054155795028479033 0 0.0012590111138018865 -0.0054499559192383818 0 0.0012294526532439633 -0.0054753043848311707 0 0.0012600061461786464 -0.0051868168050464795 0 0.0015091795399127001 -0.0050702680363331988 0 0.00066010745347082204 -0.0056003327923451023 0 0.0005744374942493782 -0.0057260376664705426 0 0.00068097722595779884 -0.0058534932840520826 0 0.00045247925867432549 -0.0057470100802114914 0 0.0005744374942493782 -0.0057260376664705426 0 0.00068097722595779884 -0.0058534932840520826 0 0.0012600061461786464 -0.0051868168050464795 0 0.0015360817636120416 -0.0036120130234179541 0 0.00066010745347082204 -0.0056003327923451023 0 0.00051739426069087136 -0.0056430532828895402 0 0.0005744374942493782 -0.0057260376664705426 0 0.0017711002612884046 -0.0040690419748414721 0 0.0011226641694046409 -0.0037568016960569761 0 0.0015464549155921766 -0.0037346965603676043 0 0.0011226641694046409 -0.0037568016960569761 0 0.0015464549155921766 -0.0037346965603676043 0 0.0014768367481149934 -0.0033077260718812752 0 0.0015360817636120416 -0.0036120130234179541 0 0.0018324565914074045 -0.0014783626114304139 0 0.0023985376306087029 0.0017450285975767323 0 0.0023979622432489002 0.0019956836711086372 0 0.0026282336409571274 0.0020451834951161936 0 0.0016833881816046526 -0.0055327966341975326 0 0.0013981658113832044 -0.0022102123565840262 0 0.001935618990312469 -0.0039287023719763196 0 0.0015464549155921766 -0.0037346965603676043 0 0.0014768367481149934 -0.0033077260718812752 0 0.0015091795399127001 -0.0050702680363331988 0 0.0018324565914074045 -0.0014783626114304139 0 0.0017139296111098332 -0.0044941290292812262 0 0.00099767033632155435 -0.0030746745125721639 0 0.00082067610494901703 -0.0032971747523582013 0 0.0023496695702231378 -0.0039517036852923177 0 0.0017139296111098332 -0.0044941290292812262 0 0.00099767033632155435 -0.0030746745125721639 0 0.0017659619741559435 -0.0051804111127975094 0 0.00024035181286690153 -0.00419363536402399 0 0.00068817350733898922 -0.0036309426656126252 0 0.0013981658113832044 -0.0022102123565840262 0 0.00044258180285045354 -0.0036574125666296161 0 0.001314917340972172 -0.0017587178108346068 0 0.0014847939950300602 -0.001546110334596303 0 0.0010293142245914747 -0.0015707427890415513 0 0.0023979622432489002 0.0019956836711086372 0 0.0026282336409571274 0.0020451834951161936 0 0.0024547359207395302 0.0022705381485984008 0 0.0023962334756446207 -0.0012338158945331421 0 0.0020967235926901283 -0.0016106184481848413 0 0.001269798464417502 -0.00050910967622465385 0 0.0013981658113832044 -0.0022102123565840262 0 0.0018324565914074045 -0.0014783626114304139 0 0.0018324565914074045 -0.0014783626114304139 0 0.0017087806237569292 0.00029387630220667667 0 0.0013981658113832044 -0.0022102123565840262 0 0.0017087806237569292 0.00029387630220667667 0 0.00044258180285045354 -0.0036574125666296161 0 0.00015514686617793441 -0.0018777185768979849 0 0.0014847939950300602 -0.001546110334596303 0 0.0010293142245914747 -0.0015707427890415513 0 0.00086817546242033358 -0.0010283097580248439 0 0.0009840209943616637 -0.0057557963383169132 0 0.00082168510917768139 -0.0057995343202370993 0 0.00081047814185343297 -0.0059766293044337115 0 0.0017659619741559435 -0.0051804111127975094 0 0.0021649149873393847 -0.004840733274893972 0 0.00068817350733898922 -0.0036309426656126252 0 0.00084199972021553214 -0.0056476387408556502 0 0.0009840209943616637 -0.0057557963383169132 0 0.00082168510917768139 -0.0057995343202370993 0 0.0017221600064411464 -0.0065568797774057993 0 0.00044258180285045354 -0.0036574125666296161 0 0.0024804382837806042 -0.0099207357097754415 0 0.0035859237896156762 -0.0089090534481402178 0 0.0030748898433972096 -0.0092014858917979711 0 0.00065009187780444241 -0.0058181021109152114 0 0.00084199972021553214 -0.0056476387408556502 0 0.00082168510917768139 -0.0057995343202370993 0 0.0016586087777450077 -0.0078280104555415696 0 0.0017221600064411464 -0.0065568797774057993 0 0.00065009187780444241 -0.0058181021109152114 0 0.00082168510917768139 -0.0057995343202370993 0 0.00081047814185343297 -0.0059766293044337115 0 0.00044258180285045354 -0.0036574125666296161 0 0.00043990292553590073 -0.0043539422423037391 0 -6.4966099342854162e-05 -0.0027957468087435192 0 -0.00011782047698366535 -0.0025595729797139167 0 -0.00028524035985784109 -0.0027351333280870218 0 -0.00033779447982124549 -0.0050476625437307762 0 0.00043990292553590073 -0.0043539422423037391 0 0.00013313802104731595 -0.0025572033278739082 0 -6.4966099342854162e-05 -0.0027957468087435192 0 -0.00011782047698366535 -0.0025595729797139167 0 -0.00011782047698366535 -0.0025595729797139167 0 -0.00034701880552813442 -0.0025099539242999249 0 -0.00028524035985784109 -0.0027351333280870218 0 -0.00034701880552813442 -0.0025099539242999249 0 -0.00028524035985784109 -0.0027351333280870218 0 -0.0004810237649075278 -0.0026353312659186862 0 -0.00026051229613261481 -0.0030442654592307355 0 -0.00028524035985784109 -0.0027351333280870218 0 -0.00045505716458992673 -0.0028813872357550366 0 -0.00026051229613261481 -0.0030442654592307355 0 -6.4966099342854162e-05 -0.0027957468087435192 0 -0.00028524035985784109 -0.0027351333280870218 0 -0.00028524035985784109 -0.0027351333280870218 0 -0.00045505716458992673 -0.0028813872357550366 0 -0.0004810237649075278 -0.0026353312659186862 0 0.0028083341189577174 0.001916019654150299 0 0.0021787982561694941 0.002810942273528553 0 0.002067756126084095 0.0024373740097056442 0 0.00015514686617793441 -0.0018777185768979849 0 0.00099857707839980732 0.00010782026829944381 0 0.0017087806237569292 0.00029387630220667667 0 0.00099857707839980732 0.00010782026829944381 0 0.0010293142245914747 -0.0015707427890415513 0 0.00086817546242033358 -0.0010283097580248439 0 0.00025329679357866119 -0.00051185909558247708 0 -0.00045505716458992673 -0.0028813872357550366 0 -0.00065089352786896516 -0.0027131043427969979 0 -0.0004810237649075278 -0.0026353312659186862 0 0.0021787982561694941 0.002810942273528553 0 0.002067756126084095 0.0024373740097056442 0 0.0013606510868525773 0.002961242341045842 0 0.0014451042256830833 0.0026527024884800444 0 0.0018263871703781303 0.0027007039744919394 0 0.0012848647133093302 0.0030838139776714363 0 0.0019946897347004953 0.0027049420145946693 0 0.0013181710048833779 0.0030151336074787276 0 0.00099857707839980732 0.00010782026829944381 0 0.0011347171124708273 0.0025263937274530111 0 0.0020632136941723081 0.0002880203204101756 0 0.0013218290671619347 0.0012922211034862967 0 0.00074386925625331954 0.0013812044770872124 0 0.0021787982561694941 0.002810942273528553 0 0.0015355943488409537 0.0033673225266511436 0 0.0013606510868525773 0.002961242341045842 0 0.00099857707839980732 0.00010782026829944381 0 0.00035243781317457882 -0.00066917040735287069 0 -0.00065089352786896516 -0.0027131043427969979 0 -0.00080319936607157355 -0.0025123649957868896 0 -0.00064046840509440772 -0.0025485499902125632 0 -0.0007206119035041862 -0.002430707513537478 0 -0.00080319936607157355 -0.0025123649957868896 0 -0.00064046840509440772 -0.0025485499902125632 0 0.00035243781317457882 -0.00066917040735287069 0 -0.00025889717576054925 -0.00020546892748842357 0 -0.0007206119035041862 -0.002430707513537478 0 -0.00080319936607157355 -0.0025123649957868896 0 -0.00096020606724299764 -0.0022742263215849347 0 0.0013218290671619347 0.0012922211034862967 0 0.00074386925625331954 0.0013812044770872124 0 0.00057003841462161973 0.002334339131297204 0 -0.0004810237649075278 -0.0026353312659186862 0 -0.00064046840509440772 -0.0025485499902125632 0 -0.00054326508216750145 -0.0024735989737972889 0 -0.00065089352786896516 -0.0027131043427969979 0 -0.0004810237649075278 -0.0026353312659186862 0 -0.00064046840509440772 -0.0025485499902125632 0 -0.0007206119035041862 -0.002430707513537478 0 -0.00064046840509440772 -0.0025485499902125632 0 -0.00054326508216750145 -0.0024735989737972889 0 -0.00034701880552813442 -0.0025099539242999249 0 -0.00054326508216750145 -0.0024735989737972889 0 -0.00051154696427378916 -0.0022906572053722138 0 -0.00034701880552813442 -0.0025099539242999249 0 -0.0004810237649075278 -0.0026353312659186862 0 -0.00054326508216750145 -0.0024735989737972889 0 -0.00051154696427378916 -0.0022906572053722138 0 -0.00075893585898913359 -0.002244787885297213 0 -0.00070201939226517056 -0.0020548930008739376 0 -0.0007206119035041862 -0.002430707513537478 0 -0.00051154696427378916 -0.0022906572053722138 0 -0.00075893585898913359 -0.002244787885297213 0 -0.0007206119035041862 -0.002430707513537478 0 -0.00054326508216750145 -0.0024735989737972889 0 -0.00051154696427378916 -0.0022906572053722138 0 -0.00060739530722793856 -0.0023341216960723896 0 -0.00025889717576054925 -0.00020546892748842357 0 -0.0007206119035041862 -0.002430707513537478 0 -0.00075893585898913359 -0.002244787885297213 0 -0.00094629561711900454 -0.0023106856821136145 0 -0.00075893585898913359 -0.002244787885297213 0 -0.00090768718398876217 -0.0021370412625423248 0 -0.00094629561711900454 -0.0023106856821136145 0 -0.00090768718398876217 -0.0021370412625423248 0 -0.00070201939226517056 -0.0020548930008739376 0 -0.00090812346254666421 -0.0019643407476117726 0 -0.00075893585898913359 -0.002244787885297213 0 -0.00090768718398876217 -0.0021370412625423248 0 -0.00070201939226517056 -0.0020548930008739376 0 -0.00070560395648943872 -0.001820006743933985 0 -0.00070201939226517056 -0.0020548930008739376 0 -0.00090812346254666421 -0.0019643407476117726 0 -0.00040696544796189307 -0.0018793222625973359 0 -0.00051154696427378916 -0.0022906572053722138 0 -0.00070201939226517056 -0.0020548930008739376 0 -0.0009042147402038293 -0.0046140125042035554 0 -0.0009045470736970746 -0.0045179304125942581 0 -0.00040696544796189307 -0.0018793222625973359 0 -0.00051154696427378916 -0.0022906572053722138 0 -0.00013066815514429513 -0.0022181400474010258 0 -0.0014243788937787585 -0.0067074894311272629 0 -0.00130514066483492 -0.0068679338655502457 0 -0.0015077502311026567 -0.0070123807072272702 0 -0.0014243788937787585 -0.0067074894311272629 0 -0.0017205515454712943 -0.0067526469920479847 0 -0.0015077502311026567 -0.0070123807072272702 0 -0.00033779447982124549 -0.0050476625437307762 0 -0.0009045470736970746 -0.0045179304125942581 0 -0.00011782047698366535 -0.0025595729797139167 0 -0.00034701880552813442 -0.0025099539242999249 0 -0.00013066815514429513 -0.0022181400474010258 0 0.00013313802104731595 -0.0025572033278739082 0 -0.00011782047698366535 -0.0025595729797139167 0 -0.00013066815514429513 -0.0022181400474010258 0 -0.00034701880552813442 -0.0025099539242999249 0 -0.00051154696427378916 -0.0022906572053722138 0 -0.00013066815514429513 -0.0022181400474010258 0 -0.001539857428742856 0.0074638912297490699 0 -0.0016935749567375997 0.0068135714365141009 0 -0.0029724005248287994 0.010887829667469727 0 -0.0030060620225759367 0.010603057477237143 0 -0.0033618658174724542 0.010548921168436953 0 -0.00026183676223012623 0.003746499113624565 0 0.00042847707105013081 0.0038540013667255416 0 0.00033690695890867663 0.0035133482888000415 0 -0.00026183676223012623 0.003746499113624565 0 0.00042206762031135012 0.0042775350389620609 0 0.00042847707105013081 0.0038540013667255416 0 -0.0029724005248287994 0.010887829667469727 0 -0.0030060620225759367 0.010603057477237143 0 -0.0027469605129850218 0.010692657122817781 0 -0.0029167974857588598 0.010344974138449779 0 -0.0030060620225759367 0.010603057477237143 0 -0.0027469605129850218 0.010692657122817781 0 -0.0029167974857588598 0.010344974138449779 0 -0.0030060620225759367 0.010603057477237143 0 -0.0033618658174724542 0.010548921168436953 0 -0.0023648847284565705 0.0092874592276656238 0 -0.0016935749567375997 0.0068135714365141009 0 -0.0022322711703253511 0.0091599777720597179 0 -0.0021849797963058156 0.0091437613012894346 0 -0.0021045906949636595 0.0090230918692359736 0 -0.0028962915242092841 0.010280779509050359 0 -0.0016935749567375997 0.0068135714365141009 0 -0.0021765020758498675 0.0089010280582478441 0 -0.0020135923165353377 0.0088749580507506472 0 -0.0019599595846753301 0.0086263456811925959 0 -0.001836879820243244 0.0027600791105129485 0 -0.0016935749567375997 0.0068135714365141009 0 -0.0020135923165353377 0.0088749580507506472 0 -0.0017696386274143464 0.0087551367470848126 0 -0.0019599595846753301 0.0086263456811925959 0 -0.0012176316919622549 0.0037700561754206016 0 -0.0014753470477225127 0.0028164351094907935 0 -0.00025262956064712371 0.0024864393347979736 0 -0.0014753470477225127 0.0028164351094907935 0 -0.0024648197720623342 0.0028304060561396651 0 -0.00088259904853967355 0.0020086755480617372 0 -0.0016935749567375997 0.0068135714365141009 0 -0.00066337117927691043 0.0024598752683709082 0 -0.0012176316919622549 0.0037700561754206016 0 -0.0014753470477225127 0.0028164351094907935 0 -0.0024648197720623342 0.0028304060561396651 0 -0.00090812346254666421 -0.0019643407476117726 0 -0.0012350535091601119 -0.0018992934980628347 0 -0.0010925207244086264 -0.0021062373360409611 0 -0.001836879820243244 0.0027600791105129485 0 -0.00045466961672040434 -5.0254918286653705e-05 0 -0.0014753470477225127 0.0028164351094907935 0 -0.00025262956064712371 0.0024864393347979736 0 -0.00088259904853967355 0.0020086755480617372 0 -0.00090768718398876217 -0.0021370412625423248 0 -0.00090812346254666421 -0.0019643407476117726 0 -0.0010925207244086264 -0.0021062373360409611 0 0.0011347171124708273 0.0025263937274530111 0 0.00046952836015708513 0.002808305897333929 0 0.00074386925625331954 0.0013812044770872124 0 -0.00063792960892671956 0.0025308064927032224 0 0.00057003841462161973 0.002334339131297204 0 -0.00045466961672040434 -5.0254918286653705e-05 0 -0.00025889717576054925 -0.00020546892748842357 0 -0.00090768718398876217 -0.0021370412625423248 0 -0.0010925207244086264 -0.0021062373360409611 0 -0.00094629561711900454 -0.0023106856821136145 0 -0.00025262956064712371 0.0024864393347979736 0 0.00071230718478446054 0.001182515128235721 0 -0.00088259904853967355 0.0020086755480617372 0 -0.00025889717576054925 -0.00020546892748842357 0 -0.00066337117927691043 0.0024598752683709082 0 -0.00063792960892671956 0.0025308064927032224 0 0.00057003841462161973 0.002334339131297204 0 -0.00072973954997748269 0.0030387027964804652 0 -0.0020899988741935743 0.0037769785424828528 0 -0.00063792960892671956 0.0025308064927032224 0 -0.00072973954997748269 0.0030387027964804652 0 0.00042206762031135012 0.0042775350389620609 0 0.00095445035687001913 0.0038574832773625822 0 0.00042847707105013081 0.0038540013667255416 0 0.00095445035687001913 0.0038574832773625822 0 0.00042847707105013081 0.0038540013667255416 0 0.00073289781533951415 0.0034559004858209109 0 -0.0016935749567375997 0.0068135714365141009 0 0.00046952836015708513 0.002808305897333929 0 0.00073289781533951415 0.0034559004858209109 0 0.00080882934410835743 0.002970344784286576 0 0.00022794107959180451 0.0031727902156636935 0 0.00042847707105013081 0.0038540013667255416 0 0.00073289781533951415 0.0034559004858209109 0 0.00033690695890867663 0.0035133482888000415 0 0.00073289781533951415 0.0034559004858209109 0 0.00022794107959180451 0.0031727902156636935 0 0.00033690695890867663 0.0035133482888000415 0 0.00077700310604819514 0.0034154479817838429 0 0.0013181710048833779 0.0030151336074787276 0 0.0015355943488409537 0.0033673225266511436 0 0.00095445035687001913 0.0038574832773625822 0 0.00073289781533951415 0.0034559004858209109 0 0.00073289781533951415 0.0034559004858209109 0 0.0012848647133093302 0.0030838139776714363 0 0.00080882934410835743 0.002970344784286576 0 0.0015355943488409537 0.0033673225266511436 0 0.00073289781533951415 0.0034559004858209109 0 0.0013606510868525773 0.002961242341045842 0 0.0014451042256830833 0.0026527024884800444 0 0.0012848647133093302 0.0030838139776714363 0 0.0010983414763074397 0.0025456249994788476 0 0.0012848647133093302 0.0030838139776714363 0 0.00080882934410835743 0.002970344784286576 0 0.0010983414763074397 0.0025456249994788476 0 0.00080882934410835743 0.002970344784286576 0 0.0010983414763074397 0.0025456249994788476 0 0.00056069858887316712 0.0025377227963618077 0 0.00080882934410835743 0.002970344784286576 0 0.00022794107959180451 0.0031727902156636935 0 0.00056069858887316712 0.0025377227963618077 0 0.00011671926792699777 0.0027575792772382268 0 0.00022794107959180451 0.0031727902156636935 0 -0.00034740477474094934 0.0030840299997968198 0 0.00011671926792699777 0.0027575792772382268 0 0.00022794107959180451 0.0031727902156636935 0 0.00056069858887316712 0.0025377227963618077 0 -0.00026183676223012623 0.003746499113624565 0 0.00022794107959180451 0.0031727902156636935 0 0.00033690695890867663 0.0035133482888000415 0 -0.00026183676223012623 0.003746499113624565 0 0.00022794107959180451 0.0031727902156636935 0 -0.00034740477474094934 0.0030840299997968198 0 -0.00034740477474094934 0.0030840299997968198 0 -0.00010131878390283901 0.0023446031012674218 0 -0.00093710367922992339 0.0024598479468840766 0 0.00011671926792699777 0.0027575792772382268 0 -0.00034740477474094934 0.0030840299997968198 0 -0.00010131878390283901 0.0023446031012674218 0 -0.00010131878390283901 0.0023446031012674218 0 0.00041077768445764006 0.0020549527565098652 0 0.00056069858887316712 0.0025377227963618077 0 0.00011671926792699777 0.0027575792772382268 0 -0.00010131878390283901 0.0023446031012674218 0 0.00056069858887316712 0.0025377227963618077 0 0.00041077768445764006 0.0020549527565098652 0 0.00076631976309415937 0.001558546937669492 0 -1.1886800498373513e-05 0.0016158543589413657 0 -0.00010131878390283901 0.0023446031012674218 0 0.00041077768445764006 0.0020549527565098652 0 -1.1886800498373513e-05 0.0016158543589413657 0 -0.00010131878390283901 0.0023446031012674218 0 -1.1886800498373513e-05 0.0016158543589413657 0 -0.00074614894800237026 0.0016816228596184854 0 0.0015815621068560911 0.0022809061857649638 0 0.0010983414763074397 0.0025456249994788476 0 0.0011912876261168535 0.0019783133646756128 0 0.0010983414763074397 0.0025456249994788476 0 0.00080860553607217602 0.0021343090526654818 0 0.0011912876261168535 0.0019783133646756128 0 0.0010983414763074397 0.0025456249994788476 0 0.00056069858887316712 0.0025377227963618077 0 0.00080860553607217602 0.0021343090526654818 0 0.00041077768445764006 0.0020549527565098652 0 0.00056069858887316712 0.0025377227963618077 0 0.00080860553607217602 0.0021343090526654818 0 0.00041077768445764006 0.0020549527565098652 0 0.00080860553607217602 0.0021343090526654818 0 0.00076631976309415937 0.001558546937669492 0 0.00080860553607217602 0.0021343090526654818 0 0.0011912876261168535 0.0019783133646756128 0 0.00076631976309415937 0.001558546937669492 0 0.0013536068812112585 0.0017445315758265393 0 0.0011912876261168535 0.0019783133646756128 0 0.0011553371581915846 0.0015694741578819844 0 0.0015333595899230973 0.0015154422836384733 0 0.0011553371581915846 0.0015694741578819844 0 0.0011121388046823311 0.0010980603840974646 0 0.0011912876261168535 0.0019783133646756128 0 0.0011553371581915846 0.0015694741578819844 0 0.00076631976309415937 0.001558546937669492 0 0.0011553371581915846 0.0015694741578819844 0 0.00076631976309415937 0.001558546937669492 0 0.0011121388046823311 0.0010980603840974646 0 0.00076631976309415937 0.001558546937669492 0 0.00078262383724155417 0.0010924996090275437 0 0.0011121388046823311 0.0010980603840974646 0 0.0012727551169339571 -0.0022973875642936354 0 0.0013271959094299098 -0.00192819486278088 0 0.00024842936398094059 0.0015835798617785692 0 -0.00035588222057661727 0.0015265926852323737 0 0.00046612128411277151 0.0015304460741550248 0 0.00052029261209615338 0.0012392399605762364 0 0.00021845389864596278 0.001286779214265148 0 0.00046612128411277151 0.0015304460741550248 0 0.00014000557610332519 0.0015495645554355752 0 0.00021845389864596278 0.001286779214265148 0 0.00072731735274682839 0.0015551564595373954 0 0.00024842936398094059 0.0015835798617785692 0 0.00076631976309415937 0.001558546937669492 0 0.00046612128411277151 0.0015304460741550248 0 0.00052029261209615338 0.0012392399605762364 0 0.00076631976309415937 0.001558546937669492 0 0.00078262383724155417 0.0010924996090275437 0 0.00052029261209615338 0.0012392399605762364 0 0.00052029261209615338 0.0012392399605762364 0 0.00035361028823327294 0.0010635088748669659 0 0.00021845389864596278 0.001286779214265148 0 0.00035361028823327294 0.0010635088748669659 0 0.00055446057099371412 0.00090972263112426175 0 0.00028893564213903897 0.00084705270996488771 0 0.00052029261209615338 0.0012392399605762364 0 0.00035361028823327294 0.0010635088748669659 0 0.00055446057099371412 0.00090972263112426175 0 0.00078262383724155417 0.0010924996090275437 0 0.00052029261209615338 0.0012392399605762364 0 0.00055446057099371412 0.00090972263112426175 0 0.00078262383724155417 0.0010924996090275437 0 0.00055446057099371412 0.00090972263112426175 0 0.00082954483254811171 0.00081537128660128595 0 0.00057207384323353842 0.00066358655143194576 0 0.0006292718736209522 0.00054186760445540426 0 0.00082954483254811171 0.00081537128660128595 0 0.00055446057099371412 0.00090972263112426175 0 0.00057207384323353842 0.00066358655143194576 0 0.00082954483254811171 0.00081537128660128595 0 0.00088031572207335651 -0.0013621194212856294 0 0.0014095002669570202 -0.0019887616937507083 0 0.00055446057099371412 0.00090972263112426175 0 0.00028893564213903897 0.00084705270996488771 0 0.00042117502913499734 0.00068990254821877902 0 0.00028893564213903897 0.00084705270996488771 0 0.00042117502913499734 0.00068990254821877902 0 0.00029722484080679866 0.00056516063685366983 0 0.00055446057099371412 0.00090972263112426175 0 0.00057207384323353842 0.00066358655143194576 0 0.00042117502913499734 0.00068990254821877902 0 0.00049202837809470088 0.00052518921039881048 0 0.00052432251423836806 0.00021608956116595757 0 0.00029722484080679866 0.00056516063685366983 0 0.00049202837809470088 0.00052518921039881048 0 0.00066461052594134781 0.00052953550671325277 0 0.00052432251423836806 0.00021608956116595757 0 0.00042117502913499734 0.00068990254821877902 0 0.00049202837809470088 0.00052518921039881048 0 0.00029722484080679866 0.00056516063685366983 0 0.00057207384323353842 0.00066358655143194576 0 0.00042117502913499734 0.00068990254821877902 0 0.00049202837809470088 0.00052518921039881048 0 0.00030216563426893253 0.00058435634059219427 0 0.00088031572207335651 -0.0013621194212856294 0 0.00088031572207335651 -0.0013621194212856294 0 0.00030849339211052495 -0.00022217799412313084 0 0.00057207384323353842 0.00066358655143194576 0 0.00049202837809470088 0.00052518921039881048 0 0.00066461052594134781 0.00052953550671325277 0 0.00015543305300469033 -0.00080119357639165734 0 0.00014959091722624725 -0.00094378550016521235 0 0.00027676844353584709 -0.0010189159624001136 0 0.00088031572207335651 -0.0013621194212856294 0 0.0012682027461165383 -0.0026400958820116259 0 0.00015543305300469033 -0.00080119357639165734 0 0.00014959091722624725 -0.00094378550016521235 0 4.1593439454692118e-05 -0.00094555083669187006 0 0.00014959091722624725 -0.00094378550016521235 0 0.00013662490387230462 -0.0010098227610760124 0 0.00027676844353584709 -0.0010189159624001136 0 0.00014959091722624725 -0.00094378550016521235 0 4.1593439454692118e-05 -0.00094555083669187006 0 0.00013662490387230462 -0.0010098227610760124 0 0.00052432251423836806 0.00021608956116595757 0 0.00029722484080679866 0.00056516063685366983 0 0.00020165900109355437 0.00016523313702306903 0 0.0016724790130523571 -0.0039157315311988562 0 0.0013678315450085584 -0.0039898750246283917 0 0.0015266209485740243 -0.0036492679772364752 0 0.0022325250784084568 -0.0041915054120699267 0 0.0018824605360139811 -0.004054400177889164 0 0.0019772312302716653 -0.0036379896699212533 0 0.0016724790130523571 -0.0039157315311988562 0 0.0018824605360139811 -0.004054400177889164 0 0.0019772312302716653 -0.0036379896699212533 0 0.0016724790130523571 -0.0039157315311988562 0 0.0019772312302716653 -0.0036379896699212533 0 0.0015266209485740243 -0.0036492679772364752 0 0.0016724790130523571 -0.0039157315311988562 0 0.0018824605360139811 -0.004054400177889164 0 0.0015970764098767122 -0.0042474355625249198 0 0.0022325250784084568 -0.0041915054120699267 0 0.0018824605360139811 -0.004054400177889164 0 0.0018386488360960234 -0.0043491225924525865 0 0.0018824605360139811 -0.004054400177889164 0 0.0015970764098767122 -0.0042474355625249198 0 0.0018386488360960234 -0.0043491225924525865 0 0.0013678315450085584 -0.0039898750246283917 0 0.0015970764098767122 -0.0042474355625249198 0 0.0011944564365413371 -0.0044100291105104543 0 0.0016724790130523571 -0.0039157315311988562 0 0.0013678315450085584 -0.0039898750246283917 0 0.0015970764098767122 -0.0042474355625249198 0 0.0015970764098767122 -0.0042474355625249198 0 0.0014924793948820621 -0.0046375172770097232 0 0.0011944564365413371 -0.0044100291105104543 0 0.0015970764098767122 -0.0042474355625249198 0 0.0014924793948820621 -0.0046375172770097232 0 0.0018386488360960234 -0.0043491225924525865 0 0.0022325250784084568 -0.0041915054120699267 0 0.0018758468712413794 -0.0046586627028152462 0 0.0018386488360960234 -0.0043491225924525865 0 0.0014924793948820621 -0.0046375172770097232 0 0.0018758468712413794 -0.0046586627028152462 0 0.0018386488360960234 -0.0043491225924525865 0 0.00078262383724155417 0.0010924996090275437 0 0.0011121388046823311 0.0010980603840974646 0 0.00082954483254811171 0.00081537128660128595 0 0.0013271959094299098 -0.00192819486278088 0 0.0014095002669570202 -0.0019887616937507083 0 0.001494586564721407 -0.005101879080338787 0 0.0014924793948820621 -0.0046375172770097232 0 0.0010313403728766926 -0.0048221349777584693 0 0.001494586564721407 -0.005101879080338787 0 0.0014924793948820621 -0.0046375172770097232 0 0.0018758468712413794 -0.0046586627028152462 0 0.0009257992394778277 -0.005161272232094281 0 0.001494586564721407 -0.005101879080338787 0 0.0010313403728766926 -0.0048221349777584693 0 0.00063250004429088187 -0.0051058258939622701 0 0.0009257992394778277 -0.005161272232094281 0 0.0010313403728766926 -0.0048221349777584693 0 0.00063250004429088187 -0.0051058258939622701 0 0.0010313403728766926 -0.0048221349777584693 0 0.00057327646306081024 -0.0047830584986782235 0 0.0010313403728766926 -0.0048221349777584693 0 0.00082700425115066049 -0.0044799754724926429 0 0.00057327646306081024 -0.0047830584986782235 0 0.0014924793948820621 -0.0046375172770097232 0 0.0010313403728766926 -0.0048221349777584693 0 0.0011944564365413371 -0.0044100291105104543 0 0.0010313403728766926 -0.0048221349777584693 0 0.00082700425115066049 -0.0044799754724926429 0 0.0011944564365413371 -0.0044100291105104543 0 0.00013775372286290171 -0.0048267520679459918 0 2.6021608001484378e-05 -0.0050865703058361042 0 0.00029907326645869898 -0.0050288680302614241 0 0.00013775372286290171 -0.0048267520679459918 0 0.00029907326645869898 -0.0050288680302614241 0 0.00057327646306081024 -0.0047830584986782235 0 0.00063250004429088187 -0.0051058258939622701 0 0.00029907326645869898 -0.0050288680302614241 0 0.00057327646306081024 -0.0047830584986782235 0 0.00082700425115066049 -0.0044799754724926429 0 0.00057327646306081024 -0.0047830584986782235 0 0.00039113678710038996 -0.0045090925137029961 0 0.00013775372286290171 -0.0048267520679459918 0 0.00057327646306081024 -0.0047830584986782235 0 0.00039113678710038996 -0.0045090925137029961 0 0.00013775372286290171 -0.0048267520679459918 0 0.00039113678710038996 -0.0045090925137029961 0 -3.152249908803979e-06 -0.0045366459246162635 0 -3.152249908803979e-06 -0.0045366459246162635 0 0.00032977158600304261 -0.0041844261681100768 0 -5.9518357960168812e-05 -0.0041544001464347358 0 0.00039113678710038996 -0.0045090925137029961 0 -3.152249908803979e-06 -0.0045366459246162635 0 0.00032977158600304261 -0.0041844261681100768 0 0.00082700425115066049 -0.0044799754724926429 0 0.00039113678710038996 -0.0045090925137029961 0 0.00067160188989322895 -0.0041979682952641064 0 0.00039113678710038996 -0.0045090925137029961 0 0.00032977158600304261 -0.0041844261681100768 0 0.00067160188989322895 -0.0041979682952641064 0 0.00032977158600304261 -0.0041844261681100768 0 0.00067160188989322895 -0.0041979682952641064 0 0.00062575809430939354 -0.0037254611969611408 0 0.00032977158600304261 -0.0041844261681100768 0 0.00017549649570694771 -0.0038704586954793887 0 0.00062575809430939354 -0.0037254611969611408 0 0.00032977158600304261 -0.0041844261681100768 0 0.00017549649570694771 -0.0038704586954793887 0 -5.9518357960168812e-05 -0.0041544001464347358 0 0.00017549649570694771 -0.0038704586954793887 0 -5.9518357960168812e-05 -0.0041544001464347358 0 -8.8658581124398159e-05 -0.0037810629988862077 0 0.00082700425115066049 -0.0044799754724926429 0 0.0011944564365413371 -0.0044100291105104543 0 0.00098222166566645308 -0.0040596041777920117 0 0.0013678315450085584 -0.0039898750246283917 0 0.0011944564365413371 -0.0044100291105104543 0 0.00098222166566645308 -0.0040596041777920117 0 0.00082700425115066049 -0.0044799754724926429 0 0.00067160188989322895 -0.0041979682952641064 0 0.00098222166566645308 -0.0040596041777920117 0 0.00098222166566645308 -0.0040596041777920117 0 0.0011354936455332774 -0.0037072916102777408 0 0.00062575809430939354 -0.0037254611969611408 0 0.00067160188989322895 -0.0041979682952641064 0 0.00098222166566645308 -0.0040596041777920117 0 0.00062575809430939354 -0.0037254611969611408 0 0.0013678315450085584 -0.0039898750246283917 0 0.00098222166566645308 -0.0040596041777920117 0 0.0011354936455332774 -0.0037072916102777408 0 0.0013678315450085584 -0.0039898750246283917 0 0.0011354936455332774 -0.0037072916102777408 0 0.0015266209485740243 -0.0036492679772364752 0 0.0011354936455332774 -0.0037072916102777408 0 0.0013354596993219994 -0.0032744408144154335 0 0.0015266209485740243 -0.0036492679772364752 0 0.0011354936455332774 -0.0037072916102777408 0 0.00094574305489489991 -0.0033928877793206864 0 0.0013354596993219994 -0.0032744408144154335 0 0.0011354936455332774 -0.0037072916102777408 0 0.00094574305489489991 -0.0033928877793206864 0 0.00062575809430939354 -0.0037254611969611408 0 0.00094574305489489991 -0.0033928877793206864 0 0.00062575809430939354 -0.0037254611969611408 0 0.00050479981756786768 -0.0032514484774836842 0 0.00094574305489489991 -0.0033928877793206864 0 0.00078525933379116773 -0.0030873813361566782 0 0.00050479981756786768 -0.0032514484774836842 0 0.00094574305489489991 -0.0033928877793206864 0 0.00078525933379116773 -0.0030873813361566782 0 0.001057114078642275 -0.0030643873905330083 0 0.00078525933379116773 -0.0030873813361566782 0 0.00050479981756786768 -0.0032514484774836842 0 0.00054601984520258524 -0.0028539330540227593 0 0.00078525933379116773 -0.0030873813361566782 0 0.00054601984520258524 -0.0028539330540227593 0 0.00085444335053781425 -0.0028221515213816802 0 0.00078525933379116773 -0.0030873813361566782 0 0.001057114078642275 -0.0030643873905330083 0 0.00085444335053781425 -0.0028221515213816802 0 0.00094574305489489991 -0.0033928877793206864 0 0.001057114078642275 -0.0030643873905330083 0 0.0013354596993219994 -0.0032744408144154335 0 0.001057114078642275 -0.0030643873905330083 0 0.0013354596993219994 -0.0032744408144154335 0 0.0012569620033214049 -0.0027626266401247872 0 0.001057114078642275 -0.0030643873905330083 0 0.0012569620033214049 -0.0027626266401247872 0 0.00085444335053781425 -0.0028221515213816802 0 -6.6486485345533416e-05 -0.0034250903983825774 0 0.00019491856898850186 -0.0035239515613547799 0 -8.8658581124398159e-05 -0.0037810629988862077 0 0.00017549649570694771 -0.0038704586954793887 0 0.00019491856898850186 -0.0035239515613547799 0 -8.8658581124398159e-05 -0.0037810629988862077 0 -6.6486485345533416e-05 -0.0034250903983825774 0 0.00019491856898850186 -0.0035239515613547799 0 0.00015893832102480848 -0.0031946793661987503 0 0.00019491856898850186 -0.0035239515613547799 0 0.00062575809430939354 -0.0037254611969611408 0 0.00050479981756786768 -0.0032514484774836842 0 0.00017549649570694771 -0.0038704586954793887 0 0.00019491856898850186 -0.0035239515613547799 0 0.00062575809430939354 -0.0037254611969611408 0 0.00050479981756786768 -0.0032514484774836842 0 0.00031411178762052523 -0.0029651751906234246 0 0.00054601984520258524 -0.0028539330540227593 0 0.00019491856898850186 -0.0035239515613547799 0 0.00050479981756786768 -0.0032514484774836842 0 0.00015893832102480848 -0.0031946793661987503 0 0.00050479981756786768 -0.0032514484774836842 0 0.00031411178762052523 -0.0029651751906234246 0 0.00015893832102480848 -0.0031946793661987503 0 0.00031411178762052523 -0.0029651751906234246 0 0.00015893832102480848 -0.0031946793661987503 0 0.00010538006264984374 -0.002870865370672221 0 0.00015893832102480848 -0.0031946793661987503 0 -3.8748594701512599e-05 -0.0030842641060970176 0 0.00010538006264984374 -0.002870865370672221 0 -6.6486485345533416e-05 -0.0034250903983825774 0 -3.8748594701512599e-05 -0.0030842641060970176 0 -0.00026273033644614604 -0.0032626589830101697 0 -6.6486485345533416e-05 -0.0034250903983825774 0 0.00015893832102480848 -0.0031946793661987503 0 -3.8748594701512599e-05 -0.0030842641060970176 0 -0.00016563146916234901 -0.0026766001704217252 0 -5.9752469474884254e-05 -0.0026718116031119576 0 -9.6728615783422991e-05 -0.0025661658314210804 0 -5.9752469474884254e-05 -0.0026718116031119576 0 5.0030808774625424e-05 -0.0025638825575281326 0 -9.6728615783422991e-05 -0.0025661658314210804 0 -5.9752469474884254e-05 -0.0026718116031119576 0 -0.00014466024999067368 -0.002790627765848974 0 -3.9077531051680114e-05 -0.0028234497282101922 0 -0.00016563146916234901 -0.0026766001704217252 0 -5.9752469474884254e-05 -0.0026718116031119576 0 -0.00014466024999067368 -0.002790627765848974 0 -0.00014466024999067368 -0.002790627765848974 0 -3.9077531051680114e-05 -0.0028234497282101922 0 -0.00020074471040200815 -0.0029983399455256877 0 -3.8748594701512599e-05 -0.0030842641060970176 0 -3.9077531051680114e-05 -0.0028234497282101922 0 -0.00020074471040200815 -0.0029983399455256877 0 -3.8748594701512599e-05 -0.0030842641060970176 0 -3.9077531051680114e-05 -0.0028234497282101922 0 0.00010538006264984374 -0.002870865370672221 0 -3.9077531051680114e-05 -0.0028234497282101922 0 0.00010538006264984374 -0.002870865370672221 0 9.0674011375355498e-05 -0.0026499361090328989 0 0.00010538006264984374 -0.002870865370672221 0 9.0674011375355498e-05 -0.0026499361090328989 0 0.00027163452815871461 -0.0026320250036526421 0 9.0674011375355498e-05 -0.0026499361090328989 0 5.0030808774625424e-05 -0.0025638825575281326 0 0.00028032262518773058 -0.0023567534002131097 0 -5.9752469474884254e-05 -0.0026718116031119576 0 -3.9077531051680114e-05 -0.0028234497282101922 0 9.0674011375355498e-05 -0.0026499361090328989 0 -5.9752469474884254e-05 -0.0026718116031119576 0 9.0674011375355498e-05 -0.0026499361090328989 0 5.0030808774625424e-05 -0.0025638825575281326 0 9.0674011375355498e-05 -0.0026499361090328989 0 0.00027163452815871461 -0.0026320250036526421 0 0.00028032262518773058 -0.0023567534002131097 0 0.00031411178762052523 -0.0029651751906234246 0 0.00010538006264984374 -0.002870865370672221 0 0.00027163452815871461 -0.0026320250036526421 0 0.00031411178762052523 -0.0029651751906234246 0 0.00027163452815871461 -0.0026320250036526421 0 0.00054601984520258524 -0.0028539330540227593 0 0.00027163452815871461 -0.0026320250036526421 0 0.00054601984520258524 -0.0028539330540227593 0 0.00058032551564122592 -0.0022498616222743628 0 0.00027163452815871461 -0.0026320250036526421 0 0.00028032262518773058 -0.0023567534002131097 0 0.00058032551564122592 -0.0022498616222743628 0 0.00048898846750182934 -0.00201228581260197 0 0.00028032262518773058 -0.0023567534002131097 0 -1.4889404659941775e-05 -0.0024663182373551944 0 0.00044165451812601701 -0.00099766522174938514 0 0.00077480195264644251 -0.00082267770510541282 0 0.00067661855107310146 -0.0010452212872080482 0 0.00050008341165045311 -0.0014807784628360888 0 0.00031627493111282797 -0.0019555348945062227 0 0.00048898846750182934 -0.00201228581260197 0 0.00028032262518773058 -0.0023567534002131097 0 0.00058032551564122592 -0.0022498616222743628 0 0.00077480195264644251 -0.00082267770510541282 0 0.0011306035876384485 -0.0010200745892866431 0 0.00084563041909238481 -0.0010237510969398529 0 0.00028032262518773058 -0.0023567534002131097 0 -1.4889404659941775e-05 -0.0024663182373551944 0 -9.6728615783422991e-05 -0.0025661658314210804 0 5.0030808774625424e-05 -0.0025638825575281326 0 0.00028032262518773058 -0.0023567534002131097 0 -9.6728615783422991e-05 -0.0025661658314210804 0 0.00077480195264644251 -0.00082267770510541282 0 0.00084563041909238481 -0.0010237510969398529 0 0.00067661855107310146 -0.0010452212872080482 0 -4.7615854498934214e-05 -0.0025521239333509303 0 -9.6728615783422991e-05 -0.0025661658314210804 0 -0.00027433329231769769 -0.0026028849965095907 0 -0.00016563146916234901 -0.0026766001704217252 0 -9.6728615783422991e-05 -0.0025661658314210804 0 -0.00027433329231769769 -0.0026028849965095907 0 0.00031627493111282797 -0.0019555348945062227 0 0.00014529164281446621 -0.002069733265413742 0 0.00046911784604433405 -0.0016188783334212223 0 0.00052197254532161251 -0.0018806443085568033 0 0.00040595426868925805 -0.0017001352899923324 0 0.00046911784604433405 -0.0016188783334212223 0 0.00058032551564122592 -0.0022498616222743628 0 0.00052197254532161251 -0.0018806443085568033 0 0.0012569620033214049 -0.0027626266401247872 0 0.00085444335053781425 -0.0028221515213816802 0 0.00058032551564122592 -0.0022498616222743628 0 0.00089500349927221126 -0.0022526155296791711 0 0.0005389051872151002 -0.002187454203208677 0 0.00054601984520258524 -0.0028539330540227593 0 0.00085444335053781425 -0.0028221515213816802 0 0.00058032551564122592 -0.0022498616222743628 0 0.00050008341165045311 -0.0014807784628360888 0 0.00031325852998674461 -0.0015145090089772736 0 0.00058032551564122592 -0.0022498616222743628 0 0.00053430324506774374 -0.0019659798786651715 0 0.00052197254532161251 -0.0018806443085568033 0 0.00048898846750182934 -0.00201228581260197 0 0.00053430324506774374 -0.0019659798786651715 0 0.00049766597856399991 -0.0018263051608923698 0 0.00053430324506774374 -0.0019659798786651715 0 0.00052197254532161251 -0.0018806443085568033 0 0.00049766597856399991 -0.0018263051608923698 0 0.00048898846750182934 -0.00201228581260197 0 0.00058032551564122592 -0.0022498616222743628 0 0.00053430324506774374 -0.0019659798786651715 0 0.00052197254532161251 -0.0018806443085568033 0 0.00040595426868925805 -0.0017001352899923324 0 0.00049766597856399991 -0.0018263051608923698 0 0.00040595426868925805 -0.0017001352899923324 0 0.00024077190171203295 -0.0015392314002722635 0 0.00024837874377331404 -0.001675133391970049 0 0.00040595426868925805 -0.0017001352899923324 0 0.00034785621483482919 -0.001514186964641199 0 0.00024077190171203295 -0.0015392314002722635 0 0.00034785621483482919 -0.001514186964641199 0 0.00021621043302343223 -0.0013709298363232456 0 0.00024077190171203295 -0.0015392314002722635 0 0.00046911784604433405 -0.0016188783334212223 0 0.00034785621483482919 -0.001514186964641199 0 0.00031032884037291889 -0.0014212205837486475 0 0.00046911784604433405 -0.0016188783334212223 0 0.00040595426868925805 -0.0017001352899923324 0 0.00034785621483482919 -0.001514186964641199 0 0.00034785621483482919 -0.001514186964641199 0 0.00021621043302343223 -0.0013709298363232456 0 0.00029296246693384041 -0.0012698124836006961 0 0.0002956201517984607 -0.0013116703362782429 0 0.00077716780776700134 -0.0018350565175677259 0 0.00021621043302343223 -0.0013709298363232456 0 0.00024077190171203295 -0.0015392314002722635 0 0.00011534747193529512 -0.0013658807919642833 0 0.00021621043302343223 -0.0013709298363232456 0 0.00011534747193529512 -0.0013658807919642833 0 0.00012801093933790552 -0.0011617898987425165 0 0.00024077190171203295 -0.0015392314002722635 0 0.00011534747193529512 -0.0013658807919642833 0 8.2847991594765731e-05 -0.0014894077606504318 0 1.7063617594853363e-05 -0.001320228384189376 0 0.00011534747193529512 -0.0013658807919642833 0 8.2847991594765731e-05 -0.0014894077606504318 0 1.7063617594853363e-05 -0.001320228384189376 0 -6.2612252216674952e-06 -0.001445977078378752 0 8.2847991594765731e-05 -0.0014894077606504318 0 1.7063617594853363e-05 -0.001320228384189376 0 -5.4617931980724768e-05 -0.0013592454676755504 0 -5.5682514100761629e-05 -0.0011853903768450317 0 1.7063617594853363e-05 -0.001320228384189376 0 -1.448868256888461e-05 -0.0011419951984855783 0 4.1069906670566583e-05 -0.0011858273685627053 0 1.7063617594853363e-05 -0.001320228384189376 0 -1.448868256888461e-05 -0.0011419951984855783 0 -5.5682514100761629e-05 -0.0011853903768450317 0 1.7063617594853363e-05 -0.001320228384189376 0 0.00011534747193529512 -0.0013658807919642833 0 4.1069906670566583e-05 -0.0011858273685627053 0 0.00011534747193529512 -0.0013658807919642833 0 0.00012801093933790552 -0.0011617898987425165 0 4.1069906670566583e-05 -0.0011858273685627053 0 0.00012801093933790552 -0.0011617898987425165 0 4.1069906670566583e-05 -0.0011858273685627053 0 5.0580409687302428e-05 -0.0010918338299847272 0 4.1069906670566583e-05 -0.0011858273685627053 0 -1.4430704019168401e-05 -0.001094430162362563 0 5.0580409687302428e-05 -0.0010918338299847272 0 -1.448868256888461e-05 -0.0011419951984855783 0 4.1069906670566583e-05 -0.0011858273685627053 0 -1.4430704019168401e-05 -0.001094430162362563 0 0.00030849339211052495 -0.00022217799412313084 0 0.00012065624624471557 -0.00071053397515960818 0 4.1593439454692118e-05 -0.00094555083669187006 0 5.0580409687302428e-05 -0.0010918338299847272 0 0.00013662490387230462 -0.0010098227610760124 0 -1.4430704019168401e-05 -0.001094430162362563 0 5.0580409687302428e-05 -0.0010918338299847272 0 -3.5244762167027417e-05 -0.0010619596526544877 0 4.1593439454692118e-05 -0.00094555083669187006 0 5.0580409687302428e-05 -0.0010918338299847272 0 -3.5244762167027417e-05 -0.0010619596526544877 0 7.6618916189520359e-05 -0.0011257175200350251 0 9.8158984961342716e-05 -0.0011230244677693201 0 0.00023100032222250245 -0.0012012099608842565 0 5.0580409687302428e-05 -0.0010918338299847272 0 0.00013662490387230462 -0.0010098227610760124 0 0.00023100032222250245 -0.0012012099608842565 0 0.00013662490387230462 -0.0010098227610760124 0 0.00027676844353584709 -0.0010189159624001136 0 0.0012682027461165383 -0.0026400958820116259 0 0.00077716780776700134 -0.0018350565175677259 0 0.0019772312302716653 -0.0036379896699212533 0 0.0016427580541337639 -0.0033995043328516592 0 0.0017277682552264977 -0.0030355294279963791 0 0.00023100032222250245 -0.0012012099608842565 0 0.00027676844353584709 -0.0010189159624001136 0 0.00042403349198680691 -0.0012870659569450165 0 0.0019772312302716653 -0.0036379896699212533 0 0.0015266209485740243 -0.0036492679772364752 0 0.0016427580541337639 -0.0033995043328516592 0 0.0013354596993219994 -0.0032744408144154335 0 0.0015266209485740243 -0.0036492679772364752 0 0.0016427580541337639 -0.0033995043328516592 0 0.0013354596993219994 -0.0032744408144154335 0 0.0012569620033214049 -0.0027626266401247872 0 0.0017277682552264977 -0.0030355294279963791 0 0.00089500349927221126 -0.0022526155296791711 0 0.00077716780776700134 -0.0018350565175677259 0 0.0013354596993219994 -0.0032744408144154335 0 0.0016427580541337639 -0.0033995043328516592 0 0.0017277682552264977 -0.0030355294279963791 0 7.6618916189520359e-05 -0.0011257175200350251 0 0.00077716780776700134 -0.0018350565175677259 0 0.00021621043302343223 -0.0013709298363232456 0 0.00012801093933790552 -0.0011617898987425165 0 0.00029296246693384041 -0.0012698124836006961 0 -0.0028855820924619615 -0.0042424611857664694 0 -0.0024592844690581074 -0.0043369242676196953 0 -0.0023657411144294665 -0.0039797457653191759 0 -0.0024592844690581074 -0.0043369242676196953 0 -0.0021600557779976296 -0.004253992763514145 0 -0.0023657411144294665 -0.0039797457653191759 0 -0.0024592844690581074 -0.0043369242676196953 0 -0.0026203103051813939 -0.0046235837939944584 0 -0.0022768481043902227 -0.0045998558273463927 0 -0.0024592844690581074 -0.0043369242676196953 0 -0.0022768481043902227 -0.0045998558273463927 0 -0.0021600557779976296 -0.004253992763514145 0 -0.0028855820924619615 -0.0042424611857664694 0 -0.0024592844690581074 -0.0043369242676196953 0 -0.0026203103051813939 -0.0046235837939944584 0 -0.0026203103051813939 -0.0046235837939944584 0 -0.0025131505334484326 -0.0049635430221542662 0 -0.0022768481043902227 -0.0045998558273463927 0 -0.0025131505334484326 -0.0049635430221542662 0 -0.0021424568086150391 -0.0049964308873421464 0 -0.0022768481043902227 -0.0045998558273463927 0 -0.0026203103051813939 -0.0046235837939944584 0 -0.0025131505334484326 -0.0049635430221542662 0 -0.0028601027989657124 -0.0048909308831363253 0 -0.0019850840680190468 -0.0095477500600942809 0 -0.0017320926131921151 -0.0094509373824312164 0 -0.00049214180803807349 -0.01470392599668347 0 -0.00052659637204844083 -0.014666544122802863 0 -0.00051000730610544745 -0.01465854792495962 0 -0.0033309146505677177 -0.0050223871836920881 0 -0.0028855820924619615 -0.0042424611857664694 0 -0.0028601027989657124 -0.0048909308831363253 0 -0.0028855820924619615 -0.0042424611857664694 0 -0.0026203103051813939 -0.0046235837939944584 0 -0.0028601027989657124 -0.0048909308831363253 0 -0.0034739194420748357 -0.0056863383620534436 0 -0.0033309146505677177 -0.0050223871836920881 0 -0.0029780284660152309 -0.0053796893445649634 0 -0.0033309146505677177 -0.0050223871836920881 0 -0.0028601027989657124 -0.0048909308831363253 0 -0.0029780284660152309 -0.0053796893445649634 0 -0.0034739194420748357 -0.0056863383620534436 0 -0.0029780284660152309 -0.0053796893445649634 0 -0.0026343121902237037 -0.005704256896304577 0 -0.0029780284660152309 -0.0053796893445649634 0 -0.0026343121902237037 -0.005704256896304577 0 -0.002730534512872097 -0.0053308135526545508 0 -0.0034136880697509513 -0.005692451930142662 0 -0.0022081863610749005 -0.0064275561692405184 0 -0.0028601027989657124 -0.0048909308831363253 0 -0.0029780284660152309 -0.0053796893445649634 0 -0.002730534512872097 -0.0053308135526545508 0 -0.0034739194420748357 -0.0056863383620534436 0 -0.003095727956420049 -0.0068609875814801321 0 -0.0016656731242754455 -0.0071590182056710935 0 -0.0013723611317409004 -0.0078671913956276547 0 -0.002888328041849663 -0.0075817395658708871 0 -0.002718436326605417 -0.0075767868370684617 0 -0.003095727956420049 -0.0068609875814801321 0 -0.0016656731242754455 -0.0071590182056710935 0 -0.0014397858817873322 -0.0078353617108146787 0 -0.002718436326605417 -0.0075767868370684617 0 -0.0016656731242754455 -0.0071590182056710935 0 -0.0012997104227856742 -0.0071964417464592404 0 -0.0022081863610749005 -0.0064275561692405184 0 -0.00056415140179333226 -0.0081879916367225882 0 -0.0014397858817873322 -0.0078353617108146787 0 -0.0016656731242754455 -0.0071590182056710935 0 -0.0026343121902237037 -0.005704256896304577 0 -0.0024406225639670414 -0.0053148823948735565 0 -0.0021680885694332669 -0.0054356232510293818 0 -0.0026343121902237037 -0.005704256896304577 0 -0.0024406225639670414 -0.0053148823948735565 0 -0.002730534512872097 -0.0053308135526545508 0 -0.0025131505334484326 -0.0049635430221542662 0 -0.0024406225639670414 -0.0053148823948735565 0 -0.002730534512872097 -0.0053308135526545508 0 -0.0025131505334484326 -0.0049635430221542662 0 -0.0028601027989657124 -0.0048909308831363253 0 -0.002730534512872097 -0.0053308135526545508 0 -0.0025131505334484326 -0.0049635430221542662 0 -0.0024406225639670414 -0.0053148823948735565 0 -0.0021424568086150391 -0.0049964308873421464 0 -0.0021424568086150391 -0.0049964308873421464 0 -0.0017947740997522688 -0.0051729155112892758 0 -0.001751958146974169 -0.0048025798580021263 0 -0.0021424568086150391 -0.0049964308873421464 0 -0.0021680885694332669 -0.0054356232510293818 0 -0.0017947740997522688 -0.0051729155112892758 0 -0.0024406225639670414 -0.0053148823948735565 0 -0.0021424568086150391 -0.0049964308873421464 0 -0.0021680885694332669 -0.0054356232510293818 0 -0.0020595036735598662 -0.0062023776102468576 0 -0.0026343121902237037 -0.005704256896304577 0 -0.0021545781215686821 -0.0057290183435211818 0 -0.0026343121902237037 -0.005704256896304577 0 -0.0021680885694332669 -0.0054356232510293818 0 -0.0021545781215686821 -0.0057290183435211818 0 -0.0021680885694332669 -0.0054356232510293818 0 -0.0016927798665824054 -0.0055624136744982094 0 -0.0017947740997522688 -0.0051729155112892758 0 -0.0021680885694332669 -0.0054356232510293818 0 -0.0021545781215686821 -0.0057290183435211818 0 -0.0016927798665824054 -0.0055624136744982094 0 -0.0020595036735598662 -0.0062023776102468576 0 -0.0021545781215686821 -0.0057290183435211818 0 -0.0016927798665824054 -0.0055624136744982094 0 -0.0013547181964825982 -0.0062363302198257158 0 -0.00065908182419811086 -0.0059623066699198632 0 -0.0016927798665824054 -0.0055624136744982094 0 -0.00094329501783894302 -0.0058377509463574109 0 -0.0016336505665504352 -0.0055626545817566622 0 -0.0016927798665824054 -0.0055624136744982094 0 -0.0015095934302415176 -0.0052704327159045269 0 -0.0013181728757074268 -0.0054516420087280257 0 -0.0015095934302415176 -0.0052704327159045269 0 -0.0017947740997522688 -0.0051729155112892758 0 -0.0015261012869226987 -0.0049620336490579474 0 -0.0016927798665824054 -0.0055624136744982094 0 -0.0015095934302415176 -0.0052704327159045269 0 -0.0017947740997522688 -0.0051729155112892758 0 -0.0017947740997522688 -0.0051729155112892758 0 -0.0015261012869226987 -0.0049620336490579474 0 -0.001751958146974169 -0.0048025798580021263 0 -0.0015261012869226987 -0.0049620336490579474 0 -0.001751958146974169 -0.0048025798580021263 0 -0.0013751553436177745 -0.0046197849192442025 0 -0.001751958146974169 -0.0048025798580021263 0 -0.0016118391237380928 -0.0043853938929312008 0 -0.0013751553436177745 -0.0046197849192442025 0 -0.001751958146974169 -0.0048025798580021263 0 -0.0019317899623862644 -0.004552401750288434 0 -0.0016118391237380928 -0.0043853938929312008 0 -0.0021424568086150391 -0.0049964308873421464 0 -0.001751958146974169 -0.0048025798580021263 0 -0.0019317899623862644 -0.004552401750288434 0 -0.0021424568086150391 -0.0049964308873421464 0 -0.0022768481043902227 -0.0045998558273463927 0 -0.0019317899623862644 -0.004552401750288434 0 -0.0019317899623862644 -0.004552401750288434 0 -0.0021600557779976296 -0.004253992763514145 0 -0.0018766929244844184 -0.0042233449349950202 0 -0.0022768481043902227 -0.0045998558273463927 0 -0.0019317899623862644 -0.004552401750288434 0 -0.0021600557779976296 -0.004253992763514145 0 -0.0021600557779976296 -0.004253992763514145 0 -0.0018766929244844184 -0.0042233449349950202 0 -0.0020056022385732042 -0.0039080131751270692 0 -0.0018766929244844184 -0.0042233449349950202 0 -0.001679375324014096 -0.0040294916914259708 0 -0.0020056022385732042 -0.0039080131751270692 0 -0.0018766929244844184 -0.0042233449349950202 0 -0.0016118391237380928 -0.0043853938929312008 0 -0.001679375324014096 -0.0040294916914259708 0 -0.0016118391237380928 -0.0043853938929312008 0 -0.0013179744990074011 -0.0041108070667495765 0 -0.001679375324014096 -0.0040294916914259708 0 -0.0019317899623862644 -0.004552401750288434 0 -0.0018766929244844184 -0.0042233449349950202 0 -0.0016118391237380928 -0.0043853938929312008 0 -0.0013179744990074011 -0.0041108070667495765 0 -0.0010094724607799801 -0.0044433922692233181 0 -0.00097756419780402359 -0.0039370507634999283 0 -0.0016118391237380928 -0.0043853938929312008 0 -0.0013179744990074011 -0.0041108070667495765 0 -0.0013751553436177745 -0.0046197849192442025 0 -0.00067092443064189241 -0.0042350328211995308 0 -0.00065898986162993083 -0.0037019337539367855 0 -0.00097756419780402359 -0.0039370507634999283 0 -0.0010094724607799801 -0.0044433922692233181 0 -0.00067092443064189241 -0.0042350328211995308 0 -0.00097756419780402359 -0.0039370507634999283 0 -0.0010094724607799801 -0.0044433922692233181 0 -0.00063534386287028208 -0.0048081396562183716 0 -0.00067092443064189241 -0.0042350328211995308 0 -0.0013179744990074011 -0.0041108070667495765 0 -0.0010094724607799801 -0.0044433922692233181 0 -0.0013751553436177745 -0.0046197849192442025 0 -0.0010094724607799801 -0.0044433922692233181 0 -0.0013751553436177745 -0.0046197849192442025 0 -0.0011731467237417594 -0.004991344333700189 0 -0.0015261012869226987 -0.0049620336490579474 0 -0.0013751553436177745 -0.0046197849192442025 0 -0.0011731467237417594 -0.004991344333700189 0 -0.0015095934302415176 -0.0052704327159045269 0 -0.0015261012869226987 -0.0049620336490579474 0 -0.0011731467237417594 -0.004991344333700189 0 -0.0015095934302415176 -0.0052704327159045269 0 -0.0011731467237417594 -0.004991344333700189 0 -0.0013181728757074268 -0.0054516420087280257 0 -0.0011731467237417594 -0.004991344333700189 0 -0.0013181728757074268 -0.0054516420087280257 0 -0.00082188561562345939 -0.0054077511175824339 0 -0.0012342592985604497 -0.0056673933389411344 0 -0.0016927798665824054 -0.0055624136744982094 0 -0.0013181728757074268 -0.0054516420087280257 0 -0.00072117941963865733 -0.0058781418545970103 0 -0.0013181728757074268 -0.0054516420087280257 0 -0.00082188561562345939 -0.0054077511175824339 0 -0.0011731467237417594 -0.004991344333700189 0 -0.00082188561562345939 -0.0054077511175824339 0 -0.00063534386287028208 -0.0048081396562183716 0 -0.0010094724607799801 -0.0044433922692233181 0 -0.0011731467237417594 -0.004991344333700189 0 -0.00063534386287028208 -0.0048081396562183716 0 -0.00063534386287028208 -0.0048081396562183716 0 -0.00031999713036692947 -0.0050390461974628422 0 -0.00036295933400315043 -0.0044804722614988886 0 -0.0006094044897605918 -0.0048262965603389756 0 -0.00025344866222941912 -0.0052249801874897934 0 -0.00082188561562345939 -0.0054077511175824339 0 -0.00063534386287028208 -0.0048081396562183716 0 -0.00017817086547125004 -0.0054325663363953246 0 -0.00030356206916163557 -0.0057744033943626701 0 -0.00082188561562345939 -0.0054077511175824339 0 -0.00017817086547125004 -0.0054325663363953246 0 0.00013775372286290171 -0.0048267520679459918 0 2.6021608001484378e-05 -0.0050865703058361042 0 -0.00031999713036692947 -0.0050390461974628422 0 0.00013775372286290171 -0.0048267520679459918 0 -3.152249908803979e-06 -0.0045366459246162635 0 -0.00031999713036692947 -0.0050390461974628422 0 -3.152249908803979e-06 -0.0045366459246162635 0 -0.00031999713036692947 -0.0050390461974628422 0 -0.00036295933400315043 -0.0044804722614988886 0 -0.00036295933400315043 -0.0044804722614988886 0 -0.00038844036694173724 -0.0040303710621774694 0 -5.9518357960168812e-05 -0.0041544001464347358 0 -3.152249908803979e-06 -0.0045366459246162635 0 -0.00036295933400315043 -0.0044804722614988886 0 -5.9518357960168812e-05 -0.0041544001464347358 0 -0.00063534386287028208 -0.0048081396562183716 0 -0.00036295933400315043 -0.0044804722614988886 0 -0.00067092443064189241 -0.0042350328211995308 0 -0.00067092443064189241 -0.0042350328211995308 0 -0.00038844036694173724 -0.0040303710621774694 0 -0.00065898986162993083 -0.0037019337539367855 0 -0.00036295933400315043 -0.0044804722614988886 0 -0.00067092443064189241 -0.0042350328211995308 0 -0.00038844036694173724 -0.0040303710621774694 0 -0.00038844036694173724 -0.0040303710621774694 0 -5.9518357960168812e-05 -0.0041544001464347358 0 -8.8658581124398159e-05 -0.0037810629988862077 0 -0.00038844036694173724 -0.0040303710621774694 0 -0.00033861931678736063 -0.0036279586638351745 0 -8.8658581124398159e-05 -0.0037810629988862077 0 -6.6486485345533416e-05 -0.0034250903983825774 0 -0.00033861931678736063 -0.0036279586638351745 0 -0.00026273033644614604 -0.0032626589830101697 0 -6.6486485345533416e-05 -0.0034250903983825774 0 -0.00033861931678736063 -0.0036279586638351745 0 -8.8658581124398159e-05 -0.0037810629988862077 0 -0.00038844036694173724 -0.0040303710621774694 0 -0.00033861931678736063 -0.0036279586638351745 0 -0.00065898986162993083 -0.0037019337539367855 0 -0.00065898986162993083 -0.0037019337539367855 0 -0.00047659007725042881 -0.0033808064507912031 0 -0.00067184642310442327 -0.0034141628722942248 0 -0.00033861931678736063 -0.0036279586638351745 0 -0.00065898986162993083 -0.0037019337539367855 0 -0.00047659007725042881 -0.0033808064507912031 0 -0.00047659007725042881 -0.0033808064507912031 0 -0.00067184642310442327 -0.0034141628722942248 0 -0.00068895483693047846 -0.0031851927730560314 0 -0.00065898986162993083 -0.0037019337539367855 0 -0.00067184642310442327 -0.0034141628722942248 0 -0.0008735489103232851 -0.0034441056726505852 0 -0.00067184642310442327 -0.0034141628722942248 0 -0.00068895483693047846 -0.0031851927730560314 0 -0.0008735489103232851 -0.0034441056726505852 0 -0.00047659007725042881 -0.0033808064507912031 0 -0.00068895483693047846 -0.0031851927730560314 0 -0.00043774260630646193 -0.003069179387370976 0 -0.00047659007725042881 -0.0033808064507912031 0 -0.00026273033644614604 -0.0032626589830101697 0 -0.00043774260630646193 -0.003069179387370976 0 -0.00033861931678736063 -0.0036279586638351745 0 -0.00047659007725042881 -0.0033808064507912031 0 -0.00026273033644614604 -0.0032626589830101697 0 -3.8748594701512599e-05 -0.0030842641060970176 0 -0.00026273033644614604 -0.0032626589830101697 0 -0.00020074471040200815 -0.0029983399455256877 0 -0.00026273033644614604 -0.0032626589830101697 0 -0.00020074471040200815 -0.0029983399455256877 0 -0.00043774260630646193 -0.003069179387370976 0 -0.00020074471040200815 -0.0029983399455256877 0 -0.00032831118043715873 -0.0029217303291498081 0 -0.0002526959608588861 -0.0027892863999787495 0 -0.00014466024999067368 -0.002790627765848974 0 -0.00020074471040200815 -0.0029983399455256877 0 -0.0002526959608588861 -0.0027892863999787495 0 -0.00020074471040200815 -0.0029983399455256877 0 -0.00032831118043715873 -0.0029217303291498081 0 -0.00043774260630646193 -0.003069179387370976 0 -0.00032831118043715873 -0.0029217303291498081 0 -0.00043774260630646193 -0.003069179387370976 0 -0.00041588244153628303 -0.002802497195892355 0 -0.00032831118043715873 -0.0029217303291498081 0 -0.00041588244153628303 -0.002802497195892355 0 -0.0002526959608588861 -0.0027892863999787495 0 -0.00016563146916234901 -0.0026766001704217252 0 -0.0002526959608588861 -0.0027892863999787495 0 -0.00027433329231769769 -0.0026028849965095907 0 -0.00041588244153628303 -0.002802497195892355 0 -0.0002526959608588861 -0.0027892863999787495 0 -0.00027433329231769769 -0.0026028849965095907 0 -0.00016563146916234901 -0.0026766001704217252 0 -0.00014466024999067368 -0.002790627765848974 0 -0.0002526959608588861 -0.0027892863999787495 0 0.00031627493111282797 -0.0019555348945062227 0 0.00036598317088638361 -0.0017064667762783979 0 -4.7615854498934214e-05 -0.0025521239333509303 0 -0.00027433329231769769 -0.0026028849965095907 0 -0.00038373521714850904 -0.0024674163405908715 0 -0.00041588244153628303 -0.002802497195892355 0 -0.00027433329231769769 -0.0026028849965095907 0 -0.00047524135858635576 -0.0026346120521205667 0 -0.00027433329231769769 -0.0026028849965095907 0 -0.00047524135858635576 -0.0026346120521205667 0 -0.00038373521714850904 -0.0024674163405908715 0 -0.00047524135858635576 -0.0026346120521205667 0 -0.00068670000553949101 -0.0025581905640834606 0 -0.00038373521714850904 -0.0024674163405908715 0 -0.00068670000553949101 -0.0025581905640834606 0 -0.00063540358408969663 -0.0027626998582017249 0 -0.00087986232413502701 -0.0027470230725010905 0 -0.00047524135858635576 -0.0026346120521205667 0 -0.00068670000553949101 -0.0025581905640834606 0 -0.00063540358408969663 -0.0027626998582017249 0 -0.00041588244153628303 -0.002802497195892355 0 -0.00047524135858635576 -0.0026346120521205667 0 -0.00063540358408969663 -0.0027626998582017249 0 -0.00063540358408969663 -0.0027626998582017249 0 -0.00079993421155726073 -0.0029294332352378183 0 -0.00087986232413502701 -0.0027470230725010905 0 -0.00063540358408969663 -0.0027626998582017249 0 -0.00058708457326740173 -0.0029394145102591045 0 -0.00079993421155726073 -0.0029294332352378183 0 -0.00041588244153628303 -0.002802497195892355 0 -0.00063540358408969663 -0.0027626998582017249 0 -0.00058708457326740173 -0.0029394145102591045 0 -0.00068895483693047846 -0.0031851927730560314 0 -0.00043774260630646193 -0.003069179387370976 0 -0.00058708457326740173 -0.0029394145102591045 0 -0.00043774260630646193 -0.003069179387370976 0 -0.00041588244153628303 -0.002802497195892355 0 -0.00058708457326740173 -0.0029394145102591045 0 -0.00068895483693047846 -0.0031851927730560314 0 -0.00058708457326740173 -0.0029394145102591045 0 -0.00079993421155726073 -0.0029294332352378183 0 -0.00068895483693047846 -0.0031851927730560314 0 -0.00096583636346972987 -0.0031645748108416051 0 -0.00079993421155726073 -0.0029294332352378183 0 -0.00096583636346972987 -0.0031645748108416051 0 -0.0010395100838579789 -0.0029103655459603609 0 -0.0011452062343450724 -0.0030913119833979666 0 -0.00096583636346972987 -0.0031645748108416051 0 -0.0011452062343450724 -0.0030913119833979666 0 -0.0012479417155013457 -0.0032821537445766897 0 -0.00096583636346972987 -0.0031645748108416051 0 -0.0010395100838579789 -0.0029103655459603609 0 -0.00079993421155726073 -0.0029294332352378183 0 -0.0010395100838579789 -0.0029103655459603609 0 -0.00079993421155726073 -0.0029294332352378183 0 -0.00087986232413502701 -0.0027470230725010905 0 -0.0010395100838579789 -0.0029103655459603609 0 -0.00087986232413502701 -0.0027470230725010905 0 -0.001128017383115569 -0.0027517999985849093 0 -0.00087986232413502701 -0.0027470230725010905 0 -0.001128017383115569 -0.0027517999985849093 0 -0.0010009631573501144 -0.0025770957216211779 0 -0.001128017383115569 -0.0027517999985849093 0 -0.0012063396838847763 -0.0026066235059654824 0 -0.0010009631573501144 -0.0025770957216211779 0 -0.00068670000553949101 -0.0025581905640834606 0 -0.00087986232413502701 -0.0027470230725010905 0 -0.0010009631573501144 -0.0025770957216211779 0 -0.0014144520053223197 -0.0026576400566863689 0 -0.0013282619105225539 -0.0027909572116315033 0 -0.0012063396838847763 -0.0026066235059654824 0 -0.0014144520053223197 -0.0026576400566863689 0 -0.0013282619105225539 -0.0027909572116315033 0 -0.0014784866124262011 -0.0028090366739615463 0 -0.001128017383115569 -0.0027517999985849093 0 -0.0013282619105225539 -0.0027909572116315033 0 -0.0012063396838847763 -0.0026066235059654824 0 -0.001128017383115569 -0.0027517999985849093 0 -0.0012356086399369067 -0.0029162158728414534 0 -0.0013282619105225539 -0.0027909572116315033 0 -0.0010395100838579789 -0.0029103655459603609 0 -0.001128017383115569 -0.0027517999985849093 0 -0.0012356086399369067 -0.0029162158728414534 0 -0.0013282619105225539 -0.0027909572116315033 0 -0.0014659472543201773 -0.0029816211667313018 0 -0.0014784866124262011 -0.0028090366739615463 0 -0.0012356086399369067 -0.0029162158728414534 0 -0.0013282619105225539 -0.0027909572116315033 0 -0.0014659472543201773 -0.0029816211667313018 0 -0.0013087129199452808 -0.0030823532580025515 0 -0.0014670498247195802 -0.0031900538827110193 0 -0.0014659472543201773 -0.0029816211667313018 0 -0.0012356086399369067 -0.0029162158728414534 0 -0.0013087129199452808 -0.0030823532580025515 0 -0.0014659472543201773 -0.0029816211667313018 0 -0.0010395100838579789 -0.0029103655459603609 0 -0.0012356086399369067 -0.0029162158728414534 0 -0.0011452062343450724 -0.0030913119833979666 0 -0.0012356086399369067 -0.0029162158728414534 0 -0.0013087129199452808 -0.0030823532580025515 0 -0.0011452062343450724 -0.0030913119833979666 0 -0.0013087129199452808 -0.0030823532580025515 0 -0.0011452062343450724 -0.0030913119833979666 0 -0.0012479417155013457 -0.0032821537445766897 0 -0.0013087129199452808 -0.0030823532580025515 0 -0.0012479417155013457 -0.0032821537445766897 0 -0.0014670498247195802 -0.0031900538827110193 0 -0.0012479417155013457 -0.0032821537445766897 0 -0.0014794831389077928 -0.0033628113266679716 0 -0.0014670498247195802 -0.0031900538827110193 0 -0.001365683206566434 -0.0035261212862116903 0 -0.0012479417155013457 -0.0032821537445766897 0 -0.0014794831389077928 -0.0033628113266679716 0 -0.001365683206566434 -0.0035261212862116903 0 -0.0011083269037198344 -0.0034579269601641141 0 -0.0012240254617887985 -0.003722087285411122 0 -0.001365683206566434 -0.0035261212862116903 0 -0.0012479417155013457 -0.0032821537445766897 0 -0.0011083269037198344 -0.0034579269601641141 0 -0.00096583636346972987 -0.0031645748108416051 0 -0.0008735489103232851 -0.0034441056726505852 0 -0.0011083269037198344 -0.0034579269601641141 0 -0.00096583636346972987 -0.0031645748108416051 0 -0.0012479417155013457 -0.0032821537445766897 0 -0.0011083269037198344 -0.0034579269601641141 0 -0.00068895483693047846 -0.0031851927730560314 0 -0.00096583636346972987 -0.0031645748108416051 0 -0.0008735489103232851 -0.0034441056726505852 0 -0.0008735489103232851 -0.0034441056726505852 0 -0.0011083269037198344 -0.0034579269601641141 0 -0.0009801737060251964 -0.0036589311871948423 0 -0.0011083269037198344 -0.0034579269601641141 0 -0.0009801737060251964 -0.0036589311871948423 0 -0.0012240254617887985 -0.003722087285411122 0 -0.00065898986162993083 -0.0037019337539367855 0 -0.0008735489103232851 -0.0034441056726505852 0 -0.0009801737060251964 -0.0036589311871948423 0 -0.00065898986162993083 -0.0037019337539367855 0 -0.0009801737060251964 -0.0036589311871948423 0 -0.00097756419780402359 -0.0039370507634999283 0 -0.0009801737060251964 -0.0036589311871948423 0 -0.00097756419780402359 -0.0039370507634999283 0 -0.0012240254617887985 -0.003722087285411122 0 -0.0013179744990074011 -0.0041108070667495765 0 -0.00097756419780402359 -0.0039370507634999283 0 -0.0012240254617887985 -0.003722087285411122 0 -0.0013179744990074011 -0.0041108070667495765 0 -0.0012240254617887985 -0.003722087285411122 0 -0.0014999333944553462 -0.0037813209928760387 0 -0.001365683206566434 -0.0035261212862116903 0 -0.0012240254617887985 -0.003722087285411122 0 -0.0014999333944553462 -0.0037813209928760387 0 -0.0017353621455866259 -0.0037650270132308264 0 -0.0014999333944553462 -0.0037813209928760387 0 -0.0016250238373282403 -0.0035463043896967281 0 -0.0017353621455866259 -0.0037650270132308264 0 -0.0014999333944553462 -0.0037813209928760387 0 -0.001679375324014096 -0.0040294916914259708 0 -0.0013179744990074011 -0.0041108070667495765 0 -0.0014999333944553462 -0.0037813209928760387 0 -0.001679375324014096 -0.0040294916914259708 0 -0.0017353621455866259 -0.0037650270132308264 0 -0.001679375324014096 -0.0040294916914259708 0 -0.0020056022385732042 -0.0039080131751270692 0 -0.0021600557779976296 -0.004253992763514145 0 -0.0020056022385732042 -0.0039080131751270692 0 -0.0023657411144294665 -0.0039797457653191759 0 -0.0020056022385732042 -0.0039080131751270692 0 -0.0021314231248642612 -0.0036152477258776833 0 -0.0023657411144294665 -0.0039797457653191759 0 -0.0020056022385732042 -0.0039080131751270692 0 -0.001874044737063586 -0.003574558046061339 0 -0.0021314231248642612 -0.0036152477258776833 0 -0.0017353621455866259 -0.0037650270132308264 0 -0.0020056022385732042 -0.0039080131751270692 0 -0.001874044737063586 -0.003574558046061339 0 -0.001874044737063586 -0.003574558046061339 0 -0.0021314231248642612 -0.0036152477258776833 0 -0.0019469666824912467 -0.0033585457412514705 0 -0.0021314231248642612 -0.0036152477258776833 0 -0.0019469666824912467 -0.0033585457412514705 0 -0.0021654714433214633 -0.003378707550917767 0 -0.001874044737063586 -0.003574558046061339 0 -0.0019469666824912467 -0.0033585457412514705 0 -0.0016844878053802286 -0.0033307796293172644 0 -0.001874044737063586 -0.003574558046061339 0 -0.0016844878053802286 -0.0033307796293172644 0 -0.0016250238373282403 -0.0035463043896967281 0 -0.0017353621455866259 -0.0037650270132308264 0 -0.001874044737063586 -0.003574558046061339 0 -0.0016250238373282403 -0.0035463043896967281 0 -0.001365683206566434 -0.0035261212862116903 0 -0.0016250238373282403 -0.0035463043896967281 0 -0.0014794831389077928 -0.0033628113266679716 0 -0.001365683206566434 -0.0035261212862116903 0 -0.0014999333944553462 -0.0037813209928760387 0 -0.0016250238373282403 -0.0035463043896967281 0 -0.0016844878053802286 -0.0033307796293172644 0 -0.0016250238373282403 -0.0035463043896967281 0 -0.0014794831389077928 -0.0033628113266679716 0 -0.0016844878053802286 -0.0033307796293172644 0 -0.0014794831389077928 -0.0033628113266679716 0 -0.0014670498247195802 -0.0031900538827110193 0 -0.0016844878053802286 -0.0033307796293172644 0 -0.0014670498247195802 -0.0031900538827110193 0 -0.0016166571414516202 -0.0031359875396192592 0 -0.0016844878053802286 -0.0033307796293172644 0 -0.0017755392398203424 -0.003179875055000541 0 -0.0016166571414516202 -0.0031359875396192592 0 -0.0019469666824912467 -0.0033585457412514705 0 -0.0016844878053802286 -0.0033307796293172644 0 -0.0017755392398203424 -0.003179875055000541 0 -0.0017755392398203424 -0.003179875055000541 0 -0.0016716961949216457 -0.0030257299408687527 0 -0.0018318063733225301 -0.0030543499801686533 0 -0.0017755392398203424 -0.003179875055000541 0 -0.0016716961949216457 -0.0030257299408687527 0 -0.0016166571414516202 -0.0031359875396192592 0 -0.0016716961949216457 -0.0030257299408687527 0 -0.0014659472543201773 -0.0029816211667313018 0 -0.0016166571414516202 -0.0031359875396192592 0 -0.0014670498247195802 -0.0031900538827110193 0 -0.0014659472543201773 -0.0029816211667313018 0 -0.0016166571414516202 -0.0031359875396192592 0 -0.0014659472543201773 -0.0029816211667313018 0 -0.0014784866124262011 -0.0028090366739615463 0 -0.0016031104277028146 -0.002904650751309041 0 -0.0016716961949216457 -0.0030257299408687527 0 -0.0014659472543201773 -0.0029816211667313018 0 -0.0016031104277028146 -0.002904650751309041 0 -0.0016716961949216457 -0.0030257299408687527 0 -0.0016031104277028146 -0.002904650751309041 0 -0.0017322968456898622 -0.0029036274815547425 0 -0.0016031104277028146 -0.002904650751309041 0 -0.0017322968456898622 -0.0029036274815547425 0 -0.0015991466325539479 -0.0027382811472394949 0 -0.0016716961949216457 -0.0030257299408687527 0 -0.0017322968456898622 -0.0029036274815547425 0 -0.0018318063733225301 -0.0030543499801686533 0 -0.0017322968456898622 -0.0029036274815547425 0 -0.0017330252700244607 -0.0027024816758800733 0 -0.0019232780719166394 -0.0029192825439226314 0 -0.0017322968456898622 -0.0029036274815547425 0 -0.0017330252700244607 -0.0027024816758800733 0 -0.0015991466325539479 -0.0027382811472394949 0 -0.0014784866124262011 -0.0028090366739615463 0 -0.0016031104277028146 -0.002904650751309041 0 -0.0015991466325539479 -0.0027382811472394949 0 -0.0014144520053223197 -0.0026576400566863689 0 -0.0014784866124262011 -0.0028090366739615463 0 -0.0015991466325539479 -0.0027382811472394949 0 -0.0017322968456898622 -0.0029036274815547425 0 -0.0019232780719166394 -0.0029192825439226314 0 -0.0018318063733225301 -0.0030543499801686533 0 -0.0019232780719166394 -0.0029192825439226314 0 -0.0018318063733225301 -0.0030543499801686533 0 -0.0019608831860262349 -0.0030480893978080382 0 -0.0019232780719166394 -0.0029192825439226314 0 -0.0019608831860262349 -0.0030480893978080382 0 -0.0020488512247121313 -0.0030290513311832081 0 -0.0022072383439229026 -0.0076982206554685626 0 -0.001649318987145766 -0.0090973264065693001 0 -0.0019049191121064245 -0.0029905115590130801 0 -0.0019232780719166394 -0.0029192825439226314 0 -0.0020488512247121313 -0.0030290513311832081 0 -0.0020577907720176008 -0.0032616215541826934 0 -0.0021365044415664674 -0.0030399344354443327 0 -0.0021654714433214633 -0.003378707550917767 0 -0.0020353354944326568 -0.003119053495310642 0 -0.0020577907720176008 -0.0032616215541826934 0 -0.0021365044415664674 -0.0030399344354443327 0 -0.0032185886318938 -0.0056920446419516327 0 -0.001649318987145766 -0.0090973264065693001 0 -0.0020353354944326568 -0.003119053495310642 0 -0.0019608831860262349 -0.0030480893978080382 0 -0.0020488512247121313 -0.0030290513311832081 0 -0.0020353354944326568 -0.003119053495310642 0 -0.0019608831860262349 -0.0030480893978080382 0 -0.0019314255620395159 -0.0031604802019262949 0 -0.0018318063733225301 -0.0030543499801686533 0 -0.0019608831860262349 -0.0030480893978080382 0 -0.0019314255620395159 -0.0031604802019262949 0 -0.0017755392398203424 -0.003179875055000541 0 -0.0018318063733225301 -0.0030543499801686533 0 -0.0019314255620395159 -0.0031604802019262949 0 -0.0019469666824912467 -0.0033585457412514705 0 -0.0019314255620395159 -0.0031604802019262949 0 -0.0020577907720176008 -0.0032616215541826934 0 -0.0019469666824912467 -0.0033585457412514705 0 -0.0017755392398203424 -0.003179875055000541 0 -0.0019314255620395159 -0.0031604802019262949 0 -0.0019469666824912467 -0.0033585457412514705 0 -0.0020577907720176008 -0.0032616215541826934 0 -0.0021654714433214633 -0.003378707550917767 0 -0.0020353354944326568 -0.003119053495310642 0 -0.0019314255620395159 -0.0031604802019262949 0 -0.0020577907720176008 -0.0032616215541826934 0 -0.00092961271868768707 -0.014706551330862554 0 -0.0008107486844627119 -0.014749298006141784 0 -0.00086946886621842899 -0.01453671477701558 0 -0.001649318987145766 -0.0090973264065693001 0 -0.0012663857962103182 -0.009444346839387047 0 -0.0021365044415664674 -0.0030399344354443327 0 -0.0021654714433214633 -0.003378707550917767 0 -0.0023798194172257362 -0.0035770410559755215 0 -0.0026615489708540262 -0.012590435619950775 0 -0.0024022149160984785 -0.011930826364351587 0 -0.0017022752602520212 -0.012773486673835604 0 -0.00092961271868768707 -0.014706551330862554 0 -0.0008107486844627119 -0.014749298006141784 0 -0.00076369659930072386 -0.014831708242702742 0 -0.001649318987145766 -0.0090973264065693001 0 -0.0010101120417244356 -0.014492630255135364 0 -0.00076309297324552794 -0.014850705704286473 0 -0.0008107486844627119 -0.014749298006141784 0 -0.00076369659930072386 -0.014831708242702742 0 -0.00074246550123946149 -0.014748640892267436 0 -0.00076309297324552794 -0.014850705704286473 0 -0.0008107486844627119 -0.014749298006141784 0 -0.00074246550123946149 -0.014748640892267436 0 -0.0008107486844627119 -0.014749298006141784 0 -0.00086946886621842899 -0.01453671477701558 0 -0.00069356448963900396 -0.014660472056488448 0 -0.00074246550123946149 -0.014748640892267436 0 -0.00086946886621842899 -0.01453671477701558 0 -0.00050092293457160099 -0.014693630372029672 0 -0.00050495227358947532 -0.014732404408813831 0 -0.00053194323642469904 -0.014650403315741339 0 -0.00035818927885293285 -0.0154786248787285 0 -0.0012663857962103182 -0.009444346839387047 0 -0.0021314231248642612 -0.0036152477258776833 0 -0.0021654714433214633 -0.003378707550917767 0 -0.0023798194172257362 -0.0035770410559755215 0 -0.0030632162730277082 -0.0042264218966760686 0 -0.0012663857962103182 -0.009444346839387047 0 -0.0028855820924619615 -0.0042424611857664694 0 -0.0025270389740457543 -0.0035346905550555862 0 -0.0023657411144294665 -0.0039797457653191759 0 -0.0021314231248642612 -0.0036152477258776833 0 -0.0025270389740457543 -0.0035346905550555862 0 -0.0023657411144294665 -0.0039797457653191759 0 -0.0017320926131921151 -0.0094509373824312164 0 -0.0012663857962103182 -0.009444346839387047 0 -0.00050092293457160099 -0.014693630372029672 0 -0.00051000730610544745 -0.01465854792495962 0 -0.00053194323642469904 -0.014650403315741339 0 0.00024449347963261556 -0.010981760329714246 0 -0.00032981499866031828 -0.010602573199695981 0 -0.00032752705968138335 -0.011346262291357091 0 0.00010928663499578651 -0.011150436328291663 0 -8.7225331007169285e-05 -0.010908211187774491 0 -0.00032981499866031828 -0.010602573199695981 0 0.00011100648885723583 -0.010543354996121653 0 -6.8600742614494204e-05 -0.010114409359428424 0 0.00024449347963261556 -0.010981760329714246 0 -0.00032981499866031828 -0.010602573199695981 0 0.00011100648885723583 -0.010543354996121653 0 -0.00032981499866031828 -0.010602573199695981 0 -6.8600742614494204e-05 -0.010114409359428424 0 -0.00048228512845680855 -0.010190172563234734 0 0.00053270653915173658 -0.010425624439969429 0 0.00011100648885723583 -0.010543354996121653 0 -6.8600742614494204e-05 -0.010114409359428424 0 0.00053270653915173658 -0.010425624439969429 0 0.00071252815234807006 -0.010820169575061839 0 0.00024449347963261556 -0.010981760329714246 0 0.00053270653915173658 -0.010425624439969429 0 0.00024449347963261556 -0.010981760329714246 0 0.00011100648885723583 -0.010543354996121653 0 -0.0012192803408850052 -0.014063551604366413 0 -0.0016164773524377427 -0.013411618503958334 0 -0.0020074578946665516 -0.013662075189398253 0 -0.0011262995037094391 -0.013614891431797867 0 -0.0012192803408850052 -0.014063551604366413 0 -0.0016164773524377427 -0.013411618503958334 0 -0.00031039089183786919 -0.012059439183882158 0 -0.0010331176964986464 -0.012256525671627395 0 -0.00083008512543583874 -0.014800014056160526 0 -0.00076326156385323396 -0.014667503409790133 0 -0.00076369659930072386 -0.014831708242702742 0 -0.00083008512543583874 -0.014800014056160526 0 -0.00076309297324552794 -0.014850705704286473 0 -0.00076369659930072386 -0.014831708242702742 0 -0.0011262995037094391 -0.013614891431797867 0 -0.0016164773524377427 -0.013411618503958334 0 -0.0017022752602520212 -0.012773486673835604 0 -0.0010467936926425534 -0.013993467515799385 0 -0.0010101120417244356 -0.014492630255135364 0 -0.0026615489708540262 -0.012590435619950775 0 -0.0017022752602520212 -0.012773486673835604 0 -0.0022338928111404065 -0.013078828716296132 0 -0.0016164773524377427 -0.013411618503958334 0 -0.0017022752602520212 -0.012773486673835604 0 -0.0022338928111404065 -0.013078828716296132 0 -0.0022338928111404065 -0.013078828716296132 0 -0.0020074578946665516 -0.013662075189398253 0 -0.002898944888090164 -0.013211176589404499 0 -0.0016164773524377427 -0.013411618503958334 0 -0.0022338928111404065 -0.013078828716296132 0 -0.0020074578946665516 -0.013662075189398253 0 -6.8600742614494204e-05 -0.010114409359428424 0 -0.00048228512845680855 -0.010190172563234734 0 -0.00068112714543626938 -0.0098040501489521648 0 -0.0012561531921499174 -0.0068208311992639954 0 -0.0011314802846676827 -0.006875264812092944 0 -0.00098461235956453065 -0.0061708569152159071 0 -0.00048228512845680855 -0.010190172563234734 0 -0.00068112714543626938 -0.0098040501489521648 0 -0.00084990072886653473 -0.010237065731556055 0 -0.0010331176964986464 -0.012256525671627395 0 -0.0011093873620779203 -0.0082375472743062231 0 -0.0011093873620779203 -0.0082375472743062231 0 -0.0010659246598631134 -0.0062708464719399238 0 -0.0026615489708540262 -0.012590435619950775 0 -0.0022338928111404065 -0.013078828716296132 0 -0.002898944888090164 -0.013211176589404499 0 -0.0017330252700244607 -0.0027024816758800733 0 -0.0019232780719166394 -0.0029192825439226314 0 -0.0017665402524239589 -0.0023628073739661803 0 -0.0018259569983069201 -0.0022445807097733789 0 -0.0019933466163315145 -0.0045141428649828992 0 -0.0019049191121064245 -0.0029905115590130801 0 -0.0019232780719166394 -0.0029192825439226314 0 -0.0020190473452344013 -0.0031839589396870172 0 -0.0019049191121064245 -0.0029905115590130801 0 -0.0019763245426556936 -0.0032096899846066314 0 -0.0020190473452344013 -0.0031839589396870172 0 -0.0011093873620779203 -0.0082375472743062231 0 -0.0019933466163315145 -0.0045141428649828992 0 -0.0022072383439229026 -0.0076982206554685626 0 -0.0011093873620779203 -0.0082375472743062231 0 -0.0015991466325539479 -0.0027382811472394949 0 -0.0015092591616055341 -0.0025267223295179827 0 -0.0016466993387898054 -0.00256426752200031 0 -0.0014144520053223197 -0.0026576400566863689 0 -0.0015991466325539479 -0.0027382811472394949 0 -0.0015092591616055341 -0.0025267223295179827 0 -0.0015092591616055341 -0.0025267223295179827 0 -0.0016466993387898054 -0.00256426752200031 0 -0.0015873621437287671 -0.0024890605608181324 0 -0.0017330252700244607 -0.0027024816758800733 0 -0.0017665402524239589 -0.0023628073739661803 0 -0.0016466993387898054 -0.00256426752200031 0 -0.0017330252700244607 -0.0027024816758800733 0 -0.0015991466325539479 -0.0027382811472394949 0 -0.0016466993387898054 -0.00256426752200031 0 -0.0017665402524239589 -0.0023628073739661803 0 -0.0016466993387898054 -0.00256426752200031 0 -0.0016459490207058071 -0.0024205991515287338 0 -0.0016459490207058071 -0.0024205991515287338 0 -0.0015873621437287671 -0.0024890605608181324 0 -0.0015012271267668355 -0.0023759190679355771 0 -0.0016466993387898054 -0.00256426752200031 0 -0.0016459490207058071 -0.0024205991515287338 0 -0.0015873621437287671 -0.0024890605608181324 0 -0.0017126037100469872 -0.0023954465261798218 0 -0.0016459490207058071 -0.0024205991515287338 0 -0.0015012271267668355 -0.0023759190679355771 0 -0.0019933466163315145 -0.0045141428649828992 0 -0.0021287035874093074 -0.0039722135918387408 0 -0.0015092591616055341 -0.0025267223295179827 0 -0.0015012271267668355 -0.0023759190679355771 0 -0.0013418219691635443 -0.0024797818460700269 0 -0.0015092591616055341 -0.0025267223295179827 0 -0.0015873621437287671 -0.0024890605608181324 0 -0.0015012271267668355 -0.0023759190679355771 0 -0.0015012271267668355 -0.0023759190679355771 0 -0.0014722363271143096 -0.0022318151663685299 0 -0.0013110507033135908 -0.002316873222534919 0 -0.0019933466163315145 -0.0045141428649828992 0 -0.0010659246598631134 -0.0062708464719399238 0 -0.0017126037100469872 -0.0023954465261798218 0 -0.0014722363271143096 -0.0022318151663685299 0 -0.0016081147573041782 -0.0021437414919034878 0 -0.0017126037100469872 -0.0023954465261798218 0 -0.0015012271267668355 -0.0023759190679355771 0 -0.0014722363271143096 -0.0022318151663685299 0 -0.0014722363271143096 -0.0022318151663685299 0 -0.0016081147573041782 -0.0021437414919034878 0 -0.001400914737361435 -0.0021100356482839774 0 -0.0010659246598631134 -0.0062708464719399238 0 -5.9181028444401004e-05 -0.0084377706329923051 0 -0.0016081147573041782 -0.0021437414919034878 0 -0.0014795932577010848 -0.0018966503864323895 0 -0.001400914737361435 -0.0021100356482839774 0 -0.00078507763436269445 -0.0063807386397225505 0 -0.00074067386868976017 -0.0063148269596284652 0 -0.00075152704347175049 -0.0063072247118140315 0 -0.0010659246598631134 -0.0062708464719399238 0 -0.00058491644505100093 -0.004811867551850155 0 -0.00032981499866031828 -0.010602573199695981 0 -0.00084990072886653473 -0.010237065731556055 0 -0.00095578910912868674 -0.010820378360439566 0 -0.00032981499866031828 -0.010602573199695981 0 -0.00048228512845680855 -0.010190172563234734 0 -0.00084990072886653473 -0.010237065731556055 0 -5.9181028444401004e-05 -0.0084377706329923051 0 -8.7225331007169285e-05 -0.010908211187774491 0 -0.00032981499866031828 -0.010602573199695981 0 -0.00095578910912868674 -0.010820378360439566 0 -0.00032752705968138335 -0.011346262291357091 0 -0.00058491644505100093 -0.004811867551850155 0 0.00031365938538076114 -0.0064198123259151521 0 -5.9181028444401004e-05 -0.0084377706329923051 0 0.0001430909757898206 -0.0082623571261221888 0 0.00037686493520975466 -0.0068660152474674324 0 0.00047715994211250319 -0.0069482743531337323 0 0.00015660509263369822 -0.0074416202979297541 0 -0.00058491644505100093 -0.004811867551850155 0 -5.9181028444401004e-05 -0.0084377706329923051 0 0.00097029441466592043 -0.0038416554192249831 0 -2.0794582522318581e-05 -0.004412978361315544 0 0.00055878229035741939 -0.0048833884029365294 0 0.0025552241461808188 -0.0024772573603060602 0 0.0019420785012801936 -0.0020874039222279822 0 0.0020317028525761991 -0.0031606997569042861 0 0.0019420785012801936 -0.0020874039222279822 0 0.0022085113110372812 -0.0015341475975928092 0 0.0016217420910708757 -0.0016325502098161859 0 0.0025552241461808188 -0.0024772573603060602 0 0.0019420785012801936 -0.0020874039222279822 0 0.0022085113110372812 -0.0015341475975928092 0 -0.0014795932577010848 -0.0018966503864323895 0 -0.0011537400590522229 -0.0020995856594371804 0 -0.001400914737361435 -0.0021100356482839774 0 0.00097029441466592043 -0.0038416554192249831 0 -2.0794582522318581e-05 -0.004412978361315544 0 -0.00018790337100405444 -0.0028944324187322834 0 0.0015065297893044026 -0.0033011018257660413 0 -0.0001596596891146441 -0.0021212016903594502 0 -0.00058491644505100093 -0.004811867551850155 0 -0.0001596596891146441 -0.0021212016903594502 0 -0.0014722363271143096 -0.0022318151663685299 0 -0.001400914737361435 -0.0021100356482839774 0 -0.0012952504621659214 -0.0021867955111663281 0 -0.0011537400590522229 -0.0020995856594371804 0 -0.001400914737361435 -0.0021100356482839774 0 -0.0012952504621659214 -0.0021867955111663281 0 -0.0011537400590522229 -0.0020995856594371804 0 -0.0012952504621659214 -0.0021867955111663281 0 -0.0010952718606686066 -0.0022581671801651473 0 -0.0012952504621659214 -0.0021867955111663281 0 -0.0013110507033135908 -0.002316873222534919 0 -0.0010952718606686066 -0.0022581671801651473 0 -0.0014722363271143096 -0.0022318151663685299 0 -0.0012952504621659214 -0.0021867955111663281 0 -0.0013110507033135908 -0.002316873222534919 0 -0.0015012271267668355 -0.0023759190679355771 0 -0.0013110507033135908 -0.002316873222534919 0 -0.0013418219691635443 -0.0024797818460700269 0 -0.0013110507033135908 -0.002316873222534919 0 -0.0011434571446784481 -0.0024320733709234047 0 -0.0013418219691635443 -0.0024797818460700269 0 -0.0013110507033135908 -0.002316873222534919 0 -0.0011434571446784481 -0.0024320733709234047 0 -0.0010952718606686066 -0.0022581671801651473 0 -0.0011434571446784481 -0.0024320733709234047 0 -0.0012063396838847763 -0.0026066235059654824 0 -0.0013418219691635443 -0.0024797818460700269 0 -0.0014144520053223197 -0.0026576400566863689 0 -0.0015092591616055341 -0.0025267223295179827 0 -0.0013418219691635443 -0.0024797818460700269 0 -0.0014144520053223197 -0.0026576400566863689 0 -0.0012063396838847763 -0.0026066235059654824 0 -0.0013418219691635443 -0.0024797818460700269 0 -0.000929926746442702 -0.0023963775687777973 0 -0.0010952718606686066 -0.0022581671801651473 0 -0.00074099412811915507 -0.002265074305217329 0 -0.00068670000553949101 -0.0025581905640834606 0 -0.0010009631573501144 -0.0025770957216211779 0 -0.000929926746442702 -0.0023963775687777973 0 -0.0011434571446784481 -0.0024320733709234047 0 -0.0010009631573501144 -0.0025770957216211779 0 -0.000929926746442702 -0.0023963775687777973 0 -0.0011434571446784481 -0.0024320733709234047 0 -0.0012063396838847763 -0.0026066235059654824 0 -0.0010009631573501144 -0.0025770957216211779 0 -0.0011434571446784481 -0.0024320733709234047 0 -0.000929926746442702 -0.0023963775687777973 0 -0.0010952718606686066 -0.0022581671801651473 0 -0.0001596596891146441 -0.0021212016903594502 0 0.00053465429194169279 -0.0017559855173912866 0 -0.0011170929233635623 -0.0020017946917178508 0 -0.0010952718606686066 -0.0022581671801651473 0 -0.00074099412811915507 -0.002265074305217329 0 0.0022085113110372812 -0.0015341475975928092 0 0.0015935840912139551 -0.0012360073208428882 0 0.0016217420910708757 -0.0016325502098161859 0 -0.0001596596891146441 -0.0021212016903594502 0 -0.00089885864629674799 -0.0021653650251440382 0 0.0015935840912139551 -0.0012360073208428882 0 0.0011260369181582044 -0.0014854994542848859 0 0.0016217420910708757 -0.0016325502098161859 0 0.0015935840912139551 -0.0012360073208428882 0 0.0011306035876384485 -0.0010200745892866431 0 0.0011260369181582044 -0.0014854994542848859 0 -0.00068670000553949101 -0.0025581905640834606 0 -0.000929926746442702 -0.0023963775687777973 0 -0.00074099412811915507 -0.002265074305217329 0 0.00053465429194169279 -0.0017559855173912866 0 0.00036598317088638361 -0.0017064667762783979 0 -0.00068670000553949101 -0.0025581905640834606 0 -0.00074099412811915507 -0.002265074305217329 0 -0.00038373521714850904 -0.0024674163405908715 0 0.0011306035876384485 -0.0010200745892866431 0 0.0011260369181582044 -0.0014854994542848859 0 0.00080681037845589112 -0.0012071199877165279 0 0.0011260369181582044 -0.0014854994542848859 0 0.0013002821934776894 -0.0019576162339594505 0 0.00083319660497090337 -0.0019588945963864507 0 0.0019420785012801936 -0.0020874039222279822 0 0.0016217420910708757 -0.0016325502098161859 0 0.0013002821934776894 -0.0019576162339594505 0 0.0011260369181582044 -0.0014854994542848859 0 0.0016217420910708757 -0.0016325502098161859 0 0.0013002821934776894 -0.0019576162339594505 0 0.0019420785012801936 -0.0020874039222279822 0 0.0013002821934776894 -0.0019576162339594505 0 0.0010293341274564391 -0.0028832475131848911 0 0.0013002821934776894 -0.0019576162339594505 0 0.0010293341274564391 -0.0028832475131848911 0 0.00083319660497090337 -0.0019588945963864507 0 0.0010293341274564391 -0.0028832475131848911 0 0.0014710919990603931 -0.0043617496582451752 0 -0.00034007970401801204 -0.0046071598760723019 0 0.0019420785012801936 -0.0020874039222279822 0 0.0010293341274564391 -0.0028832475131848911 0 0.0020317028525761991 -0.0031606997569042861 0 0.0010293341274564391 -0.0028832475131848911 0 0.0014710919990603931 -0.0043617496582451752 0 0.0020317028525761991 -0.0031606997569042861 0 0.0010049123243502719 -0.0029028214325815438 0 0.00033327495333722654 -0.0035795999426760606 0 0.0014710919990603931 -0.0043617496582451752 0 0.00039452927576645835 -0.0053957376649827306 0 -0.00034007970401801204 -0.0046071598760723019 0 0.00039452927576645835 -0.0053957376649827306 0 -0.00034007970401801204 -0.0046071598760723019 0 -0.00015314477059355072 -0.0055392869834976731 0 0.00039452927576645835 -0.0053957376649827306 0 2.5533912082277984e-06 -0.0069381290760030662 0 -0.00015314477059355072 -0.0055392869834976731 0 2.5219166199161314e-08 -0.0069405394473957306 0 0.00085781831461376515 -0.0067219687230704308 0 0.00039452927576645835 -0.0053957376649827306 0 2.5533912082277984e-06 -0.0069381290760030662 0 0.0016260231505357433 -0.0059442839818692941 0 -4.8539428868394668e-08 -0.0069420250085268859 0 -6.0070903297264935e-05 -0.0077949581888290672 0 7.2355861784793709e-08 -0.0080937712013031786 0 0.0014710919990603931 -0.0043617496582451752 0 0.00039452927576645835 -0.0053957376649827306 0 0.0016260231505357433 -0.0059442839818692941 0 0.00085781831461376515 -0.0067219687230704308 0 0.00100127723792229 -0.0071869049339586726 0 0.0014710919990603931 -0.0043617496582451752 0 0.0026716886289397082 -0.0050913638071700858 0 0.0029996771543938849 -0.003997846872890648 0 0.0014710919990603931 -0.0043617496582451752 0 0.0016260231505357433 -0.0059442839818692941 0 0.0026716886289397082 -0.0050913638071700858 0 -6.0070903297264935e-05 -0.0077949581888290672 0 0.00031608574683442711 -0.0075324973826875327 0 7.2355861784793709e-08 -0.0080937712013031786 0 -4.9414679722334955e-05 -0.0085795418222879213 0 -1.7306475309141845e-08 -0.0080988356219371879 0 3.1381973722100727e-08 -0.0090590856010219593 0 0.00100127723792229 -0.0071869049339586726 0 -7.070737740725053e-07 -0.0080969072625625624 0 3.4977839188650589e-07 -0.0090640025062735437 0 0.00024623978579560077 -0.0092012635307510606 0 8.8628252102544833e-05 -0.0099637225186143871 0 2.0456008418462981e-06 -0.0090649462491348212 0 0.0007734609841452989 -0.011533875380206785 0 7.7991109896585639e-05 -0.010675379702618963 0 7.9356818172950956e-05 -0.010292353882561264 0 -4.9414679722334955e-05 -0.0085795418222879213 0 3.1381973722100727e-08 -0.0090590856010219593 0 9.9537702068746027e-05 -0.0084802572443140982 0 0.00041873455033012899 -0.0078056918048854543 0 0.00088280996754749809 -0.0074819317260155765 0 0.00080922948812636958 -0.0068137489924371885 0 0.00100127723792229 -0.0071869049339586726 0 0.00088839207206646402 -0.0059052982312525421 0 8.8628252102544833e-05 -0.0099637225186143871 0 0.0007734609841452989 -0.011533875380206785 0 -0.00011406312933748177 -0.01215426119999018 0 0.00100127723792229 -0.0071869049339586726 0 0.00024623978579560077 -0.0092012635307510606 0 0.00024623978579560077 -0.0092012635307510606 0 7.9356818172950956e-05 -0.010292353882561264 0 -3.7891505211314075e-05 -0.0083616019518287111 0 -7.3744037833710656e-05 -0.0080288293592564106 0 0.00026659501317929734 -0.0081486276093255452 0 0.00018132724003712313 -0.0078143213209169154 0 -7.3744037833710656e-05 -0.0080288293592564106 0 0.00015660509263369822 -0.0074416202979297541 0 0.00018132724003712313 -0.0078143213209169154 0 -7.3744037833710656e-05 -0.0080288293592564106 0 0.00026659501317929734 -0.0081486276093255452 0 0.00024623978579560077 -0.0092012635307510606 0 0.00088839207206646402 -0.0059052982312525421 0 0.0014710919990603931 -0.0043617496582451752 0 0.0029996771543938849 -0.003997846872890648 0 0.0020317028525761991 -0.0031606997569042861 0 0.0025552241461808188 -0.0024772573603060602 0 0.0029996771543938849 -0.003997846872890648 0 0.0020317028525761991 -0.0031606997569042861 0 -2.0794582522318581e-05 -0.004412978361315544 0 0.00015537500135949257 -0.0059216898776952498 0 0.00055878229035741939 -0.0048833884029365294 0 0.0015065297893044026 -0.0033011018257660413 0 0.00088839207206646402 -0.0059052982312525421 0 0.00088839207206646402 -0.0059052982312525421 0 0.00031365938538076114 -0.0064198123259151521 0 0.00047715994211250319 -0.0069482743531337323 0 0.00015660509263369822 -0.0074416202979297541 0 0.00037501027235110803 -0.0075403838319852753 0 -0.00011015561457589804 -0.0091537720161566326 0 -0.0001894652138119473 -0.0095739101551967319 0 0.00036939775299011176 -0.0095563175571245808 0 0.00018132724003712313 -0.0078143213209169154 0 0.00015660509263369822 -0.0074416202979297541 0 0.00037501027235110803 -0.0075403838319852753 0 -0.0001894652138119473 -0.0095739101551967319 0 5.0233730505382833e-05 -0.0097724114691015961 0 0.00036939775299011176 -0.0095563175571245808 0 -5.0614646030541386e-05 -0.011552623649706665 0 -0.00013158912251058747 -0.011552812098110142 0 -0.0001340960349208038 -0.011510992993543346 0 2.5727721268812708e-05 -0.010638974917121798 0 -8.7225331007169285e-05 -0.010908211187774491 0 -0.00013158912251058747 -0.011552812098110142 0 -3.8494918026101319e-05 -0.011343929734849373 0 -0.00014413055968035731 -0.011626140048338573 0 -5.0614646030541386e-05 -0.011552623649706665 0 -0.00013158912251058747 -0.011552812098110142 0 -3.8494918026101319e-05 -0.011343929734849373 0 0.0001430909757898206 -0.0082623571261221888 0 7.9356818172950956e-05 -0.010292353882561264 0 -5.0614646030541386e-05 -0.011552623649706665 0 -3.8494918026101319e-05 -0.011343929734849373 0 0.00029430100435076623 -0.011308341229701041 0 0.00018132724003712313 -0.0078143213209169154 0 0.00037501027235110803 -0.0075403838319852753 0 0.00026659501317929734 -0.0081486276093255452 0 -0.0001894652138119473 -0.0095739101551967319 0 5.0233730505382833e-05 -0.0097724114691015961 0 -0.00026594805474255273 -0.0099932619293150744 0 2.5727721268812708e-05 -0.010638974917121798 0 7.9356818172950956e-05 -0.010292353882561264 0 8.8628252102544833e-05 -0.0099637225186143871 0 0.00029430100435076623 -0.011308341229701041 0 -5.1972658627352367e-05 -0.010909183519051293 0 -3.8494918026101319e-05 -0.011343929734849373 0 0.00029430100435076623 -0.011308341229701041 0 -5.1972658627352367e-05 -0.010909183519051293 0 8.8628252102544833e-05 -0.0099637225186143871 0 -5.1972658627352367e-05 -0.010909183519051293 0 -9.2830320011950569e-07 -0.010454276645718245 0 8.8628252102544833e-05 -0.0099637225186143871 0 2.0456008418462981e-06 -0.0090649462491348212 0 -9.2830320011950569e-07 -0.010454276645718245 0 -5.1972658627352367e-05 -0.010909183519051293 0 -9.2830320011950569e-07 -0.010454276645718245 0 -4.9043058775437565e-05 -0.011616710243769403 0 -5.1972658627352367e-05 -0.010909183519051293 0 -0.00014413055968035731 -0.011626140048338573 0 -4.9043058775437565e-05 -0.011616710243769403 0 -3.8494918026101319e-05 -0.011343929734849373 0 -5.1972658627352367e-05 -0.010909183519051293 0 -0.00014413055968035731 -0.011626140048338573 0 -0.00014413055968035731 -0.011626140048338573 0 -4.9043058775437565e-05 -0.011616710243769403 0 0.0002837082446037508 -0.01264650629780702 0 -0.00014413055968035731 -0.011626140048338573 0 0.0002837082446037508 -0.01264650629780702 0 0.00010837810748846996 -0.011814559447838718 0 -9.2830320011950569e-07 -0.010454276645718245 0 -4.9043058775437565e-05 -0.011616710243769403 0 4.3490682299484685e-07 -0.011846684895075989 0 -4.9043058775437565e-05 -0.011616710243769403 0 4.3490682299484685e-07 -0.011846684895075989 0 0.0002837082446037508 -0.01264650629780702 0 -3.0157699995537534e-08 -0.013238020027953833 0 4.3490682299484685e-07 -0.011846684895075989 0 0.0002837082446037508 -0.01264650629780702 0 0.00043441136313588681 -0.013124610120018121 0 0.00034402676205840232 -0.012752025305382336 0 0.00065523835534233514 -0.011717179675294578 0 0.00010837810748846996 -0.011814559447838718 0 0.00024932303778070453 -0.011453110430516295 0 0.00065523835534233514 -0.011717179675294578 0 0.0002837082446037508 -0.01264650629780702 0 0.00010837810748846996 -0.011814559447838718 0 0.00010837810748846996 -0.011814559447838718 0 -5.8311420550772305e-05 -0.011634990741595817 0 0.00024932303778070453 -0.011453110430516295 0 -0.00014413055968035731 -0.011626140048338573 0 0.00010837810748846996 -0.011814559447838718 0 -5.8311420550772305e-05 -0.011634990741595817 0 -0.00013158912251058747 -0.011552812098110142 0 -0.00014413055968035731 -0.011626140048338573 0 -5.8311420550772305e-05 -0.011634990741595817 0 -0.00013158912251058747 -0.011552812098110142 0 -5.8311420550772305e-05 -0.011634990741595817 0 -0.00012383606105002785 -0.011490387762872735 0 0.00024449347963261556 -0.010981760329714246 0 -0.00012383606105002785 -0.011490387762872735 0 -0.00024001100850479324 -0.01139630085421116 0 -5.8311420550772305e-05 -0.011634990741595817 0 -0.00012383606105002785 -0.011490387762872735 0 0.00024932303778070453 -0.011453110430516295 0 -0.00013158912251058747 -0.011552812098110142 0 -0.00012383606105002785 -0.011490387762872735 0 -0.0001340960349208038 -0.011510992993543346 0 5.6671136227090843e-06 -0.011154112401479866 0 -8.7225331007169285e-05 -0.010908211187774491 0 0.00024449347963261556 -0.010981760329714246 0 -0.00012383606105002785 -0.011490387762872735 0 0.00024932303778070453 -0.011453110430516295 0 0.00086518995602273649 -0.011211931985925292 0 0.00024449347963261556 -0.010981760329714246 0 0.00024932303778070453 -0.011453110430516295 0 -8.1551728264380162e-05 -0.001487394539764183 0 -7.9858413911650485e-05 -0.0015864327816813603 0 -0.000136030458289013 -0.0014619916313551972 0 -8.1551728264380162e-05 -0.001487394539764183 0 -0.000136030458289013 -0.0014619916313551972 0 -3.9138024081691675e-05 -0.0014971825306224909 0 -8.1551728264380162e-05 -0.001487394539764183 0 -7.9858413911650485e-05 -0.0015864327816813603 0 2.6427220593248681e-05 -0.0016175957611273288 0 -8.1551728264380162e-05 -0.001487394539764183 0 0.00010924364343646144 -0.0014820590753169089 0 2.6427220593248681e-05 -0.0016175957611273288 0 -7.9858413911650485e-05 -0.0015864327816813603 0 2.6427220593248681e-05 -0.0016175957611273288 0 2.1457361275330989e-05 -0.0017768136378428895 0 -7.9858413911650485e-05 -0.0015864327816813603 0 -0.000136030458289013 -0.0014619916313551972 0 -0.00016456697029934575 -0.0016117151009350326 0 -0.000136030458289013 -0.0014619916313551972 0 -0.00016456697029934575 -0.0016117151009350326 0 -0.00018241389797862771 -0.0013568834069175302 0 -0.000136030458289013 -0.0014619916313551972 0 -0.00011737395261281391 -0.0014010184497700367 0 -0.00018241389797862771 -0.0013568834069175302 0 -0.00013662655999997615 -0.0012574558760078292 0 -0.00011737395261281391 -0.0014010184497700367 0 -0.00018241389797862771 -0.0013568834069175302 0 -0.00013662655999997615 -0.0012574558760078292 0 -0.00011737395261281391 -0.0014010184497700367 0 -3.3785100615787514e-05 -0.001343865743774995 0 -0.00011737395261281391 -0.0014010184497700367 0 -5.2578332348050512e-05 -0.0014632643977667409 0 -3.3785100615787514e-05 -0.001343865743774995 0 -0.00011737395261281391 -0.0014010184497700367 0 -3.9138024081691675e-05 -0.0014971825306224909 0 -5.2578332348050512e-05 -0.0014632643977667409 0 -0.000136030458289013 -0.0014619916313551972 0 -0.00011737395261281391 -0.0014010184497700367 0 -3.9138024081691675e-05 -0.0014971825306224909 0 -3.9138024081691675e-05 -0.0014971825306224909 0 -5.2578332348050512e-05 -0.0014632643977667409 0 -6.2612252216674952e-06 -0.001445977078378752 0 -5.2578332348050512e-05 -0.0014632643977667409 0 -6.2612252216674952e-06 -0.001445977078378752 0 -5.4617931980724768e-05 -0.0013592454676755504 0 1.7063617594853363e-05 -0.001320228384189376 0 -6.2612252216674952e-06 -0.001445977078378752 0 -5.4617931980724768e-05 -0.0013592454676755504 0 -3.9138024081691675e-05 -0.0014971825306224909 0 -6.2612252216674952e-06 -0.001445977078378752 0 8.2847991594765731e-05 -0.0014894077606504318 0 -3.9138024081691675e-05 -0.0014971825306224909 0 8.2847991594765731e-05 -0.0014894077606504318 0 0.00024837874377331404 -0.001675133391970049 0 0.00024077190171203295 -0.0015392314002722635 0 8.2847991594765731e-05 -0.0014894077606504318 0 0.00024837874377331404 -0.001675133391970049 0 -1.1301502611346256e-05 -0.0015025629379343704 0 0.00010664687115443443 -0.0015197933066916818 0 -8.1551728264380162e-05 -0.001487394539764183 0 -3.9138024081691675e-05 -0.0014971825306224909 0 -7.430537677787187e-05 -0.0013842222164878804 0 -8.1551728264380162e-05 -0.001487394539764183 0 -7.430537677787187e-05 -0.0013842222164878804 0 0.00010924364343646144 -0.0014820590753169089 0 0.00010664687115443443 -0.0015197933066916818 0 0.00031325852998674461 -0.0015145090089772736 0 0.00040595426868925805 -0.0017001352899923324 0 0.00024837874377331404 -0.001675133391970049 0 0.00049766597856399991 -0.0018263051608923698 0 -7.430537677787187e-05 -0.0013842222164878804 0 0.00011897379106521339 -0.0012083013144694511 0 0.00010924364343646144 -0.0014820590753169089 0 0.00011897379106521339 -0.0012083013144694511 0 0.00035943459249175949 -0.0014045350814492345 0 0.00049369256460400981 -0.0012209025422572526 0 0.00044165451812601701 -0.00099766522174938514 0 0.00011897379106521339 -0.0012083013144694511 0 0.00049369256460400981 -0.0012209025422572526 0 0.00011897379106521339 -0.0012083013144694511 0 0.00035943459249175949 -0.0014045350814492345 0 0.00010924364343646144 -0.0014820590753169089 0 0.00035943459249175949 -0.0014045350814492345 0 0.00010924364343646144 -0.0014820590753169089 0 0.00045903809372661245 -0.001710332701138854 0 0.0011306035876384485 -0.0010200745892866431 0 0.00080681037845589112 -0.0012071199877165279 0 0.00084563041909238481 -0.0010237510969398529 0 0.00080681037845589112 -0.0012071199877165279 0 0.00049369256460400981 -0.0012209025422572526 0 0.00066418762748477627 -0.0015036140488963934 0 0.00080681037845589112 -0.0012071199877165279 0 0.00067661855107310146 -0.0010452212872080482 0 0.00049369256460400981 -0.0012209025422572526 0 0.00080681037845589112 -0.0012071199877165279 0 0.00084563041909238481 -0.0010237510969398529 0 0.00067661855107310146 -0.0010452212872080482 0 0.00044165451812601701 -0.00099766522174938514 0 0.00067661855107310146 -0.0010452212872080482 0 0.00049369256460400981 -0.0012209025422572526 0 0.00035943459249175949 -0.0014045350814492345 0 0.00049369256460400981 -0.0012209025422572526 0 0.00066418762748477627 -0.0015036140488963934 0 0.00035943459249175949 -0.0014045350814492345 0 0.00066418762748477627 -0.0015036140488963934 0 0.00045903809372661245 -0.001710332701138854 0 0.0011260369181582044 -0.0014854994542848859 0 0.00080681037845589112 -0.0012071199877165279 0 0.00066418762748477627 -0.0015036140488963934 0 0.0010293341274564391 -0.0028832475131848911 0 0.00083319660497090337 -0.0019588945963864507 0 0.00063339100234186636 -0.0022392452160213583 0 0.00066418762748477627 -0.0015036140488963934 0 0.00083319660497090337 -0.0019588945963864507 0 0.00045903809372661245 -0.001710332701138854 0 0.0011260369181582044 -0.0014854994542848859 0 0.00066418762748477627 -0.0015036140488963934 0 0.00083319660497090337 -0.0019588945963864507 0 0.00045903809372661245 -0.001710332701138854 0 0.00023902086859502866 -0.0018058364771612824 0 0.00063339100234186636 -0.0022392452160213583 0 0.00083319660497090337 -0.0019588945963864507 0 0.00045903809372661245 -0.001710332701138854 0 0.00063339100234186636 -0.0022392452160213583 0 0.00010924364343646144 -0.0014820590753169089 0 2.6427220593248681e-05 -0.0016175957611273288 0 0.00023902086859502866 -0.0018058364771612824 0 0.00010924364343646144 -0.0014820590753169089 0 0.00045903809372661245 -0.001710332701138854 0 0.00023902086859502866 -0.0018058364771612824 0 2.6427220593248681e-05 -0.0016175957611273288 0 0.00023902086859502866 -0.0018058364771612824 0 2.1457361275330989e-05 -0.0017768136378428895 0 2.1457361275330989e-05 -0.0017768136378428895 0 0.00028622782570281407 -0.0021088650220168026 0 -8.6247978621640947e-05 -0.0021810687959823013 0 0.00023902086859502866 -0.0018058364771612824 0 2.1457361275330989e-05 -0.0017768136378428895 0 0.00028622782570281407 -0.0021088650220168026 0 0.00023902086859502866 -0.0018058364771612824 0 0.00028622782570281407 -0.0021088650220168026 0 0.00063339100234186636 -0.0022392452160213583 0 0.00028622782570281407 -0.0021088650220168026 0 0.00062303752842399055 -0.0024462611230461596 0 0.00031802204864269995 -0.0024733461753866062 0 0.00028622782570281407 -0.0021088650220168026 0 0.00031802204864269995 -0.0024733461753866062 0 -8.6247978621640947e-05 -0.0021810687959823013 0 0.0010293341274564391 -0.0028832475131848911 0 0.00063339100234186636 -0.0022392452160213583 0 0.00084805979200389169 -0.0025910402752801413 0 0.00028622782570281407 -0.0021088650220168026 0 0.00063339100234186636 -0.0022392452160213583 0 0.00062303752842399055 -0.0024462611230461596 0 0.00063339100234186636 -0.0022392452160213583 0 0.00062303752842399055 -0.0024462611230461596 0 0.00084805979200389169 -0.0025910402752801413 0 -0.00034007970401801204 -0.0046071598760723019 0 -0.00019612691299337716 -0.0052802966341071855 0 -0.00015314477059355072 -0.0055392869834976731 0 0.00033327495333722654 -0.0035795999426760606 0 0.00021221564667286941 -0.0040562305851055318 0 0.00062303752842399055 -0.0024462611230461596 0 0.00084805979200389169 -0.0025910402752801413 0 0.00075600672775613708 -0.0028795871402121859 0 0.00062303752842399055 -0.0024462611230461596 0 0.00075600672775613708 -0.0028795871402121859 0 0.00031802204864269995 -0.0024733461753866062 0 -0.00019612691299337716 -0.0052802966341071855 0 -1.6633630257648096e-06 -0.0054368410668643617 0 9.0942864033065631e-07 -0.0039348692321229768 0 -0.00019612691299337716 -0.0052802966341071855 0 -1.6633630257648096e-06 -0.0054368410668643617 0 -0.00015314477059355072 -0.0055392869834976731 0 2.5533912082277984e-06 -0.0069381290760030662 0 -1.6633630257648096e-06 -0.0054368410668643617 0 -0.00015314477059355072 -0.0055392869834976731 0 0.00031802204864269995 -0.0024733461753866062 0 1.2414757826598104e-06 -0.0039298517618796989 0 -8.6247978621640947e-05 -0.0021810687959823013 0 0.00075600672775613708 -0.0028795871402121859 0 0.00031802204864269995 -0.0024733461753866062 0 1.2414757826598104e-06 -0.0039298517618796989 0 0.00021221564667286941 -0.0040562305851055318 0 -7.7072929658089621e-08 -0.0039336778972297592 0 1.2414757826598104e-06 -0.0039298517618796989 0 -7.0511707743038182e-07 -0.0025430617204575822 0 -8.6247978621640947e-05 -0.0021810687959823013 0 -7.0511707743038182e-07 -0.0025430617204575822 0 -0.0001818944192668543 -0.0016550765652482669 0 -1.9679406687403232e-07 -0.0011515288750654042 0 -7.0511707743038182e-07 -0.0025430617204575822 0 -0.0001818944192668543 -0.0016550765652482669 0 -8.6247978621640947e-05 -0.0021810687959823013 0 2.1457361275330989e-05 -0.0017768136378428895 0 -8.6247978621640947e-05 -0.0021810687959823013 0 -0.00016456697029934575 -0.0016117151009350326 0 -0.0001818944192668543 -0.0016550765652482669 0 -8.6247978621640947e-05 -0.0021810687959823013 0 -0.00016456697029934575 -0.0016117151009350326 0 -0.0001818944192668543 -0.0016550765652482669 0 -0.00016456697029934575 -0.0016117151009350326 0 -0.00020055282378549707 -0.0012456296003915566 0 -7.9858413911650485e-05 -0.0015864327816813603 0 2.1457361275330989e-05 -0.0017768136378428895 0 -0.00016456697029934575 -0.0016117151009350326 0 -0.00013662655999997615 -0.0012574558760078292 0 -0.00015518739002916634 -0.0010731007133130161 0 -0.00018241389797862771 -0.0013568834069175302 0 -0.00013662655999997615 -0.0012574558760078292 0 -0.00015518739002916634 -0.0010731007133130161 0 -8.8131966834170138e-05 -0.00096834387493551703 0 -0.00016456697029934575 -0.0016117151009350326 0 -0.00018241389797862771 -0.0013568834069175302 0 -0.00020055282378549707 -0.0012456296003915566 0 -0.00015518739002916634 -0.0010731007133130161 0 -0.00018241389797862771 -0.0013568834069175302 0 -0.00020055282378549707 -0.0012456296003915566 0 -0.00015518739002916634 -0.0010731007133130161 0 -0.00020055282378549707 -0.0012456296003915566 0 -0.00014393469655649485 -0.00086268604201072063 0 -0.00015518739002916634 -0.0010731007133130161 0 -0.00014393469655649485 -0.00086268604201072063 0 -0.00011073826825589449 -0.0007548670262173808 0 -0.00020055282378549707 -0.0012456296003915566 0 -0.00014393469655649485 -0.00086268604201072063 0 -0.00015952327807975436 -0.0011470172651969399 0 -0.00014393469655649485 -0.00086268604201072063 0 -0.00012729267972354198 -0.00058789387803870666 0 -0.00015952327807975436 -0.0011470172651969399 0 -0.0001818944192668543 -0.0016550765652482669 0 -0.00020055282378549707 -0.0012456296003915566 0 -0.00015952327807975436 -0.0011470172651969399 0 -0.0001818944192668543 -0.0016550765652482669 0 -0.00015952327807975436 -0.0011470172651969399 0 -1.9679406687403232e-07 -0.0011515288750654042 0 -0.00012729267972354198 -0.00058789387803870666 0 -1.9679406687403232e-07 -0.0011515288750654042 0 -6.3920020992738882e-07 0.00023943208387729149 0 -0.00012729267972354198 -0.00058789387803870666 0 -0.00015952327807975436 -0.0011470172651969399 0 -1.9679406687403232e-07 -0.0011515288750654042 0 -0.00012729267972354198 -0.00058789387803870666 0 -6.3920020992738882e-07 0.00023943208387729149 0 0.00015462231983947141 -0.00024522502254452371 0 -0.00037469205965371142 0.00047510902142285886 0 4.1310030201519534e-07 0.0016317302590761608 0 2.0692495891548512e-05 0.00077008107700527167 0 -0.00012308049925378121 0.0001181510611456069 0 -8.4132738877315114e-10 0.0016298358663475513 0 -6.3920020992738882e-07 0.00023943208387729149 0 0.00015462231983947141 -0.00024522502254452371 0 1.4142602573294961e-06 0.0016280839090412871 0 -0.00037469205965371142 0.00047510902142285886 0 2.0692495891548512e-05 0.00077008107700527167 0 5.1268501220649726e-06 -0.00027783504303654502 0 -0.00014393469655649485 -0.00086268604201072063 0 -0.00012729267972354198 -0.00058789387803870666 0 0.00015462231983947141 -0.00024522502254452371 0 -0.0001943950907715451 0.002927070741620129 0 4.7723708217833334e-05 0.001971500319486241 0 -0.00037671361730726339 0.0029737177921544682 0 -0.0001943950907715451 0.002927070741620129 0 -4.1329140069688478e-07 0.00303514491723303 0 4.7723708217833334e-05 0.001971500319486241 0 -0.0001943950907715451 0.002927070741620129 0 -4.1329140069688478e-07 0.00303514491723303 0 -4.6184506655107758e-05 0.0033778866115568794 0 -4.1329140069688478e-07 0.00303514491723303 0 4.1310030201519534e-07 0.0016317302590761608 0 4.7723708217833334e-05 0.001971500319486241 0 4.1310030201519534e-07 0.0016317302590761608 0 4.7723708217833334e-05 0.001971500319486241 0 2.0692495891548512e-05 0.00077008107700527167 0 5.3323490735925275e-05 0.0019525219125720826 0 8.4525772118055061e-05 0.0014842811991853098 0 4.7723708217833334e-05 0.001971500319486241 0 2.0692495891548512e-05 0.00077008107700527167 0 0.00061335345161366397 2.7544183400240289e-05 0 2.0692495891548512e-05 0.00077008107700527167 0 0.00061335345161366397 2.7544183400240289e-05 0 5.1268501220649726e-06 -0.00027783504303654502 0 -0.0001943950907715451 0.002927070741620129 0 -0.00037671361730726339 0.0029737177921544682 0 -9.8004119856467354e-05 0.0030864198604661458 0 -0.00037671361730726339 0.0029737177921544682 0 -3.4021020274998421e-05 0.0024681299391342104 0 -9.8004119856467354e-05 0.0030864198604661458 0 -0.00037671361730726339 0.0029737177921544682 0 -0.0005194247722923942 0.0016439498005506052 0 -3.4021020274998421e-05 0.0024681299391342104 0 8.4525772118055061e-05 0.0014842811991853098 0 -9.687577166893113e-05 0.00061139273754475649 0 0.00061335345161366397 2.7544183400240289e-05 0 0.0002048658429132841 -0.00051672317150418831 0 5.1268501220649726e-06 -0.00027783504303654502 0 0.00061335345161366397 2.7544183400240289e-05 0 0.0002048658429132841 -0.00051672317150418831 0 0.00025218344192402809 -0.00044699847561729765 0 -0.00014393469655649485 -0.00086268604201072063 0 0.00015462231983947141 -0.00024522502254452371 0 -0.00011073826825589449 -0.0007548670262173808 0 -0.00012308049925378121 0.0001181510611456069 0 -0.00012971115253088058 -0.00062748822292848399 0 -0.00037469205965371142 0.00047510902142285886 0 -0.00011073826825589449 -0.0007548670262173808 0 5.1268501220649726e-06 -0.00027783504303654502 0 -0.00011073826825589449 -0.0007548670262173808 0 5.1268501220649726e-06 -0.00027783504303654502 0 7.3380170164756938e-05 -0.00073523444496768735 0 0.0002048658429132841 -0.00051672317150418831 0 7.3380170164756938e-05 -0.00073523444496768735 0 0.00027946270347207943 -0.00037809731973792329 0 0.0002048658429132841 -0.00051672317150418831 0 5.1268501220649726e-06 -0.00027783504303654502 0 7.3380170164756938e-05 -0.00073523444496768735 0 7.3380170164756938e-05 -0.00073523444496768735 0 -8.8131966834170138e-05 -0.00096834387493551703 0 3.3778259241508074e-07 -0.0011235467593662552 0 -0.00011073826825589449 -0.0007548670262173808 0 7.3380170164756938e-05 -0.00073523444496768735 0 -8.8131966834170138e-05 -0.00096834387493551703 0 -0.00015518739002916634 -0.0010731007133130161 0 -0.00011073826825589449 -0.0007548670262173808 0 -8.8131966834170138e-05 -0.00096834387493551703 0 3.3778259241508074e-07 -0.0011235467593662552 0 -3.3785100615787514e-05 -0.001343865743774995 0 0.00024106876681064955 -0.0012612794820925375 0 -0.00013662655999997615 -0.0012574558760078292 0 -8.8131966834170138e-05 -0.00096834387493551703 0 3.3778259241508074e-07 -0.0011235467593662552 0 -0.00013662655999997615 -0.0012574558760078292 0 3.3778259241508074e-07 -0.0011235467593662552 0 -3.3785100615787514e-05 -0.001343865743774995 0 -5.2578332348050512e-05 -0.0014632643977667409 0 -3.3785100615787514e-05 -0.001343865743774995 0 8.5670836199703472e-05 -0.0014898567521622848 0 -3.3785100615787514e-05 -0.001343865743774995 0 0.00024106876681064955 -0.0012612794820925375 0 8.5670836199703472e-05 -0.0014898567521622848 0 0.00024106876681064955 -0.0012612794820925375 0 0.00031050030851933889 -0.0014828739332995019 0 8.5670836199703472e-05 -0.0014898567521622848 0 0.00027329440620867042 -0.00081905044389910041 0 -7.4323699191557475e-05 -0.00080109440597604144 0 9.6049523089960752e-05 -0.00070626991290123663 0 0.00027329440620867042 -0.00081905044389910041 0 7.3380170164756938e-05 -0.00073523444496768735 0 3.3778259241508074e-07 -0.0011235467593662552 0 0.00024106876681064955 -0.0012612794820925375 0 0.0002048658429132841 -0.00051672317150418831 0 0.00025218344192402809 -0.00044699847561729765 0 0.00019339117112366879 -0.00027739678397702882 0 0.0002048658429132841 -0.00051672317150418831 0 0.00027946270347207943 -0.00037809731973792329 0 0.00019339117112366879 -0.00027739678397702882 0 0.00025218344192402809 -0.00044699847561729765 0 0.00010369274443305636 -0.00012126282232701412 0 -1.7513710058909324e-05 5.3849184900921674e-05 0 -9.687577166893113e-05 0.00061139273754475649 0 -2.9014989537214867e-05 7.9693018842963428e-05 0 0.00025218344192402809 -0.00044699847561729765 0 0.00019339117112366879 -0.00027739678397702882 0 0.00010369274443305636 -0.00012126282232701412 0 0.00019339117112366879 -0.00027739678397702882 0 0.00010369274443305636 -0.00012126282232701412 0 3.6373211237775222e-05 -1.7462727132022453e-05 0 0.00010369274443305636 -0.00012126282232701412 0 3.6373211237775222e-05 -1.7462727132022453e-05 0 -1.7513710058909324e-05 5.3849184900921674e-05 0 0.00019339117112366879 -0.00027739678397702882 0 0.00027953635207574008 -9.8666391268523786e-05 0 3.6373211237775222e-05 -1.7462727132022453e-05 0 0.00027946270347207943 -0.00037809731973792329 0 0.00019339117112366879 -0.00027739678397702882 0 0.00027953635207574008 -9.8666391268523786e-05 0 -0.00066815501796518753 -0.00010782973287779541 0 -0.00033174924808018861 -0.00032419308456097494 0 -0.00052567141863202305 -0.00050061657079553264 0 -7.4323699191557475e-05 -0.00080109440597604144 0 -0.00011692642085493186 -6.7449570105834239e-06 0 -0.00066815501796518753 -0.00010782973287779541 0 -0.00033174924808018861 -0.00032419308456097494 0 -0.00024391906804659193 -8.9221782193602429e-05 0 -7.4323699191557475e-05 -0.00080109440597604144 0 -0.0004263703446986813 -0.00087227184093948524 0 -0.00033174924808018861 -0.00032419308456097494 0 -0.00024391906804659193 -8.9221782193602429e-05 0 -2.9434073975957812e-05 -0.00033238792343115615 0 -0.00033174924808018861 -0.00032419308456097494 0 -0.00019326123110588282 -0.0006104110507535866 0 -0.00052567141863202305 -0.00050061657079553264 0 -0.00033174924808018861 -0.00032419308456097494 0 -0.00019326123110588282 -0.0006104110507535866 0 -2.9434073975957812e-05 -0.00033238792343115615 0 -0.00019326123110588282 -0.0006104110507535866 0 -0.00052567141863202305 -0.00050061657079553264 0 -0.00030717235479448901 -0.00096754193461221752 0 -0.0004263703446986813 -0.00087227184093948524 0 -0.00031898113093042208 -0.00098095260136397901 0 -0.00028731192193219709 -0.0012918120623365962 0 -0.00014832886326778224 -0.0013294063313967809 0 -0.0002079705670210083 -0.0011238995218493851 0 -0.00014832886326778224 -0.0013294063313967809 0 -5.4617931980724768e-05 -0.0013592454676755504 0 -0.00011721716792328658 -0.0012183189938436301 0 -0.00014832886326778224 -0.0013294063313967809 0 -5.4617931980724768e-05 -0.0013592454676755504 0 -0.00010137303674246564 -0.0014446666693877775 0 -5.2578332348050512e-05 -0.0014632643977667409 0 -5.4617931980724768e-05 -0.0013592454676755504 0 -0.00010137303674246564 -0.0014446666693877775 0 -5.2151974314806226e-05 -0.001462671434605703 0 1.4052949443760237e-05 -0.0014920623113980935 0 -7.4323699191557475e-05 -0.00080109440597604144 0 1.4052949443760237e-05 -0.0014920623113980935 0 -0.00022231016359775712 -0.0014473182816391299 0 -0.00028731192193219709 -0.0012918120623365962 0 -0.00014832886326778224 -0.0013294063313967809 0 -0.00022231016359775712 -0.0014473182816391299 0 -0.00014832886326778224 -0.0013294063313967809 0 -0.00010137303674246564 -0.0014446666693877775 0 -0.00045211171719430513 0.0053303301075867879 0 -0.00081959308321879467 0.0050854033921044735 0 -0.00065363941053503004 0.0054580243058648774 0 -0.00012254078871865351 0.0024065390276176379 0 0.00011733358725027568 0.0028930660227617163 0 -0.00045211171719430513 0.0053303301075867879 0 -0.00029445415125076553 0.0050799530046242922 0 -0.00081959308321879467 0.0050854033921044735 0 -0.00081959308321879467 0.0050854033921044735 0 -0.00065379235136299636 0.0056600013763138694 0 -0.00065363941053503004 0.0054580243058648774 0 -8.9901766603748897e-05 0.0053450605188220127 0 -0.00029445415125076553 0.0050799530046242922 0 0.00017063813084823695 0.0049728569684554672 0 -0.00045211171719430513 0.0053303301075867879 0 -8.9901766603748897e-05 0.0053450605188220127 0 -0.00029445415125076553 0.0050799530046242922 0 -0.00045211171719430513 0.0053303301075867879 0 -8.9901766603748897e-05 0.0053450605188220127 0 -0.00028560969589430858 0.0055312102272202313 0 -0.00029445415125076553 0.0050799530046242922 0 -0.00081959308321879467 0.0050854033921044735 0 -0.00028442664057444034 0.0046255428631009335 0 -0.00029445415125076553 0.0050799530046242922 0 0.00017063813084823695 0.0049728569684554672 0 -0.00028442664057444034 0.0046255428631009335 0 0.00059926081084596655 -0.00037567927766328756 0 0.00032349113138733588 -0.00059294297513450694 0 0.00043268642611527907 -0.00078472012186489419 0 -0.00081959308321879467 0.0050854033921044735 0 -0.00097219892486581985 0.0041388125194151831 0 -0.00028442664057444034 0.0046255428631009335 0 -0.00012254078871865351 0.0024065390276176379 0 -0.0001696868044095025 0.0015884768421673971 0 0.00059926081084596655 -0.00037567927766328756 0 0.00032349113138733588 -0.00059294297513450694 0 0.00027987829877892424 -0.00034575849217329462 0 0.00032349113138733588 -0.00059294297513450694 0 9.2151220224943037e-05 -0.00059447915885718801 0 0.00027987829877892424 -0.00034575849217329462 0 -0.00019326123110588282 -0.0006104110507535866 0 9.2151220224943037e-05 -0.00059447915885718801 0 -2.9434073975957812e-05 -0.00033238792343115615 0 9.2151220224943037e-05 -0.00059447915885718801 0 -2.9434073975957812e-05 -0.00033238792343115615 0 0.00027987829877892424 -0.00034575849217329462 0 -0.00011692642085493186 -6.7449570105834239e-06 0 0.00016362402192422274 -3.918255696085901e-05 0 -0.00024391906804659193 -8.9221782193602429e-05 0 -2.9434073975957812e-05 -0.00033238792343115615 0 0.00017365537862279345 -2.7626408288764054e-05 0 -2.9434073975957812e-05 -0.00033238792343115615 0 0.00017365537862279345 -2.7626408288764054e-05 0 0.00027987829877892424 -0.00034575849217329462 0 0.00059926081084596655 -0.00037567927766328756 0 0.00027987829877892424 -0.00034575849217329462 0 0.00047041367630430838 -2.5590866382024679e-05 0 0.00059926081084596655 -0.00037567927766328756 0 0.00047041367630430838 -2.5590866382024679e-05 0 0.00086268091958999909 0.00039763566889617659 0 0.00017365537862279345 -2.7626408288764054e-05 0 0.00027987829877892424 -0.00034575849217329462 0 0.00047041367630430838 -2.5590866382024679e-05 0 0.00047041367630430838 -2.5590866382024679e-05 0 0.00041620617868404029 0.00037075763574795492 0 0.00086268091958999909 0.00039763566889617659 0 0.00017365537862279345 -2.7626408288764054e-05 0 0.00047041367630430838 -2.5590866382024679e-05 0 0.00041620617868404029 0.00037075763574795492 0 0.00041620617868404029 0.00037075763574795492 0 0.00086268091958999909 0.00039763566889617659 0 0.00058134042341510708 0.00076294031732458765 0 3.6373211237775222e-05 -1.7462727132022453e-05 0 0.00017365537862279345 -2.7626408288764054e-05 0 -1.7513710058909324e-05 5.3849184900921674e-05 0 0.00017365537862279345 -2.7626408288764054e-05 0 0.00041620617868404029 0.00037075763574795492 0 -1.7513710058909324e-05 5.3849184900921674e-05 0 0.00041620617868404029 0.00037075763574795492 0 -1.7513710058909324e-05 5.3849184900921674e-05 0 7.9098280208599265e-05 0.00075406138833508988 0 -0.0005194247722923942 0.0016439498005506052 0 -1.7513710058909324e-05 5.3849184900921674e-05 0 7.9098280208599265e-05 0.00075406138833508988 0 -0.0005194247722923942 0.0016439498005506052 0 7.9098280208599265e-05 0.00075406138833508988 0 0.00030759836756921868 0.0010364766472365766 0 0.00041620617868404029 0.00037075763574795492 0 7.9098280208599265e-05 0.00075406138833508988 0 0.00030759836756921868 0.0010364766472365766 0 0.00086268091958999909 0.00039763566889617659 0 0.00058134042341510708 0.00076294031732458765 0 0.00066207171344961381 0.0011688838562160327 0 0.00086268091958999909 0.00039763566889617659 0 0.00066207171344961381 0.0011688838562160327 0 0.00098152291982905914 0.0012664842561635897 0 0.00011733358725027568 0.0028930660227617163 0 -0.0001029445457422482 0.0046373072827782438 0 0.00041620617868404029 0.00037075763574795492 0 0.00030759836756921868 0.0010364766472365766 0 0.00058134042341510708 0.00076294031732458765 0 0.00030759836756921868 0.0010364766472365766 0 0.00058134042341510708 0.00076294031732458765 0 0.00066207171344961381 0.0011688838562160327 0 0.00030759836756921868 0.0010364766472365766 0 0.00066207171344961381 0.0011688838562160327 0 0.00035050663811228333 0.0018250445059048656 0 -0.00040574757547671362 0.006047196669159257 0 -0.00042977197128245812 0.0058337384871017155 0 -0.00065363941053503004 0.0054580243058648774 0 -0.00040574757547671362 0.006047196669159257 0 -0.00032316670658316253 0.00599764536949273 0 -0.00029049648890797997 0.0060780609315977171 0 -0.00040574757547671362 0.006047196669159257 0 -0.00032316670658316253 0.00599764536949273 0 -0.00042977197128245812 0.0058337384871017155 0 -0.00032316670658316253 0.00599764536949273 0 -0.0003789933433135178 0.0057906826075392907 0 -0.00024767880200226618 0.0059378547291921357 0 -0.00032316670658316253 0.00599764536949273 0 -0.0003789933433135178 0.0057906826075392907 0 -0.00042977197128245812 0.0058337384871017155 0 -0.00065379235136299636 0.0056600013763138694 0 -0.00057257731268193482 0.0059922905837233292 0 -0.00065363941053503004 0.0054580243058648774 0 -0.0001029445457422482 0.0046373072827782438 0 -0.00076668194168222478 0.0060839503547093039 0 -0.0003789933433135178 0.0057906826075392907 0 -0.00042977197128245812 0.0058337384871017155 0 -0.00065363941053503004 0.0054580243058648774 0 -0.0003789933433135178 0.0057906826075392907 0 -0.00040556359078473261 0.0055756476501157811 0 -0.00027066479036646438 0.0057265830997754938 0 -0.00045211171719430513 0.0053303301075867879 0 -0.00040556359078473261 0.0055756476501157811 0 -0.00065363941053503004 0.0054580243058648774 0 -0.0003789933433135178 0.0057906826075392907 0 -0.00040556359078473261 0.0055756476501157811 0 -0.00065363941053503004 0.0054580243058648774 0 -8.9901766603748897e-05 0.0053450605188220127 0 -0.00028560969589430858 0.0055312102272202313 0 -0.00011757314025960378 0.0056510735740368601 0 -0.00040556359078473261 0.0055756476501157811 0 -0.00028560969589430858 0.0055312102272202313 0 -0.00027066479036646438 0.0057265830997754938 0 -0.00045211171719430513 0.0053303301075867879 0 -0.00040556359078473261 0.0055756476501157811 0 -0.00028560969589430858 0.0055312102272202313 0 -0.00027066479036646438 0.0057265830997754938 0 -0.00011757314025960378 0.0056510735740368601 0 -0.00014963771013791266 0.0058541073464510778 0 -0.00028560969589430858 0.0055312102272202313 0 -0.00027066479036646438 0.0057265830997754938 0 -0.00011757314025960378 0.0056510735740368601 0 -0.0003789933433135178 0.0057906826075392907 0 -0.00027066479036646438 0.0057265830997754938 0 -0.00024767880200226618 0.0059378547291921357 0 -0.00027066479036646438 0.0057265830997754938 0 -0.00014963771013791266 0.0058541073464510778 0 -0.00024767880200226618 0.0059378547291921357 0 -0.00024767880200226618 0.0059378547291921357 0 -0.00011915359289518521 0.0060349481395528346 0 -0.00024850819045801664 0.0061210345157499549 0 -0.00032316670658316253 0.00599764536949273 0 -0.00024767880200226618 0.0059378547291921357 0 -0.00024850819045801664 0.0061210345157499549 0 -0.00014963771013791266 0.0058541073464510778 0 -0.00024767880200226618 0.0059378547291921357 0 -0.00011915359289518521 0.0060349481395528346 0 -0.00011915359289518521 0.0060349481395528346 0 -0.00024850819045801664 0.0061210345157499549 0 -0.00012301881441090324 0.0062995525818684292 0 -0.00032316670658316253 0.00599764536949273 0 -0.00024850819045801664 0.0061210345157499549 0 -0.00029049648890797997 0.0060780609315977171 0 -0.00040574757547671362 0.006047196669159257 0 -0.00029049648890797997 0.0060780609315977171 0 -0.00020712913920643519 0.0061198241478870969 0 -0.00024850819045801664 0.0061210345157499549 0 -0.00029049648890797997 0.0060780609315977171 0 -0.00020712913920643519 0.0061198241478870969 0 -0.00024850819045801664 0.0061210345157499549 0 -0.00020712913920643519 0.0061198241478870969 0 -0.00025688493604036358 0.0061128268298339117 0 -0.00020712913920643519 0.0061198241478870969 0 -0.00025688493604036358 0.0061128268298339117 0 9.0838046558541419e-05 0.0059942695658360551 0 -0.00024850819045801664 0.0061210345157499549 0 -0.00025688493604036358 0.0061128268298339117 0 -0.00012301881441090324 0.0062995525818684292 0 -0.00025688493604036358 0.0061128268298339117 0 -0.00017818819142324016 0.006439829614319055 0 -0.00012301881441090324 0.0062995525818684292 0 -0.0005194247722923942 0.0016439498005506052 0 0.00030759836756921868 0.0010364766472365766 0 0.00035050663811228333 0.0018250445059048656 0 -0.0005194247722923942 0.0016439498005506052 0 0.00035050663811228333 0.0018250445059048656 0 -3.4021020274998421e-05 0.0024681299391342104 0 0.00035050663811228333 0.0018250445059048656 0 0.00095792203905549023 0.0017543357608210907 0 0.0007755557255971319 0.0026062570717388109 0 0.00066207171344961381 0.0011688838562160327 0 0.00035050663811228333 0.0018250445059048656 0 0.00095792203905549023 0.0017543357608210907 0 -0.00040574757547671362 0.006047196669159257 0 -0.00020712913920643519 0.0061198241478870969 0 -0.00026349990737230164 0.0061038689554897265 0 -0.0001029445457422482 0.0046373072827782438 0 0.00028222461888117046 0.0038268895169663239 0 0.00066207171344961381 0.0011688838562160327 0 0.00098152291982905914 0.0012664842561635897 0 0.00095792203905549023 0.0017543357608210907 0 -0.00020712913920643519 0.0061198241478870969 0 -0.00026349990737230164 0.0061038689554897265 0 9.0838046558541419e-05 0.0059942695658360551 0 0.00028222461888117046 0.0038268895169663239 0 0.00039018627769295153 0.0042765135376463086 0 0.0007755557255971319 0.0026062570717388109 0 -3.4021020274998421e-05 0.0024681299391342104 0 -9.8004119856467354e-05 0.0030864198604661458 0 0.00035050663811228333 0.0018250445059048656 0 0.0007755557255971319 0.0026062570717388109 0 -3.4021020274998421e-05 0.0024681299391342104 0 0.0007755557255971319 0.0026062570717388109 0 -9.8004119856467354e-05 0.0030864198604661458 0 0.00013702096810401908 0.0033822718526218204 0 -0.0001943950907715451 0.002927070741620129 0 -9.8004119856467354e-05 0.0030864198604661458 0 -4.6184506655107758e-05 0.0033778866115568794 0 -9.8004119856467354e-05 0.0030864198604661458 0 0.00013702096810401908 0.0033822718526218204 0 -4.6184506655107758e-05 0.0033778866115568794 0 9.0838046558541419e-05 0.0059942695658360551 0 0.00016356408105435601 0.0042726414569237495 0 -0.00016328731282126379 0.0054772398053053251 0 0.0007755557255971319 0.0026062570717388109 0 0.00013702096810401908 0.0033822718526218204 0 0.00016356408105435601 0.0042726414569237495 0 0.00039018627769295153 0.0042765135376463086 0 0.0002163675422273865 0.0042808013729413877 0 7.6769262014936631e-07 0.0044407800629097625 0 0.00016356408105435601 0.0042726414569237495 0 -0.00016328731282126379 0.0054772398053053251 0 -4.1329140069688478e-07 0.00303514491723303 0 7.6769262014936631e-07 0.0044407800629097625 0 0.00016356408105435601 0.0042726414569237495 0 -4.1329140069688478e-07 0.00303514491723303 0 0.00016356408105435601 0.0042726414569237495 0 -4.6184506655107758e-05 0.0033778866115568794 0 0.00013702096810401908 0.0033822718526218204 0 0.00016356408105435601 0.0042726414569237495 0 -4.6184506655107758e-05 0.0033778866115568794 0 -0.00025688493604036358 0.0061128268298339117 0 -0.00016328731282126379 0.0054772398053053251 0 -0.00017818819142324016 0.006439829614319055 0 -0.00025688493604036358 0.0061128268298339117 0 9.0838046558541419e-05 0.0059942695658360551 0 -0.00016328731282126379 0.0054772398053053251 0 7.6769262014936631e-07 0.0044407800629097625 0 -0.00016328731282126379 0.0054772398053053251 0 -6.9925600278344394e-07 0.0058458017274636252 0 -0.00016328731282126379 0.0054772398053053251 0 -6.9925600278344394e-07 0.0058458017274636252 0 -0.00017818819142324016 0.006439829614319055 0 -6.9925600278344394e-07 0.0058458017274636252 0 -0.00017818819142324016 0.006439829614319055 0 -1.1023561094957285e-07 0.0072505617205656766 0 6.5627601391134334e-05 0.0067402459062148694 0 1.012529740021734e-05 0.0072548738873286188 0 0.00046079192032741898 0.0069539523186660183 0 -0.00017818819142324016 0.006439829614319055 0 6.5627601391134334e-05 0.0067402459062148694 0 1.012529740021734e-05 0.0072548738873286188 0 1.012529740021734e-05 0.0072548738873286188 0 -1.1023561094957285e-07 0.0072505617205656766 0 0.00026722350716756714 0.0080915687759637624 0 -0.00017818819142324016 0.006439829614319055 0 1.012529740021734e-05 0.0072548738873286188 0 -1.1023561094957285e-07 0.0072505617205656766 0 -1.1023561094957285e-07 0.0072505617205656766 0 0.00026722350716756714 0.0080915687759637624 0 8.8219343766626342e-07 0.0086556723111102345 0 0.00026722350716756714 0.0080915687759637624 0 8.8219343766626342e-07 0.0086556723111102345 0 8.1355823219862676e-05 0.0095433849560528587 0 8.8219343766626342e-07 0.0086556723111102345 0 8.1355823219862676e-05 0.0095433849560528587 0 -1.3404033664062044e-07 0.010061221936507875 0 0.00026254245334636831 0.0082872095960196315 0 0.0006103598275456352 0.0087038828116533951 0 0.00026722350716756714 0.0080915687759637624 0 8.1355823219862676e-05 0.0095433849560528587 0 0.00022207653260706891 0.010249748947012628 0 1.012529740021734e-05 0.0072548738873286188 0 0.00026722350716756714 0.0080915687759637624 0 0.00046079192032741898 0.0069539523186660183 0 0.00026722350716756714 0.0080915687759637624 0 0.0011857969473264794 0.0071674007447853714 0 0.00046079192032741898 0.0069539523186660183 0 0.00046079192032741898 0.0069539523186660183 0 0.0010691668165391131 0.0064423038457560051 0 0.00048966719035117921 0.0063834831248700992 0 6.5627601391134334e-05 0.0067402459062148694 0 0.00046079192032741898 0.0069539523186660183 0 0.00048966719035117921 0.0063834831248700992 0 0.0011857969473264794 0.0071674007447853714 0 0.00046079192032741898 0.0069539523186660183 0 0.0010691668165391131 0.0064423038457560051 0 0.0010691668165391131 0.0064423038457560051 0 0.00048966719035117921 0.0063834831248700992 0 0.0007983692711862546 0.0059550489426987716 0 0.00048966719035117921 0.0063834831248700992 0 0.0004047283219180085 0.006037676536865811 0 0.0007983692711862546 0.0059550489426987716 0 0.00048966719035117921 0.0063834831248700992 0 0.00013260227923741729 0.0063619848862099268 0 0.0004047283219180085 0.006037676536865811 0 0.00013260227923741729 0.0063619848862099268 0 8.6715872383615934e-05 0.0060835910925249939 0 0.0004047283219180085 0.006037676536865811 0 0.00013260227923741729 0.0063619848862099268 0 8.6715872383615934e-05 0.0060835910925249939 0 -0.00012301881441090324 0.0062995525818684292 0 -0.00011915359289518521 0.0060349481395528346 0 8.6715872383615934e-05 0.0060835910925249939 0 -0.00012301881441090324 0.0062995525818684292 0 -0.00017818819142324016 0.006439829614319055 0 6.5627601391134334e-05 0.0067402459062148694 0 -0.00012301881441090324 0.0062995525818684292 0 6.5627601391134334e-05 0.0067402459062148694 0 0.00048966719035117921 0.0063834831248700992 0 0.00013260227923741729 0.0063619848862099268 0 6.5627601391134334e-05 0.0067402459062148694 0 0.00013260227923741729 0.0063619848862099268 0 -0.00012301881441090324 0.0062995525818684292 0 -0.00021048430237484284 0.01225369538180129 0 -0.00016980573470059147 0.011500560067925195 0 -0.00023192052592700435 0.011889697272130975 0 -0.00021048430237484284 0.01225369538180129 0 -3.6660944855899916e-07 0.011465965086881483 0 -3.8263346203489944e-07 0.012870807138963701 0 -3.6660944855899916e-07 0.011465965086881483 0 -0.00016980573470059147 0.011500560067925195 0 -7.616408926264877e-05 0.010696787939262055 0 -0.00021048430237484284 0.01225369538180129 0 -3.6660944855899916e-07 0.011465965086881483 0 -0.00016980573470059147 0.011500560067925195 0 -0.00016980573470059147 0.011500560067925195 0 -7.616408926264877e-05 0.010696787939262055 0 -1.5278303363261451e-05 0.011374574845773896 0 -3.6660944855899916e-07 0.011465965086881483 0 -7.616408926264877e-05 0.010696787939262055 0 -1.3404033664062044e-07 0.010061221936507875 0 8.1355823219862676e-05 0.0095433849560528587 0 -7.616408926264877e-05 0.010696787939262055 0 -1.3404033664062044e-07 0.010061221936507875 0 0.00022207653260706891 0.010249748947012628 0 -7.616408926264877e-05 0.010696787939262055 0 -1.5278303363261451e-05 0.011374574845773896 0 8.1355823219862676e-05 0.0095433849560528587 0 0.00022207653260706891 0.010249748947012628 0 -7.616408926264877e-05 0.010696787939262055 0 0.0011857969473264794 0.0071674007447853714 0 0.0010691668165391131 0.0064423038457560051 0 0.0016309390635925983 0.0067414281748893268 0 0.0006103598275456352 0.0087038828116533951 0 0.0007637427895663783 0.0090802752156616262 0 0.0010691668165391131 0.0064423038457560051 0 0.0014440340295580371 0.0062956161101353561 0 0.0016309390635925983 0.0067414281748893268 0 0.0010691668165391131 0.0064423038457560051 0 0.0014440340295580371 0.0062956161101353561 0 0.0012543398059101742 0.0058837827213287777 0 0.0017388518988513781 0.0063428280959900484 0 0.0016309390635925983 0.0067414281748893268 0 0.0020345077698433441 0.0064225581078787529 0 0.0014440340295580371 0.0062956161101353561 0 0.0017388518988513781 0.0063428280959900484 0 0.0016309390635925983 0.0067414281748893268 0 0.0014440340295580371 0.0062956161101353561 0 0.0017388518988513781 0.0063428280959900484 0 0.0016448610610362161 0.006064639855842005 0 -0.00016980573470059147 0.011500560067925195 0 -1.5278303363261451e-05 0.011374574845773896 0 -0.00016356350048868531 0.01169873637783584 0 -1.5278303363261451e-05 0.011374574845773896 0 -0.00016356350048868531 0.01169873637783584 0 -0.00019813318197829213 0.011951564293335092 0 0.0007637427895663783 0.0090802752156616262 0 0.00096930079666922861 0.0090825532547147494 0 -0.00016980573470059147 0.011500560067925195 0 -0.00016356350048868531 0.01169873637783584 0 -0.00023192052592700435 0.011889697272130975 0 -0.00016356350048868531 0.01169873637783584 0 -0.00023192052592700435 0.011889697272130975 0 -0.00022093011938376561 0.011996552179010517 0 -0.00016356350048868531 0.01169873637783584 0 -0.00019813318197829213 0.011951564293335092 0 -0.00022093011938376561 0.011996552179010517 0 0.0020345077698433441 0.0064225581078787529 0 0.0021296736513817085 0.0060765902333714348 0 0.0018945875490539461 0.0061743702882299028 0 0.0017388518988513781 0.0063428280959900484 0 0.0020345077698433441 0.0064225581078787529 0 0.0018945875490539461 0.0061743702882299028 0 -0.00019813318197829213 0.011951564293335092 0 -0.0001560540684137392 0.011920108243095574 0 -0.00022093011938376561 0.011996552179010517 0 -0.00019813318197829213 0.011951564293335092 0 -0.0001560540684137392 0.011920108243095574 0 -0.00015586200789880145 0.011893639941926592 0 0.00041133845135421764 0.01210527937585733 0 -0.00032911847807403304 0.012121367779836627 0 0.00096930079666922861 0.0090825532547147494 0 0.00099245913912959349 0.0096281026094478701 0 0.00041133845135421764 0.01210527937585733 0 8.8143119962247462e-06 0.012142657901559837 0 -0.00026506122990128473 0.01227353051946997 0 -0.00028280353683391433 0.012182810006124348 0 -0.00022093011938376561 0.011996552179010517 0 -0.00021048430237484284 0.01225369538180129 0 -0.00023192052592700435 0.011889697272130975 0 -0.00025224091493977041 0.012155963074039274 0 -0.00028280353683391433 0.012182810006124348 0 -0.00022093011938376561 0.011996552179010517 0 -0.00025224091493977041 0.012155963074039274 0 -0.00023192052592700435 0.011889697272130975 0 -0.00022093011938376561 0.011996552179010517 0 -0.00025224091493977041 0.012155963074039274 0 0.00074124772422536653 0.010912107987854806 0 0.0015280407670171566 0.0086012305037386043 0 0.00052522110396712319 0.011823980210484924 0 0.00095698706416067543 0.012287435485359788 0 0.00062425544592346297 0.012502027460372281 0 0.00076157796847885456 0.013308289942915996 0 0.00075968655192381045 0.013251976546830687 0 0.00078084927052395764 0.013290317770168713 0 0.00074124772422536653 0.010912107987854806 0 0.00070701908673453072 0.013271405025727726 0 0.0024416739158148906 0.0059959649690936164 0 0.0024583319602140036 0.0061602360298465778 0 0.0021296736513817085 0.0060765902333714348 0 0.0020345077698433441 0.0064225581078787529 0 0.0024583319602140036 0.0061602360298465778 0 0.0021296736513817085 0.0060765902333714348 0 0.00074124772422536653 0.010912107987854806 0 0.00078491665741447852 0.014054433527839291 0 0.00074124772422536653 0.010912107987854806 0 0.00099245913912959349 0.0096281026094478701 0 0.00067602136823678607 0.011273837750434841 0 0.00085059772399795396 0.011617187552934496 0 0.00073576327782986931 0.011691863460759776 0 0.00067602136823678607 0.011273837750434841 0 0.00085059772399795396 0.011617187552934496 0 0.0011033695449669473 0.011699772407033019 0 0.00085059772399795396 0.011617187552934496 0 0.00073687953030630523 0.011692795342161541 0 0.0011033695449669473 0.011699772407033019 0 0.00081072152604647735 0.009869493359307549 0 0.00099245913912959349 0.0096281026094478701 0 0.00041133845135421764 0.01210527937585733 0 0.00099245913912959349 0.0096281026094478701 0 0.00078715202686520304 0.012049939082740191 0 0.00073687953030630523 0.011692795342161541 0 0.0011033695449669473 0.011699772407033019 0 0.0021296736513817085 0.0060765902333714348 0 0.0018945875490539461 0.0061743702882299028 0 0.0018701959046045992 0.0059060802191323297 0 0.0024416739158148906 0.0059959649690936164 0 0.0021296736513817085 0.0060765902333714348 0 0.0020369426106841221 0.0055383819008521179 0 0.0021296736513817085 0.0060765902333714348 0 0.0018701959046045992 0.0059060802191323297 0 0.0020369426106841221 0.0055383819008521179 0 0.001619681586494249 0.0056484718583126045 0 0.0018701959046045992 0.0059060802191323297 0 0.0020369426106841221 0.0055383819008521179 0 0.001619681586494249 0.0056484718583126045 0 0.0018701959046045992 0.0059060802191323297 0 0.0016448610610362161 0.006064639855842005 0 0.0017388518988513781 0.0063428280959900484 0 0.0018945875490539461 0.0061743702882299028 0 0.0016448610610362161 0.006064639855842005 0 0.0018945875490539461 0.0061743702882299028 0 0.0018701959046045992 0.0059060802191323297 0 0.0016448610610362161 0.006064639855842005 0 0.0014440340295580371 0.0062956161101353561 0 0.0016448610610362161 0.006064639855842005 0 0.0012543398059101742 0.0058837827213287777 0 0.001619681586494249 0.0056484718583126045 0 0.0016448610610362161 0.006064639855842005 0 0.0012543398059101742 0.0058837827213287777 0 0.001619681586494249 0.0056484718583126045 0 0.0012543398059101742 0.0058837827213287777 0 0.0012829626876417956 0.0054366193058538398 0 0.001619681586494249 0.0056484718583126045 0 0.0012829626876417956 0.0054366193058538398 0 0.0016148830250067804 0.0050949568006313176 0 0.0012829626876417956 0.0054366193058538398 0 0.0016148830250067804 0.0050949568006313176 0 0.0010578669139907262 0.0050504214406605612 0 0.0014224714730447958 0.0089103303079772628 0 0.0013598833278615165 0.0089901990537890903 0 0.0016148830250067804 0.0050949568006313176 0 0.0010578669139907262 0.0050504214406605612 0 0.0012072692008412763 0.0046857206267956492 0 0.0012465631135205606 0.01269561264696243 0 0.00096321393623907811 0.012746377443886615 0 0.0011273658021862896 0.013008432831520115 0 0.001619681586494249 0.0056484718583126045 0 0.0016148830250067804 0.0050949568006313176 0 0.0020369426106841221 0.0055383819008521179 0 0.0014224714730447958 0.0089103303079772628 0 0.0015280407670171566 0.0086012305037386043 0 0.00095698706416067543 0.012287435485359788 0 0.00096321393623907811 0.012746377443886615 0 0.00062425544592346297 0.012502027460372281 0 0.0012465631135205606 0.01269561264696243 0 0.00095698706416067543 0.012287435485359788 0 0.00096321393623907811 0.012746377443886615 0 0.00075968655192381045 0.013251976546830687 0 0.00080216888267858172 0.013106737908279613 0 0.00080091730774250309 0.01322279419198137 0 0.00096321393623907811 0.012746377443886615 0 0.00062425544592346297 0.012502027460372281 0 0.00080216888267858172 0.013106737908279613 0 0.00070701908673453072 0.013271405025727726 0 0.00077620430706191047 0.012924852523259275 0 0.00032153024141734607 0.0057385729938647084 0 0.00059223928043320492 0.0057300026865036028 0 0.0005662725346991176 0.005458907779306031 0 0.00032153024141734607 0.0057385729938647084 0 0.00030220128233499348 0.0055181490481415107 0 0.0005662725346991176 0.005458907779306031 0 0.00032153024141734607 0.0057385729938647084 0 0.00030220128233499348 0.0055181490481415107 0 9.0566713205939131e-05 0.0055906200768526693 0 0.00030220128233499348 0.0055181490481415107 0 9.0566713205939131e-05 0.0055906200768526693 0 0.00019555146595076324 0.0053170359320582356 0 -8.9901766603748897e-05 0.0053450605188220127 0 -0.00011757314025960378 0.0056510735740368601 0 9.0566713205939131e-05 0.0055906200768526693 0 -0.00011757314025960378 0.0056510735740368601 0 9.0566713205939131e-05 0.0055906200768526693 0 2.9938586714108639e-05 0.0058434555572629884 0 0.00032153024141734607 0.0057385729938647084 0 9.0566713205939131e-05 0.0055906200768526693 0 2.9938586714108639e-05 0.0058434555572629884 0 8.6715872383615934e-05 0.0060835910925249939 0 0.00032153024141734607 0.0057385729938647084 0 2.9938586714108639e-05 0.0058434555572629884 0 -0.00011757314025960378 0.0056510735740368601 0 -0.00014963771013791266 0.0058541073464510778 0 2.9938586714108639e-05 0.0058434555572629884 0 -0.00014963771013791266 0.0058541073464510778 0 -0.00011915359289518521 0.0060349481395528346 0 2.9938586714108639e-05 0.0058434555572629884 0 -0.00011915359289518521 0.0060349481395528346 0 8.6715872383615934e-05 0.0060835910925249939 0 2.9938586714108639e-05 0.0058434555572629884 0 8.6715872383615934e-05 0.0060835910925249939 0 0.00032153024141734607 0.0057385729938647084 0 0.0004047283219180085 0.006037676536865811 0 0.00032153024141734607 0.0057385729938647084 0 0.0004047283219180085 0.006037676536865811 0 0.00059223928043320492 0.0057300026865036028 0 0.0004047283219180085 0.006037676536865811 0 0.0007983692711862546 0.0059550489426987716 0 0.00059223928043320492 0.0057300026865036028 0 0.0010691668165391131 0.0064423038457560051 0 0.0012543398059101742 0.0058837827213287777 0 0.0007983692711862546 0.0059550489426987716 0 0.0012543398059101742 0.0058837827213287777 0 0.0012829626876417956 0.0054366193058538398 0 0.00087218084550176925 0.005469588054822009 0 0.0012543398059101742 0.0058837827213287777 0 0.0007983692711862546 0.0059550489426987716 0 0.00087218084550176925 0.005469588054822009 0 0.0007983692711862546 0.0059550489426987716 0 0.00087218084550176925 0.005469588054822009 0 0.00059223928043320492 0.0057300026865036028 0 0.00087218084550176925 0.005469588054822009 0 0.00059223928043320492 0.0057300026865036028 0 0.0005662725346991176 0.005458907779306031 0 0.00087218084550176925 0.005469588054822009 0 0.0005662725346991176 0.005458907779306031 0 0.00074463303944993407 0.0051894259229605527 0 0.0005662725346991176 0.005458907779306031 0 0.00074463303944993407 0.0051894259229605527 0 0.00048914803372731934 0.0051419716759361642 0 0.00087218084550176925 0.005469588054822009 0 0.00074463303944993407 0.0051894259229605527 0 0.0010578669139907262 0.0050504214406605612 0 0.0012829626876417956 0.0054366193058538398 0 0.00087218084550176925 0.005469588054822009 0 0.0010578669139907262 0.0050504214406605612 0 0.0010578669139907262 0.0050504214406605612 0 0.00074145749365083034 0.004881328730997397 0 0.00091972267364696903 0.0047043637803807171 0 0.00074463303944993407 0.0051894259229605527 0 0.0010578669139907262 0.0050504214406605612 0 0.00074145749365083034 0.004881328730997397 0 0.00074463303944993407 0.0051894259229605527 0 0.00074145749365083034 0.004881328730997397 0 0.00048914803372731934 0.0051419716759361642 0 0.00074145749365083034 0.004881328730997397 0 0.00053039885996998472 0.0047629328764187996 0 0.00048914803372731934 0.0051419716759361642 0 0.00053039885996998472 0.0047629328764187996 0 0.00048914803372731934 0.0051419716759361642 0 0.00017063813084823695 0.0049728569684554672 0 0.00030220128233499348 0.0055181490481415107 0 0.00048914803372731934 0.0051419716759361642 0 0.00019555146595076324 0.0053170359320582356 0 0.00030220128233499348 0.0055181490481415107 0 0.0005662725346991176 0.005458907779306031 0 0.00048914803372731934 0.0051419716759361642 0 0.00048914803372731934 0.0051419716759361642 0 0.00019555146595076324 0.0053170359320582356 0 0.00017063813084823695 0.0049728569684554672 0 -8.9901766603748897e-05 0.0053450605188220127 0 9.0566713205939131e-05 0.0055906200768526693 0 0.00019555146595076324 0.0053170359320582356 0 -8.9901766603748897e-05 0.0053450605188220127 0 0.00019555146595076324 0.0053170359320582356 0 0.00017063813084823695 0.0049728569684554672 0 0.00053039885996998472 0.0047629328764187996 0 0.00017063813084823695 0.0049728569684554672 0 0.00040246436154407186 0.0044613562543490129 0 0.00017063813084823695 0.0049728569684554672 0 0.00040246436154407186 0.0044613562543490129 0 -0.00028442664057444034 0.0046255428631009335 0 0.00040246436154407186 0.0044613562543490129 0 -0.00028442664057444034 0.0046255428631009335 0 -0.00022248144252463603 0.0039308423037175515 0 0.00046190038623821899 0.0037147635514079304 0 3.5711372733496185e-05 0.0030232188689065286 0 -0.00022248144252463603 0.0039308423037175515 0 0.00040246436154407186 0.0044613562543490129 0 0.00046190038623821899 0.0037147635514079304 0 -0.00022248144252463603 0.0039308423037175515 0 0.00046190038623821899 0.0037147635514079304 0 0.000998744676054563 0.0032282051782929148 0 3.5711372733496185e-05 0.0030232188689065286 0 0.000998744676054563 0.0032282051782929148 0 0.0012838039199121018 0.0038820182855860666 0 0.0020588670071778501 0.003270389922645711 0 0.00046190038623821899 0.0037147635514079304 0 0.000998744676054563 0.0032282051782929148 0 0.0012838039199121018 0.0038820182855860666 0 0.00040246436154407186 0.0044613562543490129 0 0.00046190038623821899 0.0037147635514079304 0 0.0012838039199121018 0.0038820182855860666 0 0.00058076042000969287 0.0044680678432178177 0 0.00054456369421466923 0.0045629958435044488 0 0.00070229796217579732 0.004610031585300896 0 0.00040246436154407186 0.0044613562543490129 0 0.00058076042000969287 0.0044680678432178177 0 0.00054456369421466923 0.0045629958435044488 0 0.00040141843346762633 0.0045151286682204158 0 0.0011543681904473541 0.0039678532552203383 0 0.00053039885996998472 0.0047629328764187996 0 0.00040246436154407186 0.0044613562543490129 0 0.00054456369421466923 0.0045629958435044488 0 0.00053039885996998472 0.0047629328764187996 0 0.00054456369421466923 0.0045629958435044488 0 0.00070229796217579732 0.004610031585300896 0 0.00091972267364696903 0.0047043637803807171 0 0.00070229796217579732 0.004610031585300896 0 0.00084802547902261744 0.004356115255099555 0 0.00074145749365083034 0.004881328730997397 0 0.00053039885996998472 0.0047629328764187996 0 0.00070229796217579732 0.004610031585300896 0 0.00074145749365083034 0.004881328730997397 0 0.00091972267364696903 0.0047043637803807171 0 0.00070229796217579732 0.004610031585300896 0 0.0010578669139907262 0.0050504214406605612 0 0.00091972267364696903 0.0047043637803807171 0 0.0012072692008412763 0.0046857206267956492 0 0.00091972267364696903 0.0047043637803807171 0 0.0012072692008412763 0.0046857206267956492 0 0.00084802547902261744 0.004356115255099555 0 0.0013598833278615165 0.0089901990537890903 0 0.0013578371148909481 0.0076852786502903348 0 0.0014479531805144461 0.012947295077954959 0 0.0014616889989373736 0.013159960257286427 0 0.001669389916421552 0.013145565431848321 0 0.0014616889989373736 0.013159960257286427 0 0.001669389916421552 0.013145565431848321 0 0.0016163182232232303 0.013293011188992926 0 0.00058076042000969287 0.0044680678432178177 0 0.00079666949723073799 0.0044038503113807475 0 0.00075139258832916016 0.0043605410071984544 0 0.0010038299136795974 0.003601013318592459 0 0.0013578371148909481 0.0076852786502903348 0 0.00058076042000969287 0.0044680678432178177 0 0.00070229796217579732 0.004610031585300896 0 0.00079666949723073799 0.0044038503113807475 0 0.0013578371148909481 0.0076852786502903348 0 0.00084298374601101571 0.0059138960684489497 0 0.0011543681904473541 0.0039678532552203383 0 0.00084298374601101571 0.0059138960684489497 0 -0.00023805471018419793 0.0077880978937309745 0 -0.00031984804899832045 0.0081772552803916643 0 6.9543248095669871e-05 0.0080889048078664257 0 -0.00023805471018419793 0.0077880978937309745 0 -0.00040777376405113421 0.0079387247562134975 0 -0.00031984804899832045 0.0081772552803916643 0 0.0013578371148909481 0.0076852786502903348 0 0.00065500756707396915 0.010288055049415547 0 0.001174655914872276 0.0069233419255579302 0 0.0019203174523959082 0.0076595991592155804 0 0.00018260227124550853 0.0091285358595346276 0 0.00084298374601101571 0.0059138960684489497 0 0.00065500756707396915 0.010288055049415547 0 0.00065500756707396915 0.010288055049415547 0 0.0011189792768679101 0.012827365010813789 0 0.0014616889989373736 0.013159960257286427 0 0.0016163182232232303 0.013293011188992926 0 0.0013858072170925063 0.013313990900280593 0 0.0016163182232232303 0.013293011188992926 0 0.0013858072170925063 0.013313990900280593 0 0.0014059629286423208 0.013510592630104954 0 0.00065500756707396915 0.010288055049415547 0 0.0005284094938414381 0.011497501942817444 0 0.0017987838904116515 0.011296914169816491 0 0.00077826153301037144 0.012244424792523211 0 0.00059662013918611886 0.012337918974934041 0 0.0017987838904116515 0.011296914169816491 0 0.00077826153301037144 0.012244424792523211 0 0.0011023359740415226 0.012865387455740427 0 -0.00040777376405113421 0.0079387247562134975 0 -0.00060431962009597747 0.0083878716540740708 0 -0.00031984804899832045 0.0081772552803916643 0 0.00098676263806106532 0.012534089888572093 0 0.0005284094938414381 0.011497501942817444 0 0.00077826153301037144 0.012244424792523211 0 0.0011630736894695216 0.01293750351864055 0 0.00064741300799397333 0.01273324444422275 0 -0.00060431962009597747 0.0083878716540740708 0 -0.00031984804899832045 0.0081772552803916643 0 -0.00020009540852561721 0.0084737676003392732 0 -0.00031984804899832045 0.0081772552803916643 0 6.9543248095669871e-05 0.0080889048078664257 0 -0.00020009540852561721 0.0084737676003392732 0 6.9543248095669871e-05 0.0080889048078664257 0 0.00014943704011757049 0.0086121735130377051 0 -0.00020009540852561721 0.0084737676003392732 0 3.5711372733496185e-05 0.0030232188689065286 0 0.0001741241723999245 0.0011736042023066801 0 -0.00066126011956763899 0.0020007332012673936 0 6.9543248095669871e-05 0.0080889048078664257 0 0.00038041329691736419 0.0083850555236695858 0 0.00014943704011757049 0.0086121735130377051 0 3.5711372733496185e-05 0.0030232188689065286 0 0.0011806010228527632 0.0023056024283729559 0 0.0001741241723999245 0.0011736042023066801 0 0.00058379784502065105 0.0051120681219726447 0 0.00038140162014177681 0.0049239026045972099 0 0.000998744676054563 0.0032282051782929148 0 3.5711372733496185e-05 0.0030232188689065286 0 0.0011806010228527632 0.0023056024283729559 0 0.000998744676054563 0.0032282051782929148 0 0.0020588670071778501 0.003270389922645711 0 0.0011806010228527632 0.0023056024283729559 0 0.00084298374601101571 0.0059138960684489497 0 0.00058379784502065105 0.0051120681219726447 0 0.00080216888267858172 0.013106737908279613 0 0.00096283011241490694 0.013259291606812874 0 0.00076715821984678985 0.013286850742542773 0 0.00080216888267858172 0.013106737908279613 0 0.00096283011241490694 0.013259291606812874 0 0.0011273658021862896 0.013008432831520115 0 0.00096321393623907811 0.012746377443886615 0 0.00080216888267858172 0.013106737908279613 0 0.0011273658021862896 0.013008432831520115 0 0.00096283011241490694 0.013259291606812874 0 0.0011273658021862896 0.013008432831520115 0 0.0012622042940915461 0.013196454554843832 0 0.0014479531805144461 0.012947295077954959 0 0.0011273658021862896 0.013008432831520115 0 0.0012622042940915461 0.013196454554843832 0 0.0012465631135205606 0.01269561264696243 0 0.0014479531805144461 0.012947295077954959 0 0.0011273658021862896 0.013008432831520115 0 0.0014616889989373736 0.013159960257286427 0 0.0012622042940915461 0.013196454554843832 0 0.0013858072170925063 0.013313990900280593 0 0.0014479531805144461 0.012947295077954959 0 0.0014616889989373736 0.013159960257286427 0 0.0012622042940915461 0.013196454554843832 0 0.0013858072170925063 0.013313990900280593 0 0.0014059629286423208 0.013510592630104954 0 0.0011859282577658991 0.013414170203643151 0 0.0012622042940915461 0.013196454554843832 0 0.0013858072170925063 0.013313990900280593 0 0.0011859282577658991 0.013414170203643151 0 0.0011189792768679101 0.012827365010813789 0 0.00066144816862832737 0.016098296406433635 0 0.00059662013918611886 0.012337918974934041 0 0.00022952024382786237 0.013071240023536856 0 -0.00074937478382787383 0.013511750241543961 0 0.0014059629286423208 0.013510592630104954 0 0.0011859282577658991 0.013414170203643151 0 0.0011933176006234478 0.013706546075743516 0 0.00077826153301037144 0.012244424792523211 0 0.00059662013918611886 0.012337918974934041 0 0.00064741300799397333 0.01273324444422275 0 0.0011630736894695216 0.01293750351864055 0 0.00064741300799397333 0.01273324444422275 0 0.00022952024382786237 0.013071240023536856 0 0.00059662013918611886 0.012337918974934041 0 0.00064741300799397333 0.01273324444422275 0 0.00022952024382786237 0.013071240023536856 0 0.0011859282577658991 0.013414170203643151 0 0.00092876229547548855 0.013483778014625091 0 0.0011933176006234478 0.013706546075743516 0 0.00096283011241490694 0.013259291606812874 0 0.0012622042940915461 0.013196454554843832 0 0.0011859282577658991 0.013414170203643151 0 0.00096283011241490694 0.013259291606812874 0 0.0011859282577658991 0.013414170203643151 0 0.00092876229547548855 0.013483778014625091 0 0.0012313502693362022 0.019810708046161085 0 0.0011978462430984247 0.019204901166473675 0 0.00039666488129110034 0.019199391171368433 0 0.0011253840376688022 0.016707355628527664 0 0.00066144816862832737 0.016098296406433635 0 0.0012313502693362022 0.019810708046161085 0 0.0021735344329930225 0.019825685894633582 0 0.001846491313352351 0.019213469799823624 0 0.0012313502693362022 0.019810708046161085 0 0.0011978462430984247 0.019204901166473675 0 0.001846491313352351 0.019213469799823624 0 0.0012313502693362022 0.019810708046161085 0 0.0021652795737706894 0.020284614861928681 0 0.0021735344329930225 0.019825685894633582 0 0.00096283011241490694 0.013259291606812874 0 0.00092876229547548855 0.013483778014625091 0 0.00076715821984678985 0.013286850742542773 0 0.0011253840376688022 0.016707355628527664 0 0.0014534813340540556 0.016775659630818032 0 0.0017364308302962007 0.018153978230360645 0 0.00082550900183907163 0.01829747722657132 0 0.0016578721927251023 0.018335972041509479 0 0.0015111070367609762 0.018845679840197055 0 0.00097805960280200306 0.018735437115235096 0 0.0017028056236765914 0.017960964078781984 0 0.0011213644827619963 0.018232414997621314 0 0.0015312688678527807 0.017910869765443694 0 0.0016578721927251023 0.018335972041509479 0 0.0015111070367609762 0.018845679840197055 0 0.001894523525346634 0.018691457033247299 0 0.0015111070367609762 0.018845679840197055 0 0.0011978462430984247 0.019204901166473675 0 0.001846491313352351 0.019213469799823624 0 0.0015111070367609762 0.018845679840197055 0 0.001846491313352351 0.019213469799823624 0 0.001894523525346634 0.018691457033247299 0 0.0015111070367609762 0.018845679840197055 0 0.0011978462430984247 0.019204901166473675 0 0.00097805960280200306 0.018735437115235096 0 0.0011978462430984247 0.019204901166473675 0 0.00097805960280200306 0.018735437115235096 0 0.00039666488129110034 0.019199391171368433 0 0.00082550900183907163 0.01829747722657132 0 0.0015904573331384743 0.017859723909963546 0 0.0011549011249382235 0.018140576352352247 0 0.0012793583669264176 0.017809425025875521 0 0.0015312688678527807 0.017910869765443694 0 0.0011549011249382235 0.018140576352352247 0 0.0010312533710362755 0.01786724010928584 0 0.0012793583669264176 0.017809425025875521 0 0.00079314009393417892 0.017995747607751127 0 0.00062432323091018668 0.018380719033371271 0 0.00055620298375285641 0.018005974207709604 0 0.0011549011249382235 0.018140576352352247 0 0.00079314009393417892 0.017995747607751127 0 0.00062432323091018668 0.018380719033371271 0 0.0011549011249382235 0.018140576352352247 0 0.0010312533710362755 0.01786724010928584 0 0.00079314009393417892 0.017995747607751127 0 0.0010312533710362755 0.01786724010928584 0 0.00079314009393417892 0.017995747607751127 0 0.00081037295440837315 0.017710232664763598 0 0.00023701457290689073 0.017275155069558876 0 0.00083744993484838196 0.016739272050678829 0 0.00098817636601640935 0.016847289079572208 0 0.00082550900183907163 0.01829747722657132 0 0.00027679759861596134 0.015937681981801375 0 0.00082550900183907163 0.01829747722657132 0 0.00066144816862832737 0.016098296406433635 0 0.00066144816862832737 0.016098296406433635 0 0.00027679759861596134 0.015937681981801375 0 0.0012109174208312101 0.013405466749044795 0 0.00054649116643693311 0.014054917493004261 0 0.00045663140197221001 0.015099447047970066 0 0.0005284094938414381 0.011497501942817444 0 0.00027679759861596134 0.015937681981801375 0 0.00027679759861596134 0.015937681981801375 0 0.000165606296123147 0.015670149114898214 0 0.0011630736894695216 0.01293750351864055 0 0.00022952024382786237 0.013071240023536856 0 -0.00040868440304852319 0.013755166309649703 0 0.0012109174208312101 0.013405466749044795 0 -0.00061149323104735893 0.014328749896175776 0 0.00054649116643693311 0.014054917493004261 0 0.00062432323091018668 0.018380719033371271 0 0.00033562995832287819 0.018171093704908933 0 0.00038014274496976961 0.018076853161046288 0 0.00022952024382786237 0.013071240023536856 0 -0.00074937478382787383 0.013511750241543961 0 -0.00040868440304852319 0.013755166309649703 0 -0.00061149323104735893 0.014328749896175776 0 0.00054649116643693311 0.014054917493004261 0 0.00045663140197221001 0.015099447047970066 0 0.00062432323091018668 0.018380719033371271 0 0.00038014274496976961 0.018076853161046288 0 0.00055620298375285641 0.018005974207709604 0 0.000165606296123147 0.015670149114898214 0 -0.00010427432084775876 0.016781112094056892 0 0.00079314009393417892 0.017995747607751127 0 0.00055620298375285641 0.018005974207709604 0 0.00053760356585617561 0.017800469702172257 0 0.00055620298375285641 0.018005974207709604 0 0.00042897087280561471 0.017926569411702377 0 0.00053760356585617561 0.017800469702172257 0 0.00038014274496976961 0.018076853161046288 0 0.00055620298375285641 0.018005974207709604 0 0.00042897087280561471 0.017926569411702377 0 0.00038014274496976961 0.018076853161046288 0 0.00042897087280561471 0.017926569411702377 0 0.00024094811254692927 0.0178221763425973 0 0.00042897087280561471 0.017926569411702377 0 0.00053760356585617561 0.017800469702172257 0 0.00024094811254692927 0.0178221763425973 0 0.00053760356585617561 0.017800469702172257 0 0.00035847710032460258 0.017541452302910317 0 0.00024094811254692927 0.0178221763425973 0 0.00053760356585617561 0.017800469702172257 0 0.00058568175715686889 0.017587044901802698 0 0.00035847710032460258 0.017541452302910317 0 0.00058568175715686889 0.017587044901802698 0 0.00035847710032460258 0.017541452302910317 0 0.00053262910114860638 0.01733197326826183 0 0.00058568175715686889 0.017587044901802698 0 0.00053262910114860638 0.01733197326826183 0 0.0007271853629941974 0.017441519111229258 0 0.00035847710032460258 0.017541452302910317 0 0.00026221559363268852 0.017265090459879794 0 0.00053262910114860638 0.01733197326826183 0 0.00026221559363268852 0.017265090459879794 0 0.00042155487473439937 0.017074171857254895 0 0.00053262910114860638 0.01733197326826183 0 0.00026221559363268852 0.017265090459879794 0 0.00042155487473439937 0.017074171857254895 0 0.00014765320523046986 0.016960567812010829 0 0.00042155487473439937 0.017074171857254895 0 0.0005953893959848598 0.017153687024848752 0 0.00053262910114860638 0.01733197326826183 0 0.00042155487473439937 0.017074171857254895 0 0.0005953893959848598 0.017153687024848752 0 0.00064943519291350263 0.016974122312772295 0 0.00053262910114860638 0.01733197326826183 0 0.0007271853629941974 0.017441519111229258 0 0.0007778466963866492 0.01723401615138179 0 0.0005953893959848598 0.017153687024848752 0 0.0007778466963866492 0.01723401615138179 0 0.00064943519291350263 0.016974122312772295 0 0.0005953893959848598 0.017153687024848752 0 0.00053262910114860638 0.01733197326826183 0 0.0007778466963866492 0.01723401615138179 0 0.0007778466963866492 0.01723401615138179 0 0.00090519631208065194 0.017013266978182052 0 0.00064943519291350263 0.016974122312772295 0 0.0007778466963866492 0.01723401615138179 0 0.0010595484336346028 0.017220739412690134 0 0.00090519631208065194 0.017013266978182052 0 0.0007778466963866492 0.01723401615138179 0 0.00097892980039962019 0.01744383666387837 0 0.0010595484336346028 0.017220739412690134 0 0.0007271853629941974 0.017441519111229258 0 0.0007778466963866492 0.01723401615138179 0 0.00097892980039962019 0.01744383666387837 0 0.0007271853629941974 0.017441519111229258 0 0.00097892980039962019 0.01744383666387837 0 0.00081037295440837315 0.017710232664763598 0 0.00097892980039962019 0.01744383666387837 0 0.00081037295440837315 0.017710232664763598 0 0.0011108565898761674 0.017670003008034039 0 0.00058568175715686889 0.017587044901802698 0 0.0007271853629941974 0.017441519111229258 0 0.00081037295440837315 0.017710232664763598 0 0.00079314009393417892 0.017995747607751127 0 0.00053760356585617561 0.017800469702172257 0 0.00081037295440837315 0.017710232664763598 0 0.00053760356585617561 0.017800469702172257 0 0.00058568175715686889 0.017587044901802698 0 0.00081037295440837315 0.017710232664763598 0 0.0010312533710362755 0.01786724010928584 0 0.00081037295440837315 0.017710232664763598 0 0.0011108565898761674 0.017670003008034039 0 0.0010312533710362755 0.01786724010928584 0 0.0012793583669264176 0.017809425025875521 0 0.0011108565898761674 0.017670003008034039 0 0.0012793583669264176 0.017809425025875521 0 0.0013334865773667924 0.017628941127410012 0 0.0014530227981247208 0.017743824624846374 0 0.0013334865773667924 0.017628941127410012 0 0.0011915009454857113 0.017509007971145626 0 0.0014020534486776815 0.017434078332113252 0 0.0013334865773667924 0.017628941127410012 0 0.0011108565898761674 0.017670003008034039 0 0.0011915009454857113 0.017509007971145626 0 0.0012793583669264176 0.017809425025875521 0 0.0013334865773667924 0.017628941127410012 0 0.0011108565898761674 0.017670003008034039 0 0.00097892980039962019 0.01744383666387837 0 0.0011108565898761674 0.017670003008034039 0 0.0011915009454857113 0.017509007971145626 0 0.00097892980039962019 0.01744383666387837 0 0.0011915009454857113 0.017509007971145626 0 0.0012049191697978414 0.017341693311145243 0 0.00097892980039962019 0.01744383666387837 0 0.0012049191697978414 0.017341693311145243 0 0.0010595484336346028 0.017220739412690134 0 0.0012049191697978414 0.017341693311145243 0 0.0010595484336346028 0.017220739412690134 0 0.0013394025408842952 0.017219794009621411 0 0.0010595484336346028 0.017220739412690134 0 0.0013394025408842952 0.017219794009621411 0 0.0011889158859580112 0.01699950348834614 0 0.0012049191697978414 0.017341693311145243 0 0.0013394025408842952 0.017219794009621411 0 0.0014020534486776815 0.017434078332113252 0 0.0011915009454857113 0.017509007971145626 0 0.0012049191697978414 0.017341693311145243 0 0.0014020534486776815 0.017434078332113252 0 0.0014020534486776815 0.017434078332113252 0 0.0016272635818678301 0.017458055099118523 0 0.0015063205593277128 0.017617604152188757 0 0.0014020534486776815 0.017434078332113252 0 0.001611508517031651 0.017246053190518723 0 0.0016272635818678301 0.017458055099118523 0 0.0013394025408842952 0.017219794009621411 0 0.0014020534486776815 0.017434078332113252 0 0.001611508517031651 0.017246053190518723 0 0.001611508517031651 0.017246053190518723 0 0.001815027871935374 0.01736538135819593 0 0.0018958501379962986 0.017125490732482908 0 0.0016272635818678301 0.017458055099118523 0 0.0018218667852432614 0.01762424230701282 0 0.001815027871935374 0.01736538135819593 0 0.001611508517031651 0.017246053190518723 0 0.0016272635818678301 0.017458055099118523 0 0.001815027871935374 0.01736538135819593 0 0.0016435523176880993 0.017612804970980608 0 0.0016206017479040301 0.017748839707380389 0 0.0018218667852432614 0.01762424230701282 0 0.0016272635818678301 0.017458055099118523 0 0.0016435523176880993 0.017612804970980608 0 0.0018218667852432614 0.01762424230701282 0 0.0013334865773667924 0.017628941127410012 0 0.0014020534486776815 0.017434078332113252 0 0.0015063205593277128 0.017617604152188757 0 0.0016272635818678301 0.017458055099118523 0 0.0016435523176880993 0.017612804970980608 0 0.0015063205593277128 0.017617604152188757 0 0.0013334865773667924 0.017628941127410012 0 0.0015063205593277128 0.017617604152188757 0 0.0014530227981247208 0.017743824624846374 0 0.0016435523176880993 0.017612804970980608 0 0.0015063205593277128 0.017617604152188757 0 0.0016206017479040301 0.017748839707380389 0 0.0015063205593277128 0.017617604152188757 0 0.0014530227981247208 0.017743824624846374 0 0.0016206017479040301 0.017748839707380389 0 0.0012793583669264176 0.017809425025875521 0 0.0014530227981247208 0.017743824624846374 0 0.0015312688678527807 0.017910869765443694 0 0.0014530227981247208 0.017743824624846374 0 0.0015312688678527807 0.017910869765443694 0 0.0016206017479040301 0.017748839707380389 0 0.0017028056236765914 0.017960964078781984 0 0.0016206017479040301 0.017748839707380389 0 0.0018218667852432614 0.01762424230701282 0 0.0017028056236765914 0.017960964078781984 0 0.0015312688678527807 0.017910869765443694 0 0.0016206017479040301 0.017748839707380389 0 0.00017471397625690868 0.0088277479620519923 0 -3.4789768307013471e-05 0.008775512393146145 0 7.0048112899479063e-05 0.0089806960296582479 0 0.00017471397625690868 0.0088277479620519923 0 -3.4789768307013471e-05 0.008775512393146145 0 0.00014943704011757049 0.0086121735130377051 0 -3.4789768307013471e-05 0.008775512393146145 0 -8.8003347679327918e-05 0.0089959352450579167 0 7.0048112899479063e-05 0.0089806960296582479 0 0.00017471397625690868 0.0088277479620519923 0 7.0048112899479063e-05 0.0089806960296582479 0 0.000242706966124582 0.0089702467012318498 0 0.000242706966124582 0.0089702467012318498 0 0.00027057546032650701 0.008867124285798441 0 0.00038549058254775325 0.0088901145904176949 0 0.00027057546032650701 0.008867124285798441 0 0.00038549058254775325 0.0088901145904176949 0 0.00027926966611384059 0.0087809242909783949 0 0.00017471397625690868 0.0088277479620519923 0 0.000242706966124582 0.0089702467012318498 0 0.00027057546032650701 0.008867124285798441 0 0.000242706966124582 0.0089702467012318498 0 0.00045199927272082842 0.0089318271258800163 0 0.00038549058254775325 0.0088901145904176949 0 0.00044420273602937941 0.008920548243197898 0 0.00038549058254775325 0.0088901145904176949 0 0.00039561701095418538 0.0087078604335600832 0 -8.8419950185691462e-05 0.0076736185588490453 0 0.00022355555010018555 0.007979310507627695 0 0.00039561701095418538 0.0087078604335600832 0 0.00027926966611384059 0.0087809242909783949 0 0.00014943704011757049 0.0086121735130377051 0 0.00038549058254775325 0.0088901145904176949 0 0.00039561701095418538 0.0087078604335600832 0 0.00027926966611384059 0.0087809242909783949 0 0.00017471397625690868 0.0088277479620519923 0 0.00027926966611384059 0.0087809242909783949 0 0.00014943704011757049 0.0086121735130377051 0 0.00017471397625690868 0.0088277479620519923 0 0.00027057546032650701 0.008867124285798441 0 0.00027926966611384059 0.0087809242909783949 0 0.00039561701095418538 0.0087078604335600832 0 0.00038041329691736419 0.0083850555236695858 0 0.00014943704011757049 0.0086121735130377051 0 0.00039561701095418538 0.0087078604335600832 0 0.00038041329691736419 0.0083850555236695858 0 0.00069195536128770501 0.0086732515269961653 0 -3.4789768307013471e-05 0.008775512393146145 0 0.00014943704011757049 0.0086121735130377051 0 -0.00020009540852561721 0.0084737676003392732 0 -3.4789768307013471e-05 0.008775512393146145 0 -0.00020009540852561721 0.0084737676003392732 0 -0.00041159530492815115 0.0087645104848639594 0 0.0005284094938414381 0.011497501942817444 0 -0.00032148739962299959 0.010338985113858935 0 -0.00060431962009597747 0.0083878716540740708 0 -0.00020009540852561721 0.0084737676003392732 0 -0.00041159530492815115 0.0087645104848639594 0 0.0005284094938414381 0.011497501942817444 0 0.000165606296123147 0.015670149114898214 0 -1.3065077984783604e-06 0.012614294575592044 0 -0.00016478204228385836 0.012991257287745422 0 0.00018807646634833925 0.0130029094808808 0 0.00038014274496976961 0.018076853161046288 0 -3.8049854241366216e-05 0.017904858224426324 0 0.00024094811254692927 0.0178221763425973 0 -0.00016478204228385836 0.012991257287745422 0 0.00018807646634833925 0.0130029094808808 0 0.00010859180887468 0.013182632315937129 0 0.00033326685185719565 0.01817509121317502 0 0.00038014274496976961 0.018076853161046288 0 -3.8049854241366216e-05 0.017904858224426324 0 0.000165606296123147 0.015670149114898214 0 0.00020434200058098864 0.015691967549505845 0 -3.4789768307013471e-05 0.008775512393146145 0 -8.8003347679327918e-05 0.0089959352450579167 0 -0.00041159530492815115 0.0087645104848639594 0 -0.00032148739962299959 0.010338985113858935 0 -0.00017806493860268645 0.013278074252605097 0 0.00018807646634833925 0.0130029094808808 0 0.00010859180887468 0.013182632315937129 0 0.00036038573718898104 0.013374382130663639 0 -8.8003347679327918e-05 0.0089959352450579167 0 -0.00041159530492815115 0.0087645104848639594 0 -0.00021757175252142146 0.0091711230328826929 0 -3.8049854241366216e-05 0.017904858224426324 0 -0.0004193143048934731 0.017615871174790763 0 -9.5622043209213795e-05 0.017639858530423727 0 0.00020434200058098864 0.015691967549505845 0 -0.00017806493860268645 0.013278074252605097 0 -0.0004193143048934731 0.017615871174790763 0 -0.00017670805476105081 0.01739824234922575 0 -9.5622043209213795e-05 0.017639858530423727 0 -0.0004193143048934731 0.017615871174790763 0 -0.00017670805476105081 0.01739824234922575 0 -0.000371636941950022 0.01731773213557293 0 -0.0004193143048934731 0.017615871174790763 0 -0.000371636941950022 0.01731773213557293 0 -0.00059948882189920236 0.017270588903734646 0 -0.00017806493860268645 0.013278074252605097 0 -0.00070405994281787536 0.016181929640042576 0 0.00035847710032460258 0.017541452302910317 0 0.00024094811254692927 0.0178221763425973 0 9.9481364282929158e-05 0.017475666094167248 0 0.00024094811254692927 0.0178221763425973 0 -9.5622043209213795e-05 0.017639858530423727 0 9.9481364282929158e-05 0.017475666094167248 0 -3.8049854241366216e-05 0.017904858224426324 0 0.00024094811254692927 0.0178221763425973 0 -9.5622043209213795e-05 0.017639858530423727 0 -0.00017670805476105081 0.01739824234922575 0 -9.5622043209213795e-05 0.017639858530423727 0 9.9481364282929158e-05 0.017475666094167248 0 0.00035847710032460258 0.017541452302910317 0 0.00026221559363268852 0.017265090459879794 0 9.9481364282929158e-05 0.017475666094167248 0 0.00026221559363268852 0.017265090459879794 0 9.9481364282929158e-05 0.017475666094167248 0 1.1599461147453798e-06 0.017182054590769658 0 -0.00017670805476105081 0.01739824234922575 0 1.1599461147453798e-06 0.017182054590769658 0 -0.00022596030031287744 0.017153831194039678 0 -0.00017670805476105081 0.01739824234922575 0 9.9481364282929158e-05 0.017475666094167248 0 1.1599461147453798e-06 0.017182054590769658 0 1.1599461147453798e-06 0.017182054590769658 0 -0.00022276411793293769 0.016932248911411211 0 0.00014765320523046986 0.016960567812010829 0 1.1599461147453798e-06 0.017182054590769658 0 -0.00022596030031287744 0.017153831194039678 0 -0.00022276411793293769 0.016932248911411211 0 0.00026221559363268852 0.017265090459879794 0 1.1599461147453798e-06 0.017182054590769658 0 0.00014765320523046986 0.016960567812010829 0 -0.000371636941950022 0.01731773213557293 0 -0.00044830440618513718 0.017146807211722945 0 -0.00059948882189920236 0.017270588903734646 0 -0.00080415448345390707 0.016688969939737886 0 -0.00070405994281787536 0.016181929640042576 0 -0.000371636941950022 0.01731773213557293 0 -0.00044830440618513718 0.017146807211722945 0 -0.00022596030031287744 0.017153831194039678 0 -0.00017670805476105081 0.01739824234922575 0 -0.000371636941950022 0.01731773213557293 0 -0.00022596030031287744 0.017153831194039678 0 -0.00044830440618513718 0.017146807211722945 0 -0.00022596030031287744 0.017153831194039678 0 -0.00022276411793293769 0.016932248911411211 0 -0.00044830440618513718 0.017146807211722945 0 -0.00048057076196002496 0.01688469006081662 0 -0.00022276411793293769 0.016932248911411211 0 -0.00044830440618513718 0.017146807211722945 0 -0.00068210348789441734 0.017007007156034894 0 -0.00048057076196002496 0.01688469006081662 0 -0.00068210348789441734 0.017007007156034894 0 -0.00069757240588290415 0.017260070271341469 0 -0.0012299239527243588 0.016871920095410723 0 -0.00026594898441009701 0.0096015117940590096 0 9.9217852767973771e-05 0.0093271767782031022 0 -0.00028188311565813435 0.0090312589246395302 0 -0.00068210348789441734 0.017007007156034894 0 -0.00059113819852630548 0.017172232864644459 0 -0.00069757240588290415 0.017260070271341469 0 -0.00044830440618513718 0.017146807211722945 0 -0.00068210348789441734 0.017007007156034894 0 -0.00058066935261204939 0.017245262256523231 0 -0.00048462903315939996 0.017037606823288039 0 -0.00070405994281787536 0.016181929640042576 0 -0.00070405994281787536 0.016181929640042576 0 -2.4835369672217168e-06 0.012049359173217066 0 -8.8003347679327918e-05 0.0089959352450579167 0 7.0048112899479063e-05 0.0089806960296582479 0 2.0085722489503671e-05 0.0093486894563732242 0 7.0048112899479063e-05 0.0089806960296582479 0 0.000242706966124582 0.0089702467012318498 0 2.0085722489503671e-05 0.0093486894563732242 0 -0.00017806493860268645 0.013278074252605097 0 -2.4835369672217168e-06 0.012049359173217066 0 -8.8003347679327918e-05 0.0089959352450579167 0 -0.00021757175252142146 0.0091711230328826929 0 2.0085722489503671e-05 0.0093486894563732242 0 -0.00029658636213376947 0.013457631493407641 0 -0.00022605317483695355 0.013605059141341878 0 -0.00016824484289766414 0.013553222411224459 0 0.000242706966124582 0.0089702467012318498 0 0.00045199927272082842 0.0089318271258800163 0 2.0085722489503671e-05 0.0093486894563732242 0 -8.8419950185691462e-05 0.0076736185588490453 0 -2.4835369672217168e-06 0.012049359173217066 0 -2.4835369672217168e-06 0.012049359173217066 0 -0.00076424785420958232 0.013120728941293161 0 -0.00026594898441009701 0.0096015117940590096 0 -0.00063152674038335107 0.00937618752869036 0 -0.00028188311565813435 0.0090312589246395302 0 -0.00069773346279188746 0.0090339207186329734 0 -0.00063152674038335107 0.00937618752869036 0 -0.00028188311565813435 0.0090312589246395302 0 -0.00072669391281939531 0.0072039632399140754 0 -0.00089980890955739358 0.0073961058444989005 0 -0.00069773346279188746 0.0090339207186329734 0 -0.00063152674038335107 0.00937618752869036 0 -0.0010176428815773541 0.0091352491779361604 0 -0.00077630233627670677 0.0052785479104007129 0 -0.0006616716104115611 0.005193944167389929 0 -0.00093228974990131486 0.0050252084394088962 0 -8.8419950185691462e-05 0.0076736185588490453 0 -0.00072669391281939531 0.0072039632399140754 0 -0.0003909753060600593 0.0053670468291756529 0 -0.0006616716104115611 0.005193944167389929 0 -0.0005617621740956571 0.0054919239218741995 0 0.00044420273602937941 0.008920548243197898 0 0.00039561701095418538 0.0087078604335600832 0 0.00069195536128770501 0.0086732515269961653 0 -8.8419950185691462e-05 0.0076736185588490453 0 -0.00051240877704005806 0.0038862603452803168 0 -0.00077630233627670677 0.0052785479104007129 0 -0.0006616716104115611 0.005193944167389929 0 -0.0005617621740956571 0.0054919239218741995 0 -0.0010088089070675328 0.0029418824476532155 0 -0.00051240877704005806 0.0038862603452803168 0 -0.0010750801076438085 0.00081844002313794146 0 -0.0012143196854466204 0.00066628372355685272 0 -0.00098872459552678464 0.00064750842106521523 0 -0.00086103288614758572 0.0003776242817639639 0 -0.001423371025335927 0.0010649235382594608 0 -0.0013706468723408405 0.0011368729182793037 0 -0.0012143196854466204 0.00066628372355685272 0 -0.001032441616579609 0.00050531123818988919 0 -0.00098872459552678464 0.00064750842106521523 0 -0.00051240877704005806 0.0038862603452803168 0 -0.0010616191016140904 0.00033787767123537034 0 0.0001741241723999245 0.0011736042023066801 0 -0.00086103288614758572 0.0003776242817639639 0 -0.00065632556726379716 0.0011701153916590006 0 -0.00086103288614758572 0.0003776242817639639 0 -0.00065632556726379716 0.0011701153916590006 0 -0.0013706468723408405 0.0011368729182793037 0 0.00038140162014177681 0.0049239026045972099 0 -0.00051240877704005806 0.0038862603452803168 0 -0.00077154829235605261 0.00043291530660849735 0 -0.00089449007626885165 0.00050963320785073402 0 -0.0007937915392360888 0.00060698672132908284 0 -0.001032441616579609 0.00050531123818988919 0 -0.00089449007626885165 0.00050963320785073402 0 -0.00098872459552678464 0.00064750842106521523 0 -0.00089449007626885165 0.00050963320785073402 0 -0.00098872459552678464 0.00064750842106521523 0 -0.0007937915392360888 0.00060698672132908284 0 -0.0010750801076438085 0.00081844002313794146 0 -0.00098872459552678464 0.00064750842106521523 0 -0.00091361369176309437 0.00079936522939213085 0 -0.00098872459552678464 0.00064750842106521523 0 -0.0007937915392360888 0.00060698672132908284 0 -0.00091361369176309437 0.00079936522939213085 0 -0.0007937915392360888 0.00060698672132908284 0 -0.0007257045991747842 0.00091977879818094679 0 -0.00059521239316825665 0.0006857381060995975 0 -0.0007937915392360888 0.00060698672132908284 0 -0.0007257045991747842 0.00091977879818094679 0 -0.00091361369176309437 0.00079936522939213085 0 -0.0007257045991747842 0.00091977879818094679 0 -0.00091361369176309437 0.00079936522939213085 0 -0.00094405489648812868 0.0010347596766714889 0 -0.0010088089070675328 0.0029418824476532155 0 -0.001015694819563218 0.0028776825871952411 0 -0.0010750801076438085 0.00081844002313794146 0 -0.00091361369176309437 0.00079936522939213085 0 -0.00094405489648812868 0.0010347596766714889 0 -0.00077630233627670677 0.0052785479104007129 0 -0.00098929228501731564 0.0050680695331985059 0 -0.00093228974990131486 0.0050252084394088962 0 -0.0007257045991747842 0.00091977879818094679 0 -0.00094405489648812868 0.0010347596766714889 0 -0.00074910590413670595 0.0013309167633979973 0 -0.001015694819563218 0.0028776825871952411 0 -0.0010085758088620824 0.004465970060512095 0 -0.00089980890955739358 0.0073961058444989005 0 -0.0010085758088620824 0.004465970060512095 0 -0.00098929228501731564 0.0050680695331985059 0 -0.00093228974990131486 0.0050252084394088962 0 -0.0012016471337891544 0.0048567953886365168 0 -0.0007257045991747842 0.00091977879818094679 0 -0.00059641089181543402 0.0011495860826030836 0 -0.00041117919165540109 0.0009697277724856169 0 -0.00059641089181543402 0.0011495860826030836 0 -0.00059211912812542444 0.0013054862601827389 0 -0.00074910590413670595 0.0013309167633979973 0 -0.0007257045991747842 0.00091977879818094679 0 -0.00059641089181543402 0.0011495860826030836 0 -0.00074910590413670595 0.0013309167633979973 0 -0.00059641089181543402 0.0011495860826030836 0 -0.00040386459913835208 0.0012954054901733799 0 -0.00059211912812542444 0.0013054862601827389 0 -0.00041117919165540109 0.0009697277724856169 0 -7.9322358369821432e-05 0.0013317862577982024 0 -0.00040386459913835208 0.0012954054901733799 0 -0.00059641089181543402 0.0011495860826030836 0 -0.00041117919165540109 0.0009697277724856169 0 -0.00040386459913835208 0.0012954054901733799 0 -0.00041117919165540109 0.0009697277724856169 0 -0.00059521239316825665 0.0006857381060995975 0 -0.00033292084043071938 0.0006872155369734114 0 -0.00041117919165540109 0.0009697277724856169 0 -1.5894637981630135e-05 0.00081330295158036129 0 -0.00033292084043071938 0.0006872155369734114 0 -0.0007257045991747842 0.00091977879818094679 0 -0.00041117919165540109 0.0009697277724856169 0 -0.00059521239316825665 0.0006857381060995975 0 0.00035361028823327294 0.0010635088748669659 0 0.00028893564213903897 0.00084705270996488771 0 0.00014025328478673875 0.0010419657861580746 0 0.00014025328478673875 0.0010419657861580746 0 -1.5894637981630135e-05 0.00081330295158036129 0 -0.00010269043592970447 0.0011769372733514106 0 -4.4295918270642083e-05 0.00093837540789826494 0 -2.2208691217434823e-05 0.001022545052585048 0 -0.00041117919165540109 0.0009697277724856169 0 -1.5894637981630135e-05 0.00081330295158036129 0 -7.9322358369821432e-05 0.0013317862577982024 0 0.00028893564213903897 0.00084705270996488771 0 -1.5894637981630135e-05 0.00081330295158036129 0 0.00029722484080679866 0.00056516063685366983 0 0.00028893564213903897 0.00084705270996488771 0 0.00014025328478673875 0.0010419657861580746 0 -1.5894637981630135e-05 0.00081330295158036129 0 -1.5894637981630135e-05 0.00081330295158036129 0 0.00029722484080679866 0.00056516063685366983 0 1.5239231810377159e-05 0.00046411267405885965 0 0.00029722484080679866 0.00056516063685366983 0 1.5239231810377159e-05 0.00046411267405885965 0 0.00020165900109355437 0.00016523313702306903 0 1.5239231810377159e-05 0.00046411267405885965 0 -0.00033292084043071938 0.0006872155369734114 0 -0.0002710996725341388 0.00041940925755000447 0 -1.5894637981630135e-05 0.00081330295158036129 0 1.5239231810377159e-05 0.00046411267405885965 0 -0.00033292084043071938 0.0006872155369734114 0 1.5239231810377159e-05 0.00046411267405885965 0 -0.00019738854361446424 0.00012751632444851923 0 0.00020165900109355437 0.00016523313702306903 0 1.5239231810377159e-05 0.00046411267405885965 0 -0.00019738854361446424 0.00012751632444851923 0 -0.0002710996725341388 0.00041940925755000447 0 -0.00019738854361446424 0.00012751632444851923 0 0.00020165900109355437 0.00016523313702306903 0 6.9230290606261114e-05 -0.00026293009380953407 0 0.00052432251423836806 0.00021608956116595757 0 0.00020165900109355437 0.00016523313702306903 0 0.00034131682725315387 -0.00029239864764708074 0 -0.0007937915392360888 0.00060698672132908284 0 -0.00059521239316825665 0.0006857381060995975 0 -0.00052682763385455717 0.00038828308034860701 0 -0.00033292084043071938 0.0006872155369734114 0 -0.0002710996725341388 0.00041940925755000447 0 -0.00052682763385455717 0.00038828308034860701 0 -0.00059521239316825665 0.0006857381060995975 0 -0.00033292084043071938 0.0006872155369734114 0 -0.00052682763385455717 0.00038828308034860701 0 -0.00019738854361446424 0.00012751632444851923 0 -0.0002710996725341388 0.00041940925755000447 0 -0.00052682763385455717 0.00038828308034860701 0 -0.00077154829235605261 0.00043291530660849735 0 -0.0007937915392360888 0.00060698672132908284 0 -0.00052682763385455717 0.00038828308034860701 0 -0.00077154829235605261 0.00043291530660849735 0 -0.00052682763385455717 0.00038828308034860701 0 -0.00065986813598619234 0.00021967641654685254 0 -0.00052682763385455717 0.00038828308034860701 0 -0.00065986813598619234 0.00021967641654685254 0 -0.00036988044886467004 4.3179224245606345e-05 0 -0.00041828152618895862 -0.00038772410527560891 0 -0.00028293687929882241 -0.00036186679310091477 0 -0.00019738854361446424 0.00012751632444851923 0 -0.00052682763385455717 0.00038828308034860701 0 -0.00036988044886467004 4.3179224245606345e-05 0 -0.00021210773051873736 -0.0010285292011663165 0 -0.00030153119208668251 -0.00079076885407991754 0 -0.00026707600131685493 -0.00099024297732234427 0 -0.00021210773051873736 -0.0010285292011663165 0 -0.00018744784423200365 -0.00098597476159916083 0 -0.00026707600131685493 -0.00099024297732234427 0 -0.00021210773051873736 -0.0010285292011663165 0 -0.00018744784423200365 -0.00098597476159916083 0 -6.6554473329630902e-05 -0.0010220002120175076 0 0.00034131682725315387 -0.00029239864764708074 0 6.9230290606261114e-05 -0.00026293009380953407 0 -6.8332401929675491e-05 -0.00097947423659361051 0 0.00020165900109355437 0.00016523313702306903 0 0.00034131682725315387 -0.00029239864764708074 0 6.9230290606261114e-05 -0.00026293009380953407 0 -0.00019738854361446424 0.00012751632444851923 0 -0.00036988044886467004 4.3179224245606345e-05 0 6.9230290606261114e-05 -0.00026293009380953407 0 -0.00028293687929882241 -0.00036186679310091477 0 8.4902358860486731e-05 -0.00026966297934482024 0 -0.00030153119208668251 -0.00079076885407991754 0 6.9230290606261114e-05 -0.00026293009380953407 0 -6.8332401929675491e-05 -0.00097947423659361051 0 -0.00030153119208668251 -0.00079076885407991754 0 -6.8332401929675491e-05 -0.00097947423659361051 0 -0.00026707600131685493 -0.00099024297732234427 0 -1.4430704019168401e-05 -0.001094430162362563 0 -3.5244762167027417e-05 -0.0010619596526544877 0 -6.8332401929675491e-05 -0.00097947423659361051 0 0.00012065624624471557 -0.00071053397515960818 0 -5.0239508729171736e-05 -0.00095301762002302111 0 -1.448868256888461e-05 -0.0011419951984855783 0 -1.4430704019168401e-05 -0.001094430162362563 0 -6.8332401929675491e-05 -0.00097947423659361051 0 -1.448868256888461e-05 -0.0011419951984855783 0 -6.8332401929675491e-05 -0.00097947423659361051 0 -5.5682514100761629e-05 -0.0011853903768450317 0 -6.8332401929675491e-05 -0.00097947423659361051 0 -5.5682514100761629e-05 -0.0011853903768450317 0 -0.00014869805153070896 -0.0011011398283753721 0 -6.8332401929675491e-05 -0.00097947423659361051 0 -0.00014869805153070896 -0.0011011398283753721 0 -0.00026707600131685493 -0.00099024297732234427 0 -0.00014869805153070896 -0.0011011398283753721 0 -0.00026707600131685493 -0.00099024297732234427 0 -0.0002079705670210083 -0.0011238995218493851 0 -0.00014832886326778224 -0.0013294063313967809 0 -0.00011721716792328658 -0.0012183189938436301 0 -0.0002079705670210083 -0.0011238995218493851 0 -0.00014869805153070896 -0.0011011398283753721 0 -0.00011721716792328658 -0.0012183189938436301 0 -0.0002079705670210083 -0.0011238995218493851 0 -5.4617931980724768e-05 -0.0013592454676755504 0 -5.5682514100761629e-05 -0.0011853903768450317 0 -0.00011721716792328658 -0.0012183189938436301 0 -5.5682514100761629e-05 -0.0011853903768450317 0 -0.00014869805153070896 -0.0011011398283753721 0 -0.00011721716792328658 -0.0012183189938436301 0 -0.00018744784423200365 -0.00098597476159916083 0 -0.00026707600131685493 -0.00099024297732234427 0 -0.00030717235479448901 -0.00096754193461221752 0 -0.00026707600131685493 -0.00099024297732234427 0 -0.0002079705670210083 -0.0011238995218493851 0 -0.00030717235479448901 -0.00096754193461221752 0 -0.00028731192193219709 -0.0012918120623365962 0 -0.0002079705670210083 -0.0011238995218493851 0 -0.00030717235479448901 -0.00096754193461221752 0 -0.00018744784423200365 -0.00098597476159916083 0 -0.00030717235479448901 -0.00096754193461221752 0 -7.0240925780296043e-05 -0.00084712870122046304 0 -0.00019326123110588282 -0.0006104110507535866 0 -0.00030717235479448901 -0.00096754193461221752 0 -7.0240925780296043e-05 -0.00084712870122046304 0 9.2151220224943037e-05 -0.00059447915885718801 0 -7.0240925780296043e-05 -0.00084712870122046304 0 0.00017831953446223502 -0.00079179054713886851 0 -0.00019326123110588282 -0.0006104110507535866 0 9.2151220224943037e-05 -0.00059447915885718801 0 -7.0240925780296043e-05 -0.00084712870122046304 0 -7.0240925780296043e-05 -0.00084712870122046304 0 1.0376852524599477e-05 -0.00094138683244910347 0 0.00017831953446223502 -0.00079179054713886851 0 -0.00018744784423200365 -0.00098597476159916083 0 -7.0240925780296043e-05 -0.00084712870122046304 0 1.0376852524599477e-05 -0.00094138683244910347 0 1.0376852524599477e-05 -0.00094138683244910347 0 -6.6554473329630902e-05 -0.0010220002120175076 0 8.4611969125059533e-05 -0.0010149476852692569 0 -0.00018744784423200365 -0.00098597476159916083 0 1.0376852524599477e-05 -0.00094138683244910347 0 -6.6554473329630902e-05 -0.0010220002120175076 0 0.00022148142580418742 -0.00094560996228072551 0 0.00017831953446223502 -0.00079179054713886851 0 0.00043268642611527907 -0.00078472012186489419 0 1.0376852524599477e-05 -0.00094138683244910347 0 0.00022148142580418742 -0.00094560996228072551 0 8.4611969125059533e-05 -0.0010149476852692569 0 1.0376852524599477e-05 -0.00094138683244910347 0 0.00022148142580418742 -0.00094560996228072551 0 0.00017831953446223502 -0.00079179054713886851 0 0.00032349113138733588 -0.00059294297513450694 0 0.00017831953446223502 -0.00079179054713886851 0 0.00043268642611527907 -0.00078472012186489419 0 0.00032349113138733588 -0.00059294297513450694 0 9.2151220224943037e-05 -0.00059447915885718801 0 0.00017831953446223502 -0.00079179054713886851 0 -0.00097219892486581985 0.0041388125194151831 0 -0.00028442664057444034 0.0046255428631009335 0 -0.00022248144252463603 0.0039308423037175515 0 3.5711372733496185e-05 0.0030232188689065286 0 -0.00022248144252463603 0.0039308423037175515 0 -0.00097749417235912261 0.0029340677309930415 0 0.00022148142580418742 -0.00094560996228072551 0 0.00043268642611527907 -0.00078472012186489419 0 0.00039524581571247122 -0.0010902204601061641 0 -0.00097219892486581985 0.0041388125194151831 0 -0.00022248144252463603 0.0039308423037175515 0 -0.00097749417235912261 0.0029340677309930415 0 -0.0001696868044095025 0.0015884768421673971 0 -0.00094744645503541821 0.001233438551984406 0 -0.00011952795400948917 0.0033465325274652487 0 -0.00094744645503541821 0.001233438551984406 0 3.5711372733496185e-05 0.0030232188689065286 0 -0.0016281439859626632 0.0026487846086108231 0 -0.00066126011956763899 0.0020007332012673936 0 -0.00066126011956763899 0.0020007332012673936 0 -0.00065632556726379716 0.0011701153916590006 0 -0.0013706468723408405 0.0011368729182793037 0 0.0001741241723999245 0.0011736042023066801 0 -0.00066126011956763899 0.0020007332012673936 0 -0.00065632556726379716 0.0011701153916590006 0 -0.0014768555358870606 0.00036101930956552287 0 -0.0013706468723408405 0.0011368729182793037 0 -0.0013265067502527153 0.00093479314080230033 0 -0.0014768555358870606 0.00036101930956552287 0 -0.0013265067502527153 0.00093479314080230033 0 -0.0011705093819053777 0.00065576809109522797 0 -0.00094744645503541821 0.001233438551984406 0 -0.0014873473546934612 0.0012752270695469208 0 -0.0016281439859626632 0.0026487846086108231 0 -0.00066126011956763899 0.0020007332012673936 0 -0.0013706468723408405 0.0011368729182793037 0 -0.001423371025335927 0.0010649235382594608 0 -0.0013706468723408405 0.0011368729182793037 0 -0.0013265067502527153 0.00093479314080230033 0 -0.001423371025335927 0.0010649235382594608 0 -0.0013265067502527153 0.00093479314080230033 0 -0.0011705093819053777 0.00065576809109522797 0 -0.001032441616579609 0.00050531123818988919 0 -0.00089449007626885165 0.00050963320785073402 0 -0.0008735891130505363 0.00047562814527602338 0 -0.0010616191016140904 0.00033787767123537034 0 -0.0010104595658639605 0.00064020940985929069 0 -0.001423371025335927 0.0010649235382594608 0 -0.0011705093819053777 0.00065576809109522797 0 -0.0008735891130505363 0.00047562814527602338 0 -0.0011705093819053777 0.00065576809109522797 0 -0.0008735891130505363 0.00047562814527602338 0 -0.00086566800408049971 0.00037714556210968547 0 -0.00065986813598619234 0.00021967641654685254 0 -0.0008735891130505363 0.00047562814527602338 0 -0.00086566800408049971 0.00037714556210968547 0 -0.00077154829235605261 0.00043291530660849735 0 -0.00089449007626885165 0.00050963320785073402 0 -0.0008735891130505363 0.00047562814527602338 0 -0.00077154829235605261 0.00043291530660849735 0 -0.00065986813598619234 0.00021967641654685254 0 -0.0008735891130505363 0.00047562814527602338 0 -0.00041828152618895862 -0.00038772410527560891 0 -0.00032991744551913568 -0.00050477742101852764 0 -0.00021210773051873736 -0.0010285292011663165 0 -6.6554473329630902e-05 -0.0010220002120175076 0 9.9683630312739693e-05 -0.001139392926702003 0 -6.6554473329630902e-05 -0.0010220002120175076 0 8.4611969125059533e-05 -0.0010149476852692569 0 9.9683630312739693e-05 -0.001139392926702003 0 -0.0014768555358870606 0.00036101930956552287 0 -0.0011705093819053777 0.00065576809109522797 0 -0.00086566800408049971 0.00037714556210968547 0 8.4611969125059533e-05 -0.0010149476852692569 0 0.00020275340757694937 -0.0010482285441433417 0 9.9683630312739693e-05 -0.001139392926702003 0 0.00039524581571247122 -0.0010902204601061641 0 0.00020275340757694937 -0.0010482285441433417 0 9.9683630312739693e-05 -0.001139392926702003 0 0.00022148142580418742 -0.00094560996228072551 0 8.4611969125059533e-05 -0.0010149476852692569 0 0.00020275340757694937 -0.0010482285441433417 0 0.00022148142580418742 -0.00094560996228072551 0 0.00039524581571247122 -0.0010902204601061641 0 0.00020275340757694937 -0.0010482285441433417 0 -0.00094744645503541821 0.001233438551984406 0 -0.00032991744551913568 -0.00050477742101852764 0 1.4054775193327159e-05 0.024759181881326111 0 -0.00012980472103371379 0.024635594029629171 0 -2.5517354715838536e-05 0.024949933563602131 0 1.4054775193327159e-05 0.024759181881326111 0 8.3106590907787152e-05 0.024778627077711776 0 4.4474832585667776e-05 0.024860171004910052 0 1.4054775193327159e-05 0.024759181881326111 0 8.3106590907787152e-05 0.024778627077711776 0 9.4729871888813338e-05 0.024699699329963142 0 1.4054775193327159e-05 0.024759181881326111 0 3.3354991751568889e-05 0.024578626735660029 0 9.4729871888813338e-05 0.024699699329963142 0 3.3354991751568889e-05 0.024578626735660029 0 9.4729871888813338e-05 0.024699699329963142 0 0.00018131571996257565 0.024671773546859583 0 1.4054775193327159e-05 0.024759181881326111 0 3.3354991751568889e-05 0.024578626735660029 0 -0.00012980472103371379 0.024635594029629171 0 -2.1759196408003197e-09 0.024999990858350307 0 -1.4100899794967751e-05 0.02499682681392535 0 -2.5517354715838536e-05 0.024949933563602131 0 -5.8968692660780717e-05 0.024799951501445316 0 -4.0348371012621986e-05 0.024932570070177611 0 -2.1759196408003197e-09 0.024999990858350307 0 -2.5517354715838536e-05 0.024949933563602131 0 -2.2570470803578933e-08 0.024999867396998499 0 -2.5517354715838536e-05 0.024949933563602131 0 4.4474832585667776e-05 0.024860171004910052 0 5.3824622538375171e-05 0.024926666029381997 0 -2.5517354715838536e-05 0.024949933563602131 0 5.3824622538375171e-05 0.024926666029381997 0 7.7811964929047516e-07 0.024968710591457527 0 1.4054775193327159e-05 0.024759181881326111 0 -2.5517354715838536e-05 0.024949933563602131 0 4.4474832585667776e-05 0.024860171004910052 0 8.3106590907787152e-05 0.024778627077711776 0 4.4474832585667776e-05 0.024860171004910052 0 0.0001165889242240933 0.024843880398111039 0 4.4474832585667776e-05 0.024860171004910052 0 0.0001165889242240933 0.024843880398111039 0 5.3824622538375171e-05 0.024926666029381997 0 0.00012767363712063367 0.024883791647590806 0 0.0001165889242240933 0.024843880398111039 0 5.3824622538375171e-05 0.024926666029381997 0 0.00012767363712063367 0.024883791647590806 0 0.00016062666692104977 0.024857191778594287 0 0.00015736989642523775 0.024870710574184579 0 0.00012767363712063367 0.024883791647590806 0 0.0001165889242240933 0.024843880398111039 0 0.00016062666692104977 0.024857191778594287 0 0.0001165889242240933 0.024843880398111039 0 0.00016062666692104977 0.024857191778594287 0 0.0001734305953369627 0.024800330060092194 0 0.0001165889242240933 0.024843880398111039 0 0.00013967737673188427 0.024767023009957836 0 0.0001734305953369627 0.024800330060092194 0 0.00015629690819414315 0.024860042155770902 0 0.00017366056777654205 0.024860652672369043 0 0.00019033953692674415 0.024863522146623154 0 0.00015629690819414315 0.024860042155770902 0 0.00017366056777654205 0.024860652672369043 0 0.00015736989642523775 0.024870710574184579 0 0.00017366056777654205 0.024860652672369043 0 0.00016062666692104977 0.024857191778594287 0 0.00015736989642523775 0.024870710574184579 0 0.00017690958107014309 0.024847686599376962 0 0.00019033953692674415 0.024863522146623154 0 0.0001734305953369627 0.024800330060092194 0 0.00016062666692104977 0.024857191778594287 0 0.00017690958107014309 0.024847686599376962 0 0.0001734305953369627 0.024800330060092194 0 0.00017366056777654205 0.024860652672369043 0 0.00016062666692104977 0.024857191778594287 0 0.00017690958107014309 0.024847686599376962 0 0.00017366056777654205 0.024860652672369043 0 0.00017690958107014309 0.024847686599376962 0 0.00019033953692674415 0.024863522146623154 0 -0.00075294503681513729 0.023484072631065951 0 -0.00082781351968776054 0.0234378072698153 0 -0.0008051574377193146 0.023507503744256312 0 -0.00028211179999627537 0.024267756404037371 0 -0.00012859421366722895 0.02419519066048657 0 -0.00082781351968776054 0.0234378072698153 0 -0.00064241847328275843 0.023697703139089959 0 -0.00037429201399361445 0.023755747860944861 0 -0.0008051574377193146 0.023507503744256312 0 -0.00075850981862434115 0.023604270754071951 0 -0.00084350609205801664 0.023533053674857269 0 -0.00082781351968776054 0.0234378072698153 0 -0.0008051574377193146 0.023507503744256312 0 -0.00075850981862434115 0.023604270754071951 0 -0.00075294503681513729 0.023484072631065951 0 -0.0008051574377193146 0.023507503744256312 0 -0.00084350609205801664 0.023533053674857269 0 -0.00082781351968776054 0.0234378072698153 0 -0.00075850981862434115 0.023604270754071951 0 -0.00064241847328275843 0.023697703139089959 0 -0.00075850981862434115 0.023604270754071951 0 -0.00064241847328275843 0.023697703139089959 0 -0.00074450927992251743 0.023851636655226105 0 -0.00075850981862434115 0.023604270754071951 0 -0.00074450927992251743 0.023851636655226105 0 -0.00084350609205801664 0.023533053674857269 0 -0.00086553102260226447 0.023632092607728816 0 -0.00084944769228615822 0.023582603481604694 0 0.00019033953692674415 0.024863522146623154 0 0.0001734305953369627 0.024800330060092194 0 0.00018131571996257565 0.024671773546859583 0 8.3106590907787152e-05 0.024778627077711776 0 0.0001165889242240933 0.024843880398111039 0 0.00013967737673188427 0.024767023009957836 0 8.3106590907787152e-05 0.024778627077711776 0 9.4729871888813338e-05 0.024699699329963142 0 0.00013967737673188427 0.024767023009957836 0 0.00013967737673188427 0.024767023009957836 0 0.0001734305953369627 0.024800330060092194 0 0.00018131571996257565 0.024671773546859583 0 -0.00064241847328275843 0.023697703139089959 0 -0.00037429201399361445 0.023755747860944861 0 -0.00051024027967559683 0.023902851229739789 0 9.4729871888813338e-05 0.024699699329963142 0 0.00013967737673188427 0.024767023009957836 0 0.00018131571996257565 0.024671773546859583 0 -0.00037429201399361445 0.023755747860944861 0 -0.00034400384444797835 0.024039867523526812 0 -0.00051024027967559683 0.023902851229739789 0 -0.00034400384444797835 0.024039867523526812 0 -0.00051024027967559683 0.023902851229739789 0 -0.00049481738658723991 0.024153472578059335 0 -0.00051024027967559683 0.023902851229739789 0 -0.00049481738658723991 0.024153472578059335 0 -0.00074450927992251743 0.023851636655226105 0 -0.00049801783387754906 0.023965701842946566 0 -0.00051602929826696971 0.023743318810716903 0 -0.00034400384444797835 0.024039867523526812 0 -0.00048088840653719519 0.02419803132790806 0 -0.00021823444609628191 0.024259628402140129 0 -0.00064241847328275843 0.023697703139089959 0 -0.00051024027967559683 0.023902851229739789 0 -0.00074450927992251743 0.023851636655226105 0 -0.00051602929826696971 0.023743318810716903 0 -0.00086553102260226447 0.023632092607728816 0 -0.0011141781906686573 0.023363132784719388 0 -0.00098115257947649468 0.023476746606054224 0 -0.000991142582375917 0.023357481119576549 0 -0.00098115257947649468 0.023476746606054224 0 -0.000991142582375917 0.023357481119576549 0 -0.00089081543771260346 0.023359388805752432 0 -0.00098394142451507728 0.023228299048055265 0 -0.0008419233138773544 0.023081569909229053 0 -0.00089081543771260346 0.023359388805752432 0 -0.000991142582375917 0.023357481119576549 0 -0.00098394142451507728 0.023228299048055265 0 -0.00089081543771260346 0.023359388805752432 0 -0.0011141781906686573 0.023363132784719388 0 -0.000991142582375917 0.023357481119576549 0 -0.00098394142451507728 0.023228299048055265 0 -0.00051602929826696971 0.023743318810716903 0 -0.00076285011281732528 0.023434769752205303 0 -0.00076285011281732528 0.023434769752205303 0 -0.00049436420473108469 0.022165363696860271 0 -0.00032307459528590473 0.023445891671842734 0 -0.00032322648171035251 0.023484851141294252 0 -0.00028822790574364399 0.023476600552936339 0 -0.00032307459528590473 0.023445891671842734 0 -0.00035481320885744061 0.023470665474854106 0 -0.00032322648171035251 0.023484851141294252 0 -0.00048088840653719519 0.02419803132790806 0 -0.00020924150750006179 0.024408215774463549 0 -0.00021823444609628191 0.024259628402140129 0 -0.00051602929826696971 0.023743318810716903 0 -0.00027987282019543985 0.023913735380325509 0 -0.00020924150750006179 0.024408215774463549 0 -0.0001088204187760815 0.024337326557809843 0 -3.7381264950282661e-05 0.024536692429615693 0 -3.3662133033162235e-05 0.024709611989826928 0 -8.250274575536785e-05 0.024477595944210569 0 -0.0001088204187760815 0.024337326557809843 0 -5.7357732549560786e-05 0.024274341827147935 0 -3.7381264950282661e-05 0.024536692429615693 0 -0.00027987282019543985 0.023913735380325509 0 -8.250274575536785e-05 0.024477595944210569 0 -0.0001088204187760815 0.024337326557809843 0 -2.8996796592436062e-05 0.024305486215144306 0 -5.7357732549560786e-05 0.024274341827147935 0 -0.00020924150750006179 0.024408215774463549 0 -0.0001088204187760815 0.024337326557809843 0 -0.00021823444609628191 0.024259628402140129 0 -0.0001088204187760815 0.024337326557809843 0 -0.00021823444609628191 0.024259628402140129 0 -2.8996796592436062e-05 0.024305486215144306 0 -0.00012859421366722895 0.02419519066048657 0 -3.7179618987147641e-05 0.02428985891692869 0 -0.00012980472103371379 0.024635594029629171 0 -2.8996796592436062e-05 0.024305486215144306 0 -5.7357732549560786e-05 0.024274341827147935 0 3.3354991751568889e-05 0.024578626735660029 0 0.00018131571996257565 0.024671773546859583 0 -2.8996796592436062e-05 0.024305486215144306 0 -0.00034400384444797835 0.024039867523526812 0 -0.00021823444609628191 0.024259628402140129 0 -2.8996796592436062e-05 0.024305486215144306 0 -0.00037429201399361445 0.023755747860944861 0 -0.00034400384444797835 0.024039867523526812 0 -2.8996796592436062e-05 0.024305486215144306 0 3.3354991751568889e-05 0.024578626735660029 0 -0.00012980472103371379 0.024635594029629171 0 -2.8996796592436062e-05 0.024305486215144306 0 -2.1759196408003197e-09 0.024999990858350307 0 -5.3689314920321121e-09 0.025000001352463084 0 -4.965126090434298e-06 0.024999659434622984 0 -2.1759196408003197e-09 0.024999990858350307 0 -1.4100899794967751e-05 0.02499682681392535 0 -4.965126090434298e-06 0.024999659434622984 0 -5.8968692660780717e-05 0.024799951501445316 0 -3.3662133033162235e-05 0.024709611989826928 0 -4.965126090434298e-06 0.024999659434622984 0 -2.453419526830855e-06 0.024999201297414321 0 -2.1116119571415421e-06 0.024997816124732803 0 -5.3689314920321121e-09 0.025000001352463084 0 -4.965126090434298e-06 0.024999659434622984 0 -2.453419526830855e-06 0.024999201297414321 0 -5.3689314920321121e-09 0.025000001352463084 0 -2.453419526830855e-06 0.024999201297414321 0 1.5357143061589237e-10 0.02499999643485969 0 -8.250274575536785e-05 0.024477595944210569 0 3.1337815490366953e-07 0.025000428242370545 0 -2.453419526830855e-06 0.024999201297414321 0 -2.1116119571415421e-06 0.024997816124732803 0 1.5357143061589237e-10 0.02499999643485969 0 -0.00028822790574364399 0.023476600552936339 0 -0.00025352174562995783 0.023511196479232208 0 -0.00030428197834614249 0.02352652682105133 0 -0.00025801216803295431 0.023573475980682629 0 -0.00030538201760026427 0.023575276039291257 0 -0.00030428197834614249 0.02352652682105133 0 -8.250274575536785e-05 0.024477595944210569 0 -0.00014349752526280935 0.024252700966054655 0 -0.00025352174562995783 0.023511196479232208 0 -0.00025801216803295431 0.023573475980682629 0 -0.00030428197834614249 0.02352652682105133 0 -7.4557044632542821e-06 0.024982115758217963 0 -3.6161554492054608e-06 0.024995117469242337 0 4.379966827229585e-09 0.024999967968191511 0 -3.6161554492054608e-06 0.024995117469242337 0 -7.5173284590298907e-07 0.024990893940614291 0 -7.5967802918914309e-09 0.024999998379278871 0 -3.6161554492054608e-06 0.024995117469242337 0 4.379966827229585e-09 0.024999967968191511 0 -7.5967802918914309e-09 0.024999998379278871 0 -0.00025801216803295431 0.023573475980682629 0 -0.0002874038813247064 0.023608742654194131 0 -0.00026119052115941219 0.023636361807463091 0 -0.00014349752526280935 0.024252700966054655 0 -5.1930771700020826e-05 0.024236858071546248 0 -0.00025801216803295431 0.023573475980682629 0 -0.0002874038813247064 0.023608742654194131 0 -0.00030538201760026427 0.023575276039291257 0 -0.0002874038813247064 0.023608742654194131 0 -0.00026119052115941219 0.023636361807463091 0 -0.00029171591493631742 0.023642503045893642 0 -3.4182084840345573e-10 0.023565348350467728 0 -4.4246433142220783e-05 0.023861539961628587 0 6.1528410486157554e-05 0.023601480352617193 0 -5.1930771700020826e-05 0.024236858071546248 0 -8.2714449987113836e-05 0.023408218726249676 0 -4.0567086583986848e-08 0.023563942516810772 0 -8.2714449987113836e-05 0.023408218726249676 0 -3.4182084840345573e-10 0.023565348350467728 0 -4.4246433142220783e-05 0.023861539961628587 0 -2.2761709004529486e-10 0.02395242128915533 0 -5.1930771700020826e-05 0.024236858071546248 0 -5.7229024127628665e-08 0.023953752387388141 0 2.0473849185616782e-07 0.024254218496215101 0 3.0886761498445924e-07 0.023955128702346239 0 -2.0580868238202279e-07 0.024999205844397299 0 2.0473849185616782e-07 0.024254218496215101 0 -2.0580868238202279e-07 0.024999205844397299 0 1.0160672799140629e-07 0.025000048984342268 0 -5.1930771700020826e-05 0.024236858071546248 0 -2.3533260832584215e-07 0.024999991917655062 0 -3.4968391267407384e-05 0.02175686656800379 0 1.1066273698334923e-07 0.022916733593977192 0 0.00016666151295872944 0.022245203204790773 0 -3.4968391267407384e-05 0.02175686656800379 0 1.1066273698334923e-07 0.022916733593977192 0 -3.7509308196578745e-07 0.021441374213444154 0 -3.4968391267407384e-05 0.02175686656800379 0 0.00016666151295872944 0.022245203204790773 0 -6.4941675872313967e-05 0.02112238717502091 0 1.1066273698334923e-07 0.022916733593977192 0 4.489962659360115e-07 0.023126977941286674 0 0.00016666151295872944 0.022245203204790773 0 -1.7972340551000509e-05 0.023141976684496003 0 -3.0194896931553869e-05 0.022759683638658872 0 4.5567269057405749e-08 0.023563861998009014 0 2.1378302743137842e-06 0.023345525386151901 0 -4.616370608891698e-08 0.023128181157283122 0 6.9972374788320537e-05 0.023152190029811899 0 -4.4143287457218904e-05 0.023185902529964511 0 -0.00015117943717295442 0.022987414929631609 0 -8.2714449987113836e-05 0.023408218726249676 0 -3.0194896931553869e-05 0.022759683638658872 0 -8.2714449987113836e-05 0.023408218726249676 0 -1.7972340551000509e-05 0.023141976684496003 0 -0.0002874038813247064 0.023608742654194131 0 -0.00029171591493631742 0.023642503045893642 0 -0.00031743250426944015 0.023621904812290595 0 -0.00031743250426944015 0.023621904812290595 0 -0.00030538201760026427 0.023575276039291257 0 -0.00035271350027637192 0.023557536405988976 0 -0.0002874038813247064 0.023608742654194131 0 -0.00031743250426944015 0.023621904812290595 0 -0.00030538201760026427 0.023575276039291257 0 -3.0194896931553869e-05 0.022759683638658872 0 -0.00011444665366086535 0.022839121005148202 0 -3.0194896931553869e-05 0.022759683638658872 0 -8.9691158261643759e-05 0.021736874919896228 0 0.00027904066275159128 0.022375203642086738 0 2.5933240439931596e-05 0.021897670932395086 0 -0.0001429599277302455 0.022050721382907687 0 -0.00011444665366086535 0.022839121005148202 0 -0.00049436420473108469 0.022165363696860271 0 -0.00035271350027637192 0.023557536405988976 0 -0.00030428197834614249 0.02352652682105133 0 -0.00034419314651259585 0.02350614996354318 0 -0.00030538201760026427 0.023575276039291257 0 -0.00035271350027637192 0.023557536405988976 0 -0.00030428197834614249 0.02352652682105133 0 -0.00032322648171035251 0.023484851141294252 0 -0.00030428197834614249 0.02352652682105133 0 -0.00034419314651259585 0.02350614996354318 0 -0.00032322648171035251 0.023484851141294252 0 -0.00028822790574364399 0.023476600552936339 0 -0.00030428197834614249 0.02352652682105133 0 -0.00035481320885744061 0.023470665474854106 0 -0.00034419314651259585 0.02350614996354318 0 -0.00038692421858842321 0.023491488614731704 0 -0.00035271350027637192 0.023557536405988976 0 -0.00034419314651259585 0.02350614996354318 0 -0.00038692421858842321 0.023491488614731704 0 -0.00035481320885744061 0.023470665474854106 0 -0.00032322648171035251 0.023484851141294252 0 -0.00034419314651259585 0.02350614996354318 0 -0.00049436420473108469 0.022165363696860271 0 -0.00011530529398266865 0.019925662297229436 0 -0.00070576194165726351 0.020262992667098495 0 -0.00019635049355660325 0.020096605420569805 0 -0.00016237647652041063 0.019751691557918574 0 -0.00070576194165726351 0.020262992667098495 0 -0.00019635049355660325 0.020096605420569805 0 -0.0001156628982744516 0.020431022484637729 0 -0.00017813901537466067 0.018510590430066125 0 -0.00017761378343532992 0.018799568054073398 0 -0.00029990250401160931 0.017418268178555001 0 -0.00034759941143075701 0.017519148153830762 0 -0.00046750427778988266 0.017567959275223623 0 -0.00019635049355660325 0.020096605420569805 0 0.00012140161562126143 0.019954981952084415 0 -0.0001156628982744516 0.020431022484637729 0 -0.00019635049355660325 0.020096605420569805 0 -0.00016237647652041063 0.019751691557918574 0 0.00012140161562126143 0.019954981952084415 0 -0.00011530529398266865 0.019925662297229436 0 -0.00017813901537466067 0.018510590430066125 0 -0.00017844563674161799 0.017443663577485835 0 -0.00013448714683162658 0.017429650711921374 0 -0.00014763469976909556 0.01746872465485241 0 -0.00011530529398266865 0.019925662297229436 0 -4.3787680891046612e-06 0.018991246476374558 0 -0.00022574239868071089 0.021439780840813917 0 -0.00055255557815086804 0.021730808148384746 0 -0.00025049243723984259 0.021759121381909934 0 -0.00011530529398266865 0.019925662297229436 0 -8.9691158261643759e-05 0.021736874919896228 0 2.5933240439931596e-05 0.021897670932395086 0 -0.00022574239868071089 0.021439780840813917 0 -0.00025049243723984259 0.021759121381909934 0 -0.00055255557815086804 0.021730808148384746 0 -0.00025049243723984259 0.021759121381909934 0 -0.0001429599277302455 0.022050721382907687 0 2.5933240439931596e-05 0.021897670932395086 0 -0.00025049243723984259 0.021759121381909934 0 -0.0001429599277302455 0.022050721382907687 0 -0.00011617698228124138 0.020874141535848958 0 -6.4941675872313967e-05 0.02112238717502091 0 -0.00015711995091759808 0.020924256801574271 0 -3.4968391267407384e-05 0.02175686656800379 0 -6.4941675872313967e-05 0.02112238717502091 0 -0.00015711995091759808 0.020924256801574271 0 -0.00011617698228124138 0.020874141535848958 0 -0.00015711995091759808 0.020924256801574271 0 -3.5122594155663593e-05 0.020716321816261991 0 -0.00015711995091759808 0.020924256801574271 0 -3.7509308196578745e-07 0.021441374213444154 0 -4.0917970114216213e-07 0.019966791861515353 0 -3.4968391267407384e-05 0.02175686656800379 0 -0.00015711995091759808 0.020924256801574271 0 -3.7509308196578745e-07 0.021441374213444154 0 0.00011555249753096905 0.019936595112981036 0 -4.0917970114216213e-07 0.019966791861515353 0 9.0655212436343167e-07 0.018492703307926125 0 3.6090439917498529e-05 0.01887510397994898 0 -9.0317713257908939e-08 0.018491591773364548 0 0.00011555249753096905 0.019936595112981036 0 -4.0917970114216213e-07 0.019966791861515353 0 -3.5122594155663593e-05 0.020716321816261991 0 -0.00015711995091759808 0.020924256801574271 0 -4.0917970114216213e-07 0.019966791861515353 0 -3.5122594155663593e-05 0.020716321816261991 0 3.6090439917498529e-05 0.01887510397994898 0 -4.3787680891046612e-06 0.018991246476374558 0 0.00019055083757119062 0.017695293127177367 0 -1.761786447680366e-05 0.017400308391391457 0 -0.00012525329768336917 0.017261688429066641 0 0.00019055083757119062 0.017695293127177367 0 -4.5739056791970646e-05 0.017434568316448983 0 -1.761786447680366e-05 0.017400308391391457 0 -1.761786447680366e-05 0.017400308391391457 0 -9.3129516160124593e-05 0.01741609453968683 0 -0.00015874720928617131 0.01740897984073805 0 -1.761786447680366e-05 0.017400308391391457 0 -0.00015874720928617131 0.01740897984073805 0 -0.0001358943535501568 0.017337622617681434 0 -4.5739056791970646e-05 0.017434568316448983 0 -1.761786447680366e-05 0.017400308391391457 0 -9.3129516160124593e-05 0.01741609453968683 0 -0.00017844563674161799 0.017443663577485835 0 -4.5739056791970646e-05 0.017434568316448983 0 -0.00013448714683162658 0.017429650711921374 0 -4.5739056791970646e-05 0.017434568316448983 0 -9.3129516160124593e-05 0.01741609453968683 0 -0.00013448714683162658 0.017429650711921374 0 -9.3129516160124593e-05 0.01741609453968683 0 -0.00017799116491470761 0.017421546399839494 0 -0.00013448714683162658 0.017429650711921374 0 -9.3129516160124593e-05 0.01741609453968683 0 -0.00017799116491470761 0.017421546399839494 0 -0.00015874720928617131 0.01740897984073805 0 -0.00017799116491470761 0.017421546399839494 0 -0.00013448714683162658 0.017429650711921374 0 -0.00026794518318423943 0.017435795667641717 0 -0.00013448714683162658 0.017429650711921374 0 -0.00025988233030086415 0.017434520538632915 0 -0.00026794518318423943 0.017435795667641717 0 4.2190797442844818e-05 0.01754077274479764 0 -0.00017813901537466067 0.018510590430066125 0 -0.00029990250401160931 0.017418268178555001 0 -0.00026794518318423943 0.017435795667641717 0 -0.00034759941143075701 0.017519148153830762 0 -0.00026794518318423943 0.017435795667641717 0 -0.00024375539501488282 0.017462212263912036 0 -0.00034759941143075701 0.017519148153830762 0 -0.00017813901537466067 0.018510590430066125 0 -0.00027728109438485653 0.018372978875352827 0 -0.00017799116491470761 0.017421546399839494 0 -0.00026794518318423943 0.017435795667641717 0 -0.00024375539501488282 0.017462212263912036 0 -0.00017799116491470761 0.017421546399839494 0 -0.00024375539501488282 0.017462212263912036 0 -0.00015874720928617131 0.01740897984073805 0 -0.00024375539501488282 0.017462212263912036 0 -0.00015874720928617131 0.01740897984073805 0 -0.000268952259705132 0.017527854062015669 0 -0.00024375539501488282 0.017462212263912036 0 -0.00034759941143075701 0.017519148153830762 0 -0.000268952259705132 0.017527854062015669 0 -0.00015874720928617131 0.01740897984073805 0 -0.000268952259705132 0.017527854062015669 0 -0.0001358943535501568 0.017337622617681434 0 -0.000268952259705132 0.017527854062015669 0 -0.00018726008491118533 0.017547548503498638 0 -0.0001358943535501568 0.017337622617681434 0 -0.00033512532166010581 0.017663360605831301 0 -0.000268952259705132 0.017527854062015669 0 -0.00018726008491118533 0.017547548503498638 0 -0.00035578150184276152 0.017827245856219205 0 -0.00041791637983735005 0.017748185655683278 0 -0.00033512532166010581 0.017663360605831301 0 -0.00025052971384879809 0.017917121237873271 0 -0.00018726008491118533 0.017547548503498638 0 -0.00033512532166010581 0.017663360605831301 0 -0.00060901646676903703 0.018072411258759444 0 -0.00025052971384879809 0.017917121237873271 0 -0.00033512532166010581 0.017663360605831301 0 -0.0003957885928292675 0.017863338131175972 0 -0.00023618956669952136 0.017982139077609392 0 -0.00033512532166010581 0.017663360605831301 0 -0.0003957885928292675 0.017863338131175972 0 -0.00041630274702851458 0.01771964774315932 0 -0.0003957885928292675 0.017863338131175972 0 -0.00041630274702851458 0.01771964774315932 0 -0.00048359984247796416 0.017797057512348623 0 -0.00033512532166010581 0.017663360605831301 0 -0.00041630274702851458 0.01771964774315932 0 -0.000268952259705132 0.017527854062015669 0 -0.00034759941143075701 0.017519148153830762 0 -0.00041630274702851458 0.01771964774315932 0 -0.000268952259705132 0.017527854062015669 0 -0.00034759941143075701 0.017519148153830762 0 -0.00041630274702851458 0.01771964774315932 0 -0.00046750427778988266 0.017567959275223623 0 -0.00041630274702851458 0.01771964774315932 0 -0.00046750427778988266 0.017567959275223623 0 -0.00058276822268207298 0.017733860797331302 0 -0.00017761378343532992 0.018799568054073398 0 -0.00053602997865891372 0.021055407977423012 0 -0.0008419233138773544 0.023081569909229053 0 -0.00072104780557624216 0.02331709473988644 0 -0.00089081543771260346 0.023359388805752432 0 -0.00049436420473108469 0.022165363696860271 0 -0.00053602997865891372 0.021055407977423012 0 -0.00070576194165726351 0.020262992667098495 0 -0.0001156628982744516 0.020431022484637729 0 -0.0003531681839178851 0.020905639517981474 0 -0.00053602997865891372 0.021055407977423012 0 -0.00080041448428579912 0.02354592862431849 0 -0.00098115257947649468 0.023476746606054224 0 -0.00089081543771260346 0.023359388805752432 0 -0.00086089608243962131 0.023540716671278869 0 -0.00072104780557624216 0.02331709473988644 0 -0.00089081543771260346 0.023359388805752432 0 -0.00086089608243962131 0.023540716671278869 0 -0.00031641180461646894 0.022500383766333679 0 -0.00028012262179068442 0.02278757351849307 0 -0.00054949640295546957 0.022891450213197481 0 -0.00041630274702851458 0.01771964774315932 0 -0.00058276822268207298 0.017733860797331302 0 -0.00048359984247796416 0.017797057512348623 0 -0.00053602997865891372 0.021055407977423012 0 -0.0005531779904168531 0.020998139040810368 0 -0.00058276822268207298 0.017733860797331302 0 -0.00048359984247796416 0.017797057512348623 0 -0.00053364930163590633 0.017875785771661875 0 -0.00031641180461646894 0.022500383766333679 0 -0.00028012262179068442 0.02278757351849307 0 -0.00027508685747141176 0.022773385218160452 0 -0.0003957885928292675 0.017863338131175972 0 -0.00048359984247796416 0.017797057512348623 0 -0.00053364930163590633 0.017875785771661875 0 -0.0005531779904168531 0.020998139040810368 0 -0.00047693945462105961 0.02023758415089218 0 -0.00027384456570086368 0.022829556468033353 0 -0.00025821888337719751 0.022818205496371143 0 -0.00027508685747141176 0.022773385218160452 0 -0.00033975014622696569 0.022594139893789094 0 -0.00049362480834813356 0.022446969043513381 0 -0.00028012262179068442 0.02278757351849307 0 -0.00029900227472013199 0.02269010024642722 0 -0.00018451330747971714 0.02248285129587943 0 -0.00027508685747141176 0.022773385218160452 0 -0.00029900227472013199 0.02269010024642722 0 -0.00033975014622696569 0.022594139893789094 0 -0.0005531779904168531 0.020998139040810368 0 -0.00029120092420356392 0.023028543529181884 0 -0.00028012262179068442 0.02278757351849307 0 -0.00027508685747141176 0.022773385218160452 0 -0.00029900227472013199 0.02269010024642722 0 -0.00033975014622696569 0.022594139893789094 0 -0.00018451330747971714 0.02248285129587943 0 -0.00037450378254167587 0.022472368875920197 0 -0.00029900227472013199 0.02269010024642722 0 -0.00033975014622696569 0.022594139893789094 0 -0.00018451330747971714 0.02248285129587943 0 -0.00033975014622696569 0.022594139893789094 0 -0.00037450378254167587 0.022472368875920197 0 -0.00049362480834813356 0.022446969043513381 0 -0.00075294503681513729 0.023484072631065951 0 -0.00054949640295546957 0.022891450213197481 0 -0.00033360889790484119 0.023324993966846223 0 -0.00075294503681513729 0.023484072631065951 0 -0.00086089608243962131 0.023540716671278869 0 -0.00084350609205801664 0.023533053674857269 0 -0.00028012262179068442 0.02278757351849307 0 -0.00054949640295546957 0.022891450213197481 0 -0.00033360889790484119 0.023324993966846223 0 -0.00070980318790796518 0.023337699356704232 0 -0.00080041448428579912 0.02354592862431849 0 -0.00098115257947649468 0.023476746606054224 0 -0.00086089608243962131 0.023540716671278869 0 -0.00084350609205801664 0.023533053674857269 0 0.00015629690819414315 0.024860042155770902 0 0.00019033953692674415 0.024863522146623154 0 3.1767020651425329e-05 0.024884286582564905 0 -0.00025821888337719751 0.022818205496371143 0 -8.8154964562709242e-05 0.023464241968728709 0 -0.00075294503681513729 0.023484072631065951 0 -0.00082781351968776054 0.0234378072698153 0 -0.00045495784678867702 0.023731737772101972 0 -0.00075294503681513729 0.023484072631065951 0 -0.00033360889790484119 0.023324993966846223 0 -0.00045495784678867702 0.023731737772101972 0 -0.00028211179999627537 0.024267756404037371 0 -8.8154964562709242e-05 0.023464241968728709 0 -0.00018451330747971714 0.02248285129587943 0 -0.00026557894901864387 0.022322395625323732 0 -0.0001535410482325758 0.022232287834562259 0 -0.0003335492586405243 0.022383193305942514 0 -0.00037450378254167587 0.022472368875920197 0 -0.00043310934686674598 0.022367594972882144 0 -0.00018451330747971714 0.02248285129587943 0 -0.0003335492586405243 0.022383193305942514 0 -0.00026557894901864387 0.022322395625323732 0 -0.00018451330747971714 0.02248285129587943 0 -0.0003335492586405243 0.022383193305942514 0 -0.00037450378254167587 0.022472368875920197 0 -0.0003335492586405243 0.022383193305942514 0 -0.00043310934686674598 0.022367594972882144 0 -0.00038620237760620719 0.022248995315606219 0 -0.0003335492586405243 0.022383193305942514 0 -0.00026557894901864387 0.022322395625323732 0 -0.00038620237760620719 0.022248995315606219 0 -0.00049362480834813356 0.022446969043513381 0 -0.00064300966637285235 0.022299885623619019 0 -0.00049716829350578801 0.022459390989034753 0 -0.00050574476915984815 0.022310419798921542 0 -0.00043310934686674598 0.022367594972882144 0 -0.00038620237760620719 0.022248995315606219 0 -0.00046768919731561375 0.019860997523151638 0 -0.00047693945462105961 0.02023758415089218 0 -0.00022829923689017049 0.018390307787079677 0 -0.00023618956669952136 0.017982139077609392 0 -0.00042246819554055798 0.018105352676836807 0 -0.00050574476915984815 0.022310419798921542 0 -0.00043310934686674598 0.022367594972882144 0 -0.00049362480834813356 0.022446969043513381 0 -0.00037450378254167587 0.022472368875920197 0 -0.00043310934686674598 0.022367594972882144 0 -0.00049362480834813356 0.022446969043513381 0 -0.00050574476915984815 0.022310419798921542 0 -0.00049362480834813356 0.022446969043513381 0 -0.00064300966637285235 0.022299885623619019 0 -0.00075458784304652054 0.018639603201859749 0 -0.00043451917988059736 0.018337064620122651 0 -0.0003010789006844652 0.018774574999521624 0 -0.00075458784304652054 0.018639603201859749 0 -0.00043451917988059736 0.018337064620122651 0 -0.00060901646676903703 0.018072411258759444 0 -0.00046768919731561375 0.019860997523151638 0 -0.00041791637983735005 0.017748185655683278 0 -0.00043451917988059736 0.018337064620122651 0 -0.00060901646676903703 0.018072411258759444 0 -0.00025052971384879809 0.017917121237873271 0 -0.0003957885928292675 0.017863338131175972 0 -0.00053364930163590633 0.017875785771661875 0 -0.00042246819554055798 0.018105352676836807 0 -0.0003957885928292675 0.017863338131175972 0 -0.00023618956669952136 0.017982139077609392 0 -0.00042246819554055798 0.018105352676836807 0 -0.0004958122426728834 0.022436046831736375 0 -0.00049362480834813356 0.022446969043513381 0 -0.00049716829350578801 0.022459390989034753 0 0.00015808970793556844 0.018034775647434151 0 -0.00013191711512677999 0.018313025188540881 0 -0.00025052971384879809 0.017917121237873271 0 -0.00043451917988059736 0.018337064620122651 0 -0.00013191711512677999 0.018313025188540881 0 -0.00025052971384879809 0.017917121237873271 0 -0.00043451917988059736 0.018337064620122651 0 -0.00013191711512677999 0.018313025188540881 0 -0.0003010789006844652 0.018774574999521624 0 0.00015808970793556844 0.018034775647434151 0 -0.00013191711512677999 0.018313025188540881 0 0.00019071988974163072 0.018583784008612627 0 -0.00013191711512677999 0.018313025188540881 0 0.00019071988974163072 0.018583784008612627 0 -0.0003010789006844652 0.018774574999521624 0 0.00019071988974163072 0.018583784008612627 0 0.00062910246952454932 0.018173644807500049 0 0.00076293055517550788 0.018739753173952888 0 0.00078922226528291891 0.018603775803801244 0 0.0011772789125873632 0.017139626415482116 0 0.00062910246952454932 0.018173644807500049 0 0.0014541932162281622 0.01864059573107113 0 0.00076293055517550788 0.018739753173952888 0 0.00015808970793556844 0.018034775647434151 0 0.00062910246952454932 0.018173644807500049 0 0.00040698167365883656 0.01766139220768596 0 0.00015808970793556844 0.018034775647434151 0 0.00019071988974163072 0.018583784008612627 0 0.00062910246952454932 0.018173644807500049 0 0.00015808970793556844 0.018034775647434151 0 0.00040698167365883656 0.01766139220768596 0 -1.1008253329098044e-05 0.017652000184400773 0 0.00062910246952454932 0.018173644807500049 0 0.00040698167365883656 0.01766139220768596 0 0.00084745696756575409 0.017892192919287647 0 0.00040698167365883656 0.01766139220768596 0 0.00013030430723107183 0.01744573020570064 0 0.00018908722849283774 0.017161567318297204 0 0.00040698167365883656 0.01766139220768596 0 0.00013030430723107183 0.01744573020570064 0 -1.1008253329098044e-05 0.017652000184400773 0 0.00013030430723107183 0.01744573020570064 0 -1.1008253329098044e-05 0.017652000184400773 0 -4.0206997490384387e-05 0.017333460216900385 0 -1.1008253329098044e-05 0.017652000184400773 0 -0.00018726008491118533 0.017547548503498638 0 -4.0206997490384387e-05 0.017333460216900385 0 0.00015808970793556844 0.018034775647434151 0 -1.1008253329098044e-05 0.017652000184400773 0 -0.00025052971384879809 0.017917121237873271 0 -1.1008253329098044e-05 0.017652000184400773 0 -0.00025052971384879809 0.017917121237873271 0 -0.00018726008491118533 0.017547548503498638 0 -0.00018726008491118533 0.017547548503498638 0 -0.0001358943535501568 0.017337622617681434 0 -4.0206997490384387e-05 0.017333460216900385 0 -0.0001358943535501568 0.017337622617681434 0 -4.0206997490384387e-05 0.017333460216900385 0 -8.3472474881024942e-05 0.017100956429634707 0 -0.0001358943535501568 0.017337622617681434 0 -8.3472474881024942e-05 0.017100956429634707 0 -0.00012525329768336917 0.017261688429066641 0 -1.761786447680366e-05 0.017400308391391457 0 -0.0001358943535501568 0.017337622617681434 0 -0.00012525329768336917 0.017261688429066641 0 -8.3472474881024942e-05 0.017100956429634707 0 -0.00012525329768336917 0.017261688429066641 0 -3.3845381076750483e-05 0.01668374703129176 0 -0.00012525329768336917 0.017261688429066641 0 -6.491204715109488e-07 0.017086833682920348 0 -3.3845381076750483e-05 0.01668374703129176 0 -0.00012525329768336917 0.017261688429066641 0 4.1472021248805771e-07 0.018487866827544497 0 -6.491204715109488e-07 0.017086833682920348 0 0.00019055083757119062 0.017695293127177367 0 -0.00012525329768336917 0.017261688429066641 0 4.1472021248805771e-07 0.018487866827544497 0 2.1897131166391439e-05 0.016123236409774772 0 6.763569839405327e-07 0.015680899935462605 0 -6.491204715109488e-07 0.017086833682920348 0 2.1897131166391439e-05 0.016123236409774772 0 6.763569839405327e-07 0.015680899935462605 0 0.00035973347788004412 0.015380606432840638 0 2.1897131166391439e-05 0.016123236409774772 0 -6.491204715109488e-07 0.017086833682920348 0 -3.3845381076750483e-05 0.01668374703129176 0 2.1897131166391439e-05 0.016123236409774772 0 0.0003733402687372009 0.016606399944933986 0 0.00035973347788004412 0.015380606432840638 0 2.1897131166391439e-05 0.016123236409774772 0 -3.3845381076750483e-05 0.01668374703129176 0 0.0003733402687372009 0.016606399944933986 0 -3.3845381076750483e-05 0.01668374703129176 0 0.00018908722849283774 0.017161567318297204 0 0.0003733402687372009 0.016606399944933986 0 -8.3472474881024942e-05 0.017100956429634707 0 -3.3845381076750483e-05 0.01668374703129176 0 0.00018908722849283774 0.017161567318297204 0 -4.0206997490384387e-05 0.017333460216900385 0 -8.3472474881024942e-05 0.017100956429634707 0 0.00018908722849283774 0.017161567318297204 0 0.00013030430723107183 0.01744573020570064 0 -4.0206997490384387e-05 0.017333460216900385 0 0.00018908722849283774 0.017161567318297204 0 0.00040698167365883656 0.01766139220768596 0 0.00018908722849283774 0.017161567318297204 0 0.00057768732209450939 0.017141130141162284 0 0.00018908722849283774 0.017161567318297204 0 0.00057768732209450939 0.017141130141162284 0 0.0003733402687372009 0.016606399944933986 0 0.00057768732209450939 0.017141130141162284 0 0.0010843968563456509 0.017019969324053173 0 0.00091653030161461613 0.017467446452700847 0 0.00057768732209450939 0.017141130141162284 0 0.0010843968563456509 0.017019969324053173 0 0.0003733402687372009 0.016606399944933986 0 0.0010843968563456509 0.017019969324053173 0 0.0012127815921180384 0.016419097291008163 0 0.0015693713011665723 0.016945410444980682 0 0.0010843968563456509 0.017019969324053173 0 0.0012127815921180384 0.016419097291008163 0 0.0003733402687372009 0.016606399944933986 0 0.0012127815921180384 0.016419097291008163 0 0.0003733402687372009 0.016606399944933986 0 0.00035973347788004412 0.015380606432840638 0 0.00063892489163997553 0.01480708448430398 0 0.00039611434178097416 0.015216898065712069 0 0.00025966734479418777 0.013220032864905085 0 0.00011772224730857617 0.014100330053770349 0 0.00035973347788004412 0.015380606432840638 0 0.00025966734479418777 0.013220032864905085 0 0.00011772224730857617 0.014100330053770349 0 -9.6252586594481321e-05 0.013287743530670521 0 0.00011772224730857617 0.014100330053770349 0 2.4479473003255737e-07 0.01427599961715896 0 -9.6252586594481321e-05 0.013287743530670521 0 0.00011772224730857617 0.014100330053770349 0 2.4479473003255737e-07 0.01427599961715896 0 0.00035973347788004412 0.015380606432840638 0 6.763569839405327e-07 0.015680899935462605 0 2.4479473003255737e-07 0.01427599961715896 0 0.00035973347788004412 0.015380606432840638 0 -0.00021048430237484284 0.01225369538180129 0 -3.8263346203489944e-07 0.012870807138963701 0 -9.6252586594481321e-05 0.013287743530670521 0 2.4479473003255737e-07 0.01427599961715896 0 -3.8263346203489944e-07 0.012870807138963701 0 -9.6252586594481321e-05 0.013287743530670521 0 0.00025966734479418777 0.013220032864905085 0 -9.6252586594481321e-05 0.013287743530670521 0 -0.00019632305189848257 0.01256426092884585 0 -0.00021048430237484284 0.01225369538180129 0 -9.6252586594481321e-05 0.013287743530670521 0 -0.00019632305189848257 0.01256426092884585 0 -0.00028280353683391433 0.012182810006124348 0 -0.00025224091493977041 0.012155963074039274 0 -0.00019632305189848257 0.01256426092884585 0 -0.00021048430237484284 0.01225369538180129 0 -0.00025224091493977041 0.012155963074039274 0 -0.00019632305189848257 0.01256426092884585 0 -0.00028280353683391433 0.012182810006124348 0 -0.00019632305189848257 0.01256426092884585 0 -1.7266382092062468e-05 0.012337428370260528 0 0.00025966734479418777 0.013220032864905085 0 -0.00019632305189848257 0.01256426092884585 0 -1.7266382092062468e-05 0.012337428370260528 0 0.00063892489163997553 0.01480708448430398 0 0.00081259670329544755 0.01474442724456434 0 0.0010843968563456509 0.017019969324053173 0 0.0015693713011665723 0.016945410444980682 0 0.001421655107899914 0.017369596875225546 0 0.0015693713011665723 0.016945410444980682 0 0.0019209881539203316 0.017319102360604674 0 0.001421655107899914 0.017369596875225546 0 -0.00028280353683391433 0.012182810006124348 0 -1.7266382092062468e-05 0.012337428370260528 0 -0.0002218499095986285 0.01203631027348365 0 -0.00028504484823662762 0.012095649796525474 0 -0.00028280353683391433 0.012182810006124348 0 -0.0002218499095986285 0.01203631027348365 0 0.00081259670329544755 0.01474442724456434 0 0.00078491665741447852 0.014054433527839291 0 0.00078491665741447852 0.014054433527839291 0 0.0011796048551569402 0.015731914954690496 0 0.00041133845135421764 0.01210527937585733 0 0.00078491665741447852 0.014054433527839291 0 0.00076157796847885456 0.013308289942915996 0 0.00077734279611942861 0.01332853715079396 0 0.00078084927052395764 0.013290317770168713 0 0.00077734279611942861 0.01332853715079396 0 0.00078084927052395764 0.013290317770168713 0 0.00080771213082025603 0.013304946076084487 0 0.00078084927052395764 0.013290317770168713 0 0.00080771213082025603 0.013304946076084487 0 0.00080036989060754008 0.01327170002475915 0 0.0015479933051769355 0.017737185500238093 0 0.001421655107899914 0.017369596875225546 0 0.0011595308073852422 0.017730372598038925 0 0.0019209881539203316 0.017319102360604674 0 0.0015479933051769355 0.017737185500238093 0 0.001421655107899914 0.017369596875225546 0 0.0010843968563456509 0.017019969324053173 0 0.001421655107899914 0.017369596875225546 0 0.00091653030161461613 0.017467446452700847 0 0.001421655107899914 0.017369596875225546 0 0.00091653030161461613 0.017467446452700847 0 0.0011595308073852422 0.017730372598038925 0 0.00040698167365883656 0.01766139220768596 0 0.00057768732209450939 0.017141130141162284 0 0.00091653030161461613 0.017467446452700847 0 0.00040698167365883656 0.01766139220768596 0 0.00091653030161461613 0.017467446452700847 0 0.00084745696756575409 0.017892192919287647 0 0.00091653030161461613 0.017467446452700847 0 0.00084745696756575409 0.017892192919287647 0 0.0011595308073852422 0.017730372598038925 0 0.00084745696756575409 0.017892192919287647 0 0.0011595308073852422 0.017730372598038925 0 0.0011872675184481927 0.018083452846313089 0 0.0015479933051769355 0.017737185500238093 0 0.0011595308073852422 0.017730372598038925 0 0.0011872675184481927 0.018083452846313089 0 0.00083089184180666837 0.013288017703310088 0 0.00085728681958184701 0.013290827350815484 0 0.00080962642275777511 0.013233996842699563 0 0.00084745696756575409 0.017892192919287647 0 0.0011872675184481927 0.018083452846313089 0 0.0009170037114556225 0.018370512409809761 0 0.00062910246952454932 0.018173644807500049 0 0.00084745696756575409 0.017892192919287647 0 0.0009170037114556225 0.018370512409809761 0 0.0010476981177733693 0.015455156447432549 0 0.0011772789125873632 0.017139626415482116 0 0.00083089184180666837 0.013288017703310088 0 0.00080091730774250309 0.01322279419198137 0 0.00080962642275777511 0.013233996842699563 0 0.00075968655192381045 0.013251976546830687 0 0.00080091730774250309 0.01322279419198137 0 0.00080036989060754008 0.01327170002475915 0 0.00075968655192381045 0.013251976546830687 0 0.00078084927052395764 0.013290317770168713 0 0.00080036989060754008 0.01327170002475915 0 0.00083089184180666837 0.013288017703310088 0 0.00080091730774250309 0.01322279419198137 0 0.00080036989060754008 0.01327170002475915 0 0.00080771213082025603 0.013304946076084487 0 0.00083089184180666837 0.013288017703310088 0 0.00080036989060754008 0.01327170002475915 0 0.0011796048551569402 0.015731914954690496 0 0.0010476981177733693 0.015455156447432549 0 0.0024160423889962772 0.019900341060581892 0 0.0025386942223294302 0.020287590963590459 0 0.0021652795737706894 0.020284614861928681 0 0.0015844207535048035 0.016431474339738409 0 0.0014534813340540556 0.016775659630818032 0 0.00080216888267858172 0.013106737908279613 0 0.00078657862954398651 0.013205253440031223 0 0.00076715821984678985 0.013286850742542773 0 0.00078657862954398651 0.013205253440031223 0 0.00080962642275777511 0.013233996842699563 0 0.00076715821984678985 0.013286850742542773 0 0.00080216888267858172 0.013106737908279613 0 0.00080091730774250309 0.01322279419198137 0 0.00078657862954398651 0.013205253440031223 0 0.00080091730774250309 0.01322279419198137 0 0.00078657862954398651 0.013205253440031223 0 0.00080962642275777511 0.013233996842699563 0 0.001789927129313866 0.019302440269526617 0 0.0024160423889962772 0.019900341060581892 0 0.0019033974991292063 0.020212201587376123 0 0.001789927129313866 0.019302440269526617 0 0.0019033974991292063 0.020212201587376123 0 0.0012378198984493761 0.019799138985755409 0 0.0011772789125873632 0.017139626415482116 0 0.0015844207535048035 0.016431474339738409 0 0.0024160423889962772 0.019900341060581892 0 0.0019033974991292063 0.020212201587376123 0 0.0025386942223294302 0.020287590963590459 0 0.0019033974991292063 0.020212201587376123 0 0.0021726413259613429 0.020967524547416762 0 0.0025386942223294302 0.020287590963590459 0 0.0019033974991292063 0.020212201587376123 0 0.0016336643406222031 0.021041060318681918 0 0.0012337119860982757 0.020492433477843668 0 0.0019033974991292063 0.020212201587376123 0 0.0016336643406222031 0.021041060318681918 0 0.0021726413259613429 0.020967524547416762 0 0.0021726413259613429 0.020967524547416762 0 0.0025386942223294302 0.020287590963590459 0 0.0027361888769583658 0.021496082811238579 0 0.0025756109231257576 0.020305002343137413 0 0.0026858607159826885 0.020350315595895976 0 0.0025386942223294302 0.020287590963590459 0 0.0021735344329930225 0.019825685894633582 0 0.0026941204606675782 0.019287903936999102 0 0.0025386942223294302 0.020287590963590459 0 0.0021652795737706894 0.020284614861928681 0 0.0021735344329930225 0.019825685894633582 0 0.0021735344329930225 0.019825685894633582 0 0.001846491313352351 0.019213469799823624 0 0.0026941204606675782 0.019287903936999102 0 0.001846491313352351 0.019213469799823624 0 0.0026941204606675782 0.019287903936999102 0 0.0022895844580511555 0.01878184569363486 0 0.001846491313352351 0.019213469799823624 0 0.001894523525346634 0.018691457033247299 0 0.0022895844580511555 0.01878184569363486 0 0.0026858607159826885 0.020350315595895976 0 0.0027267691815372765 0.020458009354724128 0 0.0026941204606675782 0.019287903936999102 0 0.0022895844580511555 0.01878184569363486 0 0.0026620645842435216 0.018231370385247213 0 0.0027361888769583658 0.021496082811238579 0 0.002693107431977941 0.022421748046356511 0 0.0022216378169075917 0.02233520316953734 0 0.0022895844580511555 0.01878184569363486 0 0.0021879569121264248 0.018378026383819204 0 0.0026620645842435216 0.018231370385247213 0 0.001894523525346634 0.018691457033247299 0 0.0022895844580511555 0.01878184569363486 0 0.0021879569121264248 0.018378026383819204 0 0.0016578721927251023 0.018335972041509479 0 0.001894523525346634 0.018691457033247299 0 0.0021879569121264248 0.018378026383819204 0 0.0017028056236765914 0.017960964078781984 0 0.0018218667852432614 0.01762424230701282 0 0.0022342323767083694 0.017796827531181475 0 0.0017364308302962007 0.018153978230360645 0 0.0023363096722588549 0.017816178456585879 0 0.0016578721927251023 0.018335972041509479 0 0.0021879569121264248 0.018378026383819204 0 0.0023788946277266813 0.017806200499222768 0 0.0017028056236765914 0.017960964078781984 0 0.0022342323767083694 0.017796827531181475 0 0.0023788946277266813 0.017806200499222768 0 0.0027267691815372765 0.020458009354724128 0 0.0021987322093735824 0.019572661230169403 0 0.0026620645842435216 0.018231370385247213 0 0.0023788946277266813 0.017806200499222768 0 0.0025437846540403517 0.017203344347877191 0 0.0021879569121264248 0.018378026383819204 0 0.0026620645842435216 0.018231370385247213 0 0.0023788946277266813 0.017806200499222768 0 0.002693107431977941 0.022421748046356511 0 0.0026313745907656978 0.023140632938619555 0 0.0022167323987582854 0.022836066074718522 0 0.0022342323767083694 0.017796827531181475 0 0.0023788946277266813 0.017806200499222768 0 0.0025437846540403517 0.017203344347877191 0 0.0025625108234345927 0.017010834492666806 0 0.0021987322093735824 0.019572661230169403 0 0.0022342323767083694 0.017796827531181475 0 0.0023963020922085844 0.017268899903306018 0 0.0020716196329732856 0.017361333069319428 0 0.0023963020922085844 0.017268899903306018 0 0.0020716196329732856 0.017361333069319428 0 0.0021566342157138354 0.017063470825675223 0 0.0020716196329732856 0.017361333069319428 0 0.001815027871935374 0.01736538135819593 0 0.0018958501379962986 0.017125490732482908 0 0.0018218667852432614 0.01762424230701282 0 0.0020716196329732856 0.017361333069319428 0 0.001815027871935374 0.01736538135819593 0 0.0018218667852432614 0.01762424230701282 0 0.0022342323767083694 0.017796827531181475 0 0.0020716196329732856 0.017361333069319428 0 0.0016718541159249257 0.022819404906164992 0 0.001393982230501234 0.023223654706104706 0 0.0019445302760883194 0.023263098184684861 0 0.0022167323987582854 0.022836066074718522 0 0.0016718541159249257 0.022819404906164992 0 0.0019445302760883194 0.023263098184684861 0 0.0026313745907656978 0.023140632938619555 0 0.0022167323987582854 0.022836066074718522 0 0.0019445302760883194 0.023263098184684861 0 0.002693107431977941 0.022421748046356511 0 0.0022167323987582854 0.022836066074718522 0 0.0022216378169075917 0.02233520316953734 0 0.0022167323987582854 0.022836066074718522 0 0.0016718541159249257 0.022819404906164992 0 0.0022216378169075917 0.02233520316953734 0 0.0016718541159249257 0.022819404906164992 0 0.0018805869987245794 0.021963114822534682 0 0.0022216378169075917 0.02233520316953734 0 0.0016718541159249257 0.022819404906164992 0 0.0018805869987245794 0.021963114822534682 0 0.0013579944342027594 0.022427614888081576 0 0.0027361888769583658 0.021496082811238579 0 0.0018805869987245794 0.021963114822534682 0 0.0022216378169075917 0.02233520316953734 0 0.0021726413259613429 0.020967524547416762 0 0.0027361888769583658 0.021496082811238579 0 0.0018805869987245794 0.021963114822534682 0 0.0016336643406222031 0.021041060318681918 0 0.0018805869987245794 0.021963114822534682 0 0.0013554572242862066 0.021813331478551353 0 0.0016336643406222031 0.021041060318681918 0 0.0021726413259613429 0.020967524547416762 0 0.0018805869987245794 0.021963114822534682 0 0.000830133837355902 0.022313152979963127 0 0.00039923073303237469 0.022084845174842237 0 0.00087759485205062741 0.022300923117298501 0 -2.8781218226764463e-05 0.021551365301092661 0 0.00082299229341739773 0.021187315623499094 0 0.0013554572242862066 0.021813331478551353 0 0.00087759485205062741 0.022300923117298501 0 0.00082299229341739773 0.021187315623499094 0 0.00087759485205062741 0.022300923117298501 0 0.0013579944342027594 0.022427614888081576 0 0.00098050846380093272 0.022874813818680811 0 0.0018805869987245794 0.021963114822534682 0 0.0013554572242862066 0.021813331478551353 0 0.0013579944342027594 0.022427614888081576 0 0.0013554572242862066 0.021813331478551353 0 0.00087759485205062741 0.022300923117298501 0 0.0013579944342027594 0.022427614888081576 0 0.0016718541159249257 0.022819404906164992 0 0.0013579944342027594 0.022427614888081576 0 0.00098050846380093272 0.022874813818680811 0 0.00098050846380093272 0.022874813818680811 0 0.001393982230501234 0.023223654706104706 0 0.0010731163952421067 0.023395128649032509 0 0.0016718541159249257 0.022819404906164992 0 0.00098050846380093272 0.022874813818680811 0 0.001393982230501234 0.023223654706104706 0 0.00073532288356811869 0.023237140780714604 0 0.00077153760060927855 0.023581505093709924 0 0.00071658430164598958 0.022899849003788258 0 0.00058332172740938721 0.022851705480746214 0 0.00061301518200188737 0.023268192553093828 0 0.00098050846380093272 0.022874813818680811 0 0.00071658430164598958 0.022899849003788258 0 0.00061301518200188737 0.023268192553093828 0 0.00098050846380093272 0.022874813818680811 0 0.00061301518200188737 0.023268192553093828 0 0.0010731163952421067 0.023395128649032509 0 0.00098050846380093272 0.022874813818680811 0 0.00071658430164598958 0.022899849003788258 0 0.00068323399007532478 0.02268906398179335 0 0.00071658430164598958 0.022899849003788258 0 0.00068323399007532478 0.02268906398179335 0 0.00058332172740938721 0.022851705480746214 0 0.00087759485205062741 0.022300923117298501 0 0.00098050846380093272 0.022874813818680811 0 0.00068323399007532478 0.02268906398179335 0 0.00087759485205062741 0.022300923117298501 0 0.00068323399007532478 0.02268906398179335 0 0.00074876256987666131 0.022600099699473256 0 0.00068323399007532478 0.02268906398179335 0 0.00074876256987666131 0.022600099699473256 0 0.00070613499473841238 0.022777210661509627 0 0.00074876256987666131 0.022600099699473256 0 0.00072960322010432832 0.022686351811559004 0 0.00070613499473841238 0.022777210661509627 0 0.00039923073303237469 0.022084845174842237 0 -7.1750151606279054e-05 0.021725506506248229 0 -0.0007891619134194034 0.020862585736999343 0 -0.0003893585585835347 0.020200731158085943 0 -2.2319256350911535e-05 0.020835222804333062 0 -0.0007891619134194034 0.020862585736999343 0 -0.0003893585585835347 0.020200731158085943 0 -0.00089540298035461899 0.020238540697479501 0 -0.0003893585585835347 0.020200731158085943 0 -0.00089540298035461899 0.020238540697479501 0 -0.00079622490006455902 0.019693444046161877 0 -0.0003893585585835347 0.020200731158085943 0 -2.2319256350911535e-05 0.020835222804333062 0 0.00045970073137881624 0.020355325179967267 0 -0.0003893585585835347 0.020200731158085943 0 0.00045970073137881624 0.020355325179967267 0 0.00014275944058422232 0.019642862517784975 0 -2.8781218226764463e-05 0.021551365301092661 0 -0.0007891619134194034 0.020862585736999343 0 -2.2319256350911535e-05 0.020835222804333062 0 -2.8781218226764463e-05 0.021551365301092661 0 -2.2319256350911535e-05 0.020835222804333062 0 0.00082299229341739773 0.021187315623499094 0 -2.2319256350911535e-05 0.020835222804333062 0 0.00082299229341739773 0.021187315623499094 0 0.00045970073137881624 0.020355325179967267 0 0.0016336643406222031 0.021041060318681918 0 0.00082299229341739773 0.021187315623499094 0 0.0012337119860982757 0.020492433477843668 0 0.0016336643406222031 0.021041060318681918 0 0.0013554572242862066 0.021813331478551353 0 0.00082299229341739773 0.021187315623499094 0 0.00082299229341739773 0.021187315623499094 0 0.0012337119860982757 0.020492433477843668 0 0.00045970073137881624 0.020355325179967267 0 0.0012337119860982757 0.020492433477843668 0 0.00045970073137881624 0.020355325179967267 0 0.0012378198984493761 0.019799138985755409 0 0.00050344248023722411 0.0202109857415728 0 0.001064998208191314 0.019928153417492381 0 0.00095629240335515936 0.019345191759361228 0 0.00039189194996223209 0.019066599669776786 0 0.00014275944058422232 0.019642862517784975 0 0.00045970073137881624 0.020355325179967267 0 0.00095629240335515936 0.019345191759361228 0 0.00014275944058422232 0.019642862517784975 0 0.0019033974991292063 0.020212201587376123 0 0.0012337119860982757 0.020492433477843668 0 0.0012378198984493761 0.019799138985755409 0 0.0014541932162281622 0.01864059573107113 0 0.00095629240335515936 0.019345191759361228 0 0.00076293055517550788 0.018739753173952888 0 0.0011772789125873632 0.017139626415482116 0 0.001064998208191314 0.019928153417492381 0 0.00019071988974163072 0.018583784008612627 0 0.00076293055517550788 0.018739753173952888 0 0.00039189194996223209 0.019066599669776786 0 0.00095629240335515936 0.019345191759361228 0 0.00076293055517550788 0.018739753173952888 0 0.00039189194996223209 0.019066599669776786 0 0.00019071988974163072 0.018583784008612627 0 0.00039189194996223209 0.019066599669776786 0 -0.00013351093746170412 0.0191223057070634 0 0.00019071988974163072 0.018583784008612627 0 -0.00013351093746170412 0.0191223057070634 0 -0.0003010789006844652 0.018774574999521624 0 -0.00013351093746170412 0.0191223057070634 0 -0.0003010789006844652 0.018774574999521624 0 -0.00038661850939600956 0.019293274252365759 0 -0.0003010789006844652 0.018774574999521624 0 -0.00038661850939600956 0.019293274252365759 0 -0.00058029389315387872 0.018967807498548223 0 -0.00010925281813608953 0.019116101051475303 0 -0.000561863157970154 0.01996383919046283 0 -0.000561863157970154 0.01996383919046283 0 -0.00050195627338780351 0.019695077966594435 0 -0.00050998736334554738 0.020036484004531806 0 -0.000561863157970154 0.01996383919046283 0 -0.0003893585585835347 0.020200731158085943 0 -0.00079779380767534564 0.019605585290160973 0 0.00014275944058422232 0.019642862517784975 0 -0.00013351093746170412 0.0191223057070634 0 -0.00079779380767534564 0.019605585290160973 0 0.00014275944058422232 0.019642862517784975 0 0.00039189194996223209 0.019066599669776786 0 -0.00013351093746170412 0.0191223057070634 0 0.00014275944058422232 0.019642862517784975 0 -0.00064258137178713757 0.022060629685095035 0 -0.00040190167225978622 0.022027704523725499 0 -0.00063499964614547298 0.021829006703186521 0 0.00023121353609814978 0.022872832735912816 0 0.0002387639717879489 0.022881968173601712 0 0.00024370372529475902 0.022875441144259927 0 -8.5044623990226549e-05 0.022395159169597494 0 -0.00025585665805831937 0.021937148414948357 0 -0.00066693000451003258 0.021489215390680654 0 -0.00025585665805831937 0.021937148414948357 0 -0.000561863157970154 0.01996383919046283 0 -0.000268411770014811 0.021669028103237082 0 -7.5573047038732653e-05 0.020860491875342443 0 -0.00044903345367029994 0.020882207614453693 0 -0.00058259822063215061 0.021244214787988637 0 -0.00044903345367029994 0.020882207614453693 0 -0.00068269598257795052 0.020616803195716352 0 -0.00069106436999680589 0.021153183862381207 0 -0.00044903345367029994 0.020882207614453693 0 -0.00069106436999680589 0.021153183862381207 0 -0.00058259822063215061 0.021244214787988637 0 -7.5573047038732653e-05 0.020860491875342443 0 -0.00044903345367029994 0.020882207614453693 0 -0.00037322940531425643 0.020471386264759785 0 -0.00044903345367029994 0.020882207614453693 0 -0.00068269598257795052 0.020616803195716352 0 -0.00037322940531425643 0.020471386264759785 0 -0.00075458784304652054 0.018639603201859749 0 -0.0003010789006844652 0.018774574999521624 0 -0.00058029389315387872 0.018967807498548223 0 -0.00067129225925074921 0.020078010972044057 0 -0.00068269598257795052 0.020616803195716352 0 -0.00037322940531425643 0.020471386264759785 0 -0.00046768919731561375 0.019860997523151638 0 -0.00066693000451003258 0.021489215390680654 0 -0.00046768919731561375 0.019860997523151638 0 -0.00050195627338780351 0.019695077966594435 0 -0.00064258137178713757 0.022060629685095035 0 -0.0005167113160364984 0.022169346698121928 0 -0.00040190167225978622 0.022027704523725499 0 -0.00050574476915984815 0.022310419798921542 0 -0.00064300966637285235 0.022299885623619019 0 -0.0005167113160364984 0.022169346698121928 0 -0.0005167113160364984 0.022169346698121928 0 -0.00038620237760620719 0.022248995315606219 0 -0.00040190167225978622 0.022027704523725499 0 -0.00064300966637285235 0.022299885623619019 0 -0.00064258137178713757 0.022060629685095035 0 -0.0005167113160364984 0.022169346698121928 0 -0.00050574476915984815 0.022310419798921542 0 -0.0005167113160364984 0.022169346698121928 0 -0.00038620237760620719 0.022248995315606219 0 0.00022076155662602705 0.022874686973605646 0 0.00023121353609814978 0.022872832735912816 0 0.00022437014475569549 0.022876295699825116 0 -8.8154964562709242e-05 0.023464241968728709 0 -8.5044623990226549e-05 0.022395159169597494 0 -0.00026557894901864387 0.022322395625323732 0 -0.00038620237760620719 0.022248995315606219 0 -0.0001535410482325758 0.022232287834562259 0 -0.00038620237760620719 0.022248995315606219 0 -0.0001535410482325758 0.022232287834562259 0 -0.00040190167225978622 0.022027704523725499 0 0.00014687219168990433 0.024830837237228939 0 3.1767020651425329e-05 0.024884286582564905 0 1.9563244489008275e-05 0.024342885213678413 0 -8.8154964562709242e-05 0.023464241968728709 0 0.00013789910080579652 0.023693422218516957 0 0.00015629690819414315 0.024860042155770902 0 0.00014687219168990433 0.024830837237228939 0 3.1767020651425329e-05 0.024884286582564905 0 0.00014687219168990433 0.024830837237228939 0 1.9563244489008275e-05 0.024342885213678413 0 0.0003787394163909842 0.024329919808854211 0 0.00022076155662602705 0.022874686973605646 0 0.00021704304097954077 0.022879611031629579 0 0.00022437014475569549 0.022876295699825116 0 0.00023121353609814978 0.022872832735912816 0 0.00023043953487306067 0.022881986430489956 0 0.0002387639717879489 0.022881968173601712 0 0.00023121353609814978 0.022872832735912816 0 0.00022437014475569549 0.022876295699825116 0 0.00023043953487306067 0.022881986430489956 0 0.00021704304097954077 0.022879611031629579 0 0.00022437014475569549 0.022876295699825116 0 0.00023043953487306067 0.022881986430489956 0 0.00023043953487306067 0.022881986430489956 0 0.00023753629705722029 0.022891095283498884 0 0.0002387639717879489 0.022881968173601712 0 0.00023043953487306067 0.022881986430489956 0 0.00022995842288640709 0.022893516922578214 0 0.00023753629705722029 0.022891095283498884 0 0.00021704304097954077 0.022879611031629579 0 0.00023043953487306067 0.022881986430489956 0 0.00022995842288640709 0.022893516922578214 0 0.00022995842288640709 0.022893516922578214 0 0.00022312094099844108 0.022907885391052877 0 0.0002415531788042741 0.022903603794325121 0 0.00022995842288640709 0.022893516922578214 0 0.00023753629705722029 0.022891095283498884 0 0.0002415531788042741 0.022903603794325121 0 0.00023753629705722029 0.022891095283498884 0 0.0002415531788042741 0.022903603794325121 0 0.00024267659631517158 0.022893885996791631 0 0.00013789910080579652 0.023693422218516957 0 0.00014764732172968989 0.023297329589388582 0 0.00021704304097954077 0.022879611031629579 0 0.00022995842288640709 0.022893516922578214 0 0.00022312094099844108 0.022907885391052877 0 0.00021704304097954077 0.022879611031629579 0 0.00018760883147908182 0.022923718752003237 0 0.00022312094099844108 0.022907885391052877 0 1.9563244489008275e-05 0.024342885213678413 0 9.3989743797480188e-05 0.023710184549252698 0 0.00033217124451018838 0.023957893588702137 0 0.00018760883147908182 0.022923718752003237 0 0.00025355617032931445 0.022920916111033907 0 0.00025111636806831602 0.022975667001394556 0 0.00018760883147908182 0.022923718752003237 0 0.00022312094099844108 0.022907885391052877 0 0.00025355617032931445 0.022920916111033907 0 0.00026296556164737042 0.022892828316162642 0 0.00038068718471390172 0.022844495929127212 0 0.0002415531788042741 0.022903603794325121 0 0.00025355617032931445 0.022920916111033907 0 0.00024267659631517158 0.022893885996791631 0 0.00025355617032931445 0.022920916111033907 0 0.00041484722886688587 0.022833936402388788 0 0.00047932030807343724 0.022679894218808009 0 0.00022312094099844108 0.022907885391052877 0 0.0002415531788042741 0.022903603794325121 0 0.00025355617032931445 0.022920916111033907 0 0.00025355617032931445 0.022920916111033907 0 0.00041484722886688587 0.022833936402388788 0 0.00031943580707468342 0.022999424026342356 0 0.0005912499831731866 0.022750406247245197 0 0.00034673227504711962 0.02294162710080953 0 0.00041484722886688587 0.022833936402388788 0 0.00060551918744085624 0.022733926272033435 0 0.00031943580707468342 0.022999424026342356 0 0.00041484722886688587 0.022833936402388788 0 0.00060551918744085624 0.022733926272033435 0 0.00047932030807343724 0.022679894218808009 0 0.00024267659631517158 0.022893885996791631 0 0.00024390829231932276 0.022876047881471181 0 0.00024526807254411431 0.022874748601906469 0 0.00060551918744085624 0.022733926272033435 0 0.00047932030807343724 0.022679894218808009 0 0.00063438411908494426 0.022587881848772379 0 0.00038068718471390172 0.022844495929127212 0 -0.000268411770014811 0.021669028103237082 0 0.00023753629705722029 0.022891095283498884 0 0.00024267659631517158 0.022893885996791631 0 0.0002387639717879489 0.022881968173601712 0 0.00024267659631517158 0.022893885996791631 0 0.0002387639717879489 0.022881968173601712 0 0.00024390829231932276 0.022876047881471181 0 0.0002387639717879489 0.022881968173601712 0 0.00024370372529475902 0.022875441144259927 0 0.00024390829231932276 0.022876047881471181 0 -0.0007891619134194034 0.020862585736999343 0 -0.00089540298035461899 0.020238540697479501 0 -0.001509377249886162 0.020224641462175869 0 0.00072960322010432832 0.022686351811559004 0 0.00060551918744085624 0.022733926272033435 0 0.00063438411908494426 0.022587881848772379 0 -0.00089540298035461899 0.020238540697479501 0 -0.00079622490006455902 0.019693444046161877 0 -0.001509377249886162 0.020224641462175869 0 -7.1750151606279054e-05 0.021725506506248229 0 -0.000268411770014811 0.021669028103237082 0 -0.00025585665805831937 0.021937148414948357 0 -0.000268411770014811 0.021669028103237082 0 -0.00025585665805831937 0.021937148414948357 0 -0.00023796587446574719 0.022072959771113482 0 0.00024354252168034041 0.022873447235208819 0 0.00024390829231932276 0.022876047881471181 0 0.00024526807254411431 0.022874748601906469 0 0.00072960322010432832 0.022686351811559004 0 0.00060551918744085624 0.022733926272033435 0 0.00070613499473841238 0.022777210661509627 0 0.00070613499473841238 0.022777210661509627 0 0.0005963329883815 0.022872190837666718 0 0.00068589657256233302 0.022966333487296403 0 0.00060551918744085624 0.022733926272033435 0 0.00070613499473841238 0.022777210661509627 0 0.0005963329883815 0.022872190837666718 0 0.0005963329883815 0.022872190837666718 0 0.00047927688102656827 0.023051497246470227 0 0.00068589657256233302 0.022966333487296403 0 0.0005963329883815 0.022872190837666718 0 0.00047927688102656827 0.023051497246470227 0 0.0003856532533144255 0.022870184720168243 0 0.00060551918744085624 0.022733926272033435 0 0.0005963329883815 0.022872190837666718 0 0.0003856532533144255 0.022870184720168243 0 0.00047927688102656827 0.023051497246470227 0 0.00049148901110204388 0.02332479373218967 0 0.00068589657256233302 0.022966333487296403 0 0.00049148901110204388 0.02332479373218967 0 0.00068589657256233302 0.022966333487296403 0 0.00062122084795211176 0.023607103221115075 0 0.00068323399007532478 0.02268906398179335 0 0.00068589657256233302 0.022966333487296403 0 0.00058332172740938721 0.022851705480746214 0 0.00068323399007532478 0.02268906398179335 0 0.00070613499473841238 0.022777210661509627 0 0.00068589657256233302 0.022966333487296403 0 0.00067849800319114877 0.022980538087386215 0 0.00073532288356811869 0.023237140780714604 0 0.00068589657256233302 0.022966333487296403 0 0.00090308095524679769 0.023625026737979924 0 0.00062122084795211176 0.023607103221115075 0 0.00049148901110204388 0.02332479373218967 0 0.00062122084795211176 0.023607103221115075 0 0.00043618910562387729 0.023641681415302887 0 0.00062122084795211176 0.023607103221115075 0 0.0004574715758896896 0.023869747088877187 0 0.00043618910562387729 0.023641681415302887 0 0.00064684158172294076 0.023908246798394119 0 0.0004574715758896896 0.023869747088877187 0 0.00040548063677080151 0.024062296713439693 0 0.00062122084795211176 0.023607103221115075 0 0.00064684158172294076 0.023908246798394119 0 0.0004574715758896896 0.023869747088877187 0 0.00090308095524679769 0.023625026737979924 0 0.00064684158172294076 0.023908246798394119 0 0.00089901621684592141 0.023889133156380696 0 0.00090308095524679769 0.023625026737979924 0 0.00062122084795211176 0.023607103221115075 0 0.00064684158172294076 0.023908246798394119 0 0.00020324060287351883 0.024093869835202932 0 0.00030631834219789413 0.024094954660044843 0 0.00031182940859518629 0.023883861479026044 0 0.00020324060287351883 0.024093869835202932 0 0.00031182940859518629 0.023883861479026044 0 0.00015318285572059982 0.023871534644352099 0 0.00020324060287351883 0.024093869835202932 0 4.465312934079464e-05 0.024212385757586923 0 0.00015318285572059982 0.023871534644352099 0 0.00020324060287351883 0.024093869835202932 0 4.465312934079464e-05 0.024212385757586923 0 0.00014024685959139406 0.024226283548495035 0 0.00014024685959139406 0.024226283548495035 0 0.00022024535047425909 0.02423410155929558 0 0.00011764425709764986 0.024346381187658216 0 0.00020324060287351883 0.024093869835202932 0 0.00014024685959139406 0.024226283548495035 0 0.00022024535047425909 0.02423410155929558 0 4.465312934079464e-05 0.024212385757586923 0 0.00014024685959139406 0.024226283548495035 0 0.00011764425709764986 0.024346381187658216 0 0.00020324060287351883 0.024093869835202932 0 0.00022024535047425909 0.02423410155929558 0 0.00030631834219789413 0.024094954660044843 0 0.00030631834219789413 0.024094954660044843 0 0.0004574715758896896 0.023869747088877187 0 0.00040548063677080151 0.024062296713439693 0 0.0004574715758896896 0.023869747088877187 0 0.00031182940859518629 0.023883861479026044 0 0.00043618910562387729 0.023641681415302887 0 0.00030631834219789413 0.024094954660044843 0 0.0004574715758896896 0.023869747088877187 0 0.00031182940859518629 0.023883861479026044 0 0.00031182940859518629 0.023883861479026044 0 0.00043618910562387729 0.023641681415302887 0 0.00027843740452170859 0.023639678123662106 0 0.00049148901110204388 0.02332479373218967 0 0.00043618910562387729 0.023641681415302887 0 0.00036559886542053728 0.02344515606757451 0 0.00043618910562387729 0.023641681415302887 0 0.00036559886542053728 0.02344515606757451 0 0.00027843740452170859 0.023639678123662106 0 0.00036559886542053728 0.02344515606757451 0 0.00027843740452170859 0.023639678123662106 0 0.00022279782874073329 0.023385157171965921 0 0.00027843740452170859 0.023639678123662106 0 0.00012905440477507275 0.023602222234142236 0 0.00022279782874073329 0.023385157171965921 0 0.00031182940859518629 0.023883861479026044 0 0.00027843740452170859 0.023639678123662106 0 0.00015318285572059982 0.023871534644352099 0 0.00027843740452170859 0.023639678123662106 0 0.00012905440477507275 0.023602222234142236 0 0.00015318285572059982 0.023871534644352099 0 0.00012905440477507275 0.023602222234142236 0 0.00015318285572059982 0.023871534644352099 0 -4.3650945933462775e-05 0.023710558671672054 0 4.465312934079464e-05 0.024212385757586923 0 0.00015318285572059982 0.023871534644352099 0 -4.3650945933462775e-05 0.023710558671672054 0 0.00012905440477507275 0.023602222234142236 0 -7.4999435025715041e-05 0.023443955157277836 0 -4.3650945933462775e-05 0.023710558671672054 0 0.00012905440477507275 0.023602222234142236 0 6.8876947723054788e-05 0.023350885320340433 0 -7.4999435025715041e-05 0.023443955157277836 0 6.8876947723054788e-05 0.023350885320340433 0 -7.4999435025715041e-05 0.023443955157277836 0 2.5532495608112118e-05 0.023121775785216972 0 0.00019107411616522426 0.023184877504484766 0 2.5532495608112118e-05 0.023121775785216972 0 0.00030212764940012896 0.023077517784332143 0 0.00022279782874073329 0.023385157171965921 0 0.00019107411616522426 0.023184877504484766 0 0.00012678207378379359 0.023260958726792062 0 6.8876947723054788e-05 0.023350885320340433 0 0.00022279782874073329 0.023385157171965921 0 0.00012678207378379359 0.023260958726792062 0 0.00012905440477507275 0.023602222234142236 0 6.8876947723054788e-05 0.023350885320340433 0 0.00022279782874073329 0.023385157171965921 0 0.00019107411616522426 0.023184877504484766 0 0.00012678207378379359 0.023260958726792062 0 2.5532495608112118e-05 0.023121775785216972 0 6.8876947723054788e-05 0.023350885320340433 0 0.00012678207378379359 0.023260958726792062 0 2.5532495608112118e-05 0.023121775785216972 0 0.00049148901110204388 0.02332479373218967 0 0.00036559886542053728 0.02344515606757451 0 0.00035641137958855319 0.023237608922680213 0 0.00022279782874073329 0.023385157171965921 0 0.00019107411616522426 0.023184877504484766 0 0.00035641137958855319 0.023237608922680213 0 0.00036559886542053728 0.02344515606757451 0 0.00022279782874073329 0.023385157171965921 0 0.00035641137958855319 0.023237608922680213 0 0.00019107411616522426 0.023184877504484766 0 0.00035641137958855319 0.023237608922680213 0 0.00030212764940012896 0.023077517784332143 0 0.00047927688102656827 0.023051497246470227 0 0.00035641137958855319 0.023237608922680213 0 0.00030212764940012896 0.023077517784332143 0 0.00047927688102656827 0.023051497246470227 0 0.00049148901110204388 0.02332479373218967 0 0.00035641137958855319 0.023237608922680213 0 2.5532495608112118e-05 0.023121775785216972 0 0.00030212764940012896 0.023077517784332143 0 0.0003856532533144255 0.022870184720168243 0 0.00047927688102656827 0.023051497246470227 0 0.00030212764940012896 0.023077517784332143 0 0.0003856532533144255 0.022870184720168243 0 0.00025111636806831602 0.022975667001394556 0 0.00031943580707468342 0.022999424026342356 0 0.00022006052364209323 0.023016966382943427 0 0.00025355617032931445 0.022920916111033907 0 0.00025111636806831602 0.022975667001394556 0 0.00031943580707468342 0.022999424026342356 0 0.00014764732172968989 0.023297329589388582 0 0.0002086435286178093 0.023107224984979833 0 0.00018760883147908182 0.022923718752003237 0 0.00025111636806831602 0.022975667001394556 0 0.00022006052364209323 0.023016966382943427 0 0.00011237040964403866 0.023016810537185944 0 0.00034673227504711962 0.02294162710080953 0 0.00017048266340146756 0.023080652696370607 0 0.00031943580707468342 0.022999424026342356 0 0.00022006052364209323 0.023016966382943427 0 0.00018760883147908182 0.022923718752003237 0 0.00022006052364209323 0.023016966382943427 0 0.00021966228591480897 0.023090428048160139 0 0.00017048266340146756 0.023080652696370607 0 0.00022006052364209323 0.023016966382943427 0 0.00021966228591480897 0.023090428048160139 0 9.3989743797480188e-05 0.023710184549252698 0 0.00040056647492790114 0.02344674554150632 0 0.00021966228591480897 0.023090428048160139 0 0.00040056647492790114 0.02344674554150632 0 0.00050400921322399351 0.023153172763855045 0 0.00021966228591480897 0.023090428048160139 0 0.00040056647492790114 0.02344674554150632 0 0.00050400921322399351 0.023153172763855045 0 0.00085187466030853926 0.023260489479473165 0 0.00040056647492790114 0.02344674554150632 0 0.00085187466030853926 0.023260489479473165 0 0.00062974276546336433 0.023780401732969483 0 6.9919685931404645e-05 0.024189154465713732 0 0.00022896455171095899 0.024414408911883068 0 -5.5851298082507717e-05 0.024435047689595507 0 0.00020962307247723597 0.024313981913887985 0 9.3427487080869018e-05 0.02378811994230192 0 0.00050400921322399351 0.023153172763855045 0 0.00085187466030853926 0.023260489479473165 0 0.00051216686623852155 0.022853713067655646 0 0.00011237040964403866 0.023016810537185944 0 9.3427487080869018e-05 0.02378811994230192 0 -7.4999435025715041e-05 0.023443955157277836 0 2.5532495608112118e-05 0.023121775785216972 0 -0.00055935042449533246 0.023433264720357873 0 0.00017048266340146756 0.023080652696370607 0 0.00051216686623852155 0.022853713067655646 0 0.00021966228591480897 0.023090428048160139 0 0.00050400921322399351 0.023153172763855045 0 0.00051216686623852155 0.022853713067655646 0 0.00021966228591480897 0.023090428048160139 0 4.465312934079464e-05 0.024212385757586923 0 -0.00055935042449533246 0.023433264720357873 0 -4.3650945933462775e-05 0.023710558671672054 0 4.465312934079464e-05 0.024212385757586923 0 5.2079091848622113e-05 0.024488015008973005 0 6.5854365507919094e-05 0.024433281999810135 0 -7.4999435025715041e-05 0.023443955157277836 0 -0.00055935042449533246 0.023433264720357873 0 -4.3650945933462775e-05 0.023710558671672054 0 -7.187783159929827e-05 0.024251089032955673 0 9.3427487080869018e-05 0.02378811994230192 0 5.2079091848622113e-05 0.024488015008973005 0 6.5854365507919094e-05 0.024433281999810135 0 3.7271840646960716e-05 0.024508716366002457 0 0.00022896455171095899 0.024414408911883068 0 -5.5851298082507717e-05 0.024435047689595507 0 2.4340359218753715e-05 0.02454931390393806 0 9.3427487080869018e-05 0.02378811994230192 0 3.0738262988545186e-06 0.02459572164639447 0 6.5854365507919094e-05 0.024433281999810135 0 8.4018362815320828e-06 0.024700687525630496 0 3.7271840646960716e-05 0.024508716366002457 0 6.5854365507919094e-05 0.024433281999810135 0 8.4018362815320828e-06 0.024700687525630496 0 4.3591899209878077e-05 0.02457653160478682 0 6.5854365507919094e-05 0.024433281999810135 0 7.0336622759598907e-05 0.024408358672188709 0 4.3591899209878077e-05 0.02457653160478682 0 4.465312934079464e-05 0.024212385757586923 0 6.5854365507919094e-05 0.024433281999810135 0 7.0336622759598907e-05 0.024408358672188709 0 4.465312934079464e-05 0.024212385757586923 0 7.0336622759598907e-05 0.024408358672188709 0 0.00011764425709764986 0.024346381187658216 0 3.0480408428439266e-07 0.024999319486079762 0 3.3088773384584407e-10 0.024999999592171064 0 2.160168062642262e-10 0.024999996063077908 0 -3.8130007411732899e-05 0.024761527967847433 0 -1.6074663170597207e-07 0.024999527478297062 0 -2.529695447010481e-05 0.024819274589179045 0 -5.5768574904652955e-05 0.024785981268070287 0 -1.2887456214458041e-08 0.024999856120357492 0 -3.8130007411732899e-05 0.024761527967847433 0 -2.529695447010481e-05 0.024819274589179045 0 8.4018362815320828e-06 0.024700687525630496 0 -5.5768574904652955e-05 0.024785981268070287 0 3.0738262988545186e-06 0.02459572164639447 0 -3.8130007411732899e-05 0.024761527967847433 0 8.4018362815320828e-06 0.024700687525630496 0 3.7271840646960716e-05 0.024508716366002457 0 -5.5768574904652955e-05 0.024785981268070287 0 -6.6365809073653796e-05 0.024785979682504004 0 -0.00018099631022314231 0.024683500957984106 0 -5.5851298082507717e-05 0.024435047689595507 0 2.4340359218753715e-05 0.02454931390393806 0 3.0480408428439266e-07 0.024999319486079762 0 1.3838024904273331e-06 0.024997492226871521 0 2.160168062642262e-10 0.024999996063077908 0 1.3838024904273331e-06 0.024997492226871521 0 2.160168062642262e-10 0.024999996063077908 0 1.4230983287161846e-06 0.024997998421163677 0 2.0250896791068141e-06 0.024994649928026916 0 1.3838024904273331e-06 0.024997492226871521 0 1.4230983287161846e-06 0.024997998421163677 0 0.00020962307247723597 0.024313981913887985 0 -6.6365809073653796e-05 0.024785979682504004 0 2.0250896791068141e-06 0.024994649928026916 0 1.4230983287161846e-06 0.024997998421163677 0 1.9215432851760307e-06 0.024999699486567033 0 0.00020962307247723597 0.024313981913887985 0 5.8424072597304709e-05 0.025110325521044037 0 2.160168062642262e-10 0.024999996063077908 0 1.4230983287161846e-06 0.024997998421163677 0 3.5665883638960371e-09 0.024999996979048804 0 1.4230983287161846e-06 0.024997998421163677 0 3.5665883638960371e-09 0.024999996979048804 0 3.6381280275727561e-06 0.025001080253088427 0 -9.3715334084570582e-06 0.024973726390822733 0 5.8424072597304709e-05 0.025110325521044037 0 1.4230983287161846e-06 0.024997998421163677 0 3.6381280275727561e-06 0.025001080253088427 0 1.9215432851760307e-06 0.024999699486567033 0 3.5665883638960371e-09 0.024999996979048804 0 3.6381280275727561e-06 0.025001080253088427 0 1.4550053195095259e-08 0.02500001929092701 0 3.6381280275727561e-06 0.025001080253088427 0 8.0719626052477137e-06 0.025003056201318392 0 1.9215432851760307e-06 0.024999699486567033 0 8.0719626052477137e-06 0.025003056201318392 0 1.4550053195095259e-08 0.02500001929092701 0 1.9918019200779701e-05 0.024986668488297836 0 3.6381280275727561e-06 0.025001080253088427 0 8.0719626052477137e-06 0.025003056201318392 0 1.4550053195095259e-08 0.02500001929092701 0 8.0719626052477137e-06 0.025003056201318392 0 5.0798710709423351e-05 0.025006046927918628 0 4.3065458543888144e-05 0.025039327860222952 0 8.0719626052477137e-06 0.025003056201318392 0 5.0798710709423351e-05 0.025006046927918628 0 1.9918019200779701e-05 0.024986668488297836 0 5.0798710709423351e-05 0.025006046927918628 0 1.9918019200779701e-05 0.024986668488297836 0 6.479002426993866e-05 0.024980199495798872 0 5.0798710709423351e-05 0.025006046927918628 0 4.3065458543888144e-05 0.025039327860222952 0 9.8359768899984018e-05 0.025027111989678455 0 7.0314672463783515e-05 0.025064941980738234 0 4.3065458543888144e-05 0.025039327860222952 0 9.8359768899984018e-05 0.025027111989678455 0 0.00020962307247723597 0.024313981913887985 0 0.00040281488791905104 0.024363880289226383 0 9.3989743797480188e-05 0.023710184549252698 0 0.00040056647492790114 0.02344674554150632 0 0.00033217124451018838 0.023957893588702137 0 0.00040056647492790114 0.02344674554150632 0 0.00062974276546336433 0.023780401732969483 0 0.00033217124451018838 0.023957893588702137 0 0.00062974276546336433 0.023780401732969483 0 0.00033217124451018838 0.023957893588702137 0 0.0003787394163909842 0.024329919808854211 0 0.00040281488791905104 0.024363880289226383 0 0.00025035159342933866 0.024659252902338641 0 1.9563244489008275e-05 0.024342885213678413 0 0.00033217124451018838 0.023957893588702137 0 0.0003787394163909842 0.024329919808854211 0 5.0798710709423351e-05 0.025006046927918628 0 9.8359768899984018e-05 0.025027111989678455 0 9.1313817906016811e-05 0.024986638032929262 0 9.8359768899984018e-05 0.025027111989678455 0 9.1313817906016811e-05 0.024986638032929262 0 0.00014742142486661017 0.024966534548438668 0 5.0798710709423351e-05 0.025006046927918628 0 9.1313817906016811e-05 0.024986638032929262 0 6.479002426993866e-05 0.024980199495798872 0 9.1313817906016811e-05 0.024986638032929262 0 0.00010571543056610968 0.024942482892067724 0 6.479002426993866e-05 0.024980199495798872 0 9.1313817906016811e-05 0.024986638032929262 0 0.00010571543056610968 0.024942482892067724 0 0.00014742142486661017 0.024966534548438668 0 0.00010571543056610968 0.024942482892067724 0 6.479002426993866e-05 0.024980199495798872 0 6.674749620791043e-05 0.024955214668775112 0 0.00015748651118620806 0.024821752107637107 0 0.00025035159342933866 0.024659252902338641 0 0.00014687219168990433 0.024830837237228939 0 0.00014742142486661017 0.024966534548438668 0 0.00014044336317063644 0.024898832734297324 0 0.00010571543056610968 0.024942482892067724 0 0.00014742142486661017 0.024966534548438668 0 0.00014044336317063644 0.024898832734297324 0 0.00014687219168990433 0.024830837237228939 0 0.00014044336317063644 0.024898832734297324 0 0.00015064987011952308 0.024868204842421353 0 0.00013345200718789922 0.024896018176859349 0 0.00014044336317063644 0.024898832734297324 0 0.00015064987011952308 0.024868204842421353 0 0.00010571543056610968 0.024942482892067724 0 0.00013345200718789922 0.024896018176859349 0 0.00014044336317063644 0.024898832734297324 0 0.00013345200718789922 0.024896018176859349 0 0.00015736989642523775 0.024870710574184579 0 0.00015064987011952308 0.024868204842421353 0 0.00012767363712063367 0.024883791647590806 0 0.00013345200718789922 0.024896018176859349 0 0.00015736989642523775 0.024870710574184579 0 0.00015629690819414315 0.024860042155770902 0 0.00015736989642523775 0.024870710574184579 0 0.00015064987011952308 0.024868204842421353 0 0.00015629690819414315 0.024860042155770902 0 0.00014687219168990433 0.024830837237228939 0 0.00015064987011952308 0.024868204842421353 0 0.0001031763245499548 0.024917983193060541 0 5.3824622538375171e-05 0.024926666029381997 0 6.674749620791043e-05 0.024955214668775112 0 0.00010571543056610968 0.024942482892067724 0 0.0001031763245499548 0.024917983193060541 0 6.674749620791043e-05 0.024955214668775112 0 0.00010571543056610968 0.024942482892067724 0 0.00013345200718789922 0.024896018176859349 0 0.0001031763245499548 0.024917983193060541 0 0.00012767363712063367 0.024883791647590806 0 0.00013345200718789922 0.024896018176859349 0 0.0001031763245499548 0.024917983193060541 0 0.00012767363712063367 0.024883791647590806 0 0.0001031763245499548 0.024917983193060541 0 5.3824622538375171e-05 0.024926666029381997 0 5.3824622538375171e-05 0.024926666029381997 0 3.0824238453543303e-05 0.024962149897669129 0 6.674749620791043e-05 0.024955214668775112 0 5.3824622538375171e-05 0.024926666029381997 0 3.0824238453543303e-05 0.024962149897669129 0 7.7811964929047516e-07 0.024968710591457527 0 -2.5517354715838536e-05 0.024949933563602131 0 7.7811964929047516e-07 0.024968710591457527 0 -2.2570470803578933e-08 0.024999867396998499 0 7.7811964929047516e-07 0.024968710591457527 0 -2.2570470803578933e-08 0.024999867396998499 0 5.9201545768167973e-06 0.024984719715490267 0 3.0824238453543303e-05 0.024962149897669129 0 7.7811964929047516e-07 0.024968710591457527 0 5.9201545768167973e-06 0.024984719715490267 0 1.4550053195095259e-08 0.02500001929092701 0 -2.2570470803578933e-08 0.024999867396998499 0 5.9201545768167973e-06 0.024984719715490267 0 3.0824238453543303e-05 0.024962149897669129 0 5.9201545768167973e-06 0.024984719715490267 0 1.9918019200779701e-05 0.024986668488297836 0 1.4550053195095259e-08 0.02500001929092701 0 5.9201545768167973e-06 0.024984719715490267 0 1.9918019200779701e-05 0.024986668488297836 0 1.9918019200779701e-05 0.024986668488297836 0 6.479002426993866e-05 0.024980199495798872 0 6.674749620791043e-05 0.024955214668775112 0 3.0824238453543303e-05 0.024962149897669129 0 1.9918019200779701e-05 0.024986668488297836 0 6.674749620791043e-05 0.024955214668775112 0 4.4697951355863812e-06 0.024983870209358775 0 7.9258960767370642e-05 0.024776445590066545 0 -4.3864679753689194e-05 0.024841895265076432 0 -1.1500440247237814e-07 0.024999822288721194 0 4.4697951355863812e-06 0.024983870209358775 0 -4.3864679753689194e-05 0.024841895265076432 0 2.0534289089598053e-08 0.024999958233318825 0 7.6014441292503239e-05 0.024903117706758102 0 3.5255578296036168e-10 0.024999685182086121 0 0.00012029259340634012 0.024817224497145643 0 8.5379250667082601e-05 0.024970467175665163 0 -1.1500440247237814e-07 0.024999822288721194 0 5.9509174855929099e-08 0.02500007665695804 0 4.4697951355863812e-06 0.024983870209358775 0 0.00012029259340634012 0.024817224497145643 0 0.00038156235083250677 0.024678714959877748 0 0.00024023894944885714 0.024938849373716258 0 7.6014441292503239e-05 0.024903117706758102 0 0.0003497369879858469 0.024791957851453186 0 0.00038156235083250677 0.024678714959877748 0 0.00046592474593495838 0.024896758102375838 0 0.00024023894944885714 0.024938849373716258 0 0.00038156235083250677 0.024678714959877748 0 0.00068332334775342719 0.024776377150031285 0 0.00046592474593495838 0.024896758102375838 0 0.0003497369879858469 0.024791957851453186 0 0.00071843406222825174 0.0246496032037666 0 0.00038156235083250677 0.024678714959877748 0 0.00075683254227711604 0.024628364842208351 0 0.00068332334775342719 0.024776377150031285 0 0.0003089227771168412 0.024916616197270473 0 0.00030243095266983036 0.024530243036870784 0 0.00064534464676918384 0.024502481331001056 0 0.0003089227771168412 0.024916616197270473 0 0.00064534464676918384 0.024502481331001056 0 0.00075683254227711604 0.024628364842208351 0 0.0003089227771168412 0.024916616197270473 0 7.9258960767370642e-05 0.024776445590066545 0 0.00030243095266983036 0.024530243036870784 0 4.4697951355863812e-06 0.024983870209358775 0 0.0003089227771168412 0.024916616197270473 0 7.9258960767370642e-05 0.024776445590066545 0 7.9258960767370642e-05 0.024776445590066545 0 0.00030243095266983036 0.024530243036870784 0 -0.00010913002905163421 0.024634346269557156 0 0.00030243095266983036 0.024530243036870784 0 0.00059184322553991031 0.024217417384091333 0 0.00064534464676918384 0.024502481331001056 0 0.00059184322553991031 0.024217417384091333 0 0.00029808039728844676 0.024106941914293752 0 0.00066975690818227795 0.023569849772991654 0 0.00030243095266983036 0.024530243036870784 0 0.00059184322553991031 0.024217417384091333 0 0.00029808039728844676 0.024106941914293752 0 -0.00015964747526572945 0.024533281556122489 0 5.499011004292488e-05 0.024441177390583407 0 0.00030243095266983036 0.024530243036870784 0 0.00029808039728844676 0.024106941914293752 0 -0.00010913002905163421 0.024634346269557156 0 0.00029808039728844676 0.024106941914293752 0 -0.00010913002905163421 0.024634346269557156 0 5.1156550874535349e-05 0.023556365584643378 0 -0.00010913002905163421 0.024634346269557156 0 -5.4865907280215424e-05 0.024979137740341457 0 -0.00033220891500101459 0.024986448418204597 0 -0.00010913002905163421 0.024634346269557156 0 -1.1521365508298985e-05 0.024897426506772732 0 -5.4865907280215424e-05 0.024979137740341457 0 -0.00010913002905163421 0.024634346269557156 0 -4.3864679753689194e-05 0.024841895265076432 0 -1.1521365508298985e-05 0.024897426506772732 0 7.9258960767370642e-05 0.024776445590066545 0 -0.00010913002905163421 0.024634346269557156 0 -4.3864679753689194e-05 0.024841895265076432 0 -4.3864679753689194e-05 0.024841895265076432 0 -1.2474041994683207e-08 0.024999747492896098 0 -1.1521365508298985e-05 0.024897426506772732 0 -1.1500440247237814e-07 0.024999822288721194 0 -4.3864679753689194e-05 0.024841895265076432 0 -1.2474041994683207e-08 0.024999747492896098 0 -1.2474041994683207e-08 0.024999747492896098 0 -1.1521365508298985e-05 0.024897426506772732 0 6.144280235470709e-08 0.024999934777387829 0 -4.8588918816161046e-09 0.024999991872539311 0 -6.9282776365576547e-07 0.024990108549118404 0 -5.8045294613295544e-06 0.024974649287121554 0 4.0296715690046685e-08 0.024999986504934284 0 -7.0312258914592037e-05 0.025006387758524224 0 -1.1521365508298985e-05 0.024897426506772732 0 6.144280235470709e-08 0.024999934777387829 0 -5.4865907280215424e-05 0.024979137740341457 0 -6.9282776365576547e-07 0.024990108549118404 0 3.5320547695131212e-05 0.024937063513647557 0 5.3025502824023861e-05 0.024986628885019086 0 -7.0312258914592037e-05 0.025006387758524224 0 5.499011004292488e-05 0.024441177390583407 0 -6.9282776365576547e-07 0.024990108549118404 0 -4.3128580072598177e-06 0.024927752441914176 0 -5.8045294613295544e-06 0.024974649287121554 0 -6.9282776365576547e-07 0.024990108549118404 0 -4.3128580072598177e-06 0.024927752441914176 0 3.5320547695131212e-05 0.024937063513647557 0 -4.3128580072598177e-06 0.024927752441914176 0 1.5656543629360116e-05 0.024859807279725744 0 3.5320547695131212e-05 0.024937063513647557 0 -4.3128580072598177e-06 0.024927752441914176 0 -3.3170560500121377e-08 0.024999931193392704 0 -5.8045294613295544e-06 0.024974649287121554 0 -4.8588918816161046e-09 0.024999991872539311 0 -3.3170560500121377e-08 0.024999931193392704 0 -5.8045294613295544e-06 0.024974649287121554 0 -4.3128580072598177e-06 0.024927752441914176 0 -3.3170560500121377e-08 0.024999931193392704 0 -1.8746878477812463e-05 0.024903805812425597 0 -3.3170560500121377e-08 0.024999931193392704 0 3.7196899552715683e-09 0.024999909349540734 0 -1.8746878477812463e-05 0.024903805812425597 0 -1.8746878477812463e-05 0.024903805812425597 0 4.4378388318100871e-06 0.024779517600267146 0 1.5656543629360116e-05 0.024859807279725744 0 -4.3128580072598177e-06 0.024927752441914176 0 -1.8746878477812463e-05 0.024903805812425597 0 1.5656543629360116e-05 0.024859807279725744 0 -1.8746878477812463e-05 0.024903805812425597 0 4.4378388318100871e-06 0.024779517600267146 0 -2.6201371227894991e-05 0.024875688540787089 0 8.4018362815320828e-06 0.024700687525630496 0 4.4378388318100871e-06 0.024779517600267146 0 -2.6201371227894991e-05 0.024875688540787089 0 -2.529695447010481e-05 0.024819274589179045 0 8.4018362815320828e-06 0.024700687525630496 0 -2.6201371227894991e-05 0.024875688540787089 0 -1.6074663170597207e-07 0.024999527478297062 0 3.7196899552715683e-09 0.024999909349540734 0 -2.6201371227894991e-05 0.024875688540787089 0 -1.6074663170597207e-07 0.024999527478297062 0 -2.529695447010481e-05 0.024819274589179045 0 -2.6201371227894991e-05 0.024875688540787089 0 3.7196899552715683e-09 0.024999909349540734 0 -1.8746878477812463e-05 0.024903805812425597 0 -2.6201371227894991e-05 0.024875688540787089 0 0.00022024535047425909 0.02423410155929558 0 0.00011764425709764986 0.024346381187658216 0 0.00018020237225551693 0.024709203422173441 0 0.00011764425709764986 0.024346381187658216 0 7.7463619791404181e-05 0.024524749996319355 0 0.00018020237225551693 0.024709203422173441 0 7.7463619791404181e-05 0.024524749996319355 0 5.8966883791800456e-05 0.024729922941876332 0 0.00018020237225551693 0.024709203422173441 0 7.0336622759598907e-05 0.024408358672188709 0 0.00011764425709764986 0.024346381187658216 0 7.7463619791404181e-05 0.024524749996319355 0 7.0336622759598907e-05 0.024408358672188709 0 7.7463619791404181e-05 0.024524749996319355 0 4.3591899209878077e-05 0.02457653160478682 0 8.4018362815320828e-06 0.024700687525630496 0 4.4378388318100871e-06 0.024779517600267146 0 4.3591899209878077e-05 0.02457653160478682 0 4.4378388318100871e-06 0.024779517600267146 0 4.3591899209878077e-05 0.02457653160478682 0 5.8966883791800456e-05 0.024729922941876332 0 7.7463619791404181e-05 0.024524749996319355 0 4.3591899209878077e-05 0.02457653160478682 0 5.8966883791800456e-05 0.024729922941876332 0 5.8966883791800456e-05 0.024729922941876332 0 1.5656543629360116e-05 0.024859807279725744 0 0.00010583161704143433 0.024905130376592571 0 4.4378388318100871e-06 0.024779517600267146 0 5.8966883791800456e-05 0.024729922941876332 0 1.5656543629360116e-05 0.024859807279725744 0 5.8966883791800456e-05 0.024729922941876332 0 0.00018020237225551693 0.024709203422173441 0 0.00010583161704143433 0.024905130376592571 0 0.0002429841104877608 0.024195160971631123 0 0.00022886053344430644 0.024214865998806397 0 0.00025352582213758424 0.02420882067480111 0 0.00020245298657892825 0.024442437098764654 0 0.00016408697463303847 0.024582166539749484 0 0.00022886053344430644 0.024214865998806397 0 0.00024342876407571957 0.024232372336673195 0 0.00025352582213758424 0.02420882067480111 0 0.00010583161704143433 0.024905130376592571 0 3.5320547695131212e-05 0.024937063513647557 0 5.3025502824023861e-05 0.024986628885019086 0 0.00016408697463303847 0.024582166539749484 0 5.499011004292488e-05 0.024441177390583407 0 1.5656543629360116e-05 0.024859807279725744 0 0.00010583161704143433 0.024905130376592571 0 3.5320547695131212e-05 0.024937063513647557 0 0.00022886053344430644 0.024214865998806397 0 0.00021591542867813345 0.024236435241193864 0 0.00024342876407571957 0.024232372336673195 0 5.1156550874535349e-05 0.023556365584643378 0 0.00066975690818227795 0.023569849772991654 0 0.00077315923746923236 0.023297643659940959 0 5.499011004292488e-05 0.024441177390583407 0 0.00053857088133367297 0.023705660869790028 0 0.00029808039728844676 0.024106941914293752 0 5.1156550874535349e-05 0.023556365584643378 0 0.00066975690818227795 0.023569849772991654 0 0.00053857088133367297 0.023705660869790028 0 0.00068590787442954996 0.023566916620131804 0 0.00024342876407571957 0.024232372336673195 0 0.00027559832453654656 0.024234231093658531 0 0.00025352582213758424 0.02420882067480111 0 0.00077315923746923236 0.023297643659940959 0 0.0010497265620349368 0.022885780193913324 0 0.00092819581058076498 0.023179558256578962 0 0.00066975690818227795 0.023569849772991654 0 0.00077315923746923236 0.023297643659940959 0 0.00092819581058076498 0.023179558256578962 0 0.0010497265620349368 0.022885780193913324 0 0.0011767391729421782 0.022910725914186185 0 0.00092819581058076498 0.023179558256578962 0 0.00027559832453654656 0.024234231093658531 0 0.00028998126063055406 0.024209845771765253 0 0.00025352582213758424 0.02420882067480111 0 0.0002429841104877608 0.024195160971631123 0 0.00025352582213758424 0.02420882067480111 0 0.00024459568612267892 0.024198995319114267 0 0.00028998126063055406 0.024209845771765253 0 0.00025352582213758424 0.02420882067480111 0 0.00027132230638034959 0.02418599363186132 0 0.00025352582213758424 0.02420882067480111 0 0.00024459568612267892 0.024198995319114267 0 0.00027132230638034959 0.02418599363186132 0 0.00036508749358614824 0.02414265077049953 0 0.00023455034469177066 0.02419962057002252 0 0.00047039240144707668 0.024126241100302058 0 0.00040548063677080151 0.024062296713439693 0 0.00022190616176348213 0.024219564272022438 0 0.00030631834219789413 0.024094954660044843 0 0.00040548063677080151 0.024062296713439693 0 0.00022190616176348213 0.024219564272022438 0 0.00022024535047425909 0.02423410155929558 0 0.0002429841104877608 0.024195160971631123 0 0.00022190616176348213 0.024219564272022438 0 0.00022745161016288299 0.024275261818982249 0 0.00020245298657892825 0.024442437098764654 0 0.00024459568612267892 0.024198995319114267 0 0.00027132230638034959 0.02418599363186132 0 0.00022190616176348213 0.024219564272022438 0 0.00022024535047425909 0.02423410155929558 0 0.00030631834219789413 0.024094954660044843 0 0.00022190616176348213 0.024219564272022438 0 0.0002429841104877608 0.024195160971631123 0 0.00024459568612267892 0.024198995319114267 0 0.00022190616176348213 0.024219564272022438 0 0.00064684158172294076 0.023908246798394119 0 0.00070058305352771434 0.024017874293030254 0 0.00089901621684592141 0.023889133156380696 0 0.00064684158172294076 0.023908246798394119 0 0.00047039240144707668 0.024126241100302058 0 0.00040548063677080151 0.024062296713439693 0 0.00064684158172294076 0.023908246798394119 0 0.00047039240144707668 0.024126241100302058 0 0.00070058305352771434 0.024017874293030254 0 0.00028998126063055406 0.024209845771765253 0 0.00027132230638034959 0.02418599363186132 0 0.00033608048473107602 0.024193283139304425 0 0.00036508749358614824 0.02414265077049953 0 0.00043368489433884402 0.02427545432895048 0 0.00047039240144707668 0.024126241100302058 0 0.00070058305352771434 0.024017874293030254 0 0.00065807420447289069 0.024111917249560921 0 0.00070058305352771434 0.024017874293030254 0 0.00065807420447289069 0.024111917249560921 0 0.00078805955723379776 0.024031485368336047 0 0.00033608048473107602 0.024193283139304425 0 0.00033288442467444733 0.024236361392620281 0 0.0004157573331693878 0.024223741481776532 0 0.00065807420447289069 0.024111917249560921 0 0.00080089157635723416 0.024204193076967074 0 0.00078805955723379776 0.024031485368336047 0 0.00043368489433884402 0.02427545432895048 0 0.0012027707907733358 0.023241471969280243 0 0.00028998126063055406 0.024209845771765253 0 0.00033608048473107602 0.024193283139304425 0 0.00033288442467444733 0.024236361392620281 0 0.0010497265620349368 0.022885780193913324 0 0.001350125592607957 0.022535106086995972 0 0.0011767391729421782 0.022910725914186185 0 0.00068590787442954996 0.023566916620131804 0 0.00083594885773831623 0.023389250052008415 0 0.00027559832453654656 0.024234231093658531 0 0.00028998126063055406 0.024209845771765253 0 0.00033288442467444733 0.024236361392620281 0 0.001350125592607957 0.022535106086995972 0 0.0016477005248076522 0.022579400827599225 0 0.0017460409538704116 0.022268612133803534 0 0.00083594885773831623 0.023389250052008415 0 0.0012027707907733358 0.023241471969280243 0 0.0016336239032415274 0.022907017454211195 0 0.0014278553294568314 0.022940246505003418 0 0.0016477005248076522 0.022579400827599225 0 0.001378954470228331 0.022781124499813399 0 0.0014278553294568314 0.022940246505003418 0 0.0016477005248076522 0.022579400827599225 0 0.001350125592607957 0.022535106086995972 0 0.001378954470228331 0.022781124499813399 0 0.0016477005248076522 0.022579400827599225 0 0.0026375063834618768 0.021968964662156136 0 0.0024100022614891793 0.022520654549181084 0 0.0035200647991941994 0.021148804610855707 0 0.0040837565488553006 0.020955783745611602 0 0.0041136392157931894 0.020865435827040195 0 0.0016336239032415274 0.022907017454211195 0 0.0014278553294568314 0.022940246505003418 0 0.0012587090662888689 0.023136429176704908 0 0.0012316988870980333 0.023071471456532971 0 0.0012227398347439116 0.023110861464348563 0 0.0011762969631421726 0.023044562128001111 0 0.0016303384571109644 0.023180704417352958 0 0.0012228908082547695 0.023522147090565437 0 0.0012316988870980333 0.023071471456532971 0 0.0012227398347439116 0.023110861464348563 0 0.001259422027688351 0.023107393824061299 0 0.0011235188509701904 0.024475409440162594 0 0.0011566072780269409 0.024499866764593519 0 0.0010714152090268206 0.024496467928041513 0 0.0016303384571109644 0.023180704417352958 0 0.0022914274536678571 0.02277803490664479 0 0.0016303384571109644 0.023180704417352958 0 0.0024100022614891793 0.022520654549181084 0 0.0022593876417876199 0.022970522813036985 0 0.0020921707610772186 0.023027078006667309 0 0.0021397939932143542 0.022878341845301488 0 0.0014278553294568314 0.022940246505003418 0 0.0012587090662888689 0.023136429176704908 0 0.0012701303790904821 0.023089833336847353 0 0.0024100022614891793 0.022520654549181084 0 0.0022914274536678571 0.02277803490664479 0 0.0024100022614891793 0.022520654549181084 0 0.0022991426717259423 0.022686816279471216 0 0.0012316988870980333 0.023071471456532971 0 0.001259422027688351 0.023107393824061299 0 0.0012701303790904821 0.023089833336847353 0 0.0012316988870980333 0.023071471456532971 0 0.0012701303790904821 0.023089833336847353 0 0.0012714248053689824 0.022971102659633553 0 0.0014278553294568314 0.022940246505003418 0 0.0012701303790904821 0.023089833336847353 0 0.0012714248053689824 0.022971102659633553 0 0.0012316988870980333 0.023071471456532971 0 0.0012714248053689824 0.022971102659633553 0 0.0011762969631421726 0.023044562128001111 0 0.0012714248053689824 0.022971102659633553 0 0.0011762969631421726 0.023044562128001111 0 0.0011767391729421782 0.022910725914186185 0 0.001350125592607957 0.022535106086995972 0 0.001378954470228331 0.022781124499813399 0 0.0011767391729421782 0.022910725914186185 0 0.001378954470228331 0.022781124499813399 0 0.0014278553294568314 0.022940246505003418 0 0.0012714248053689824 0.022971102659633553 0 0.001378954470228331 0.022781124499813399 0 0.0012714248053689824 0.022971102659633553 0 0.0011767391729421782 0.022910725914186185 0 0.0011767391729421782 0.022910725914186185 0 0.0010052162896243694 0.023107553698259314 0 0.00092819581058076498 0.023179558256578962 0 0.0011762969631421726 0.023044562128001111 0 0.0011767391729421782 0.022910725914186185 0 0.0010052162896243694 0.023107553698259314 0 0.00066972070300633354 0.023516759748542507 0 0.00090021152776851134 0.023737533739002323 0 0.00066975690818227795 0.023569849772991654 0 0.0010052162896243694 0.023107553698259314 0 0.00092819581058076498 0.023179558256578962 0 0.00059184322553991031 0.024217417384091333 0 0.00066975690818227795 0.023569849772991654 0 0.00097181194831082477 0.024249843552118198 0 0.00097181194831082477 0.024249843552118198 0 0.00064534464676918384 0.024502481331001056 0 0.00090062058127018106 0.024502273591271207 0 0.00059184322553991031 0.024217417384091333 0 0.00097181194831082477 0.024249843552118198 0 0.00064534464676918384 0.024502481331001056 0 0.0016303384571109644 0.023180704417352958 0 0.00090021152776851134 0.023737533739002323 0 0.00097181194831082477 0.024249843552118198 0 0.00090062058127018106 0.024502273591271207 0 0.0010714152090268206 0.024496467928041513 0 0.0011114866759334412 0.024484459322106172 0 0.00097181194831082477 0.024249843552118198 0 0.0010714152090268206 0.024496467928041513 0 0.0012227398347439116 0.023110861464348563 0 0.0011762969631421726 0.023044562128001111 0 0.0010052162896243694 0.023107553698259314 0 0.00093629040746329942 0.024659449507475676 0 0.00099511213418382078 0.024815539384663084 0 0.0011566072780269409 0.024499866764593519 0 0.00090062058127018106 0.024502273591271207 0 0.00093629040746329942 0.024659449507475676 0 0.0010714152090268206 0.024496467928041513 0 0.00090062058127018106 0.024502273591271207 0 0.00093629040746329942 0.024659449507475676 0 0.00075683254227711604 0.024628364842208351 0 0.00064534464676918384 0.024502481331001056 0 0.00090062058127018106 0.024502273591271207 0 0.00075683254227711604 0.024628364842208351 0 0.00093629040746329942 0.024659449507475676 0 0.00075683254227711604 0.024628364842208351 0 0.00068332334775342719 0.024776377150031285 0 0.00068332334775342719 0.024776377150031285 0 0.00099511213418382078 0.024815539384663084 0 0.00071533847290620588 0.024948016232745274 0 0.00093629040746329942 0.024659449507475676 0 0.00068332334775342719 0.024776377150031285 0 0.00099511213418382078 0.024815539384663084 0 0.0027413791258584135 0.021623813951679144 0 0.0022653299537607583 0.021768961436022267 0 0.0023412630179002977 0.021447731275699801 0 0.0027413791258584135 0.021623813951679144 0 0.0022653299537607583 0.021768961436022267 0 0.0026086771396748513 0.022050665626710968 0 0.0030329447402531258 0.020876919491304966 0 0.0022914274536678571 0.02277803490664479 0 0.0035200647991941994 0.021148804610855707 0 0.003504879681214163 0.020358419502569662 0 0.0041136392157931894 0.020865435827040195 0 0.0018155084315188595 0.023362593113277246 0 0.0022914274536678571 0.02277803490664479 0 0.00093629040746329942 0.024659449507475676 0 0.0011566072780269409 0.024499866764593519 0 0.0010714152090268206 0.024496467928041513 0 0.0029361203547977953 0.020468665535930221 0 0.0025352086117349693 0.020905660855668376 0 0.0031130030550001364 0.020887423169283707 0 0.0029361203547977953 0.020468665535930221 0 0.0024760911622986929 0.020384523874943761 0 0.0025352086117349693 0.020905660855668376 0 0.0035200647991941994 0.021148804610855707 0 0.003504879681214163 0.020358419502569662 0 0.0031130030550001364 0.020887423169283707 0 0.003504879681214163 0.020358419502569662 0 0.0029361203547977953 0.020468665535930221 0 0.0031130030550001364 0.020887423169283707 0 0.003504879681214163 0.020358419502569662 0 0.0029361203547977953 0.020468665535930221 0 0.0028928370021515954 0.019908100999476167 0 0.0030329447402531258 0.020876919491304966 0 0.002384343134163277 0.020750715639662121 0 0.0029361203547977953 0.020468665535930221 0 0.002632757989438858 0.019974734146405649 0 0.0028928370021515954 0.019908100999476167 0 0.0029361203547977953 0.020468665535930221 0 0.0024760911622986929 0.020384523874943761 0 0.0025786018461291436 0.019775048640642095 0 0.002926498986133186 0.02046908537745866 0 0.0026155366223150492 0.01974959513889726 0 0.0022317126734243873 0.02007701217577466 0 0.0024760911622986929 0.020384523874943761 0 0.0025786018461291436 0.019775048640642095 0 0.0022317126734243873 0.02007701217577466 0 0.0020523227090428996 0.020515072966527909 0 0.0024760911622986929 0.020384523874943761 0 0.0022317126734243873 0.02007701217577466 0 0.0018208878323696031 0.019913411337263424 0 0.0020523227090428996 0.020515072966527909 0 0.0018208878323696031 0.019913411337263424 0 0.0020523227090428996 0.020515072966527909 0 0.0015695612472378141 0.02047542164950996 0 0.0022317126734243873 0.02007701217577466 0 0.0018208878323696031 0.019913411337263424 0 0.002125886679595177 0.019648465937777252 0 0.0020523227090428996 0.020515072966527909 0 0.0017723377101564303 0.021037874289953604 0 0.0015695612472378141 0.02047542164950996 0 0.0020523227090428996 0.020515072966527909 0 0.0024760911622986929 0.020384523874943761 0 0.0025352086117349693 0.020905660855668376 0 0.0025352086117349693 0.020905660855668376 0 0.0017723377101564303 0.021037874289953604 0 0.0021693691285373374 0.02176382164100002 0 0.0025352086117349693 0.020905660855668376 0 0.0021693691285373374 0.02176382164100002 0 0.0029319830124674307 0.021418483549557624 0 0.0020523227090428996 0.020515072966527909 0 0.0025352086117349693 0.020905660855668376 0 0.0017723377101564303 0.021037874289953604 0 0.0021693691285373374 0.02176382164100002 0 0.001632821601624312 0.021810314708212434 0 0.0016357804459443926 0.021508292263924627 0 0.0017723377101564303 0.021037874289953604 0 0.0021693691285373374 0.02176382164100002 0 0.0016357804459443926 0.021508292263924627 0 0.0021761859026071134 0.021828439996700692 0 0.0024269559534275584 0.021944472596572801 0 0.0021693691285373374 0.02176382164100002 0 0.0020460475337867401 0.022471869606838342 0 0.0021635315345857431 0.021997064984786686 0 0.0020460475337867401 0.022471869606838342 0 0.0020137162843246671 0.022202473873146417 0 0.0021635315345857431 0.021997064984786686 0 0.0025352086117349693 0.020905660855668376 0 0.0029319830124674307 0.021418483549557624 0 0.0031130030550001364 0.020887423169283707 0 0.0035200647991941994 0.021148804610855707 0 0.0029319830124674307 0.021418483549557624 0 0.0031130030550001364 0.020887423169283707 0 0.0026375063834618768 0.021968964662156136 0 0.0024269559534275584 0.021944472596572801 0 0.0020460475337867401 0.022471869606838342 0 0.0016477005248076522 0.022579400827599225 0 0.0020137162843246671 0.022202473873146417 0 0.0016336239032415274 0.022907017454211195 0 0.0020460475337867401 0.022471869606838342 0 0.0016477005248076522 0.022579400827599225 0 0.0016477005248076522 0.022579400827599225 0 0.0017460409538704116 0.022268612133803534 0 0.0020137162843246671 0.022202473873146417 0 0.0012027707907733358 0.023241471969280243 0 0.0019500127697406752 0.022173040643467236 0 0.0012027707907733358 0.023241471969280243 0 0.0015701522835173097 0.023115135154071757 0 0.0017943791694698312 0.022056390011429314 0 0.0020137162843246671 0.022202473873146417 0 0.0021426560601415607 0.022031446377400257 0 0.0020137162843246671 0.022202473873146417 0 0.0021426560601415607 0.022031446377400257 0 0.0021635315345857431 0.021997064984786686 0 0.00098772138111715107 0.024218413617193433 0 0.00078805955723379776 0.024031485368336047 0 0.00091303754375310451 0.023908421998168186 0 0.00080089157635723416 0.024204193076967074 0 0.00098772138111715107 0.024218413617193433 0 0.00078805955723379776 0.024031485368336047 0 0.00070058305352771434 0.024017874293030254 0 0.00078805955723379776 0.024031485368336047 0 0.00089901621684592141 0.023889133156380696 0 0.00078805955723379776 0.024031485368336047 0 0.00091303754375310451 0.023908421998168186 0 0.00089901621684592141 0.023889133156380696 0 0.00091303754375310451 0.023908421998168186 0 0.00061301518200188737 0.023268192553093828 0 0.0010731163952421067 0.023395128649032509 0 0.00090514922627346801 0.023890983577430028 0 0.00077153760060927855 0.023581505093709924 0 0.001393982230501234 0.023223654706104706 0 0.0015750771131615704 0.023603719727326247 0 0.0010731163952421067 0.023395128649032509 0 0.001393982230501234 0.023223654706104706 0 0.0015750771131615704 0.023603719727326247 0 0.0019445302760883194 0.023263098184684861 0 0.0015750771131615704 0.023603719727326247 0 0.0010731163952421067 0.023395128649032509 0 0.001246655884020315 0.023936520689116756 0 0.00091303754375310451 0.023908421998168186 0 0.0010731163952421067 0.023395128649032509 0 0.001246655884020315 0.023936520689116756 0 0.0015750771131615704 0.023603719727326247 0 0.001246655884020315 0.023936520689116756 0 0.0016277830971657544 0.023979003043919166 0 0.001246655884020315 0.023936520689116756 0 0.0016277830971657544 0.023979003043919166 0 0.0014040153967135624 0.024255770470838777 0 0.00098772138111715107 0.024218413617193433 0 0.001246655884020315 0.023936520689116756 0 0.0014040153967135624 0.024255770470838777 0 0.00098772138111715107 0.024218413617193433 0 0.00091303754375310451 0.023908421998168186 0 0.001246655884020315 0.023936520689116756 0 0.0021693691285373374 0.02176382164100002 0 0.0021635315345857431 0.021997064984786686 0 0.0019725046998420215 0.022055723458539355 0 0.0021426560601415607 0.022031446377400257 0 0.0021635315345857431 0.021997064984786686 0 0.0019725046998420215 0.022055723458539355 0 0.0015701522835173097 0.023115135154071757 0 0.0017542883955688684 0.02320591432664338 0 0.0021693691285373374 0.02176382164100002 0 0.0019725046998420215 0.022055723458539355 0 0.001632821601624312 0.021810314708212434 0 0.0019725046998420215 0.022055723458539355 0 0.001632821601624312 0.021810314708212434 0 0.0013892859415311147 0.022003219004704297 0 0.001632821601624312 0.021810314708212434 0 0.0012674646254062455 0.021608627691871222 0 0.0016357804459443926 0.021508292263924627 0 0.001632821601624312 0.021810314708212434 0 0.0013986784309450112 0.021807602514144781 0 0.0012674646254062455 0.021608627691871222 0 0.0012966402101117129 0.021827786729988807 0 0.0013986784309450112 0.021807602514144781 0 0.0012674646254062455 0.021608627691871222 0 0.0012966402101117129 0.021827786729988807 0 0.0013986784309450112 0.021807602514144781 0 0.0013892859415311147 0.022003219004704297 0 0.001632821601624312 0.021810314708212434 0 0.0013986784309450112 0.021807602514144781 0 0.0013892859415311147 0.022003219004704297 0 0.001029304985562659 0.021735050182421618 0 0.0013892859415311147 0.022003219004704297 0 0.00063015251914119133 0.021781465706998675 0 0.00089461023623133007 0.021530761489131071 0 0.0012674646254062455 0.021608627691871222 0 0.001029304985562659 0.021735050182421618 0 0.00089461023623133007 0.021530761489131071 0 0.001029304985562659 0.021735050182421618 0 0.00077088916588095673 0.021645997230070504 0 0.0012966402101117129 0.021827786729988807 0 0.0012674646254062455 0.021608627691871222 0 0.001029304985562659 0.021735050182421618 0 0.0012966402101117129 0.021827786729988807 0 0.001029304985562659 0.021735050182421618 0 0.0013892859415311147 0.022003219004704297 0 0.00086493714541508869 0.021182618397192206 0 0.0013157221241299117 0.020358488793247639 0 0.0018415126459308982 0.021105891909159551 0 0.0012740911132191769 0.022382444292906041 0 0.0011739521453395332 0.019902528174732807 0 0.0012740911132191769 0.022382444292906041 0 0.0017166019486522562 0.022452807665238161 0 0.0016277830971657544 0.023979003043919166 0 0.001888182396845538 0.024254923789119118 0 0.0022279201437526994 0.02373477305784415 0 0.0016277830971657544 0.023979003043919166 0 0.0014040153967135624 0.024255770470838777 0 0.001888182396845538 0.024254923789119118 0 0.0017542883955688684 0.02320591432664338 0 0.0012740911132191769 0.022382444292906041 0 0.0015750771131615704 0.023603719727326247 0 0.0016277830971657544 0.023979003043919166 0 0.0022279201437526994 0.02373477305784415 0 0.0026313745907656978 0.023140632938619555 0 0.0022279201437526994 0.02373477305784415 0 0.0019445302760883194 0.023263098184684861 0 0.0015750771131615704 0.023603719727326247 0 0.0022279201437526994 0.02373477305784415 0 0.0019445302760883194 0.023263098184684861 0 0.0018958501379962986 0.017125490732482908 0 0.0020983564380012689 0.016844726061335268 0 0.0015633142898289125 0.016941943133853738 0 0.0018958501379962986 0.017125490732482908 0 0.0021566342157138354 0.017063470825675223 0 0.0020983564380012689 0.016844726061335268 0 0.0020716196329732856 0.017361333069319428 0 0.0018958501379962986 0.017125490732482908 0 0.0021566342157138354 0.017063470825675223 0 0.0021987322093735824 0.019572661230169403 0 0.0020914208211446476 0.018116937277734824 0 0.0023963020922085844 0.017268899903306018 0 0.0021566342157138354 0.017063470825675223 0 0.0022506766162934786 0.016798697567317316 0 0.0021987322093735824 0.019572661230169403 0 0.0017166019486522562 0.022452807665238161 0 0.0017784596343561321 0.019532081789123711 0 0.0013157221241299117 0.020358488793247639 0 0.001808086143726468 0.020319888451496525 0 0.0021566342157138354 0.017063470825675223 0 0.0022506766162934786 0.016798697567317316 0 0.0020983564380012689 0.016844726061335268 0 0.0013157221241299117 0.020358488793247639 0 0.001808086143726468 0.020319888451496525 0 0.0018415126459308982 0.021105891909159551 0 0.0020868321755978382 0.016698800117700894 0 0.0020983564380012689 0.016844726061335268 0 0.0018053595205356275 0.016816359525683017 0 0.0020589681427953272 0.016823495212224409 0 0.0016763516006577349 0.016683682688231491 0 0.0022506766162934786 0.016798697567317316 0 0.0020868321755978382 0.016698800117700894 0 0.0020983564380012689 0.016844726061335268 0 0.0011739521453395332 0.019902528174732807 0 0.0011400287050578445 0.018938369554680017 0 0.0020868321755978382 0.016698800117700894 0 0.0021934425076243149 0.016575752827740438 0 0.0018899829994667528 0.016569025931144864 0 0.0022506766162934786 0.016798697567317316 0 0.0020868321755978382 0.016698800117700894 0 0.0021934425076243149 0.016575752827740438 0 0.0020914208211446476 0.018116937277734824 0 0.0011739521453395332 0.019902528174732807 0 0.0011739521453395332 0.019902528174732807 0 0.0011681435468959048 0.020047054640292425 0 0.001029304985562659 0.021735050182421618 0 0.00063015251914119133 0.021781465706998675 0 0.00077088916588095673 0.021645997230070504 0 0.00062751163290543171 0.021764769371273158 0 0.00062781392739727428 0.021745212977070206 0 0.00042234742749331072 0.021509606786956639 0 0.00063015251914119133 0.021781465706998675 0 0.00062781392739727428 0.021745212977070206 0 0.00077088916588095673 0.021645997230070504 0 0.00062781392739727428 0.021745212977070206 0 0.00077088916588095673 0.021645997230070504 0 0.00058788513437157367 0.021542872150522328 0 0.00062781392739727428 0.021745212977070206 0 0.00058788513437157367 0.021542872150522328 0 0.00042234742749331072 0.021509606786956639 0 0.00058788513437157367 0.021542872150522328 0 0.00045404775922673119 0.02132785155391588 0 0.00071198307777521218 0.021431824667004978 0 0.00077088916588095673 0.021645997230070504 0 0.00058788513437157367 0.021542872150522328 0 0.00071198307777521218 0.021431824667004978 0 0.00089461023623133007 0.021530761489131071 0 0.00077088916588095673 0.021645997230070504 0 0.00071198307777521218 0.021431824667004978 0 0.00062751163290543171 0.021764769371273158 0 0.00042234742749331072 0.021509606786956639 0 0.00024130843596850083 0.021509926550088987 0 0.00058788513437157367 0.021542872150522328 0 0.00042234742749331072 0.021509606786956639 0 0.00045404775922673119 0.02132785155391588 0 0.00042234742749331072 0.021509606786956639 0 0.00024486450861820616 0.021391763944381442 0 0.00027489120041885353 0.021283910073551137 0 0.00042234742749331072 0.021509606786956639 0 0.00045404775922673119 0.02132785155391588 0 0.00027489120041885353 0.021283910073551137 0 0.00045404775922673119 0.02132785155391588 0 0.00033665729692768098 0.021096450646062092 0 0.00063936662958512388 0.021065799150116204 0 0.00045404775922673119 0.02132785155391588 0 0.00033665729692768098 0.021096450646062092 0 0.00027489120041885353 0.021283910073551137 0 0.00033665729692768098 0.021096450646062092 0 2.2512255984420829e-05 0.020707088768605456 0 -0.00011922139236940226 0.020886857833136683 0 0.00033665729692768098 0.021096450646062092 0 0.00034842134561317346 0.02065802421529446 0 0.00063936662958512388 0.021065799150116204 0 0.00033665729692768098 0.021096450646062092 0 0.00034842134561317346 0.02065802421529446 0 2.2512255984420829e-05 0.020707088768605456 0 0.00063936662958512388 0.021065799150116204 0 0.0010027781040022833 0.020918353574670222 0 0.00071161044596776413 0.020536869299385658 0 0.00034842134561317346 0.02065802421529446 0 0.00063936662958512388 0.021065799150116204 0 0.00071161044596776413 0.020536869299385658 0 0.00063936662958512388 0.021065799150116204 0 0.00096144250220474585 0.021327490998735935 0 0.0010027781040022833 0.020918353574670222 0 0.00045404775922673119 0.02132785155391588 0 0.00063936662958512388 0.021065799150116204 0 0.00071198307777521218 0.021431824667004978 0 0.00063936662958512388 0.021065799150116204 0 0.00071198307777521218 0.021431824667004978 0 0.00096144250220474585 0.021327490998735935 0 0.00089461023623133007 0.021530761489131071 0 0.00071198307777521218 0.021431824667004978 0 0.00096144250220474585 0.021327490998735935 0 0.0012674646254062455 0.021608627691871222 0 0.00096144250220474585 0.021327490998735935 0 0.0013233686241567726 0.021213926194525064 0 0.00096144250220474585 0.021327490998735935 0 0.0013233686241567726 0.021213926194525064 0 0.0010027781040022833 0.020918353574670222 0 0.00089461023623133007 0.021530761489131071 0 0.0012674646254062455 0.021608627691871222 0 0.00096144250220474585 0.021327490998735935 0 0.0017723377101564303 0.021037874289953604 0 0.0016357804459443926 0.021508292263924627 0 0.0013233686241567726 0.021213926194525064 0 0.0012674646254062455 0.021608627691871222 0 0.0016357804459443926 0.021508292263924627 0 0.0013233686241567726 0.021213926194525064 0 0.0017723377101564303 0.021037874289953604 0 0.0013233686241567726 0.021213926194525064 0 0.0013389166183048623 0.020836841232425313 0 0.0017723377101564303 0.021037874289953604 0 0.0013389166183048623 0.020836841232425313 0 0.0015695612472378141 0.02047542164950996 0 0.0013389166183048623 0.020836841232425313 0 0.0010027781040022833 0.020918353574670222 0 0.0011100177626991979 0.020448673999333547 0 0.0013233686241567726 0.021213926194525064 0 0.0013389166183048623 0.020836841232425313 0 0.0010027781040022833 0.020918353574670222 0 0.0010027781040022833 0.020918353574670222 0 0.0011100177626991979 0.020448673999333547 0 0.00071161044596776413 0.020536869299385658 0 0.0011100177626991979 0.020448673999333547 0 0.0015695612472378141 0.02047542164950996 0 0.0013202171811047632 0.020052451876195681 0 0.0013389166183048623 0.020836841232425313 0 0.0011100177626991979 0.020448673999333547 0 0.0015695612472378141 0.02047542164950996 0 0.0018208878323696031 0.019913411337263424 0 0.0013202171811047632 0.020052451876195681 0 0.0013539655926076521 0.019506220596455865 0 0.0018208878323696031 0.019913411337263424 0 0.0015695612472378141 0.02047542164950996 0 0.0013202171811047632 0.020052451876195681 0 0.0013202171811047632 0.020052451876195681 0 0.00072792126072902753 0.019855531427535832 0 0.0013539655926076521 0.019506220596455865 0 0.0011100177626991979 0.020448673999333547 0 0.0013202171811047632 0.020052451876195681 0 0.00072792126072902753 0.019855531427535832 0 0.00072792126072902753 0.019855531427535832 0 0.00030067056826151749 0.020170526839142243 0 0.00071161044596776413 0.020536869299385658 0 0.00030067056826151749 0.020170526839142243 0 0.00010277660744093066 0.019649890813837365 0 -0.00026486155813931235 0.01998453396538406 0 0.00072792126072902753 0.019855531427535832 0 0.00030067056826151749 0.020170526839142243 0 0.00010277660744093066 0.019649890813837365 0 0.00034842134561317346 0.02065802421529446 0 0.00030067056826151749 0.020170526839142243 0 -4.8441944582983838e-05 0.02038785725108859 0 0.00034842134561317346 0.02065802421529446 0 0.00030067056826151749 0.020170526839142243 0 0.00071161044596776413 0.020536869299385658 0 0.00034842134561317346 0.02065802421529446 0 2.2512255984420829e-05 0.020707088768605456 0 -4.8441944582983838e-05 0.02038785725108859 0 0.0011100177626991979 0.020448673999333547 0 0.00072792126072902753 0.019855531427535832 0 0.00071161044596776413 0.020536869299385658 0 0.00087399368600734576 0.019224254760823723 0 0.00033359785484188406 0.019152199100853813 0 0.00068995570947478514 0.018650776112495941 0 0.00033359785484188406 0.019152199100853813 0 0.00012667789677620314 0.018683190963172003 0 -0.00013497898863040295 0.019150149337361561 0 0.00033359785484188406 0.019152199100853813 0 0.00010277660744093066 0.019649890813837365 0 -0.00013497898863040295 0.019150149337361561 0 0.00072792126072902753 0.019855531427535832 0 0.00033359785484188406 0.019152199100853813 0 0.00010277660744093066 0.019649890813837365 0 0.00072792126072902753 0.019855531427535832 0 0.00087399368600734576 0.019224254760823723 0 0.00033359785484188406 0.019152199100853813 0 0.00072792126072902753 0.019855531427535832 0 0.00087399368600734576 0.019224254760823723 0 0.0013539655926076521 0.019506220596455865 0 0.0018208878323696031 0.019913411337263424 0 0.0013539655926076521 0.019506220596455865 0 0.001824106632240791 0.019374411259171442 0 0.0013539655926076521 0.019506220596455865 0 0.0016101156351832414 0.018664280459552221 0 0.001824106632240791 0.019374411259171442 0 0.00087399368600734576 0.019224254760823723 0 0.0013539655926076521 0.019506220596455865 0 0.0016101156351832414 0.018664280459552221 0 0.0016101156351832414 0.018664280459552221 0 0.0010206589225005621 0.01817535367619284 0 0.00068995570947478514 0.018650776112495941 0 0.00087399368600734576 0.019224254760823723 0 0.0016101156351832414 0.018664280459552221 0 0.00068995570947478514 0.018650776112495941 0 0.0009988697123952939 0.020721804154256569 0 0.00099750515064086142 0.020406755496909412 0 0.0011688171592570313 0.02069654078887925 0 0.0009988697123952939 0.020721804154256569 0 0.00099750515064086142 0.020406755496909412 0 0.00058678370231127165 0.02043846521982939 0 0.001284229128665715 0.019666897588818059 0 0.00080710649593846925 0.019308940252798616 0 0.0010206589225005621 0.01817535367619284 0 0.00068995570947478514 0.018650776112495941 0 0.00035533199207598052 0.018207065385702444 0 0.0010206589225005621 0.01817535367619284 0 0.00035533199207598052 0.018207065385702444 0 0.00043191412662719054 0.017690216704068153 0 0.00068995570947478514 0.018650776112495941 0 0.00012667789677620314 0.018683190963172003 0 0.00035533199207598052 0.018207065385702444 0 0.00033359785484188406 0.019152199100853813 0 0.00068995570947478514 0.018650776112495941 0 0.00012667789677620314 0.018683190963172003 0 0.00035533199207598052 0.018207065385702444 0 -0.00016071079506323226 0.018213195391981102 0 1.5141719596231208e-05 0.017815075928137431 0 0.00012667789677620314 0.018683190963172003 0 0.00035533199207598052 0.018207065385702444 0 -0.00016071079506323226 0.018213195391981102 0 0.00043191412662719054 0.017690216704068153 0 -0.00016077529011502929 0.017215464043420295 0 1.5141719596231208e-05 0.017815075928137431 0 0.00035533199207598052 0.018207065385702444 0 0.00043191412662719054 0.017690216704068153 0 1.5141719596231208e-05 0.017815075928137431 0 0.00080710649593846925 0.019308940252798616 0 0.00028584460572506174 0.018885826426913045 0 0.00014192427223628736 0.02008325547037387 0 0.00039461708315665408 0.019749541898160486 0 0.0001108555763721971 0.019437379800395008 0 0.00014192427223628736 0.02008325547037387 0 0.00039461708315665408 0.019749541898160486 0 0.00074282990557356196 0.019972728533653866 0 0.00028584460572506174 0.018885826426913045 0 -0.00023126429526892011 0.01846740142635717 0 0.00014192427223628736 0.02008325547037387 0 0.0001108555763721971 0.019437379800395008 0 -0.00030148934926745843 0.019716464587723706 0 0.00039461708315665408 0.019749541898160486 0 0.0001108555763721971 0.019437379800395008 0 0.00058788622376789281 0.019452113318208866 0 0.0001108555763721971 0.019437379800395008 0 0.00036403332872067003 0.018996897433904758 0 0.00058788622376789281 0.019452113318208866 0 0.0001108555763721971 0.019437379800395008 0 -0.00034945698051818487 0.01914744504383406 0 -2.8336341204492463e-05 0.018923975507198557 0 0.0001108555763721971 0.019437379800395008 0 0.00036403332872067003 0.018996897433904758 0 -2.8336341204492463e-05 0.018923975507198557 0 0.00083938996787148322 0.019115725740832767 0 0.0013880075476414041 0.019188338738602404 0 0.0010289103563398936 0.018794898147225469 0 0.00083938996787148322 0.019115725740832767 0 0.0010249183073780628 0.019474059395940626 0 0.0013880075476414041 0.019188338738602404 0 0.00036403332872067003 0.018996897433904758 0 0.00083938996787148322 0.019115725740832767 0 0.00058788622376789281 0.019452113318208866 0 0.00058788622376789281 0.019452113318208866 0 0.0010249183073780628 0.019474059395940626 0 0.00074282990557356196 0.019972728533653866 0 0.00083938996787148322 0.019115725740832767 0 0.00058788622376789281 0.019452113318208866 0 0.0010249183073780628 0.019474059395940626 0 0.00074282990557356196 0.019972728533653866 0 0.0010550156671299249 0.020110713441235759 0 0.0011918948603387414 0.019863650935747518 0 0.0010249183073780628 0.019474059395940626 0 0.00074282990557356196 0.019972728533653866 0 0.0011918948603387414 0.019863650935747518 0 0.00039461708315665408 0.019749541898160486 0 0.00058788622376789281 0.019452113318208866 0 0.00074282990557356196 0.019972728533653866 0 0.00099750515064086142 0.020406755496909412 0 0.00058678370231127165 0.02043846521982939 0 0.00074282990557356196 0.019972728533653866 0 0.00058678370231127165 0.02043846521982939 0 0.00014192427223628736 0.02008325547037387 0 0.00074282990557356196 0.019972728533653866 0 0.00099750515064086142 0.020406755496909412 0 0.00074282990557356196 0.019972728533653866 0 0.0010550156671299249 0.020110713441235759 0 0.0012918405229485827 0.020198481631288002 0 0.0016110977698776474 0.020355946620229239 0 0.0013145729582152766 0.020495217698874985 0 0.0010550156671299249 0.020110713441235759 0 0.0012918405229485827 0.020198481631288002 0 0.0011918948603387414 0.019863650935747518 0 0.00099750515064086142 0.020406755496909412 0 0.0010550156671299249 0.020110713441235759 0 0.0012918405229485827 0.020198481631288002 0 0.0016110977698776474 0.020355946620229239 0 0.001623729023816215 0.019962985769542956 0 0.0019038678923251511 0.020261486319415795 0 0.0012918405229485827 0.020198481631288002 0 0.0016110977698776474 0.020355946620229239 0 0.001623729023816215 0.019962985769542956 0 0.001623729023816215 0.019962985769542956 0 0.0013942514846757282 0.019613442148836757 0 0.0017439303143067732 0.019578626843904254 0 0.001623729023816215 0.019962985769542956 0 0.0011918948603387414 0.019863650935747518 0 0.0013942514846757282 0.019613442148836757 0 0.0012918405229485827 0.020198481631288002 0 0.001623729023816215 0.019962985769542956 0 0.0011918948603387414 0.019863650935747518 0 0.0010249183073780628 0.019474059395940626 0 0.0013942514846757282 0.019613442148836757 0 0.0013880075476414041 0.019188338738602404 0 0.0010249183073780628 0.019474059395940626 0 0.0011918948603387414 0.019863650935747518 0 0.0013942514846757282 0.019613442148836757 0 6.1158141882434336e-05 0.023411395135803734 0 -0.00021245745306686426 0.023237092712663977 0 6.9287363486913612e-05 0.023359258991923634 0 0.0013942514846757282 0.019613442148836757 0 0.0017439303143067732 0.019578626843904254 0 0.0013880075476414041 0.019188338738602404 0 0.00083642574797820218 0.021417552746102634 0 0.00059917788932228227 0.021222973556589139 0 -8.3559366527994266e-06 0.023174860633287421 0 -0.00021245745306686426 0.023237092712663977 0 6.9287363486913612e-05 0.023359258991923634 0 0.000862620424296853 0.024204290887390411 0 0.00084049050164568067 0.024349047211758974 0 0.00095829470870093447 0.024512535636255998 0 0.000862620424296853 0.024204290887390411 0 0.0004885763418782359 0.024364458365886014 0 0.00092360009160702286 0.024259221045470014 0 0.00055579991421894647 0.024042388748647153 0 0.000862620424296853 0.024204290887390411 0 0.0004885763418782359 0.024364458365886014 0 0.00055579991421894647 0.024042388748647153 0 0.000862620424296853 0.024204290887390411 0 0.00055014060538883115 0.023616964249646603 0 0.00055579991421894647 0.024042388748647153 0 0.00021447172414155457 0.023794796776367776 0 0.0004885763418782359 0.024364458365886014 0 0.00013400887993168131 0.023173595857984678 0 0.00018350155229216654 0.023351608032425027 0 6.9287363486913612e-05 0.023359258991923634 0 -8.3559366527994266e-06 0.023174860633287421 0 0.00013400887993168131 0.023173595857984678 0 6.9287363486913612e-05 0.023359258991923634 0 0.00018109810042222808 0.023410632909879804 0 0.00055772359332314136 0.024122348870506221 0 0.00055579991421894647 0.024042388748647153 0 0.00021447172414155457 0.023794796776367776 0 0.00055014060538883115 0.023616964249646603 0 0.00055772359332314136 0.024122348870506221 0 0.0014044795194732905 0.022120575392780326 0 6.1158141882434336e-05 0.023411395135803734 0 0.00015850335150682896 0.023355280649996805 0 0.00022229573791529965 0.023515136145463193 0 6.1158141882434336e-05 0.023411395135803734 0 0.00015850335150682896 0.023355280649996805 0 6.9287363486913612e-05 0.023359258991923634 0 0.00055772359332314136 0.024122348870506221 0 8.989912608720032e-05 0.023662644306842156 0 0.0013057930788865323 0.024507298202427988 0 0.0011600818084211782 0.024399511809408518 0 0.0010344065185606379 0.024545703065393932 0 0.00055772359332314136 0.024122348870506221 0 0.0010336977040613727 0.024436358427499232 0 0.0013057930788865323 0.024507298202427988 0 0.0011600818084211782 0.024399511809408518 0 0.0012383298902730547 0.024219548628781305 0 0.0012383298902730547 0.024219548628781305 0 0.0010650672826600276 0.024046907132702362 0 0.0010052984155478264 0.024272733598643802 0 0.0011600818084211782 0.024399511809408518 0 0.0012383298902730547 0.024219548628781305 0 0.0010052984155478264 0.024272733598643802 0 0.00083642574797820218 0.021417552746102634 0 0.0014044795194732905 0.022120575392780326 0 0.001623729023816215 0.019962985769542956 0 0.0017439303143067732 0.019578626843904254 0 0.0021047638783176039 0.01996994176578578 0 0.001623729023816215 0.019962985769542956 0 0.0021047638783176039 0.01996994176578578 0 0.0019038678923251511 0.020261486319415795 0 0.0021047638783176039 0.01996994176578578 0 0.0019038678923251511 0.020261486319415795 0 0.0021902768415618702 0.020464326934448766 0 0.0014044795194732905 0.022120575392780326 0 0.0021897153031711814 0.019721660287000429 0 0.002137994729668061 0.020279534942197315 0 0.0021902768415618702 0.020464326934448766 0 0.0023067402695979536 0.020397823651337549 0 0.0014044795194732905 0.022120575392780326 0 0.00173529252773835 0.022264024022126613 0 0.0021902768415618702 0.020464326934448766 0 0.002309459177908502 0.020593521946497856 0 0.0023067402695979536 0.020397823651337549 0 0.0021902768415618702 0.020464326934448766 0 0.0021278004654107629 0.020736633309393036 0 0.0018982616725821862 0.020547632880155011 0 0.0021902768415618702 0.020464326934448766 0 0.0021278004654107629 0.020736633309393036 0 0.002309459177908502 0.020593521946497856 0 0.0021278004654107629 0.020736633309393036 0 0.0023451632456618246 0.020824447290510119 0 0.002309459177908502 0.020593521946497856 0 0.0021278004654107629 0.020736633309393036 0 0.0018443606064011326 0.020853893048687309 0 0.0021522022555914132 0.021147620694507412 0 0.0021278004654107629 0.020736633309393036 0 0.0021522022555914132 0.021147620694507412 0 0.0023451632456618246 0.020824447290510119 0 0.0021278004654107629 0.020736633309393036 0 0.0018443606064011326 0.020853893048687309 0 0.0018982616725821862 0.020547632880155011 0 0.0018443606064011326 0.020853893048687309 0 0.0015757119919521316 0.020926423445592802 0 0.0017840601668137426 0.021130273657258707 0 0.0018443606064011326 0.020853893048687309 0 0.0018982616725821862 0.020547632880155011 0 0.00156623040109935 0.020664773143048147 0 0.0019038678923251511 0.020261486319415795 0 0.0021902768415618702 0.020464326934448766 0 0.0018982616725821862 0.020547632880155011 0 0.0016110977698776474 0.020355946620229239 0 0.0019038678923251511 0.020261486319415795 0 0.0018982616725821862 0.020547632880155011 0 0.0016110977698776474 0.020355946620229239 0 0.0018982616725821862 0.020547632880155011 0 0.00156623040109935 0.020664773143048147 0 0.0016110977698776474 0.020355946620229239 0 0.00156623040109935 0.020664773143048147 0 0.0013145729582152766 0.020495217698874985 0 0.00099750515064086142 0.020406755496909412 0 0.0013145729582152766 0.020495217698874985 0 0.0012206222683474903 0.020812183651244858 0 0.00156623040109935 0.020664773143048147 0 0.0013145729582152766 0.020495217698874985 0 0.0012206222683474903 0.020812183651244858 0 0.00099701744260960088 0.020402675917281531 0 0.001209124690840803 0.020860564834822515 0 0.00099750515064086142 0.020406755496909412 0 0.0012918405229485827 0.020198481631288002 0 0.0013145729582152766 0.020495217698874985 0 0.0012206222683474903 0.020812183651244858 0 0.0015757119919521316 0.020926423445592802 0 0.0014449216332424034 0.021161904651866341 0 0.001209124690840803 0.020860564834822515 0 0.0018393281038005577 0.020177688180386993 0 0.0009988697123952939 0.020721804154256569 0 0.0011688171592570313 0.02069654078887925 0 0.0013427751354555262 0.020945210770765714 0 0.00156623040109935 0.020664773143048147 0 0.0012206222683474903 0.020812183651244858 0 0.0015757119919521316 0.020926423445592802 0 0.0018443606064011326 0.020853893048687309 0 0.00156623040109935 0.020664773143048147 0 0.0015757119919521316 0.020926423445592802 0 0.0014449216332424034 0.021161904651866341 0 0.0018864643136475489 0.021482620248530808 0 0.0017840601668137426 0.021130273657258707 0 0.0015757119919521316 0.020926423445592802 0 0.0014449216332424034 0.021161904651866341 0 0.0017840601668137426 0.021130273657258707 0 0.0016101156351832414 0.018664280459552221 0 0.002216524399718001 0.019155540579001963 0 0.001824106632240791 0.019374411259171442 0 0.001284229128665715 0.019666897588818059 0 0.0018393281038005577 0.020177688180386993 0 0.002216524399718001 0.019155540579001963 0 0.001824106632240791 0.019374411259171442 0 0.002125886679595177 0.019648465937777252 0 0.0018208878323696031 0.019913411337263424 0 0.001824106632240791 0.019374411259171442 0 0.002125886679595177 0.019648465937777252 0 0.0018393281038005577 0.020177688180386993 0 0.0026155366223150492 0.01974959513889726 0 0.002216524399718001 0.019155540579001963 0 0.002125886679595177 0.019648465937777252 0 0.0025786018461291436 0.019775048640642095 0 0.0023297455125437312 0.019512715294785054 0 0.002632757989438858 0.019974734146405649 0 0.0028928370021515954 0.019908100999476167 0 0.0018393281038005577 0.020177688180386993 0 0.002384343134163277 0.020750715639662121 0 0.0022317126734243873 0.02007701217577466 0 0.002125886679595177 0.019648465937777252 0 0.0025786018461291436 0.019775048640642095 0 0.0022653299537607583 0.021768961436022267 0 0.0018864643136475489 0.021482620248530808 0 0.0023412630179002977 0.021447731275699801 0 0.0018864643136475489 0.021482620248530808 0 0.0021522022555914132 0.021147620694507412 0 0.0023412630179002977 0.021447731275699801 0 0.0018443606064011326 0.020853893048687309 0 0.0021522022555914132 0.021147620694507412 0 0.0017840601668137426 0.021130273657258707 0 0.0018864643136475489 0.021482620248530808 0 0.0021522022555914132 0.021147620694507412 0 0.0017840601668137426 0.021130273657258707 0 0.0028079590105150065 0.020972373629892772 0 0.0017049940813866366 0.023016642509953805 0 0.0027413791258584135 0.021623813951679144 0 0.0025179963358377207 0.021201459667673221 0 0.0028569073016196903 0.021224939701905515 0 0.0025724411259221498 0.021124515202495815 0 0.0029370580529149747 0.021130168053346689 0 0.0027778492032284039 0.020927338099824264 0 0.0020610545399433883 0.021190693816284033 0 0.0028079590105150065 0.020972373629892772 0 0.0021522022555914132 0.021147620694507412 0 0.0025724411259221498 0.021124515202495815 0 0.0023451632456618246 0.020824447290510119 0 0.0021522022555914132 0.021147620694507412 0 0.0025179963358377207 0.021201459667673221 0 0.0023412630179002977 0.021447731275699801 0 0.0027413791258584135 0.021623813951679144 0 0.0025179963358377207 0.021201459667673221 0 0.0023412630179002977 0.021447731275699801 0 0.0018155084315188595 0.023362593113277246 0 0.0017049940813866366 0.023016642509953805 0 0.00099511213418382078 0.024815539384663084 0 0.00071533847290620588 0.024948016232745274 0 0.00084713634076737728 0.025130652278854627 0 0.00071533847290620588 0.024948016232745274 0 0.00058514751083158152 0.025127857354315383 0 0.00046592474593495838 0.024896758102375838 0 0.00068332334775342719 0.024776377150031285 0 0.00071533847290620588 0.024948016232745274 0 0.00046592474593495838 0.024896758102375838 0 0.00071533847290620588 0.024948016232745274 0 0.00058514751083158152 0.025127857354315383 0 0.00084713634076737728 0.025130652278854627 0 0.00026316378054022389 0.025016491274398946 0 0.0003187857709598033 0.025001594470191516 0 0.00028388398914630097 0.025027972130613203 0 0.00026316378054022389 0.025016491274398946 0 0.00032383891094714022 0.024988487528708744 0 0.0003187857709598033 0.025001594470191516 0 0.00021268222554519819 0.025112944710756899 0 0.0017049940813866366 0.023016642509953805 0 0.0017049940813866366 0.023016642509953805 0 0.0012094666705132547 0.023198800610673861 0 0.0029370580529149747 0.021130168053346689 0 0.0029528123329206953 0.021079920292448859 0 0.0027778492032284039 0.020927338099824264 0 0.00096430103641789678 0.022877250738466012 0 0.0014723564036167912 0.02336616099466142 0 0.00067153478488594237 0.023776786573927591 0 0.0029528123329206953 0.021079920292448859 0 0.0028035316051533681 0.020915719670380421 0 0.0027778492032284039 0.020927338099824264 0 0.0012094666705132547 0.023198800610673861 0 0.0016074318826184298 0.022499380577262598 0 0.0012094666705132547 0.023198800610673861 0 0.00035467627708684035 0.024274435048813048 0 0.0016074318826184298 0.022499380577262598 0 0.00035467627708684035 0.024274435048813048 0 0.0016074318826184298 0.022499380577262598 0 0.0018207872034733939 0.022352614087660178 0 0.0003187857709598033 0.025001594470191516 0 0.00028388398914630097 0.025027972130613203 0 0.00029466088632361192 0.025053751462897702 0 0.00026316378054022389 0.025016491274398946 0 0.00028388398914630097 0.025027972130613203 0 0.00025275756375822575 0.025034955033810126 0 0.00028388398914630097 0.025027972130613203 0 0.00029466088632361192 0.025053751462897702 0 0.00024000359989997353 0.025056261531968313 0 0.00035467627708684035 0.024274435048813048 0 0.0001765402412159824 0.02479200855782325 0 0.00045629198613912544 0.023918123563192013 0 0.00041143851064170804 0.024054075984380505 0 0.00019070152792048162 0.024046401593477623 0 0.00035467627708684035 0.024274435048813048 0 0.00044115559548928493 0.023958382049857351 0 0.00048834685807704992 0.023788049512565967 0 0.00042799474945330081 0.023980740853490064 0 0.00067687531870264963 0.023975467764416149 0 0.00070157094987870596 0.02367530139047334 0 0.00048834685807704992 0.023788049512565967 0 0.00067687531870264963 0.023975467764416149 0 0.00070157094987870596 0.02367530139047334 0 0.00067687531870264963 0.023975467764416149 0 0.00088894792083881195 0.023866052486501966 0 0.00067687531870264963 0.023975467764416149 0 0.00088894792083881195 0.023866052486501966 0 0.00087655428768466969 0.024079093047621077 0 0.0025688193555599226 0.02064079161829651 0 0.0025667915133644843 0.020880350362999719 0 0.0027778492032284039 0.020927338099824264 0 0.0016074318826184298 0.022499380577262598 0 0.0017224887265944559 0.022229490751482842 0 0.0028069289775612891 0.020913579611922986 0 0.0025688193555599226 0.02064079161829651 0 0.0027778492032284039 0.020927338099824264 0 0.0025724411259221498 0.021124515202495815 0 0.0025667915133644843 0.020880350362999719 0 0.0027778492032284039 0.020927338099824264 0 0.0025724411259221498 0.021124515202495815 0 0.0025667915133644843 0.020880350362999719 0 0.0023451632456618246 0.020824447290510119 0 0.0025688193555599226 0.02064079161829651 0 0.0025667915133644843 0.020880350362999719 0 0.0023451632456618246 0.020824447290510119 0 0.0025688193555599226 0.02064079161829651 0 0.0023451632456618246 0.020824447290510119 0 0.002309459177908502 0.020593521946497856 0 0.0025688193555599226 0.02064079161829651 0 0.002309459177908502 0.020593521946497856 0 0.0023067402695979536 0.020397823651337549 0 0.0017224887265944559 0.022229490751482842 0 0.00173529252773835 0.022264024022126613 0 0.00088894792083881195 0.023866052486501966 0 0.0010650672826600276 0.024046907132702362 0 0.00087655428768466969 0.024079093047621077 0 0.0010650672826600276 0.024046907132702362 0 0.00087655428768466969 0.024079093047621077 0 0.0010052984155478264 0.024272733598643802 0 0.00067687531870264963 0.023975467764416149 0 0.00087655428768466969 0.024079093047621077 0 0.00073969908962377489 0.024228967924923836 0 0.00073969908962377489 0.024228967924923836 0 0.00088202958729018382 0.024441233630239853 0 0.00067134907895523028 0.024447061376067405 0 0.00073969908962377489 0.024228967924923836 0 0.0010052984155478264 0.024272733598643802 0 0.00088202958729018382 0.024441233630239853 0 0.00087655428768466969 0.024079093047621077 0 0.00073969908962377489 0.024228967924923836 0 0.0010052984155478264 0.024272733598643802 0 0.0011600818084211782 0.024399511809408518 0 0.0010209783288652287 0.024414969781734835 0 0.0010344065185606379 0.024545703065393932 0 0.0011600818084211782 0.024399511809408518 0 0.0010052984155478264 0.024272733598643802 0 0.0010209783288652287 0.024414969781734835 0 0.0010209783288652287 0.024414969781734835 0 0.0010344065185606379 0.024545703065393932 0 0.00088202958729018382 0.024441233630239853 0 0.0010052984155478264 0.024272733598643802 0 0.0010209783288652287 0.024414969781734835 0 0.00088202958729018382 0.024441233630239853 0 0.00088202958729018382 0.024441233630239853 0 0.0007516697781747892 0.024590692295312612 0 0.00067134907895523028 0.024447061376067405 0 0.0010344065185606379 0.024545703065393932 0 0.00088202958729018382 0.024441233630239853 0 0.0007516697781747892 0.024590692295312612 0 0.00065743926183845804 0.024358030958118768 0 0.00057428913505744837 0.024507111781490405 0 0.00073518794502063336 0.024452988877270897 0 0.00065743926183845804 0.024358030958118768 0 0.00084049050164568067 0.024349047211758974 0 0.00073518794502063336 0.024452988877270897 0 0.0010336977040613727 0.024436358427499232 0 0.00069901733710483007 0.024473140656048165 0 0.00092360009160702286 0.024259221045470014 0 0.00065743926183845804 0.024358030958118768 0 0.00084049050164568067 0.024349047211758974 0 0.000862620424296853 0.024204290887390411 0 0.00092360009160702286 0.024259221045470014 0 0.00084049050164568067 0.024349047211758974 0 0.0004095925979107512 0.024499597248126285 0 0.00047316265843203996 0.02470639190099385 0 0.00030951439129033541 0.02468636894367577 0 0.0004095925979107512 0.024499597248126285 0 0.00019321876758284474 0.0246672381299015 0 0.00030951439129033541 0.02468636894367577 0 0.00044476444671790594 0.024567617583263889 0 0.00021528655431216084 0.024647796864924233 0 0.00069901733710483007 0.024473140656048165 0 0.00044476444671790594 0.024567617583263889 0 0.00065743926183845804 0.024358030958118768 0 0.0004095925979107512 0.024499597248126285 0 0.00057428913505744837 0.024507111781490405 0 0.0004095925979107512 0.024499597248126285 0 0.00057428913505744837 0.024507111781490405 0 0.00047316265843203996 0.02470639190099385 0 0.0007516697781747892 0.024590692295312612 0 0.00046771322724643242 0.02463047414935176 0 0.00067134907895523028 0.024447061376067405 0 0.00046771322724643242 0.02463047414935176 0 0.00067134907895523028 0.024447061376067405 0 0.00051869641699598843 0.024338672137238383 0 0.00046771322724643242 0.02463047414935176 0 0.00051869641699598843 0.024338672137238383 0 0.00027160451550014691 0.024425472791391671 0 0.00051869641699598843 0.024338672137238383 0 0.00037392728159244248 0.024187626251111777 0 0.00027160451550014691 0.024425472791391671 0 0.00051869641699598843 0.024338672137238383 0 0.0005488710778368428 0.024145108651956237 0 0.00037392728159244248 0.024187626251111777 0 0.00073969908962377489 0.024228967924923836 0 0.00067134907895523028 0.024447061376067405 0 0.00051869641699598843 0.024338672137238383 0 0.00073969908962377489 0.024228967924923836 0 0.00051869641699598843 0.024338672137238383 0 0.0005488710778368428 0.024145108651956237 0 0.00042799474945330081 0.023980740853490064 0 0.00067687531870264963 0.023975467764416149 0 0.0005488710778368428 0.024145108651956237 0 0.00067687531870264963 0.023975467764416149 0 0.00073969908962377489 0.024228967924923836 0 0.0005488710778368428 0.024145108651956237 0 0.00041143851064170804 0.024054075984380505 0 0.00037392728159244248 0.024187626251111777 0 0.00019070152792048162 0.024046401593477623 0 0.00042799474945330081 0.023980740853490064 0 0.0005488710778368428 0.024145108651956237 0 0.00037392728159244248 0.024187626251111777 0 0.00044115559548928493 0.023958382049857351 0 0.00037302786547074613 0.024179931733144099 0 0.00037392728159244248 0.024187626251111777 0 0.00023165132895046318 0.024225661646509161 0 0.00019070152792048162 0.024046401593477623 0 0.00023165132895046318 0.024225661646509161 0 9.3568680971096063e-05 0.024260753801236535 0 0.00019070152792048162 0.024046401593477623 0 5.3195144675064958e-06 0.025072131713527922 0 0.0001765402412159824 0.02479200855782325 0 2.878253138936299e-05 0.024586749552807517 0 0.0001765402412159824 0.02479200855782325 0 -4.4220332596111419e-05 0.024999074814160711 0 -2.9047975043374716e-05 0.025007290054938843 0 -4.5751367586443153e-05 0.025009068508765553 0 9.3568680971096063e-05 0.024260753801236535 0 0.00027160451550014691 0.024425472791391671 0 9.4745168196050981e-06 0.024518767720813701 0 2.878253138936299e-05 0.024586749552807517 0 -1.8738518999070011e-05 0.024752052798257314 0 -4.4220332596111419e-05 0.024999074814160711 0 -5.0764599348077852e-05 0.024973080049359806 0 -2.5956476191067992e-05 0.024995203383742854 0 0.00037392728159244248 0.024187626251111777 0 0.00023165132895046318 0.024225661646509161 0 0.00027160451550014691 0.024425472791391671 0 0.00023165132895046318 0.024225661646509161 0 9.3568680971096063e-05 0.024260753801236535 0 0.00027160451550014691 0.024425472791391671 0 0.00046771322724643242 0.02463047414935176 0 0.00027160451550014691 0.024425472791391671 0 0.00019321876758284474 0.0246672381299015 0 0.00027160451550014691 0.024425472791391671 0 9.4745168196050981e-06 0.024518767720813701 0 0.00019321876758284474 0.0246672381299015 0 0.00019321876758284474 0.0246672381299015 0 -3.7326277236972638e-05 0.024852457068560596 0 5.3221753398560339e-05 0.024863631774081549 0 9.4745168196050981e-06 0.024518767720813701 0 0.00019321876758284474 0.0246672381299015 0 -3.7326277236972638e-05 0.024852457068560596 0 1.7407714894074154e-08 0.024999855359048178 0 -4.9583299558962591e-06 0.024973455905524428 0 -2.8030654400989444e-08 0.024999960002842343 0 -2.6633592665466298e-06 0.024943403698420883 0 1.7407714894074154e-08 0.024999855359048178 0 -4.9583299558962591e-06 0.024973455905524428 0 -2.6633592665466298e-06 0.024943403698420883 0 -1.4639139886669217e-05 0.024912752122420279 0 -4.9583299558962591e-06 0.024973455905524428 0 -1.8738518999070011e-05 0.024752052798257314 0 -3.6234510244937447e-05 0.024832326634025834 0 -5.0764599348077852e-05 0.024973080049359806 0 -2.6633592665466298e-06 0.024943403698420883 0 -3.7326277236972638e-05 0.024852457068560596 0 -2.6633592665466298e-06 0.024943403698420883 0 -1.4639139886669217e-05 0.024912752122420279 0 -3.7326277236972638e-05 0.024852457068560596 0 -5.0764599348077852e-05 0.024973080049359806 0 -9.5541742644628558e-06 0.024984540545406501 0 -2.5956476191067992e-05 0.024995203383742854 0 -5.0764599348077852e-05 0.024973080049359806 0 -2.6633592665466298e-06 0.024943403698420883 0 -9.5541742644628558e-06 0.024984540545406501 0 1.7407714894074154e-08 0.024999855359048178 0 -9.5541742644628558e-06 0.024984540545406501 0 -1.179590240604236e-08 0.025000055752435951 0 -2.6633592665466298e-06 0.024943403698420883 0 1.7407714894074154e-08 0.024999855359048178 0 -9.5541742644628558e-06 0.024984540545406501 0 -9.5541742644628558e-06 0.024984540545406501 0 -1.179590240604236e-08 0.025000055752435951 0 -2.5956476191067992e-05 0.024995203383742854 0 8.0621715833404085e-08 0.024999962980184538 0 5.3195144675064958e-06 0.025072131713527922 0 -4.4220332596111419e-05 0.024999074814160711 0 -2.5956476191067992e-05 0.024995203383742854 0 -2.9047975043374716e-05 0.025007290054938843 0 -1.179590240604236e-08 0.025000055752435951 0 -2.5956476191067992e-05 0.024995203383742854 0 -2.9047975043374716e-05 0.025007290054938843 0 1.3068944504282412e-08 0.02500010636478097 0 8.5426855688060005e-05 0.02506404201244674 0 5.9086899014246217e-08 0.025000044331254072 0 5.9086899014246217e-08 0.025000044331254072 0 0.00010786708316561468 0.025036615879427467 0 6.0933763527387696e-08 0.025000078644092139 0 0.00010786708316561468 0.025036615879427467 0 6.0933763527387696e-08 0.025000078644092139 0 0.00014346586495416548 0.02502361568268939 0 8.5426855688060005e-05 0.02506404201244674 0 5.9086899014246217e-08 0.025000044331254072 0 0.00010786708316561468 0.025036615879427467 0 0.00010786708316561468 0.025036615879427467 0 0.00020440873671998943 0.025079742966227316 0 0.00021008172103425583 0.025044585788345532 0 8.5426855688060005e-05 0.02506404201244674 0 0.00010786708316561468 0.025036615879427467 0 0.00020440873671998943 0.025079742966227316 0 0.00020440873671998943 0.025079742966227316 0 0.00024000359989997353 0.025056261531968313 0 0.00021008172103425583 0.025044585788345532 0 0.00029466088632361192 0.025053751462897702 0 0.00022660746110206615 0.025084579402729474 0 0.00024000359989997353 0.025056261531968313 0 0.0001765402412159824 0.02479200855782325 0 0.00019026920585922717 0.025112446383660031 0 0.00028388398914630097 0.025027972130613203 0 0.00024000359989997353 0.025056261531968313 0 0.00025275756375822575 0.025034955033810126 0 0.00024000359989997353 0.025056261531968313 0 0.00025275756375822575 0.025034955033810126 0 0.00021008172103425583 0.025044585788345532 0 0.00025275756375822575 0.025034955033810126 0 0.00021008172103425583 0.025044585788345532 0 0.0002758549382320666 0.025059127538451891 0 0.00010786708316561468 0.025036615879427467 0 0.00021008172103425583 0.025044585788345532 0 0.00014346586495416548 0.02502361568268939 0 0.0002758549382320666 0.025059127538451891 0 0.00024023894944885714 0.024938849373716258 0 0.00014346586495416548 0.02502361568268939 0 0.00021008172103425583 0.025044585788345532 0 0.0002758549382320666 0.025059127538451891 0 0.00014346586495416548 0.02502361568268939 0 0.00058514751083158152 0.025127857354315383 0 0.0002758549382320666 0.025059127538451891 0 0.00046592474593495838 0.024896758102375838 0 0.00026316378054022389 0.025016491274398946 0 0.00025275756375822575 0.025034955033810126 0 0.0002758549382320666 0.025059127538451891 0 0.00021268222554519819 0.025112944710756899 0 0.00037571140751435248 0.025060730025171101 0 0.0002758549382320666 0.025059127538451891 0 0.00046592474593495838 0.024896758102375838 0 0.00024023894944885714 0.024938849373716258 0 0.00012029259340634012 0.024817224497145643 0 0.00024023894944885714 0.024938849373716258 0 8.5379250667082601e-05 0.024970467175665163 0 0.00024023894944885714 0.024938849373716258 0 8.5379250667082601e-05 0.024970467175665163 0 0.00014346586495416548 0.02502361568268939 0 3.5255578296036168e-10 0.024999685182086121 0 8.5379250667082601e-05 0.024970467175665163 0 6.0933763527387696e-08 0.025000078644092139 0 8.5379250667082601e-05 0.024970467175665163 0 6.0933763527387696e-08 0.025000078644092139 0 0.00014346586495416548 0.02502361568268939 0 -0.0014091914408787005 0.011460160503297456 0 -0.001374736356328778 0.010855022202211333 0 -0.001722849023622736 0.011113827459784009 0 -0.0014091914408787005 0.011460160503297456 0 -0.0010625585452016858 0.011406922560247647 0 -0.001374736356328778 0.010855022202211333 0 -0.0014091914408787005 0.011460160503297456 0 -0.001722849023622736 0.011113827459784009 0 -0.0017301277758718658 0.011554383079044231 0 -0.0014091914408787005 0.011460160503297456 0 -0.0017301277758718658 0.011554383079044231 0 -0.0014470595558672113 0.011780527263363774 0 -0.0014091914408787005 0.011460160503297456 0 -0.0011247586844934741 0.011860543851235077 0 -0.0014470595558672113 0.011780527263363774 0 -0.0014091914408787005 0.011460160503297456 0 -0.0010625585452016858 0.011406922560247647 0 -0.0011247586844934741 0.011860543851235077 0 -0.00084867219473099031 0.011766366013266144 0 -0.0010625585452016858 0.011406922560247647 0 -0.0011247586844934741 0.011860543851235077 0 -0.00084867219473099031 0.011766366013266144 0 -0.00064039451116094611 0.011547435475276611 0 -0.0010625585452016858 0.011406922560247647 0 -0.00084867219473099031 0.011766366013266144 0 -0.00064039451116094611 0.011547435475276611 0 -0.00057375860229875704 0.011977036728411231 0 -0.00064039451116094611 0.011547435475276611 0 -0.00095830042773482698 0.011062221589400274 0 -0.00056098572946715873 0.011274077018018129 0 -0.00064039451116094611 0.011547435475276611 0 -0.0010625585452016858 0.011406922560247647 0 -0.00095830042773482698 0.011062221589400274 0 -0.00062111353564516078 0.011008511822598328 0 -0.00030179126886923665 0.011098828870793456 0 -0.00049184336440954947 0.01071384005788293 0 -0.00079397645919894206 0.011035377539570462 0 -0.00043954895435104063 0.011184108625532567 0 -0.00030179126886923665 0.011098828870793456 0 -0.00049184336440954947 0.01071384005788293 0 -0.00028231969552641609 0.010795238313389128 0 -0.00062111353564516078 0.011008511822598328 0 -0.00049184336440954947 0.01071384005788293 0 -0.0010868527061296273 0.010882780074746428 0 -0.00049184336440954947 0.01071384005788293 0 -0.0010868527061296273 0.010882780074746428 0 -0.00064921804133151483 0.010384538872335007 0 -0.0010625585452016858 0.011406922560247647 0 -0.00095830042773482698 0.011062221589400274 0 -0.001374736356328778 0.010855022202211333 0 -0.00079397645919894206 0.011035377539570462 0 -0.0012435172969055453 0.010861363724467284 0 -0.0010868527061296273 0.010882780074746428 0 -0.0017654963813419696 0.010649955014702816 0 -0.0012749197251937538 0.010337832661366035 0 -0.0012435172969055453 0.010861363724467284 0 -0.0017362424904710182 0.010670448723317428 0 -0.0017654963813419696 0.010649955014702816 0 -0.002185551703751394 0.010498170966761219 0 -0.002071772259409983 0.01090448092082472 0 -0.0017654963813419696 0.010649955014702816 0 -0.002185551703751394 0.010498170966761219 0 -0.001775966122650759 0.010149700372910478 0 -0.001374736356328778 0.010855022202211333 0 -0.0017654963813419696 0.010649955014702816 0 -0.001722849023622736 0.011113827459784009 0 -0.0017654963813419696 0.010649955014702816 0 -0.002071772259409983 0.01090448092082472 0 -0.001722849023622736 0.011113827459784009 0 -0.002553034854926466 0.010444023048211541 0 -0.0024308467689244336 0.010721296605402475 0 -0.0027469605129850218 0.010692657122817781 0 -0.0029167974857588598 0.010344974138449779 0 -0.002553034854926466 0.010444023048211541 0 -0.0027469605129850218 0.010692657122817781 0 -0.002185551703751394 0.010498170966761219 0 -0.002553034854926466 0.010444023048211541 0 -0.0024308467689244336 0.010721296605402475 0 -0.002185551703751394 0.010498170966761219 0 -0.002071772259409983 0.01090448092082472 0 -0.0024308467689244336 0.010721296605402475 0 -0.002071772259409983 0.01090448092082472 0 -0.0024308467689244336 0.010721296605402475 0 -0.0025190971693841973 0.011263711461309125 0 -0.0024308467689244336 0.010721296605402475 0 -0.0027469605129850218 0.010692657122817781 0 -0.0025190971693841973 0.011263711461309125 0 -0.0029724005248287994 0.010887829667469727 0 -0.0027469605129850218 0.010692657122817781 0 -0.0025190971693841973 0.011263711461309125 0 -0.00026183676223012623 0.003746499113624565 0 -0.00034740477474094934 0.0030840299997968198 0 -0.00074641245819275621 0.003312107785122957 0 -0.001539857428742856 0.0074638912297490699 0 -0.0016554125211589452 0.007123166632266799 0 -0.00074641245819275621 0.003312107785122957 0 -0.0010492674869059116 0.0031107785815972662 0 -0.00070957567566906372 0.0029261711588731798 0 -0.0016554125211589452 0.007123166632266799 0 -0.0017260690710082338 0.0082438002185625942 0 -0.00034740477474094934 0.0030840299997968198 0 -0.00074641245819275621 0.003312107785122957 0 -0.00070957567566906372 0.0029261711588731798 0 -0.00031048253415375617 0.0031733936073091952 0 -0.00092372413806927314 0.0024253151231642704 0 -0.001722849023622736 0.011113827459784009 0 -0.002002868711707159 0.011269322356249107 0 -0.0017301277758718658 0.011554383079044231 0 -0.002071772259409983 0.01090448092082472 0 -0.001722849023622736 0.011113827459784009 0 -0.002002868711707159 0.011269322356249107 0 -0.002071772259409983 0.01090448092082472 0 -0.0025190971693841973 0.011263711461309125 0 -0.002002868711707159 0.011269322356249107 0 -0.0025190971693841973 0.011263711461309125 0 -0.002002868711707159 0.011269322356249107 0 -0.0020848093333921246 0.01156255463506098 0 -0.002002868711707159 0.011269322356249107 0 -0.0020969136506605165 0.01166178939729073 0 -0.0017301277758718658 0.011554383079044231 0 -0.002251256811291315 0.012518031807319615 0 -0.0017260690710082338 0.0082438002185625942 0 -0.0020969136506605165 0.01166178939729073 0 -0.0017301277758718658 0.011554383079044231 0 -0.0016889475310859492 0.011977772374277138 0 -0.0017260690710082338 0.0082438002185625942 0 -0.0014350748638370641 0.010054570422012844 0 -0.0013926442412869923 0.0078988376492251568 0 -0.001306050587398389 0.0079684632517719647 0 -0.0013653093492806646 0.0079799088321946161 0 -0.0017260690710082338 0.0082438002185625942 0 -0.0010674642946619103 0.0038456451084424898 0 -0.0013926442412869923 0.0078988376492251568 0 -0.0013653093492806646 0.0079799088321946161 0 -0.0014112337666264505 0.0079864207683677333 0 -0.0013653093492806646 0.0079799088321946161 0 -0.0014112337666264505 0.0079864207683677333 0 -0.0013953891464646984 0.008007212910442825 0 -0.001281721776426988 0.004000850651226893 0 -0.0013437949681069192 0.0042831541405892312 0 -0.0010141208012992388 0.0042676117078806934 0 -0.0010674642946619103 0.0038456451084424898 0 -0.00054539376340045334 0.0026852051942062569 0 -0.0010674642946619103 0.0038456451084424898 0 -0.0011927161482259616 0.0053804292640184676 0 -0.0014236819472832178 0.008184400945202305 0 -0.0011927161482259616 0.0053804292640184676 0 -0.0013653093492806646 0.0079799088321946161 0 -0.0013098933504100377 0.008043121406741946 0 -0.0013953891464646984 0.008007212910442825 0 -0.001306050587398389 0.0079684632517719647 0 -0.0013653093492806646 0.0079799088321946161 0 -0.0013098933504100377 0.008043121406741946 0 -0.0010492674869059116 0.0031107785815972662 0 -0.00095857463623652756 0.0027337273170932124 0 -0.00070957567566906372 0.0029261711588731798 0 -0.0014898957051428102 0.0019012175214567014 0 -0.00074614894800237026 0.0016816228596184854 0 -0.0014536679970485252 0.0017448353195806598 0 -0.0010674642946619103 0.0038456451084424898 0 -0.00092372413806927314 0.0024253151231642704 0 -0.0014898957051428102 0.0019012175214567014 0 -0.00093710367922992339 0.0024598479468840766 0 -0.00074614894800237026 0.0016816228596184854 0 -0.00010131878390283901 0.0023446031012674218 0 -0.00093710367922992339 0.0024598479468840766 0 -0.00074614894800237026 0.0016816228596184854 0 0.00014000557610332519 0.0015495645554355752 0 7.5391184237408243e-06 0.001403137688778855 0 0.00021845389864596278 0.001286779214265148 0 -0.00035588222057661727 0.0015265926852323737 0 -0.00054539376340045334 0.0026852051942062569 0 -7.9322358369821432e-05 0.0013317862577982024 0 -0.00017356306682007376 0.0018757380038573899 0 -0.00025462356038336394 0.0015717514108079921 0 -2.2208691217434823e-05 0.001022545052585048 0 -0.00054539376340045334 0.0026852051942062569 0 7.5391184237408243e-06 0.001403137688778855 0 -0.00010269043592970447 0.0011769372733514106 0 -0.00020166211028005077 0.0015794342631460828 0 0.00014000557610332519 0.0015495645554355752 0 7.5391184237408243e-06 0.001403137688778855 0 -0.00020166211028005077 0.0015794342631460828 0 7.5391184237408243e-06 0.001403137688778855 0 -0.00010269043592970447 0.0011769372733514106 0 0.00021845389864596278 0.001286779214265148 0 0.00014025328478673875 0.0010419657861580746 0 -0.00010269043592970447 0.0011769372733514106 0 0.00021845389864596278 0.001286779214265148 0 0.00035361028823327294 0.0010635088748669659 0 0.00014025328478673875 0.0010419657861580746 0 0.00021845389864596278 0.001286779214265148 0 -0.0015025864404285107 0.0083563831503595826 0 -0.0016566814730606327 0.0086098186722071111 0 -0.0013460393531375616 0.0085905284851999133 0 -0.0015025864404285107 0.0083563831503595826 0 -0.0016566814730606327 0.0086098186722071111 0 -0.0018996640858260103 0.0083419394075189036 0 -0.0010642381216832972 0.0051532180678800239 0 -0.0011927161482259616 0.0053804292640184676 0 -0.00017356306682007376 0.0018757380038573899 0 -0.00029336255982192924 0.001884552545886027 0 -0.00025462356038336394 0.0015717514108079921 0 -0.00054539376340045334 0.0026852051942062569 0 -0.0011927161482259616 0.0053804292640184676 0 -0.00054129118662724247 0.0016122815924336658 0 -0.00029336255982192924 0.001884552545886027 0 -0.00025462356038336394 0.0015717514108079921 0 -0.00054129118662724247 0.0016122815924336658 0 -0.00025462356038336394 0.0015717514108079921 0 -0.00052479984933401626 0.0014203509004961823 0 -0.00025462356038336394 0.0015717514108079921 0 -0.00040386459913835208 0.0012954054901733799 0 -0.00052479984933401626 0.0014203509004961823 0 -7.9322358369821432e-05 0.0013317862577982024 0 -0.00025462356038336394 0.0015717514108079921 0 -0.00040386459913835208 0.0012954054901733799 0 -0.0016566814730606327 0.0086098186722071111 0 -0.001411101532442141 0.0088706683152766624 0 -0.0013460393531375616 0.0085905284851999133 0 -0.00040386459913835208 0.0012954054901733799 0 -0.00059211912812542444 0.0013054862601827389 0 -0.00052479984933401626 0.0014203509004961823 0 -0.00054129118662724247 0.0016122815924336658 0 -0.00052479984933401626 0.0014203509004961823 0 -0.00068206340419116297 0.0013987200993220378 0 -0.0010642381216832972 0.0051532180678800239 0 -0.0010085758088620824 0.004465970060512095 0 -0.00054129118662724247 0.0016122815924336658 0 -0.00068206340419116297 0.0013987200993220378 0 -0.00075774792399934472 0.0013439673858733172 0 -0.0014025856997656875 0.0034408419851135082 0 -0.0010085758088620824 0.004465970060512095 0 -0.00059211912812542444 0.0013054862601827389 0 -0.00052479984933401626 0.0014203509004961823 0 -0.00068206340419116297 0.0013987200993220378 0 -0.00059211912812542444 0.0013054862601827389 0 -0.00068206340419116297 0.0013987200993220378 0 -0.00074910590413670595 0.0013309167633979973 0 -0.001411101532442141 0.0088706683152766624 0 -0.0010575601243223375 0.0087471306894974753 0 -0.0013460393531375616 0.0085905284851999133 0 -0.0010176428815773541 0.0091352491779361604 0 -0.001411101532442141 0.0088706683152766624 0 -0.0010575601243223375 0.0087471306894974753 0 -0.00069773346279188746 0.0090339207186329734 0 -0.0010176428815773541 0.0091352491779361604 0 -0.0010575601243223375 0.0087471306894974753 0 -0.0015081721350994662 0.011239462504509586 0 -0.0012517510376190756 0.012674940031278647 0 -0.0010575601243223375 0.0087471306894974753 0 -0.0011034921375507735 0.0083702125317860858 0 -0.00068369789648215634 0.0087048943662943468 0 -0.0015025864404285107 0.0083563831503595826 0 -0.0013460393531375616 0.0085905284851999133 0 -0.0011034921375507735 0.0083702125317860858 0 -0.0010575601243223375 0.0087471306894974753 0 -0.0013460393531375616 0.0085905284851999133 0 -0.0011034921375507735 0.0083702125317860858 0 -0.0014350748638370641 0.010054570422012844 0 -0.0015081721350994662 0.011239462504509586 0 -0.0014236819472832178 0.008184400945202305 0 -0.0015081721350994662 0.011239462504509586 0 -0.001306050587398389 0.0079684632517719647 0 -0.0013098933504100377 0.008043121406741946 0 -0.0012046118079174792 0.0080761750640749065 0 -0.0015081721350994662 0.011239462504509586 0 -0.001544153976847251 0.014170518204442531 0 -0.0013094319167712876 0.012276892522589138 0 -0.0011247586844934741 0.011860543851235077 0 -0.00098288536237112071 0.012275743372012111 0 -0.0013094319167712876 0.012276892522589138 0 -0.0011247586844934741 0.011860543851235077 0 -0.0014470595558672113 0.011780527263363774 0 -0.0016889475310859492 0.011977772374277138 0 -0.0013094319167712876 0.012276892522589138 0 -0.0014470595558672113 0.011780527263363774 0 -0.0017301277758718658 0.011554383079044231 0 -0.0016889475310859492 0.011977772374277138 0 -0.0014470595558672113 0.011780527263363774 0 -0.00084867219473099031 0.011766366013266144 0 -0.00057375860229875704 0.011977036728411231 0 -0.00083700849509711183 0.01203048034671063 0 -0.00084867219473099031 0.011766366013266144 0 -0.0011247586844934741 0.011860543851235077 0 -0.00083700849509711183 0.01203048034671063 0 -0.0011247586844934741 0.011860543851235077 0 -0.00083700849509711183 0.01203048034671063 0 -0.00098288536237112071 0.012275743372012111 0 -0.00083700849509711183 0.01203048034671063 0 -0.00098288536237112071 0.012275743372012111 0 -0.00066893263225195057 0.012271019653405067 0 -0.001544153976847251 0.014170518204442531 0 -0.00093966949722391728 0.014993050841019966 0 -0.0019039580892700081 0.01595687344435557 0 -0.0015060499447280074 0.016004659993669693 0 -0.001704836143525381 0.016086421022673023 0 -0.00057375860229875704 0.011977036728411231 0 -0.00083700849509711183 0.01203048034671063 0 -0.00066893263225195057 0.012271019653405067 0 -0.0019039580892700081 0.01595687344435557 0 -0.0015060499447280074 0.016004659993669693 0 -0.0014366149566802568 0.015986291824445352 0 -0.0015060499447280074 0.016004659993669693 0 -0.0014389691571823271 0.015988564381124185 0 -0.0015518521588508069 0.01618510653239175 0 -0.0011465479899257771 0.015137182027465392 0 -0.00093966949722391728 0.014993050841019966 0 -0.0013195926802163642 0.016428989043570083 0 -0.0015518521588508069 0.01618510653239175 0 -0.0017970169094498683 0.016424015196182157 0 -0.0014389691571823271 0.015988564381124185 0 -0.0013195926802163642 0.016428989043570083 0 -0.0015518521588508069 0.01618510653239175 0 -0.0015060499447280074 0.016004659993669693 0 -0.0015518521588508069 0.01618510653239175 0 -0.001704836143525381 0.016086421022673023 0 -0.0019039580892700081 0.01595687344435557 0 -0.001704836143525381 0.016086421022673023 0 -0.0017970169094498683 0.016424015196182157 0 -0.0023777566655996457 0.015934981688348008 0 -0.0019039580892700081 0.01595687344435557 0 -0.0017970169094498683 0.016424015196182157 0 -0.0015518521588508069 0.01618510653239175 0 -0.001704836143525381 0.016086421022673023 0 -0.0017970169094498683 0.016424015196182157 0 -0.00069773346279188746 0.0090339207186329734 0 -0.0010575601243223375 0.0087471306894974753 0 -0.00068369789648215634 0.0087048943662943468 0 -0.0012517510376190756 0.012674940031278647 0 -0.00076424785420958232 0.013120728941293161 0 -0.0013195926802163642 0.016428989043570083 0 -0.0017970169094498683 0.016424015196182157 0 -0.0012299239527243588 0.016871920095410723 0 -0.00069773346279188746 0.0090339207186329734 0 -0.00068369789648215634 0.0087048943662943468 0 -0.00028188311565813435 0.0090312589246395302 0 -0.0013195926802163642 0.016428989043570083 0 -0.0012299239527243588 0.016871920095410723 0 -0.00091167498675790131 0.016500316038603885 0 -0.0012299239527243588 0.016871920095410723 0 -0.00091167498675790131 0.016500316038603885 0 -0.00071158893371334121 0.01672309930212499 0 -0.0013195926802163642 0.016428989043570083 0 -0.00091167498675790131 0.016500316038603885 0 -0.0008363149341667342 0.016017248485533282 0 -0.0014389691571823271 0.015988564381124185 0 -0.0013195926802163642 0.016428989043570083 0 -0.0008363149341667342 0.016017248485533282 0 -0.00091167498675790131 0.016500316038603885 0 -0.00053275401896087907 0.016396951030055545 0 -0.0008363149341667342 0.016017248485533282 0 -0.00071158893371334121 0.01672309930212499 0 -0.00036851002021967842 0.016653884532786153 0 -0.00053275401896087907 0.016396951030055545 0 -0.00068210348789441734 0.017007007156034894 0 -0.0012299239527243588 0.016871920095410723 0 -0.00071158893371334121 0.01672309930212499 0 -0.00091167498675790131 0.016500316038603885 0 -0.00071158893371334121 0.01672309930212499 0 -0.00053275401896087907 0.016396951030055545 0 -0.00068210348789441734 0.017007007156034894 0 -0.00071158893371334121 0.01672309930212499 0 -0.00048057076196002496 0.01688469006081662 0 -0.00048057076196002496 0.01688469006081662 0 -0.00022276411793293769 0.016932248911411211 0 -0.00036851002021967842 0.016653884532786153 0 -0.00071158893371334121 0.01672309930212499 0 -0.00048057076196002496 0.01688469006081662 0 -0.00036851002021967842 0.016653884532786153 0 -0.00036851002021967842 0.016653884532786153 0 -0.00011124770742510037 0.016705513149880072 0 -0.00012917977753230286 0.016458648964938465 0 -0.00022276411793293769 0.016932248911411211 0 -0.00036851002021967842 0.016653884532786153 0 -0.00011124770742510037 0.016705513149880072 0 -0.00022276411793293769 0.016932248911411211 0 0.00014765320523046986 0.016960567812010829 0 -0.00011124770742510037 0.016705513149880072 0 -0.00011124770742510037 0.016705513149880072 0 0.00014736465857376037 0.016703316128306351 0 -0.00012917977753230286 0.016458648964938465 0 0.00014765320523046986 0.016960567812010829 0 -0.00011124770742510037 0.016705513149880072 0 0.00014736465857376037 0.016703316128306351 0 -0.00012917977753230286 0.016458648964938465 0 -0.00022803135190005119 0.016028058843290099 0 0.00027934071601117992 0.016421358839108932 0 0.00014736465857376037 0.016703316128306351 0 -0.00012917977753230286 0.016458648964938465 0 0.00027934071601117992 0.016421358839108932 0 -0.00012917977753230286 0.016458648964938465 0 -0.00053275401896087907 0.016396951030055545 0 -0.00022803135190005119 0.016028058843290099 0 -0.00036851002021967842 0.016653884532786153 0 -0.00012917977753230286 0.016458648964938465 0 -0.00053275401896087907 0.016396951030055545 0 0.00020672631468663484 0.016055032778623052 0 6.9159962590596268e-05 0.015820360718049618 0 -0.00022585443223658227 0.016044737585659847 0 0.00020672631468663484 0.016055032778623052 0 0.00035771101698387603 0.015940627207031686 0 6.9159962590596268e-05 0.015820360718049618 0 0.0004143147058589976 0.018637827781504461 0 0.00054756823112976291 0.017331800342009537 0 -2.6420572463540971e-07 0.015888562309313542 0 0.00054756823112976291 0.017331800342009537 0 0.00020672631468663484 0.016055032778623052 0 0.00035771101698387603 0.015940627207031686 0 0.00064894332927541739 0.01606629450018611 0 -0.00022803135190005119 0.016028058843290099 0 0.00027934071601117992 0.016421358839108932 0 0.00040165581409501612 0.016030484738475202 0 0.00010735851707554323 0.021154658751594134 0 0.00010835589317514966 0.021165431611143801 0 0.00011329195739597189 0.021102095931752489 0 0.00010735851707554323 0.021154658751594134 0 0.00010835589317514966 0.021165431611143801 0 0.00010214748247045855 0.021202080139493748 0 0.00018545315700145305 0.01195988322581238 0 -2.8174032891409724e-05 0.012055776406320847 0 6.5435370552688115e-05 0.011912719980700589 0 0.0004143147058589976 0.018637827781504461 0 6.9615669590429154e-05 0.015802403147477013 0 6.4035285472082313e-05 0.016656970109697813 0 6.9615669590429154e-05 0.015802403147477013 0 6.9615669590429154e-05 0.015802403147477013 0 -0.00060687278502900822 0.014267421535037168 0 -2.8174032891409724e-05 0.012055776406320847 0 -5.8233499408548014e-05 0.011929741772032147 0 -0.00011410963978574183 0.012022263652966556 0 -2.8174032891409724e-05 0.012055776406320847 0 -5.8233499408548014e-05 0.011929741772032147 0 6.5435370552688115e-05 0.011912719980700589 0 6.9615669590429154e-05 0.015802403147477013 0 -0.00016514197568774484 0.013775076225028547 0 -2.091504538125585e-05 0.012066659461208822 0 -0.00011410963978574183 0.012022263652966556 0 -0.00033101085058331224 0.012155742336258142 0 -5.8233499408548014e-05 0.011929741772032147 0 -0.00011410963978574183 0.012022263652966556 0 -0.00020043042122736755 0.011817560912884672 0 -0.00011410963978574183 0.012022263652966556 0 -0.00030968617957650746 0.011959087756864828 0 -0.00033101085058331224 0.012155742336258142 0 -0.00011410963978574183 0.012022263652966556 0 -0.00030968617957650746 0.011959087756864828 0 -0.00020043042122736755 0.011817560912884672 0 -0.00057375860229875704 0.011977036728411231 0 -0.00030968617957650746 0.011959087756864828 0 -0.00033101085058331224 0.012155742336258142 0 -0.00057375860229875704 0.011977036728411231 0 -0.00030968617957650746 0.011959087756864828 0 -0.00041567430806490593 0.011767713793973353 0 -0.00093966949722391728 0.014993050841019966 0 -0.00056396416805654407 0.016157789677486826 0 -0.00057375860229875704 0.011977036728411231 0 -0.00066893263225195057 0.012271019653405067 0 -0.00033101085058331224 0.012155742336258142 0 -0.00065725547039568273 0.016034905736587345 0 -0.00029335315518920469 0.015928812034491594 0 -0.00022585443223658227 0.016044737585659847 0 -0.00093966949722391728 0.014993050841019966 0 -0.00016514197568774484 0.013775076225028547 0 -2.6420572463540971e-07 0.015888562309313542 0 -0.00056396416805654407 0.016157789677486826 0 6.9159962590596268e-05 0.015820360718049618 0 -0.00029335315518920469 0.015928812034491594 0 -0.00022585443223658227 0.016044737585659847 0 -0.00053275401896087907 0.016396951030055545 0 -0.00022803135190005119 0.016028058843290099 0 -0.0008363149341667342 0.016017248485533282 0 0.0020983564380012689 0.016844726061335268 0 0.0015452160037889703 0.016526571925440926 0 0.0015633142898289125 0.016941943133853738 0 0.0015452160037889703 0.016526571925440926 0 0.0015633142898289125 0.016941943133853738 0 0.0012984819318104784 0.01678270849993211 0 0.001611508517031651 0.017246053190518723 0 0.0018958501379962986 0.017125490732482908 0 0.0015633142898289125 0.016941943133853738 0 0.0013394025408842952 0.017219794009621411 0 0.001611508517031651 0.017246053190518723 0 0.0015633142898289125 0.016941943133853738 0 0.0015633142898289125 0.016941943133853738 0 0.0012984819318104784 0.01678270849993211 0 0.0011889158859580112 0.01699950348834614 0 0.0013394025408842952 0.017219794009621411 0 0.0015633142898289125 0.016941943133853738 0 0.0011889158859580112 0.01699950348834614 0 0.0010595484336346028 0.017220739412690134 0 0.0011889158859580112 0.01699950348834614 0 0.00090519631208065194 0.017013266978182052 0 0.0012984819318104784 0.01678270849993211 0 0.0011048393085775271 0.016603197445471455 0 0.00097304832395534672 0.016792283068591284 0 0.0012984819318104784 0.01678270849993211 0 0.0011889158859580112 0.01699950348834614 0 0.00097304832395534672 0.016792283068591284 0 0.0015452160037889703 0.016526571925440926 0 0.0012984819318104784 0.01678270849993211 0 0.0011048393085775271 0.016603197445471455 0 0.0016763516006577349 0.016683682688231491 0 0.0012009741571153197 0.016398194057261471 0 0.0015452160037889703 0.016526571925440926 0 0.0011048393085775271 0.016603197445471455 0 0.0009709906582896368 0.016261479404822039 0 0.0011048393085775271 0.016603197445471455 0 0.00086405809209953103 0.016526365736821581 0 0.0009709906582896368 0.016261479404822039 0 0.00086405809209953103 0.016526365736821581 0 0.00061093516795209706 0.016398767601192018 0 0.0009709906582896368 0.016261479404822039 0 0.00086405809209953103 0.016526365736821581 0 0.00073551812192920133 0.016720652168297302 0 0.00061093516795209706 0.016398767601192018 0 0.00086405809209953103 0.016526365736821581 0 0.00097304832395534672 0.016792283068591284 0 0.00073551812192920133 0.016720652168297302 0 0.0011048393085775271 0.016603197445471455 0 0.00086405809209953103 0.016526365736821581 0 0.00097304832395534672 0.016792283068591284 0 0.00097304832395534672 0.016792283068591284 0 0.00090519631208065194 0.017013266978182052 0 0.00073551812192920133 0.016720652168297302 0 0.0011889158859580112 0.01699950348834614 0 0.00097304832395534672 0.016792283068591284 0 0.00090519631208065194 0.017013266978182052 0 0.00090519631208065194 0.017013266978182052 0 0.00064943519291350263 0.016974122312772295 0 0.00073551812192920133 0.016720652168297302 0 0.00064943519291350263 0.016974122312772295 0 0.00073551812192920133 0.016720652168297302 0 0.00042899850816242716 0.01674645753058791 0 0.00042155487473439937 0.017074171857254895 0 0.00064943519291350263 0.016974122312772295 0 0.00042899850816242716 0.01674645753058791 0 0.00042155487473439937 0.017074171857254895 0 0.00014765320523046986 0.016960567812010829 0 0.00042899850816242716 0.01674645753058791 0 0.00014765320523046986 0.016960567812010829 0 0.00014736465857376037 0.016703316128306351 0 0.00042899850816242716 0.01674645753058791 0 0.00061093516795209706 0.016398767601192018 0 0.00027934071601117992 0.016421358839108932 0 0.00040165581409501612 0.016030484738475202 0 0.00014736465857376037 0.016703316128306351 0 0.00042899850816242716 0.01674645753058791 0 0.00027934071601117992 0.016421358839108932 0 0.00042899850816242716 0.01674645753058791 0 0.00061093516795209706 0.016398767601192018 0 0.00027934071601117992 0.016421358839108932 0 0.00073551812192920133 0.016720652168297302 0 0.00042899850816242716 0.01674645753058791 0 0.00061093516795209706 0.016398767601192018 0 0.00010735851707554323 0.021154658751594134 0 0.00010497065986994846 0.021203839446439877 0 0.00010214748247045855 0.021202080139493748 0 0.00010497065986994846 0.021203839446439877 0 0.00010214748247045855 0.021202080139493748 0 0.00011751572793716905 0.021312556070424524 0 0.00010835589317514966 0.021165431611143801 0 0.00010214748247045855 0.021202080139493748 0 0.00010223523004913527 0.021212418615705164 0 0.00010214748247045855 0.021202080139493748 0 0.0001133195463653887 0.02126151648279908 0 0.00011751572793716905 0.021312556070424524 0 0.00010214748247045855 0.021202080139493748 0 0.0001133195463653887 0.02126151648279908 0 0.00010223523004913527 0.021212418615705164 0 0.00105363559948187 0.016629702541462708 0 0.0014446049625208035 0.016739256193082426 0 0.0014974535651352146 0.016592554839967938 0 0.00061093516795209706 0.016398767601192018 0 0.00040165581409501612 0.016030484738475202 0 0.0009709906582896368 0.016261479404822039 0 0.00054756823112976291 0.017331800342009537 0 0.00080118408462572183 0.019145106391739223 0 0.00054756823112976291 0.017331800342009537 0 0.0012009741571153197 0.016398194057261471 0 0.0018053595205356275 0.016816359525683017 0 0.0014446049625208035 0.016739256193082426 0 0.0014974535651352146 0.016592554839967938 0 0.00080118408462572183 0.019145106391739223 0 0.0011400287050578445 0.018938369554680017 0 0.00011751572793716905 0.021312556070424524 0 0.00016175387577970212 0.021337552404898933 0 0.00024130843596850083 0.021509926550088987 0 0.0001133195463653887 0.02126151648279908 0 0.00016175387577970212 0.021337552404898933 0 0.00014783299871151649 0.021265002862790452 0 0.0001133195463653887 0.02126151648279908 0 0.00011751572793716905 0.021312556070424524 0 0.00016175387577970212 0.021337552404898933 0 0.00016175387577970212 0.021337552404898933 0 0.00024486450861820616 0.021391763944381442 0 0.00024130843596850083 0.021509926550088987 0 0.00016175387577970212 0.021337552404898933 0 0.00024486450861820616 0.021391763944381442 0 0.00019834545853369311 0.021286866883115704 0 0.00042234742749331072 0.021509606786956639 0 0.00024486450861820616 0.021391763944381442 0 0.00024130843596850083 0.021509926550088987 0 0.0020868321755978382 0.016698800117700894 0 0.0018053595205356275 0.016816359525683017 0 0.0018899829994667528 0.016569025931144864 0 0.0018053595205356275 0.016816359525683017 0 0.0014974535651352146 0.016592554839967938 0 0.0018899829994667528 0.016569025931144864 0 0.00033665729692768098 0.021096450646062092 0 -0.00011922139236940226 0.020886857833136683 0 -0.00024178725911012619 0.021065928824104456 0 2.2512255984420829e-05 0.020707088768605456 0 -0.00032683922668886282 0.020639548644990638 0 -4.8441944582983838e-05 0.02038785725108859 0 2.2512255984420829e-05 0.020707088768605456 0 -0.00032683922668886282 0.020639548644990638 0 -0.00011922139236940226 0.020886857833136683 0 -0.0003533512575285083 0.020943239008401088 0 -0.00011922139236940226 0.020886857833136683 0 -0.00024178725911012619 0.021065928824104456 0 -0.00032683922668886282 0.020639548644990638 0 -0.0003533512575285083 0.020943239008401088 0 -0.00011922139236940226 0.020886857833136683 0 0.00030745755424580639 0.021098802212235049 0 5.9782040750625596e-07 0.021175368219498909 0 0.00033665729692768098 0.021096450646062092 0 0.00027489120041885353 0.021283910073551137 0 0.00018619023261704832 0.021201354090454573 0 0.00024486450861820616 0.021391763944381442 0 0.00027489120041885353 0.021283910073551137 0 0.00019834545853369311 0.021286866883115704 0 0.00027489120041885353 0.021283910073551137 0 0.00019834545853369311 0.021286866883115704 0 0.00018619023261704832 0.021201354090454573 0 0.00019834545853369311 0.021286866883115704 0 0.00018619023261704832 0.021201354090454573 0 0.00014783299871151649 0.021265002862790452 0 0.00016175387577970212 0.021337552404898933 0 0.00019834545853369311 0.021286866883115704 0 0.00014783299871151649 0.021265002862790452 0 -0.0003533512575285083 0.020943239008401088 0 -0.00024178725911012619 0.021065928824104456 0 -0.00074675561971532093 0.021044868231332874 0 0.00018619023261704832 0.021201354090454573 0 0.00014783299871151649 0.021265002862790452 0 0.00011812120861073194 0.021224717483541163 0 5.9782040750625596e-07 0.021175368219498909 0 -0.00054940531610311351 0.01871539526831642 0 -0.00075067390536868322 0.020884113159122111 0 -0.00054940531610311351 0.01871539526831642 0 0.0001133195463653887 0.02126151648279908 0 0.00014783299871151649 0.021265002862790452 0 0.00011812120861073194 0.021224717483541163 0 -0.00075474286925892166 0.021029039967366471 0 -0.00062756235439955605 0.020774676054421966 0 -0.0010066448508110396 0.020677981946407707 0 -0.00032683922668886282 0.020639548644990638 0 -0.0003533512575285083 0.020943239008401088 0 -0.00062756235439955605 0.020774676054421966 0 -0.0003533512575285083 0.020943239008401088 0 -0.00075474286925892166 0.021029039967366471 0 -0.00062756235439955605 0.020774676054421966 0 -0.00032683922668886282 0.020639548644990638 0 -0.00062756235439955605 0.020774676054421966 0 -0.00070311228323813573 0.020482705613248678 0 -0.00062756235439955605 0.020774676054421966 0 -0.0010066448508110396 0.020677981946407707 0 -0.00070311228323813573 0.020482705613248678 0 -0.00075474286925892166 0.021029039967366471 0 -0.0010066448508110396 0.020677981946407707 0 -0.0013690791328155115 0.021028824355063275 0 0.0001133195463653887 0.02126151648279908 0 0.00011812120861073194 0.021224717483541163 0 0.00010223523004913527 0.021212418615705164 0 -0.00054940531610311351 0.01871539526831642 0 0.00021801333736908327 0.014218657901014316 0 -0.00041843288797531746 0.012386207242685281 0 9.5036239456436941e-05 0.01203568416721933 0 0.00012564469580349789 0.012079284263302646 0 -0.00054940531610311351 0.01871539526831642 0 0.00026701864811049024 0.016441122950068578 0 -0.00041843288797531746 0.012386207242685281 0 0.00014352801176766109 0.012139906008439411 0 0.00012564469580349789 0.012079284263302646 0 0.00018545315700145305 0.01195988322581238 0 9.5036239456436941e-05 0.01203568416721933 0 0.00012564469580349789 0.012079284263302646 0 0.00013369592554941603 0.012062591635354433 0 0.00012564469580349789 0.012079284263302646 0 0.00018521258253517429 0.011909930164567513 0 0.00027665999045201056 0.013147587475551703 0 0.00022063058326433498 0.0119878217647559 0 6.4035285472082313e-05 0.016656970109697813 0 0.00026701864811049024 0.016441122950068578 0 0.00027665999045201056 0.013147587475551703 0 0.00021801333736908327 0.014218657901014316 0 0.00013369592554941603 0.012062591635354433 0 0.00013112324366933167 0.012069889906592123 0 0.00012564469580349789 0.012079284263302646 0 0.00021801333736908327 0.014218657901014316 0 0.00012915411100284415 0.013829879042423705 0 0.00044079643145092162 0.011488124729982374 0 0.00046694890742795034 0.011487222921373146 0 0.00032528648898607872 0.011338276198244424 0 0.00046694890742795034 0.011487222921373146 0 0.00036729419302402883 0.01118138977705814 0 0.00032528648898607872 0.011338276198244424 0 0.00021801333736908327 0.014218657901014316 0 -0.00062978766522561454 0.016196239087436837 0 -0.0010066448508110396 0.020677981946407707 0 -0.0013690791328155115 0.021028824355063275 0 -0.0015991695267120018 0.020415323672348763 0 -0.0015991695267120018 0.020415323672348763 0 -0.0012400512930668866 0.019930770577943426 0 -0.0010106377720153741 0.020275556321882743 0 -0.00062978766522561454 0.016196239087436837 0 -0.00084299723729128629 0.015229994670853321 0 -0.0015991695267120018 0.020415323672348763 0 -0.0012400512930668866 0.019930770577943426 0 -0.0018988460491659647 0.019729116693439172 0 -0.0012400512930668866 0.019930770577943426 0 -0.0018988460491659647 0.019729116693439172 0 -0.0012558677941906812 0.019273192170498377 0 -0.0012400512930668866 0.019930770577943426 0 -0.0008531917076889825 0.019556565934595923 0 -0.0012558677941906812 0.019273192170498377 0 -0.0012400512930668866 0.019930770577943426 0 -0.00070372638898937934 0.020024172810528224 0 -0.0008531917076889825 0.019556565934595923 0 -0.0012400512930668866 0.019930770577943426 0 -0.0010106377720153741 0.020275556321882743 0 -0.00070372638898937934 0.020024172810528224 0 -0.0010066448508110396 0.020677981946407707 0 -0.0015991695267120018 0.020415323672348763 0 -0.0010106377720153741 0.020275556321882743 0 -0.0010066448508110396 0.020677981946407707 0 -0.0010106377720153741 0.020275556321882743 0 -0.00070311228323813573 0.020482705613248678 0 -0.00040996620423228321 0.020303150986006938 0 -0.00070372638898937934 0.020024172810528224 0 -0.00026486155813931235 0.01998453396538406 0 -0.00070311228323813573 0.020482705613248678 0 -0.00040996620423228321 0.020303150986006938 0 -0.00070372638898937934 0.020024172810528224 0 -0.0010106377720153741 0.020275556321882743 0 -0.00070311228323813573 0.020482705613248678 0 -0.00070372638898937934 0.020024172810528224 0 -0.00032683922668886282 0.020639548644990638 0 -0.00070311228323813573 0.020482705613248678 0 -0.00040996620423228321 0.020303150986006938 0 -0.00070372638898937934 0.020024172810528224 0 -0.00043677007685234145 0.019574055931351125 0 -0.0008531917076889825 0.019556565934595923 0 -0.00070372638898937934 0.020024172810528224 0 -0.00026486155813931235 0.01998453396538406 0 -0.00043677007685234145 0.019574055931351125 0 0.00010277660744093066 0.019649890813837365 0 -0.00026486155813931235 0.01998453396538406 0 -0.00043677007685234145 0.019574055931351125 0 0.00030067056826151749 0.020170526839142243 0 -0.00026486155813931235 0.01998453396538406 0 -4.8441944582983838e-05 0.02038785725108859 0 -0.00040996620423228321 0.020303150986006938 0 -0.00026486155813931235 0.01998453396538406 0 -4.8441944582983838e-05 0.02038785725108859 0 -0.00032683922668886282 0.020639548644990638 0 -0.00040996620423228321 0.020303150986006938 0 -4.8441944582983838e-05 0.02038785725108859 0 -0.00064039451116094611 0.011547435475276611 0 -0.00056098572946715873 0.011274077018018129 0 -0.00018766165096004411 0.011494987882523275 0 -0.00043954895435104063 0.011184108625532567 0 -0.00013106408885799715 0.011369142125977819 0 -0.00064039451116094611 0.011547435475276611 0 -0.00018766165096004411 0.011494987882523275 0 -0.00041567430806490593 0.011767713793973353 0 -0.00064039451116094611 0.011547435475276611 0 -0.00057375860229875704 0.011977036728411231 0 -0.00041567430806490593 0.011767713793973353 0 -0.00030968617957650746 0.011959087756864828 0 -0.00041567430806490593 0.011767713793973353 0 -0.00020043042122736755 0.011817560912884672 0 -0.00018766165096004411 0.011494987882523275 0 -0.00020043042122736755 0.011817560912884672 0 -6.6166794312377459e-05 0.011721397487066942 0 -0.00018766165096004411 0.011494987882523275 0 -0.00041567430806490593 0.011767713793973353 0 -0.00020043042122736755 0.011817560912884672 0 -0.00020043042122736755 0.011817560912884672 0 -2.9213855679465438e-05 0.011836165984359595 0 -6.6166794312377459e-05 0.011721397487066942 0 -5.8233499408548014e-05 0.011929741772032147 0 -0.00020043042122736755 0.011817560912884672 0 -2.9213855679465438e-05 0.011836165984359595 0 -5.8233499408548014e-05 0.011929741772032147 0 -2.9213855679465438e-05 0.011836165984359595 0 6.5435370552688115e-05 0.011912719980700589 0 -2.9213855679465438e-05 0.011836165984359595 0 6.5435370552688115e-05 0.011912719980700589 0 4.5462845666643374e-05 0.011815791885130969 0 4.5462845666643374e-05 0.011815791885130969 0 -6.6166794312377459e-05 0.011721397487066942 0 9.7692189288206744e-05 0.011729248658728868 0 -2.9213855679465438e-05 0.011836165984359595 0 4.5462845666643374e-05 0.011815791885130969 0 -6.6166794312377459e-05 0.011721397487066942 0 0.00027665999045201056 0.013147587475551703 0 0.00010815096019056664 0.011361656222376709 0 0.00018545315700145305 0.01195988322581238 0 0.00012564469580349789 0.012079284263302646 0 0.00018521258253517429 0.011909930164567513 0 0.00040800887291261455 0.011926205773564428 0 0.00018521258253517429 0.011909930164567513 0 9.7692189288206744e-05 0.011729248658728868 0 0.00018545315700145305 0.01195988322581238 0 6.5435370552688115e-05 0.011912719980700589 0 0.00018521258253517429 0.011909930164567513 0 6.5435370552688115e-05 0.011912719980700589 0 4.5462845666643374e-05 0.011815791885130969 0 0.00018521258253517429 0.011909930164567513 0 4.5462845666643374e-05 0.011815791885130969 0 0.00018521258253517429 0.011909930164567513 0 9.7692189288206744e-05 0.011729248658728868 0 0.00044079643145092162 0.011488124729982374 0 0.00032528648898607872 0.011338276198244424 0 0.00014992532150647061 0.011339668179472448 0 0.00032528648898607872 0.011338276198244424 0 0.00014992532150647061 0.011339668179472448 0 0.0002053664458156702 0.011216292180421358 0 0.00036729419302402883 0.01118138977705814 0 0.00032528648898607872 0.011338276198244424 0 0.0002053664458156702 0.011216292180421358 0 -0.00013106408885799715 0.011369142125977819 0 0.00010815096019056664 0.011361656222376709 0 -0.00018766165096004411 0.011494987882523275 0 -6.6166794312377459e-05 0.011721397487066942 0 9.7692189288206744e-05 0.011729248658728868 0 -8.0389382346179679e-05 0.011197883933550073 0 0.00014992532150647061 0.011339668179472448 0 7.2695523116427259e-05 0.011165519631058121 0 0.00014992532150647061 0.011339668179472448 0 0.0002053664458156702 0.011216292180421358 0 7.2695523116427259e-05 0.011165519631058121 0 0.00012368105153073944 0.011029232851727551 0 -2.9573826898148308e-05 0.010868646053804346 0 -1.6089456258776509e-05 0.011044491600930862 0 7.2695523116427259e-05 0.011165519631058121 0 0.00012368105153073944 0.011029232851727551 0 -1.6089456258776509e-05 0.011044491600930862 0 0.0002053664458156702 0.011216292180421358 0 7.2695523116427259e-05 0.011165519631058121 0 0.00012368105153073944 0.011029232851727551 0 0.00036729419302402883 0.01118138977705814 0 0.00012368105153073944 0.011029232851727551 0 0.00024832773409769573 0.010908145943746896 0 0.00036729419302402883 0.01118138977705814 0 0.0002053664458156702 0.011216292180421358 0 0.00012368105153073944 0.011029232851727551 0 0.00012368105153073944 0.011029232851727551 0 0.00024832773409769573 0.010908145943746896 0 8.2569622744533419e-05 0.010828173648846253 0 0.00012368105153073944 0.011029232851727551 0 -2.9573826898148308e-05 0.010868646053804346 0 8.2569622744533419e-05 0.010828173648846253 0 -2.9573826898148308e-05 0.010868646053804346 0 -0.00014399112041714882 0.010954154690289854 0 -0.00012806114922248423 0.010728585219587099 0 -2.9573826898148308e-05 0.010868646053804346 0 -1.6089456258776509e-05 0.011044491600930862 0 -0.00014399112041714882 0.010954154690289854 0 -8.0389382346179679e-05 0.011197883933550073 0 7.2695523116427259e-05 0.011165519631058121 0 -1.6089456258776509e-05 0.011044491600930862 0 -8.0389382346179679e-05 0.011197883933550073 0 -1.6089456258776509e-05 0.011044491600930862 0 -0.00014399112041714882 0.010954154690289854 0 -0.00030179126886923665 0.011098828870793456 0 -8.0389382346179679e-05 0.011197883933550073 0 -0.00014399112041714882 0.010954154690289854 0 -0.00030179126886923665 0.011098828870793456 0 -0.00014399112041714882 0.010954154690289854 0 -0.00028231969552641609 0.010795238313389128 0 -0.00014399112041714882 0.010954154690289854 0 -0.00028231969552641609 0.010795238313389128 0 -0.00012806114922248423 0.010728585219587099 0 -0.00028231969552641609 0.010795238313389128 0 -0.00012806114922248423 0.010728585219587099 0 -0.00034758064139735282 0.010547884834287586 0 -0.00012806114922248423 0.010728585219587099 0 -9.7637379720469695e-05 0.010577213787319951 0 -0.00034758064139735282 0.010547884834287586 0 -9.7637379720469695e-05 0.010577213787319951 0 -0.00031783525006664484 0.010262058982607387 0 -0.00034758064139735282 0.010547884834287586 0 -0.00010688625117759053 0.0105657814336026 0 -0.00024803992054861957 0.010432398188643496 0 -9.7637379720469695e-05 0.010577213787319951 0 -1.7860174000324178e-05 0.010700372451218155 0 -5.2364456334611343e-05 0.010620940920723881 0 -2.9573826898148308e-05 0.010868646053804346 0 -0.00012806114922248423 0.010728585219587099 0 -1.7860174000324178e-05 0.010700372451218155 0 -0.00012806114922248423 0.010728585219587099 0 -9.7637379720469695e-05 0.010577213787319951 0 -1.7860174000324178e-05 0.010700372451218155 0 -1.7860174000324178e-05 0.010700372451218155 0 8.2569622744533419e-05 0.010828173648846253 0 9.0743888635379144e-05 0.010701499096547938 0 -2.9573826898148308e-05 0.010868646053804346 0 -1.7860174000324178e-05 0.010700372451218155 0 8.2569622744533419e-05 0.010828173648846253 0 0.00024832773409769573 0.010908145943746896 0 8.2569622744533419e-05 0.010828173648846253 0 9.0743888635379144e-05 0.010701499096547938 0 -0.00084299723729128629 0.015229994670853321 0 -0.0010880349402247235 0.014774377434516714 0 -0.0010880349402247235 0.014774377434516714 0 -0.0013836556509497729 0.014107615309760317 0 -1.7860174000324178e-05 0.010700372451218155 0 9.0743888635379144e-05 0.010701499096547938 0 -5.2364456334611343e-05 0.010620940920723881 0 9.0743888635379144e-05 0.010701499096547938 0 -4.7971857676603247e-05 0.010654183226062392 0 -5.2364456334611343e-05 0.010620940920723881 0 -4.7971857676603247e-05 0.010654183226062392 0 -6.66115585991724e-05 0.010691243046017733 0 -5.2364456334611343e-05 0.010620940920723881 0 -0.0022950425728229182 0.018787586547476757 0 -0.0026478244057737904 0.017648226117827615 0 -0.0018769258386457054 0.017333473576340554 0 -0.0026478244057737904 0.017648226117827615 0 -0.0018769258386457054 0.017333473576340554 0 -0.0021179586865884871 0.01651868784292072 0 -4.7971857676603247e-05 0.010654183226062392 0 -6.66115585991724e-05 0.010691243046017733 0 -9.8540147076515858e-05 0.010730074586577367 0 -0.0013836556509497729 0.014107615309760317 0 -0.0012268303354395836 0.013816663943358331 0 -0.0026478244057737904 0.017648226117827615 0 -0.0029722967092670255 0.016532787211135665 0 -0.0021179586865884871 0.01651868784292072 0 -6.66115585991724e-05 0.010691243046017733 0 -2.6138573700015262e-05 0.010777168243709515 0 -9.8540147076515858e-05 0.010730074586577367 0 -6.66115585991724e-05 0.010691243046017733 0 -3.4485905874960831e-05 0.010722609222109443 0 -3.6576337006880725e-05 0.010607407244065212 0 -0.00011783096535336208 0.010356969485335784 0 -3.6576337006880725e-05 0.010607407244065212 0 -2.9943098046587323e-05 0.0101353046554295 0 -2.9455638546584198e-05 0.01058208460911631 0 -1.5479221334795424e-05 0.010495169642751073 0 -3.4485905874960831e-05 0.010722609222109443 0 -3.6576337006880725e-05 0.010607407244065212 0 1.2767902681491792e-05 0.010821096635855879 0 -6.66115585991724e-05 0.010691243046017733 0 -3.4485905874960831e-05 0.010722609222109443 0 -2.6138573700015262e-05 0.010777168243709515 0 -0.00011783096535336208 0.010356969485335784 0 -3.6576337006880725e-05 0.010607407244065212 0 -0.00018597050799726349 0.010445180533339392 0 -9.7637379720469695e-05 0.010577213787319951 0 -3.6576337006880725e-05 0.010607407244065212 0 -0.000136787819470019 0.010632268971214618 0 -3.6576337006880725e-05 0.010607407244065212 0 -0.00018597050799726349 0.010445180533339392 0 -0.000136787819470019 0.010632268971214618 0 -6.66115585991724e-05 0.010691243046017733 0 -3.6576337006880725e-05 0.010607407244065212 0 -5.2364456334611343e-05 0.010620940920723881 0 -9.7637379720469695e-05 0.010577213787319951 0 -3.6576337006880725e-05 0.010607407244065212 0 -5.2364456334611343e-05 0.010620940920723881 0 -0.00013497898863040295 0.019150149337361561 0 -0.00066901797515473414 0.019045542898740598 0 -0.00030413093931899694 0.01871537367197278 0 0.00012667789677620314 0.018683190963172003 0 -0.00013497898863040295 0.019150149337361561 0 -0.00030413093931899694 0.01871537367197278 0 0.00010277660744093066 0.019649890813837365 0 -0.00013497898863040295 0.019150149337361561 0 -0.00043677007685234145 0.019574055931351125 0 -0.00013497898863040295 0.019150149337361561 0 -0.00043677007685234145 0.019574055931351125 0 -0.00066901797515473414 0.019045542898740598 0 -0.00043677007685234145 0.019574055931351125 0 -0.00066901797515473414 0.019045542898740598 0 -0.0008531917076889825 0.019556565934595923 0 -0.00066901797515473414 0.019045542898740598 0 -0.0012558677941906812 0.019273192170498377 0 -0.0012886115649217503 0.018598135653454789 0 -0.00066901797515473414 0.019045542898740598 0 -0.0008531917076889825 0.019556565934595923 0 -0.0012558677941906812 0.019273192170498377 0 -0.0018988460491659647 0.019729116693439172 0 -0.0022950425728229182 0.018787586547476757 0 -0.0012558677941906812 0.019273192170498377 0 -0.0012512788996770759 0.019240703255919797 0 -0.0012566045138235626 0.018191907549447446 0 -0.0022950425728229182 0.018787586547476757 0 -0.0012558677941906812 0.019273192170498377 0 -0.0012215720743815838 0.017868151231584278 0 -0.0022950425728229182 0.018787586547476757 0 -0.0018769258386457054 0.017333473576340554 0 -0.0012215720743815838 0.017868151231584278 0 -0.0018769258386457054 0.017333473576340554 0 -0.0012215720743815838 0.017868151231584278 0 -0.0012540901762986003 0.016493159430015249 0 -0.0012566045138235626 0.018191907549447446 0 -0.00131186050985227 0.017355480233091733 0 -0.0018769258386457054 0.017333473576340554 0 -0.0012540901762986003 0.016493159430015249 0 -0.0021179586865884871 0.01651868784292072 0 -0.0012886115649217503 0.018598135653454789 0 -0.0010275182309718051 0.018201882930970973 0 -0.0013316395778790956 0.0178160573020106 0 -0.0010275182309718051 0.018201882930970973 0 -0.00060723651503706978 0.018404779645697818 0 -0.00086362583261409824 0.01779195109812963 0 -0.0010275182309718051 0.018201882930970973 0 -0.00086362583261409824 0.01779195109812963 0 -0.0013316395778790956 0.0178160573020106 0 -0.00066901797515473414 0.019045542898740598 0 -0.0012886115649217503 0.018598135653454789 0 -0.00060723651503706978 0.018404779645697818 0 -0.0012886115649217503 0.018598135653454789 0 -0.0010275182309718051 0.018201882930970973 0 -0.00060723651503706978 0.018404779645697818 0 -0.00066901797515473414 0.019045542898740598 0 -0.00060723651503706978 0.018404779645697818 0 -0.00030413093931899694 0.01871537367197278 0 -0.00060723651503706978 0.018404779645697818 0 -0.00038801285033100247 0.017758563852813162 0 -0.00086362583261409824 0.01779195109812963 0 -0.00060723651503706978 0.018404779645697818 0 -0.00016071079506323226 0.018213195391981102 0 -0.00038801285033100247 0.017758563852813162 0 0.00012667789677620314 0.018683190963172003 0 -0.00016071079506323226 0.018213195391981102 0 -0.00030413093931899694 0.01871537367197278 0 -0.00060723651503706978 0.018404779645697818 0 -0.00016071079506323226 0.018213195391981102 0 -0.00030413093931899694 0.01871537367197278 0 -0.00016077529011502929 0.017215464043420295 0 -0.00038801285033100247 0.017758563852813162 0 -0.00061411629470222069 0.017366430820488402 0 -0.00016077529011502929 0.017215464043420295 0 1.5141719596231208e-05 0.017815075928137431 0 -0.00038801285033100247 0.017758563852813162 0 -0.00016071079506323226 0.018213195391981102 0 1.5141719596231208e-05 0.017815075928137431 0 -0.00038801285033100247 0.017758563852813162 0 -0.00038801285033100247 0.017758563852813162 0 -0.00061411629470222069 0.017366430820488402 0 -0.00081861623451343155 0.017715667559538479 0 -0.00043547298389080889 0.017752727808513898 0 -0.00082780254022886174 0.017756515508622981 0 -0.00016077529011502929 0.017215464043420295 0 -0.00061411629470222069 0.017366430820488402 0 -0.00072575490050077681 0.016803032955009203 0 -0.00061411629470222069 0.017366430820488402 0 -0.00092590540029920273 0.017347773524299316 0 -0.00072575490050077681 0.016803032955009203 0 -0.00092590540029920273 0.017347773524299316 0 -0.0012479549968991541 0.017195659304818017 0 -0.00072575490050077681 0.016803032955009203 0 -0.00092590540029920273 0.017347773524299316 0 -0.0012524380491759264 0.017713895909609558 0 -0.0012479549968991541 0.017195659304818017 0 -0.00092590540029920273 0.017347773524299316 0 -0.00081861623451343155 0.017715667559538479 0 -0.0012524380491759264 0.017713895909609558 0 -0.00061411629470222069 0.017366430820488402 0 -0.00092590540029920273 0.017347773524299316 0 -0.00081861623451343155 0.017715667559538479 0 -0.00082780254022886174 0.017756515508622981 0 -0.00131186050985227 0.017355480233091733 0 -0.00131186050985227 0.017355480233091733 0 -0.0020619333459396239 0.017065800207600599 0 -0.00131186050985227 0.017355480233091733 0 -0.0012468785616793394 0.017319171287252553 0 -0.0014099721110234829 0.017329752020576804 0 -0.00125810601421618 0.017472039668573591 0 -0.0012479549968991541 0.017195659304818017 0 -0.0014099721110234829 0.017329752020576804 0 -0.00125810601421618 0.017472039668573591 0 -0.0015646934195452887 0.017481959924529264 0 -0.0012479549968991541 0.017195659304818017 0 -0.0012908460302786821 0.016820076935663987 0 -0.0015862589450751827 0.01716652216177977 0 -0.0014099721110234829 0.017329752020576804 0 -0.0012479549968991541 0.017195659304818017 0 -0.0015862589450751827 0.01716652216177977 0 -0.0012908460302786821 0.016820076935663987 0 -0.0012033696749366798 0.016473063783266143 0 -0.0016267845507765874 0.016791296190218557 0 -0.0012533082878832522 0.018968534939552244 0 -0.00075055801958614794 0.019350490826483172 0 -0.00068748997324850479 0.018923202213494923 0 -0.0012358295263701921 0.017697355015658028 0 -0.00073444104130451196 0.018083311535574676 0 -0.0012908460302786821 0.016820076935663987 0 -0.0012033696749366798 0.016473063783266143 0 -0.00072575490050077681 0.016803032955009203 0 -0.0012479549968991541 0.017195659304818017 0 -0.0012908460302786821 0.016820076935663987 0 -0.00072575490050077681 0.016803032955009203 0 -0.00023126429526892011 0.01846740142635717 0 -0.00073444104130451196 0.018083311535574676 0 -0.00075055801958614794 0.019350490826483172 0 -0.00068748997324850479 0.018923202213494923 0 -0.00034945698051818487 0.01914744504383406 0 -0.00068748997324850479 0.018923202213494923 0 -0.00034945698051818487 0.01914744504383406 0 -0.00037550495563545979 0.018719264863717635 0 -0.00034945698051818487 0.01914744504383406 0 -0.00037550495563545979 0.018719264863717635 0 -2.8336341204492463e-05 0.018923975507198557 0 -0.00030148934926745843 0.019716464587723706 0 -0.00075055801958614794 0.019350490826483172 0 -0.00034945698051818487 0.01914744504383406 0 0.0001108555763721971 0.019437379800395008 0 -0.00030148934926745843 0.019716464587723706 0 -0.00034945698051818487 0.01914744504383406 0 -0.00021602397237917897 0.011495421450517228 0 -0.00018755042900691054 0.010996031827171496 0 -0.00050070911973760862 0.01130359203997389 0 -0.00014151861707289231 0.010943661074562565 0 -0.00018963543538518375 0.011134265142275866 0 -0.00013177025263369369 0.01105592192271814 0 -0.00010350373962970514 0.011038219933014492 0 -0.00018755042900691054 0.010996031827171496 0 -1.5479221334795424e-05 0.010495169642751073 0 -0.00012084594799683311 0.010191178646818176 0 -6.5394380235552955e-05 0.010951843252103528 0 1.2767902681491792e-05 0.010821096635855879 0 -5.4730593677422882e-05 0.011066165927881002 0 -0.00010350373962970514 0.011038219933014492 0 -6.5394380235552955e-05 0.010951843252103528 0 -5.4730593677422882e-05 0.011066165927881002 0 -0.00010350373962970514 0.011038219933014492 0 -6.5394380235552955e-05 0.010951843252103528 0 -0.00018755042900691054 0.010996031827171496 0 -6.5394380235552955e-05 0.010951843252103528 0 -2.6138573700015262e-05 0.010777168243709515 0 -0.00018755042900691054 0.010996031827171496 0 -6.5394380235552955e-05 0.010951843252103528 0 1.2767902681491792e-05 0.010821096635855879 0 -2.6138573700015262e-05 0.010777168243709515 0 -3.4485905874960831e-05 0.010722609222109443 0 1.2767902681491792e-05 0.010821096635855879 0 -2.6138573700015262e-05 0.010777168243709515 0 -0.00018755042900691054 0.010996031827171496 0 -0.00059453946393760496 0.010783401504883983 0 -0.00050070911973760862 0.01130359203997389 0 -2.6138573700015262e-05 0.010777168243709515 0 -0.00018755042900691054 0.010996031827171496 0 -0.00059453946393760496 0.010783401504883983 0 0.00036416383740245665 0.0099541668019535959 0 -0.0012268303354395836 0.013816663943358331 0 -0.0012268303354395836 0.013816663943358331 0 -0.0012330906212729602 0.014426924239643263 0 -0.0012268303354395836 0.013816663943358331 0 -0.0020619333459396239 0.017065800207600599 0 -0.0018939712478977908 0.017471701525876113 0 -0.0015646934195452887 0.017481959924529264 0 -0.0015862589450751827 0.01716652216177977 0 -0.0014099721110234829 0.017329752020576804 0 -0.0015646934195452887 0.017481959924529264 0 -0.0015862589450751827 0.01716652216177977 0 -0.0015862589450751827 0.01716652216177977 0 -0.0020209669031930511 0.017088973585754421 0 -0.0016267845507765874 0.016791296190218557 0 -0.0018939712478977908 0.017471701525876113 0 -0.0015862589450751827 0.01716652216177977 0 -0.0020209669031930511 0.017088973585754421 0 -0.0020209669031930511 0.017088973585754421 0 -0.0016267845507765874 0.016791296190218557 0 -0.0021440813490855794 0.016680111125376759 0 -0.0012033696749366798 0.016473063783266143 0 -0.0016267845507765874 0.016791296190218557 0 -0.0016105530638685364 0.016161140142472375 0 -0.0016267845507765874 0.016791296190218557 0 -0.0018665173761694043 0.01647669454269806 0 -0.0016105530638685364 0.016161140142472375 0 -0.0012908460302786821 0.016820076935663987 0 -0.0015862589450751827 0.01716652216177977 0 -0.0016267845507765874 0.016791296190218557 0 -0.0016267845507765874 0.016791296190218557 0 -0.0018665173761694043 0.01647669454269806 0 -0.0021440813490855794 0.016680111125376759 0 -0.0018665173761694043 0.01647669454269806 0 -0.0021440813490855794 0.016680111125376759 0 -0.0020771091664244252 0.016270048498686525 0 -0.0010685705944862294 0.013460161954812953 0 -0.0018308123310456588 0.015128285744977306 0 -0.0014964769229842013 0.013723667889936349 0 -0.0015059253909158775 0.013719087643155008 0 -0.0015135949028616947 0.01371091400089515 0 -0.00010462741516186097 0.011085427365078532 0 -0.0001005712783662779 0.011058914214694045 0 -8.8116922898587936e-05 0.011037825865890584 0 -0.0010685705944862294 0.013460161954812953 0 -0.00076398063580471968 0.012348959760138589 0 -0.00021602397237917897 0.011495421450517228 0 -0.00050070911973760862 0.01130359203997389 0 -0.00032828647327153503 0.01205807699939322 0 -0.00013177025263369369 0.01105592192271814 0 -0.00010462741516186097 0.011085427365078532 0 -9.2711856026576921e-05 0.01107435980449204 0 -0.00014151861707289231 0.010943661074562565 0 -0.0010685705944862294 0.013460161954812953 0 -0.0012330906212729602 0.014426924239643263 0 -0.0010685705944862294 0.013460161954812953 0 -0.00010350373962970514 0.011038219933014492 0 -9.2711856026576921e-05 0.01107435980449204 0 -5.4730593677422882e-05 0.011066165927881002 0 -0.00013177025263369369 0.01105592192271814 0 -0.00010350373962970514 0.011038219933014492 0 -9.2711856026576921e-05 0.01107435980449204 0 -9.2711856026576921e-05 0.01107435980449204 0 -0.0001005712783662779 0.011058914214694045 0 -0.00011616831868034342 0.011056288283231597 0 -0.00010462741516186097 0.011085427365078532 0 -9.2711856026576921e-05 0.01107435980449204 0 -0.0001005712783662779 0.011058914214694045 0 -0.0001005712783662779 0.011058914214694045 0 -0.00011616831868034342 0.011056288283231597 0 -0.00011502624178385853 0.011026539121421835 0 -0.00029797361080811523 0.0088974868979355241 0 -0.0007276478892938419 0.0090213159082475416 0 -0.0010016582911311623 0.0086458279047570002 0 -0.0007276478892938419 0.0090213159082475416 0 -0.0009375455936700823 0.0094163039720691431 0 -0.00055760948037976031 0.009633805340928189 0 -0.00029797361080811523 0.0088974868979355241 0 -0.0007276478892938419 0.0090213159082475416 0 -0.00055760948037976031 0.009633805340928189 0 -9.2711856026576921e-05 0.01107435980449204 0 -0.00011616831868034342 0.011056288283231597 0 -5.4730593677422882e-05 0.011066165927881002 0 -0.00012172482242469339 0.010420048357550529 0 -0.00012084594799683311 0.010191178646818176 0 -0.00029797361080811523 0.0088974868979355241 0 -0.00014018480975149262 0.0095340734479574408 0 -0.00055760948037976031 0.009633805340928189 0 -0.0017528493868815376 0.0056044469216900037 0 -0.0020883850225182745 0.0050267709165741038 0 -0.002400151880487375 0.0061224187649791626 0 -0.0012453821430051049 0.0075336231280309198 0 -0.0011252223477996653 0.007739252499535984 0 -0.00066273226203208003 0.0070672697490192565 0 -0.0030221725086687105 0.0054199216364936124 0 -0.0016967448382662334 0.0043639869103290633 0 -0.0024268473680353914 0.0043013084250820696 0 -0.0019312488893363808 0.0063973450038386989 0 -0.0010515188124290602 0.0065288994655290566 0 -0.0019312488893363808 0.0063973450038386989 0 -0.0025947714809153857 0.0041051706804116177 0 -0.0030221725086687105 0.0054199216364936124 0 -0.00344221722781481 0.0047002568031295714 0 -0.0024268473680353914 0.0043013084250820696 0 -0.00072807170000118901 0.0090477442664534686 0 -0.0010515188124290602 0.0065288994655290566 0 -0.0007276478892938419 0.0090213159082475416 0 -0.0009375455936700823 0.0094163039720691431 0 -0.0010016582911311623 0.0086458279047570002 0 -0.00087111506841579093 0.0078264655109711347 0 -0.0011252223477996653 0.007739252499535984 0 -0.00066273226203208003 0.0070672697490192565 0 -0.0005953170270277927 0.0080272957210562965 0 -0.00087111506841579093 0.0078264655109711347 0 -0.00066273226203208003 0.0070672697490192565 0 -0.0005953170270277927 0.0080272957210562965 0 -0.00087111506841579093 0.0078264655109711347 0 -0.0010763905010410506 0.0081330118888698726 0 -0.00087111506841579093 0.0078264655109711347 0 -0.0011252223477996653 0.007739252499535984 0 -0.0010763905010410506 0.0081330118888698726 0 -0.0013191998473847946 0.0078688163690381445 0 -0.0010763905010410506 0.0081330118888698726 0 -0.0014552541840052323 0.0080733175862997587 0 -0.0011252223477996653 0.007739252499535984 0 -0.0013191998473847946 0.0078688163690381445 0 -0.0010763905010410506 0.0081330118888698726 0 -0.0012388575059347458 0.007547729799384441 0 -0.0011252223477996653 0.007739252499535984 0 -0.0013191998473847946 0.0078688163690381445 0 -0.0012388575059347458 0.007547729799384441 0 -0.0013191998473847946 0.0078688163690381445 0 -0.0015635747291622762 0.0078317627623605314 0 -0.0019312488893363808 0.0063973450038386989 0 -0.0017460989154690079 0.0063031423704321679 0 -0.0019312488893363808 0.0063973450038386989 0 -0.0012638806321530101 0.0075286178694665183 0 -0.001097362051048353 0.0084254045072450004 0 -0.0014141327687370846 0.0084112737123474626 0 -0.0014552541840052323 0.0080733175862997587 0 -0.0010877889875161764 0.0084085000380651146 0 -0.0014049581788544633 0.0081307864458733739 0 -0.0010763905010410506 0.0081330118888698726 0 -0.001004169978663014 0.008528994821839414 0 -0.0014552541840052323 0.0080733175862997587 0 -0.0005953170270277927 0.0080272957210562965 0 -0.001004169978663014 0.008528994821839414 0 -0.00053107692514020978 0.0089782302147383055 0 -0.0005953170270277927 0.0080272957210562965 0 -0.0010763905010410506 0.0081330118888698726 0 -0.001004169978663014 0.008528994821839414 0 -0.00072807170000118901 0.0090477442664534686 0 -0.00068763098944079476 0.0093897580814292468 0 -0.001097362051048353 0.0084254045072450004 0 -0.0007400563373923505 0.0087452777098760495 0 -0.0010615347154930741 0.0088948387661298596 0 -0.0010877889875161764 0.0084085000380651146 0 -0.00068763098944079476 0.0093897580814292468 0 -0.001097362051048353 0.0084254045072450004 0 -0.0014111367267762769 0.0087278363817869554 0 -0.0010615347154930741 0.0088948387661298596 0 -0.001097362051048353 0.0084254045072450004 0 -0.0014111367267762769 0.0087278363817869554 0 -0.0014141327687370846 0.0084112737123474626 0 -0.00014018480975149262 0.0095340734479574408 0 -0.00055760948037976031 0.009633805340928189 0 -0.00028829033772643045 0.0099297719997239672 0 -2.9943098046587323e-05 0.0101353046554295 0 -0.00014018480975149262 0.0095340734479574408 0 -0.00028829033772643045 0.0099297719997239672 0 -0.0009375455936700823 0.0094163039720691431 0 -0.00086055693037879219 0.01012211490999675 0 -0.00055760948037976031 0.009633805340928189 0 -0.00086055693037879219 0.01012211490999675 0 -0.00055760948037976031 0.009633805340928189 0 -0.00046706771984395321 0.010090973366948404 0 -0.00055760948037976031 0.009633805340928189 0 -0.00046706771984395321 0.010090973366948404 0 -0.00028829033772643045 0.0099297719997239672 0 -0.00046706771984395321 0.010090973366948404 0 -0.00028829033772643045 0.0099297719997239672 0 -0.00025698532896804832 0.01022326700954025 0 -2.9943098046587323e-05 0.0101353046554295 0 -0.00028829033772643045 0.0099297719997239672 0 -0.00025698532896804832 0.01022326700954025 0 -0.00046706771984395321 0.010090973366948404 0 -0.00025698532896804832 0.01022326700954025 0 -0.00047079337300465473 0.01043809178070316 0 -0.00011783096535336208 0.010356969485335784 0 -0.00025698532896804832 0.01022326700954025 0 -0.00018597050799726349 0.010445180533339392 0 -0.00011783096535336208 0.010356969485335784 0 -2.9943098046587323e-05 0.0101353046554295 0 -0.00025698532896804832 0.01022326700954025 0 -0.00025698532896804832 0.01022326700954025 0 -0.00018597050799726349 0.010445180533339392 0 -0.00047079337300465473 0.01043809178070316 0 -0.00031783525006664484 0.010262058982607387 0 -0.00049484620192633574 0.010098534330906335 0 -0.00050654716752529657 0.010316297793533087 0 -0.00024803992054861957 0.010432398188643496 0 -0.0004527945738221517 0.010344610481027272 0 -0.00018597050799726349 0.010445180533339392 0 -0.000136787819470019 0.010632268971214618 0 -0.00047079337300465473 0.01043809178070316 0 -0.00049484620192633574 0.010098534330906335 0 -0.00062910408273314316 0.010229588916679581 0 -0.00050654716752529657 0.010316297793533087 0 -0.00068763098944079476 0.0093897580814292468 0 -0.0004527945738221517 0.010344610481027272 0 -0.00086055693037879219 0.01012211490999675 0 -0.00046706771984395321 0.010090973366948404 0 -0.00047079337300465473 0.01043809178070316 0 -0.00065748440176093231 0.0099394342749138578 0 -0.00049484620192633574 0.010098534330906335 0 -0.00062910408273314316 0.010229588916679581 0 -0.0007400563373923505 0.0087452777098760495 0 -0.0010615347154930741 0.0088948387661298596 0 -0.00066486030328598603 0.0094449396724408143 0 -0.00068763098944079476 0.0093897580814292468 0 -0.00065387076850498 0.0098336200835513771 0 -0.0010615347154930741 0.0088948387661298596 0 -0.0013509525243595888 0.0091771971320903072 0 -0.00066486030328598603 0.0094449396724408143 0 -0.0014111367267762769 0.0087278363817869554 0 -0.0010615347154930741 0.0088948387661298596 0 -0.0013509525243595888 0.0091771971320903072 0 -0.0013509525243595888 0.0091771971320903072 0 -0.00066486030328598603 0.0094449396724408143 0 -0.001227955137847406 0.0097449016188296007 0 -0.00066486030328598603 0.0094449396724408143 0 -0.001227955137847406 0.0097449016188296007 0 -0.00064921804133151483 0.010384538872335007 0 -0.00065387076850498 0.0098336200835513771 0 -0.00064289652998327439 0.010360236141941237 0 -0.001227955137847406 0.0097449016188296007 0 -0.0012749197251937538 0.010337832661366035 0 -0.001775966122650759 0.010149700372910478 0 -0.0010868527061296273 0.010882780074746428 0 -0.0012749197251937538 0.010337832661366035 0 -0.00064921804133151483 0.010384538872335007 0 -0.001227955137847406 0.0097449016188296007 0 -0.0012749197251937538 0.010337832661366035 0 -0.00064921804133151483 0.010384538872335007 0 -0.00049184336440954947 0.01071384005788293 0 -0.00064921804133151483 0.010384538872335007 0 -0.00034758064139735282 0.010547884834287586 0 -0.00049184336440954947 0.01071384005788293 0 -0.00028231969552641609 0.010795238313389128 0 -0.00034758064139735282 0.010547884834287586 0 -0.00031783525006664484 0.010262058982607387 0 -0.00034758064139735282 0.010547884834287586 0 -0.00050654716752529657 0.010316297793533087 0 -0.00064921804133151483 0.010384538872335007 0 -0.00034758064139735282 0.010547884834287586 0 -0.00050654716752529657 0.010316297793533087 0 -0.00062910408273314316 0.010229588916679581 0 -0.00064921804133151483 0.010384538872335007 0 -0.00050654716752529657 0.010316297793533087 0 -0.0021146024060042855 0.0093231234322860967 0 -0.0020839249856730237 0.0091579563498034814 0 -0.0021975191140743791 0.0091641975006579481 0 -0.0022122775371630093 0.0091445743778133543 0 -0.0022213556324242613 0.0091763316446522424 0 -0.0021975191140743791 0.0091641975006579481 0 -0.0021146024060042855 0.0093231234322860967 0 -0.0022213556324242613 0.0091763316446522424 0 -0.0021975191140743791 0.0091641975006579481 0 -0.0029167974857588598 0.010344974138449779 0 -0.002553034854926466 0.010444023048211541 0 -0.0024468499883734244 0.010030325055664712 0 -0.0022322711703253511 0.0091599777720597179 0 -0.0021146024060042855 0.0093231234322860967 0 -0.0022213556324242613 0.0091763316446522424 0 -0.0028962915242092841 0.010280779509050359 0 -0.0021614562848711774 0.0095679308855512839 0 -0.002185551703751394 0.010498170966761219 0 -0.002553034854926466 0.010444023048211541 0 -0.0024468499883734244 0.010030325055664712 0 -0.002185551703751394 0.010498170966761219 0 -0.0024468499883734244 0.010030325055664712 0 -0.001775966122650759 0.010149700372910478 0 -0.0017654963813419696 0.010649955014702816 0 -0.0012749197251937538 0.010337832661366035 0 -0.001775966122650759 0.010149700372910478 0 -0.001227955137847406 0.0097449016188296007 0 -0.001775966122650759 0.010149700372910478 0 -0.0017787023009791269 0.0095376691613549662 0 -0.0021146024060042855 0.0093231234322860967 0 -0.0017787023009791269 0.0095376691613549662 0 -0.0020839249856730237 0.0091579563498034814 0 -0.0024468499883734244 0.010030325055664712 0 -0.001775966122650759 0.010149700372910478 0 -0.0017787023009791269 0.0095376691613549662 0 -0.0021614562848711774 0.0095679308855512839 0 -0.0018329804790093271 0.009562749248907652 0 -0.0017787023009791269 0.0095376691613549662 0 -0.0017931686384137122 0.0089069556066278671 0 -0.0020839249856730237 0.0091579563498034814 0 -0.0013509525243595888 0.0091771971320903072 0 -0.0017787023009791269 0.0095376691613549662 0 -0.0017931686384137122 0.0089069556066278671 0 -0.0013509525243595888 0.0091771971320903072 0 -0.001227955137847406 0.0097449016188296007 0 -0.0017787023009791269 0.0095376691613549662 0 -0.0014111367267762769 0.0087278363817869554 0 -0.0013509525243595888 0.0091771971320903072 0 -0.0017931686384137122 0.0089069556066278671 0 -0.0017931686384137122 0.0089069556066278671 0 -0.0020247341684880714 0.0089280910881046685 0 -0.0020839249856730237 0.0091579563498034814 0 -0.0020247341684880714 0.0089280910881046685 0 -0.0020839249856730237 0.0091579563498034814 0 -0.0022557231685996298 0.0089311047312784827 0 -0.0020839249856730237 0.0091579563498034814 0 -0.0021975191140743791 0.0091641975006579481 0 -0.0022557231685996298 0.0089311047312784827 0 -0.0022870889443512106 0.0030714954653977963 0 -0.0023905120174101103 0.0066008311273320795 0 -0.0018232692559684367 -0.00069983532330709247 0 -0.0018803246694778131 -0.00077830419422131704 0 -0.0018540981939951958 -0.00078275579932706124 0 -0.0022870889443512106 0.0030714954653977963 0 -0.0019900625219723845 0.001108195477556562 0 -0.0023559610909761812 0.0037173406085042027 0 -0.0022660226338211691 0.0036371086204532591 0 -0.0022680169654917047 0.0035755593168036704 0 -0.0020247341684880714 0.0089280910881046685 0 -0.0022557231685996298 0.0089311047312784827 0 -0.0021108961495453511 0.0086947042796858311 0 -0.0022660226338211691 0.0036371086204532591 0 -0.0022680169654917047 0.0035755593168036704 0 -0.0021533518593645352 0.0035520044672289574 0 -0.0023905120174101103 0.0066008311273320795 0 -0.0019164186527205263 0.0058524210892285438 0 -0.0018477466191774315 -0.00079503966780285608 0 -0.0018540981939951958 -0.00078275579932706124 0 -0.0018598581526796023 -0.00075338838006737256 0 -0.0018803246694778131 -0.00077830419422131704 0 -0.0018540981939951958 -0.00078275579932706124 0 -0.0018598581526796023 -0.00075338838006737256 0 -0.0014111367267762769 0.0087278363817869554 0 -0.0017931686384137122 0.0089069556066278671 0 -0.0016919319847280259 0.0084068095360010069 0 -0.001753931143908655 0.0087435190840272764 0 -0.0017176802709797621 0.0088053916617350774 0 -0.0014111367267762769 0.0087278363817869554 0 -0.0016919319847280259 0.0084068095360010069 0 -0.0014141327687370846 0.0084112737123474626 0 -0.0017931686384137122 0.0089069556066278671 0 -0.0021108961495453511 0.0086947042796858311 0 -0.0018537008593451591 0.0084215856416361042 0 -0.0017931686384137122 0.0089069556066278671 0 -0.0018537008593451591 0.0084215856416361042 0 -0.0016507860113958157 0.0085431834127361189 0 -0.0017931686384137122 0.0089069556066278671 0 -0.0020247341684880714 0.0089280910881046685 0 -0.0021108961495453511 0.0086947042796858311 0 -0.0018537008593451591 0.0084215856416361042 0 -0.0016507860113958157 0.0085431834127361189 0 -0.0015244868196300533 0.0081124751404771465 0 -0.0016919319847280259 0.0084068095360010069 0 -0.0015635747291622762 0.0078317627623605314 0 -0.0014552541840052323 0.0080733175862997587 0 -0.0017176802709797621 0.0088053916617350774 0 -0.0017460989154690079 0.0063031423704321679 0 -0.0016919319847280259 0.0084068095360010069 0 -0.0014141327687370846 0.0084112737123474626 0 -0.0014552541840052323 0.0080733175862997587 0 -0.0019164186527205263 0.0058524210892285438 0 -0.0017460989154690079 0.0063031423704321679 0 -0.0013191998473847946 0.0078688163690381445 0 -0.0015635747291622762 0.0078317627623605314 0 -0.0014552541840052323 0.0080733175862997587 0 -0.0022680169654917047 0.0035755593168036704 0 -0.0021533518593645352 0.0035520044672289574 0 -0.0021581557974099507 0.0034038798939080074 0 -0.0021533518593645352 0.0035520044672289574 0 -0.0020176159494058538 0.0034542553171385865 0 -0.0021581557974099507 0.0034038798939080074 0 -0.0020307755698112046 -0.00066744747613632876 0 -0.0019346359808561002 -0.00064225438496546931 0 -0.0019704425676678326 -0.00051196878085275205 0 -0.0020307755698112046 -0.00066744747613632876 0 -0.0022062298600961159 -0.00043568428628344588 0 -0.0019704425676678326 -0.00051196878085275205 0 -0.0019746573504097918 0.0032915301348583718 0 -0.0021581557974099507 0.0034038798939080074 0 -0.0020225401154005652 0.0032026511743978173 0 -0.0019746573504097918 0.0032915301348583718 0 -0.0020176159494058538 0.0034542553171385865 0 -0.0021581557974099507 0.0034038798939080074 0 -0.0020664642834250244 0.0013220021687477608 0 -0.0023076361360893959 0.001907433533716368 0 -0.0025947714809153857 0.0041051706804116177 0 -0.0017460989154690079 0.0063031423704321679 0 -0.0018477466191774315 -0.00079503966780285608 0 -0.0018598581526796023 -0.00075338838006737256 0 -0.0018539629534634798 -0.00066928873902770349 0 -0.0018598581526796023 -0.00075338838006737256 0 -0.0018970773882859241 -0.00071255707047936762 0 -0.0018539629534634798 -0.00066928873902770349 0 -0.0017647937310702464 -0.001029370837921532 0 -0.0016626284998400487 -0.0010808943971460881 0 -0.0018803246694778131 -0.00077830419422131704 0 -0.0018598581526796023 -0.00075338838006737256 0 -0.0018970773882859241 -0.00071255707047936762 0 -0.0018803246694778131 -0.00077830419422131704 0 -0.0020307755698112046 -0.00066744747613632876 0 -0.0018970773882859241 -0.00071255707047936762 0 -0.0020307755698112046 -0.00066744747613632876 0 -0.0018970773882859241 -0.00071255707047936762 0 -0.0019346359808561002 -0.00064225438496546931 0 -0.0019900625219723845 0.001108195477556562 0 -0.0020664642834250244 0.0013220021687477608 0 -0.0018970773882859241 -0.00071255707047936762 0 -0.0019346359808561002 -0.00064225438496546931 0 -0.0018539629534634798 -0.00066928873902770349 0 -0.0014160314329168943 -0.0015448948019528715 0 -0.0013303435231956896 -0.0017713835681992464 0 -0.001279906955980212 -0.0017200849239063199 0 -0.0016626284998400487 -0.0010808943971460881 0 -0.0015606376346374853 -0.0012329464892169692 0 -0.0019346359808561002 -0.00064225438496546931 0 -0.0018539629534634798 -0.00066928873902770349 0 -0.0019704425676678326 -0.00051196878085275205 0 -0.0015526306861942357 -0.0016193701962805226 0 -0.0014160314329168943 -0.0015448948019528715 0 -0.0013303435231956896 -0.0017713835681992464 0 -0.0016568551157552431 -0.0012670064773450398 0 -0.0015526306861942357 -0.0016193701962805226 0 -0.0014160314329168943 -0.0015448948019528715 0 -0.0018055073510381458 -0.0046162926771319548 0 -0.0019149745867008939 -0.0046642206484718216 0 -0.0020308907399659458 -0.0076357648416178992 0 -0.0026901728946935803 -0.0073305653662526756 0 -0.0022513169476134475 -0.0071080365003287028 0 -0.0026901728946935803 -0.0073305653662526756 0 -0.003207034395748523 -0.0065122576168203253 0 -0.0025923099551056154 -0.0066254813578585656 0 -0.0026901728946935803 -0.0073305653662526756 0 -0.0022513169476134475 -0.0071080365003287028 0 -0.0025923099551056154 -0.0066254813578585656 0 -0.0022513169476134475 -0.0071080365003287028 0 -0.0025923099551056154 -0.0066254813578585656 0 -0.0020095789826346687 -0.0067898553686662538 0 -0.0019697337855120235 0.0010065273336950938 0 -0.0019661658979342896 0.0010028255981276652 0 -0.0019480430150285893 0.0010091643471559768 0 -0.0034184766441699805 0.0046176428776823833 0 -0.0038118728784045102 0.0039551179745641154 0 -0.003116387423108098 0.0035669020185187051 0 -0.0025947714809153857 0.0041051706804116177 0 -0.0023076361360893959 0.001907433533716368 0 -0.0023076361360893959 0.001907433533716368 0 -0.0018248652483248244 -0.0002495455255959776 0 -0.0013303435231956896 -0.0017713835681992464 0 -0.001279906955980212 -0.0017200849239063199 0 -0.001228265819515708 -0.0018409453867615434 0 -0.0012080125151051901 -0.001799617959248616 0 -0.001279906955980212 -0.0017200849239063199 0 -0.001228265819515708 -0.0018409453867615434 0 -0.0022062298600961159 -0.00043568428628344588 0 -0.0021572958161779183 -0.00035422366105831082 0 -0.0019704425676678326 -0.00051196878085275205 0 -0.0019149745867008939 -0.0046642206484718216 0 -0.0026873422349845705 -0.0036917500821818565 0 -0.0018248652483248244 -0.0002495455255959776 0 -0.0015606376346374853 -0.0012329464892169692 0 -0.0026901728946935803 -0.0073305653662526756 0 -0.0034273020087304353 -0.0068977433084470652 0 -0.003207034395748523 -0.0065122576168203253 0 -0.0026873422349845705 -0.0036917500821818565 0 -0.0034670279107868662 -0.0068053921739333846 0 -0.0026873422349845705 -0.0036917500821818565 0 -0.002396968195204509 -0.0014600972818200721 0 -0.0019491703113966078 0.00097029486275282168 0 -0.0019480430150285893 0.0010091643471559768 0 -0.0019498968705761247 0.00099792659818208882 0 -0.0019491703113966078 0.00097029486275282168 0 -0.0019509304650654603 0.00099477494601747023 0 -0.0019498968705761247 0.00099792659818208882 0 -0.0019485188186056717 0.00096644520636880824 0 -0.0019491703113966078 0.00097029486275282168 0 -0.0019480430150285893 0.0010091643471559768 0 -0.0018248652483248244 -0.0002495455255959776 0 -0.0026873422349845705 -0.0036917500821818565 0 -0.0018248652483248244 -0.0002495455255959776 0 -0.0021795373032209892 0.0011290305806146673 0 -0.003594068037099388 -0.0062832938093517997 0 -0.0032077396445775205 -0.006323070837965441 0 -0.0035066466691959929 -0.0059143686616739809 0 -0.0034084070810151447 -0.0066379756238246559 0 -0.003594068037099388 -0.0062832938093517997 0 -0.0040252758210442083 -0.0062724256012094909 0 -0.003594068037099388 -0.0062832938093517997 0 -0.0035066466691959929 -0.0059143686616739809 0 -0.0040252758210442083 -0.0062724256012094909 0 -0.0034084070810151447 -0.0066379756238246559 0 -0.003594068037099388 -0.0062832938093517997 0 -0.0032077396445775205 -0.006323070837965441 0 -0.0032077396445775205 -0.006323070837965441 0 -0.0029851628611607273 -0.0060476018882009552 0 -0.0035066466691959929 -0.0059143686616739809 0 -0.0034670279107868662 -0.0068053921739333846 0 -0.0029414707214684122 -0.005963800072051207 0 -0.0029851628611607273 -0.0060476018882009552 0 -0.0035066466691959929 -0.0059143686616739809 0 -0.0031601954506262097 -0.005606978108742857 0 -0.0035066466691959929 -0.0059143686616739809 0 -0.0035260844958190933 -0.0053520420536416263 0 -0.0038501843811941249 -0.0056049381374721789 0 -0.0035066466691959929 -0.0059143686616739809 0 -0.0038501843811941249 -0.0056049381374721789 0 -0.0040252758210442083 -0.0062724256012094909 0 -0.0025923099551056154 -0.0066254813578585656 0 -0.0024055059856544787 -0.0061354766837846556 0 -0.0020095789826346687 -0.0067898553686662538 0 -0.0024055059856544787 -0.0061354766837846556 0 -0.0020095789826346687 -0.0067898553686662538 0 -0.0017843117046169826 -0.0061463717076839291 0 -0.003207034395748523 -0.0065122576168203253 0 -0.0029851628611607273 -0.0060476018882009552 0 -0.0025923099551056154 -0.0066254813578585656 0 -0.0029851628611607273 -0.0060476018882009552 0 -0.0025923099551056154 -0.0066254813578585656 0 -0.0024055059856544787 -0.0061354766837846556 0 -0.0029851628611607273 -0.0060476018882009552 0 -0.0027280645906975214 -0.0057498429132748947 0 -0.0024055059856544787 -0.0061354766837846556 0 -0.0029851628611607273 -0.0060476018882009552 0 -0.0027280645906975214 -0.0057498429132748947 0 -0.0031601954506262097 -0.005606978108742857 0 -0.0024055059856544787 -0.0061354766837846556 0 -0.0021547183226712351 -0.0056040472684740815 0 -0.0017843117046169826 -0.0061463717076839291 0 -0.0027280645906975214 -0.0057498429132748947 0 -0.0024055059856544787 -0.0061354766837846556 0 -0.0021547183226712351 -0.0056040472684740815 0 -0.0021547183226712351 -0.0056040472684740815 0 -0.0023072958062139268 -0.0049406960239517933 0 -0.0027434100958513264 -0.0052732697680797124 0 -0.0021547183226712351 -0.0056040472684740815 0 -0.0023072958062139268 -0.0049406960239517933 0 -0.0017479069993072706 -0.0050856214308824116 0 -0.0023072958062139268 -0.0049406960239517933 0 -0.0027434100958513264 -0.0052732697680797124 0 -0.002783908650034631 -0.004692603351043022 0 -0.0027434100958513264 -0.0052732697680797124 0 -0.0031813830036723049 -0.0050648465388927807 0 -0.002783908650034631 -0.004692603351043022 0 -0.0027280645906975214 -0.0057498429132748947 0 -0.0021547183226712351 -0.0056040472684740815 0 -0.0027434100958513264 -0.0052732697680797124 0 -0.0027280645906975214 -0.0057498429132748947 0 -0.0027434100958513264 -0.0052732697680797124 0 -0.0031601954506262097 -0.005606978108742857 0 -0.0031601954506262097 -0.005606978108742857 0 -0.0035260844958190933 -0.0053520420536416263 0 -0.0031813830036723049 -0.0050648465388927807 0 -0.0027434100958513264 -0.0052732697680797124 0 -0.0031601954506262097 -0.005606978108742857 0 -0.0031813830036723049 -0.0050648465388927807 0 -0.0035066466691959929 -0.0059143686616739809 0 -0.0031601954506262097 -0.005606978108742857 0 -0.0035260844958190933 -0.0053520420536416263 0 -0.0035260844958190933 -0.0053520420536416263 0 -0.0039863364217223533 -0.0050879151792139997 0 -0.0038501843811941249 -0.0056049381374721789 0 -0.0035260844958190933 -0.0053520420536416263 0 -0.0035567419403511671 -0.0049206383231214955 0 -0.0039863364217223533 -0.0050879151792139997 0 -0.0035567419403511671 -0.0049206383231214955 0 -0.0038285729385122229 -0.0045585471193050958 0 -0.0039863364217223533 -0.0050879151792139997 0 -0.0035260844958190933 -0.0053520420536416263 0 -0.0035567419403511671 -0.0049206383231214955 0 -0.0031813830036723049 -0.0050648465388927807 0 -0.0031813830036723049 -0.0050648465388927807 0 -0.0032435337949779713 -0.004532558822338436 0 -0.002783908650034631 -0.004692603351043022 0 -0.0035567419403511671 -0.0049206383231214955 0 -0.0031813830036723049 -0.0050648465388927807 0 -0.0032435337949779713 -0.004532558822338436 0 -0.0032435337949779713 -0.004532558822338436 0 -0.0029472745997902671 -0.0042002896437929142 0 -0.002783908650034631 -0.004692603351043022 0 -0.003245101844583946 -0.0045122221197850575 0 -0.0039190497859322593 -0.0046691379179397731 0 -0.0032435337949779713 -0.004532558822338436 0 -0.0035184647785802296 -0.0039264418318182325 0 -0.0038069053400131784 -0.0045065551730304222 0 -0.0035567419403511671 -0.0049206383231214955 0 -0.0032435337949779713 -0.004532558822338436 0 -0.0038285729385122229 -0.0045585471193050958 0 -0.0035184647785802296 -0.0039264418318182325 0 -0.0029472745997902671 -0.0042002896437929142 0 -0.0030748875210229324 -0.0037997557752092021 0 -0.0032435337949779713 -0.004532558822338436 0 -0.0035184647785802296 -0.0039264418318182325 0 -0.0029472745997902671 -0.0042002896437929142 0 -0.0029472745997902671 -0.0042002896437929142 0 -0.0026431853163868947 -0.0038634202624144953 0 -0.0024135547061472367 -0.0043980858582152787 0 -0.0029472745997902671 -0.0042002896437929142 0 -0.0026431853163868947 -0.0038634202624144953 0 -0.0030748875210229324 -0.0037997557752092021 0 -0.0021845152456356027 -0.0038991876178402704 0 -0.0024135547061472367 -0.0043980858582152787 0 -0.0018725028076443035 -0.0044226775403972901 0 -0.0026431853163868947 -0.0038634202624144953 0 -0.0021845152456356027 -0.0038991876178402704 0 -0.0024135547061472367 -0.0043980858582152787 0 -0.0023072958062139268 -0.0049406960239517933 0 -0.0024135547061472367 -0.0043980858582152787 0 -0.002783908650034631 -0.004692603351043022 0 -0.0023072958062139268 -0.0049406960239517933 0 -0.0024135547061472367 -0.0043980858582152787 0 -0.0018725028076443035 -0.0044226775403972901 0 -0.0029472745997902671 -0.0042002896437929142 0 -0.0024135547061472367 -0.0043980858582152787 0 -0.002783908650034631 -0.004692603351043022 0 -0.0039797310802727201 0.0022779190495633354 0 -0.0040248428057704424 0.0019656153722378096 0 -0.0040957562890785405 0.0022711576513387509 0 -0.0035138189667167632 0.0067448882186491588 0 -0.0027451006615046374 0.0067791839802129605 0 -0.0033394036841612159 0.0048574708282975616 0 -0.0028296088860821694 0.0044203315200233712 0 -0.0035818046519970766 0.0013743592845040908 0 -0.0028296088860821694 0.0044203315200233712 0 -0.0026646600044311908 0.0091573934647378348 0 -0.0030841291092111368 0.01009760575791028 0 -0.0026896893325917275 0.0083424446576401724 0 -0.0013924221455348413 0.010165117424607408 0 -0.0026646600044311908 0.0091573934647378348 0 -0.0023175352673921366 0.01159328429471135 0 -0.0029789611071332311 0.010133922022435436 0 -0.0023175352673921366 0.01159328429471135 0 -0.0030841291092111368 0.01009760575791028 0 -0.0026896893325917275 0.0083424446576401724 0 -0.0040388469271565057 0.0069640180490614326 0 -0.0026896893325917275 0.0083424446576401724 0 -0.0040388469271565057 0.0069640180490614326 0 -0.0039950182185229562 0.0065162287207240028 0 -0.0026646600044311908 0.0091573934647378348 0 -0.0036491022297636664 0.0047484140087572539 0 -0.0029789611071332311 0.010133922022435436 0 -0.0034850406234524104 0.006949698728666541 0 -0.0028296088860821694 0.0044203315200233712 0 -0.0036491022297636664 0.0047484140087572539 0 -0.0039797310802727201 0.0022779190495633354 0 -0.0040248428057704424 0.0019656153722378096 0 -0.0040135981744923634 0.0019573995255044701 0 -0.0040248428057704424 0.0019656153722378096 0 -0.0037514682657524118 0.0016700112390540167 0 -0.0038238147025798346 0.0012164965090696346 0 -0.0041471289143612498 0.002121836756923678 0 -0.0035818046519970766 0.0013743592845040908 0 -0.0040248428057704424 0.0019656153722378096 0 -0.0038018960112260677 0.0019020821254459464 0 -0.0037514682657524118 0.0016700112390540167 0 -0.0037833694740126863 -0.00087663461659121206 0 -0.0038816878340024916 -0.002220894232133092 0 -0.0038018960112260677 0.0019020821254459464 0 -0.0037514682657524118 0.0016700112390540167 0 -0.0034023217733535355 0.0018693903590797079 0 -0.0037514682657524118 0.0016700112390540167 0 -0.0034023217733535355 0.0018693903590797079 0 -0.0036938391648641505 0.0014202286458067754 0 -0.0035184647785802296 -0.0039264418318182325 0 -0.0041763279162020019 -0.0038449694371472101 0 -0.0038069053400131784 -0.0045065551730304222 0 -0.0041763279162020019 -0.0038449694371472101 0 -0.0038069053400131784 -0.0045065551730304222 0 -0.0043596254694644948 -0.0044950063579847679 0 -0.0039190497859322593 -0.0046691379179397731 0 -0.0038816878340024916 -0.002220894232133092 0 -0.0038285729385122229 -0.0045585471193050958 0 -0.0043948540086147852 -0.0045582146038334439 0 -0.0042279723787353443 -0.0048418573283360569 0 -0.0037514682657524118 0.0016700112390540167 0 -0.0036938391648641505 0.0014202286458067754 0 -0.0038238147025798346 0.0012164965090696346 0 -0.0034023217733535355 0.0018693903590797079 0 -0.0036938391648641505 0.0014202286458067754 0 -0.0035596506096783002 0.0012227980755343015 0 -0.0038816878340024916 -0.002220894232133092 0 -0.0035818046519970766 0.0013743592845040908 0 -0.0036938391648641505 0.0014202286458067754 0 -0.0035596506096783002 0.0012227980755343015 0 -0.0038238147025798346 0.0012164965090696346 0 -0.0035818046519970766 0.0013743592845040908 0 -0.0028009376180437588 -0.0010101163296543183 0 -0.0031352289704760714 -0.00049914758268416169 0 -0.0033463206269922679 -0.0005003660977788173 0 -0.0032253567655142487 -0.00082682539851562924 0 -0.0043948540086147852 -0.0045582146038334439 0 -0.004515604412411417 -0.0049695656567140976 0 -0.0042279723787353443 -0.0048418573283360569 0 -0.0038816878340024916 -0.002220894232133092 0 -0.0028009376180437588 -0.0010101163296543183 0 -0.004515604412411417 -0.0049695656567140976 0 -0.0039863364217223533 -0.0050879151792139997 0 -0.0042279723787353443 -0.0048418573283360569 0 -0.0038285729385122229 -0.0045585471193050958 0 -0.0039863364217223533 -0.0050879151792139997 0 -0.0042279723787353443 -0.0048418573283360569 0 -0.0039863364217223533 -0.0050879151792139997 0 -0.0038501843811941249 -0.0056049381374721789 0 -0.0042763764759213823 -0.0056405064361394102 0 -0.0015188824527491976 -0.00063746987572745333 0 -0.001289295951723012 9.7524976645113926e-05 0 -0.0018053886145663223 0.00034201385300934925 0 -0.0028009376180437588 -0.0010101163296543183 0 -0.0030287216034208314 -0.0032170733540137562 0 -0.0028009376180437588 -0.0010101163296543183 0 -0.0017997909123331182 0.0018420380465181479 0 -0.004515604412411417 -0.0049695656567140976 0 -0.0039863364217223533 -0.0050879151792139997 0 -0.0042763764759213823 -0.0056405064361394102 0 -0.0025948184051259185 0.0027776056030671386 0 -0.0024395703919922298 0.0032870437349077925 0 -0.0022302947702579836 0.0030914943794534142 0 -0.0016650728436160048 0.0073313449625791735 0 -0.0016673481143220082 0.0075489274021416338 0 -0.0015909671067501126 0.0074664522811880444 0 -0.0021834607016094237 0.0024047967606077841 0 -0.0025948184051259185 0.0027776056030671386 0 -0.0022302947702579836 0.0030914943794534142 0 -0.0028296088860821694 0.0044203315200233712 0 -0.0019237317133043487 0.0058322824390556281 0 -0.0021834607016094237 0.0024047967606077841 0 -0.0024578969888104222 0.0023873176690292512 0 -0.0025948184051259185 0.0027776056030671386 0 -0.0015625834479651365 0.0073466077291940938 0 -0.0015909671067501126 0.0074664522811880444 0 -0.0014963597985757898 0.0075592958859629243 0 -0.0026646600044311908 0.0091573934647378348 0 -0.0021464286160255024 0.010497429658053822 0 -0.0032106631981426801 0.012112822869399287 0 -0.0028836544809502521 0.013150845224572967 0 -0.002554653897770375 0.012737259205614131 0 -0.0016650728436160048 0.0073313449625791735 0 -0.0015625834479651365 0.0073466077291940938 0 -0.0015909671067501126 0.0074664522811880444 0 -0.0016673481143220082 0.0075489274021416338 0 -0.0015909671067501126 0.0074664522811880444 0 -0.0014963597985757898 0.0075592958859629243 0 -0.0016673481143220082 0.0075489274021416338 0 -0.0014963597985757898 0.0075592958859629243 0 -0.0015492255192125443 0.0076561404059827523 0 -0.0014963597985757898 0.0075592958859629243 0 -0.0015492255192125443 0.0076561404059827523 0 -0.0014631907796726774 0.0077342383219622425 0 -0.0015326688497964902 0.0077329115282250786 0 -0.0015492255192125443 0.0076561404059827523 0 -0.0014631907796726774 0.0077342383219622425 0 -0.0015326688497964902 0.0077329115282250786 0 -0.0014897600588541394 0.0077835678280958331 0 -0.0014631907796726774 0.0077342383219622425 0 -0.0015326688497964902 0.0077329115282250786 0 -0.0015948877484470588 0.0076988331059992792 0 -0.0015670100007330792 0.0077766153605021409 0 -0.0015326688497964902 0.0077329115282250786 0 -0.0015492255192125443 0.0076561404059827523 0 -0.0015948877484470588 0.0076988331059992792 0 -0.0019237317133043487 0.0058322824390556281 0 -0.0015102087253748839 0.0037226566228056412 0 -0.0024395703919922298 0.0032870437349077925 0 -0.0022302947702579836 0.0030914943794534142 0 -0.0022711741749638853 0.0037972131879800653 0 -0.0016673481143220082 0.0075489274021416338 0 -0.0015492255192125443 0.0076561404059827523 0 -0.0015948877484470588 0.0076988331059992792 0 -0.0016673481143220082 0.0075489274021416338 0 -0.0016636471157401818 0.0077255993355645992 0 -0.0015948877484470588 0.0076988331059992792 0 -0.0017997909123331182 0.0018420380465181479 0 -0.0015102087253748839 0.0037226566228056412 0 -0.0016636471157401818 0.0077255993355645992 0 -0.0015948877484470588 0.0076988331059992792 0 -0.0015670100007330792 0.0077766153605021409 0 -0.0016636471157401818 0.0077255993355645992 0 -0.0016218790321818888 0.0078306054508656027 0 -0.0015670100007330792 0.0077766153605021409 0 -0.0015102087253748839 0.0037226566228056412 0 -0.0011499691870480689 0.0048218563292521987 0 -0.0015102087253748839 0.0037226566228056412 0 -0.00089190172445405399 0.0012277236209613674 0 -0.0009280115681315795 0.00090977403312105117 0 -0.00093662008782747315 0.0021573003058492609 0 -0.0012847038527024127 0.0015124645407943742 0 -0.00084650554149428355 0.0012972592523916105 0 -0.00093662008782747315 0.0021573003058492609 0 -0.00056648821802893993 0.0021221673851960642 0 -0.0014897600588541394 0.0077835678280958331 0 -0.0015670100007330792 0.0077766153605021409 0 -0.0015089407820241629 0.0078764199009374626 0 -0.0016218790321818888 0.0078306054508656027 0 -0.0015670100007330792 0.0077766153605021409 0 -0.0015089407820241629 0.0078764199009374626 0 -0.0015326688497964902 0.0077329115282250786 0 -0.0014897600588541394 0.0077835678280958331 0 -0.0015670100007330792 0.0077766153605021409 0 -0.0038501843811941249 -0.0056049381374721789 0 -0.0042763764759213823 -0.0056405064361394102 0 -0.0040252758210442083 -0.0062724256012094909 0 -0.0030287216034208314 -0.0032170733540137562 0 -0.002396968195204509 -0.0014600972818200721 0 -0.001289295951723012 9.7524976645113926e-05 0 -0.0009280115681315795 0.00090977403312105117 0 -0.0014655045856152252 0.00073337885856477995 0 -0.0018053886145663223 0.00034201385300934925 0 -0.0014655045856152252 0.00073337885856477995 0 -0.0018948534968906614 0.00090026286533882586 0 -0.001289295951723012 9.7524976645113926e-05 0 -0.0018053886145663223 0.00034201385300934925 0 -0.0014655045856152252 0.00073337885856477995 0 -0.0014655045856152252 0.00073337885856477995 0 -0.0020809811875577462 0.0020952043300263411 0 -0.0026989417222973745 0.0024126965121304832 0 -0.0014655045856152252 0.00073337885856477995 0 -0.0018948534968906614 0.00090026286533882586 0 -0.0019255190947533463 0.0010319258878624693 0 -0.0014655045856152252 0.00073337885856477995 0 -0.0016221770086453061 0.0017188103777055518 0 -0.0020809811875577462 0.0020952043300263411 0 -0.0014637122792660658 0.00071118478126240255 0 -0.0024132054319749084 0.00184463985728339 0 -0.0009280115681315795 0.00090977403312105117 0 -0.0014655045856152252 0.00073337885856477995 0 -0.0012847038527024127 0.0015124645407943742 0 -0.0014655045856152252 0.00073337885856477995 0 -0.0012847038527024127 0.0015124645407943742 0 -0.0016221770086453061 0.0017188103777055518 0 -0.0012847038527024127 0.0015124645407943742 0 -0.0014572252191192615 0.0020826364446958809 0 -0.0016221770086453061 0.0017188103777055518 0 -0.00093662008782747315 0.0021573003058492609 0 -0.0012847038527024127 0.0015124645407943742 0 -0.0014572252191192615 0.0020826364446958809 0 -0.0014572252191192615 0.0020826364446958809 0 -0.0016221770086453061 0.0017188103777055518 0 -0.0018148659305253221 0.0021830523846682105 0 -0.0016221770086453061 0.0017188103777055518 0 -0.0020809811875577462 0.0020952043300263411 0 -0.0018148659305253221 0.0021830523846682105 0 -0.0018053886145663223 0.00034201385300934925 0 -0.00194017584910321 0.00093001869355223096 0 -0.0018948534968906614 0.00090026286533882586 0 -0.0019255240216629692 0.00091916019403154607 0 -0.0018948534968906614 0.00090026286533882586 0 -0.0019255190947533463 0.0010319258878624693 0 -0.0019255240216629692 0.00091916019403154607 0 -0.0019498968705761247 0.00099792659818208882 0 -0.0019255190947533463 0.0010319258878624693 0 -0.002396968195204509 -0.0014600972818200721 0 -0.0024692261871557277 -0.0012689293741141442 0 -0.002396968195204509 -0.0014600972818200721 0 -0.0025884289550117505 0.00021843386059626138 0 -0.0038118728784045102 0.0039551179745641154 0 -0.0026989417222973745 0.0024126965121304832 0 -0.003116387423108098 0.0035669020185187051 0 -0.0023076361360893959 0.001907433533716368 0 -0.0024132054319749084 0.00184463985728339 0 -0.0026989417222973745 0.0024126965121304832 0 -0.0026243564857725346 0.003120866899024975 0 -0.003116387423108098 0.0035669020185187051 0 -0.0019697337855120235 0.0010065273336950938 0 -0.0019480430150285893 0.0010091643471559768 0 -0.0019255190947533463 0.0010319258878624693 0 -0.0019480430150285893 0.0010091643471559768 0 -0.0019498968705761247 0.00099792659818208882 0 -0.0019255190947533463 0.0010319258878624693 0 -0.0020809811875577462 0.0020952043300263411 0 -0.0026989417222973745 0.0024126965121304832 0 -0.0022728295281446227 0.0025821150068836419 0 -0.0026989417222973745 0.0024126965121304832 0 -0.002345344874764546 0.0029418395882909541 0 -0.0022728295281446227 0.0025821150068836419 0 -0.0026243564857725346 0.003120866899024975 0 -0.002345344874764546 0.0029418395882909541 0 -0.0023352802111479879 0.0035632182419985769 0 -0.0026989417222973745 0.0024126965121304832 0 -0.0026243564857725346 0.003120866899024975 0 -0.002345344874764546 0.0029418395882909541 0 -0.002345344874764546 0.0029418395882909541 0 -0.0020273535109031253 0.0032502704852769436 0 -0.0023352802111479879 0.0035632182419985769 0 -0.0020273535109031253 0.0032502704852769436 0 -0.0017120505812355487 0.0030120052321814801 0 -0.0017385200040983719 0.0032971525203790751 0 -0.0020273535109031253 0.0032502704852769436 0 -0.0020026602347130319 0.0028306267000189028 0 -0.0017120505812355487 0.0030120052321814801 0 -0.0020026602347130319 0.0028306267000189028 0 -0.0016792630829897482 0.0026895769211807167 0 -0.0017120505812355487 0.0030120052321814801 0 -0.002345344874764546 0.0029418395882909541 0 -0.0020026602347130319 0.0028306267000189028 0 -0.0022728295281446227 0.0025821150068836419 0 -0.002345344874764546 0.0029418395882909541 0 -0.0020273535109031253 0.0032502704852769436 0 -0.0020026602347130319 0.0028306267000189028 0 -0.0020026602347130319 0.0028306267000189028 0 -0.0022728295281446227 0.0025821150068836419 0 -0.0019769855501087482 0.0025034060420642645 0 -0.0020809811875577462 0.0020952043300263411 0 -0.0022728295281446227 0.0025821150068836419 0 -0.0019769855501087482 0.0025034060420642645 0 -0.0020809811875577462 0.0020952043300263411 0 -0.0018148659305253221 0.0021830523846682105 0 -0.0019769855501087482 0.0025034060420642645 0 -0.0018148659305253221 0.0021830523846682105 0 -0.0019769855501087482 0.0025034060420642645 0 -0.0016558049945526441 0.0023893048989243461 0 -0.0020026602347130319 0.0028306267000189028 0 -0.0019769855501087482 0.0025034060420642645 0 -0.0016792630829897482 0.0026895769211807167 0 -0.0019769855501087482 0.0025034060420642645 0 -0.0016792630829897482 0.0026895769211807167 0 -0.0016558049945526441 0.0023893048989243461 0 -0.0016792630829897482 0.0026895769211807167 0 -0.0016558049945526441 0.0023893048989243461 0 -0.0013489288434798854 0.0024855984852516235 0 -0.0014572252191192615 0.0020826364446958809 0 -0.0018148659305253221 0.0021830523846682105 0 -0.0016558049945526441 0.0023893048989243461 0 -0.0014572252191192615 0.0020826364446958809 0 -0.0016558049945526441 0.0023893048989243461 0 -0.0013489288434798854 0.0024855984852516235 0 -0.00093662008782747315 0.0021573003058492609 0 -0.0014572252191192615 0.0020826364446958809 0 -0.0013489288434798854 0.0024855984852516235 0 -0.0016792630829897482 0.0026895769211807167 0 -0.0013489288434798854 0.0024855984852516235 0 -0.0013390210243737015 0.0028792316222479657 0 -0.0013489288434798854 0.0024855984852516235 0 -0.0013390210243737015 0.0028792316222479657 0 -0.00089332906421935422 0.0026597272847160517 0 -0.0016792630829897482 0.0026895769211807167 0 -0.0013390210243737015 0.0028792316222479657 0 -0.0017120505812355487 0.0030120052321814801 0 -0.0017120505812355487 0.0030120052321814801 0 -0.0017385200040983719 0.0032971525203790751 0 -0.0013777029469268279 0.0033192456707757151 0 -0.0013390210243737015 0.0028792316222479657 0 -0.0017120505812355487 0.0030120052321814801 0 -0.0013777029469268279 0.0033192456707757151 0 -0.0013390210243737015 0.0028792316222479657 0 -0.0013777029469268279 0.0033192456707757151 0 -0.00096870996325395587 0.0031398846141449149 0 -0.0016979434418068395 0.0043693484487000401 0 -0.0017126554263289821 0.0041558224762944006 0 -0.00022350401297541173 0.003203258601916171 0 -0.0013777029469268279 0.0033192456707757151 0 -0.0017126554263289821 0.0041558224762944006 0 -0.00096870996325395587 0.0031398846141449149 0 -0.0013777029469268279 0.0033192456707757151 0 -0.0017126554263289821 0.0041558224762944006 0 -0.0017577847846719408 0.0037816004256956801 0 -0.0013777029469268279 0.0033192456707757151 0 -0.0017195444084824327 0.0035195277524238261 0 -0.0017577847846719408 0.0037816004256956801 0 -0.0017385200040983719 0.0032971525203790751 0 -0.0013777029469268279 0.0033192456707757151 0 -0.0017195444084824327 0.0035195277524238261 0 -0.0010515188124290602 0.0065288994655290566 0 -0.0011349855434490599 0.0058875356410872364 0 -0.0016967448382662334 0.0043639869103290633 0 -0.0017126554263289821 0.0041558224762944006 0 -0.0024268473680353914 0.0043013084250820696 0 -0.0017126554263289821 0.0041558224762944006 0 -0.002047141993878772 0.0038966466636695214 0 -0.0017577847846719408 0.0037816004256956801 0 -0.002047141993878772 0.0038966466636695214 0 -0.0023352802111479879 0.0035632182419985769 0 -0.0024268473680353914 0.0043013084250820696 0 -0.0017126554263289821 0.0041558224762944006 0 -0.002047141993878772 0.0038966466636695214 0 -0.0024268473680353914 0.0043013084250820696 0 -0.002047141993878772 0.0038966466636695214 0 -0.0019378654369622578 0.0035514665488693884 0 -0.0023352802111479879 0.0035632182419985769 0 -0.002047141993878772 0.0038966466636695214 0 -0.0017577847846719408 0.0037816004256956801 0 -0.0019378654369622578 0.0035514665488693884 0 -0.0020273535109031253 0.0032502704852769436 0 -0.0017385200040983719 0.0032971525203790751 0 -0.0019378654369622578 0.0035514665488693884 0 -0.0017195444084824327 0.0035195277524238261 0 -0.0017577847846719408 0.0037816004256956801 0 -0.0019378654369622578 0.0035514665488693884 0 -0.0017385200040983719 0.0032971525203790751 0 -0.0017195444084824327 0.0035195277524238261 0 -0.0019378654369622578 0.0035514665488693884 0 -0.0020273535109031253 0.0032502704852769436 0 -0.0019378654369622578 0.0035514665488693884 0 -0.0023352802111479879 0.0035632182419985769 0 -0.0026243564857725346 0.003120866899024975 0 -0.0023352802111479879 0.0035632182419985769 0 -0.003116387423108098 0.0035669020185187051 0 -0.0023352802111479879 0.0035632182419985769 0 -0.0024268473680353914 0.0043013084250820696 0 -0.003116387423108098 0.0035669020185187051 0 -0.00344221722781481 0.0047002568031295714 0 -0.0024268473680353914 0.0043013084250820696 0 -0.003116387423108098 0.0035669020185187051 0 -0.0025947714809153857 0.0041051706804116177 0 -0.0031862386277578844 0.0039438417543404868 0 -0.0016218790321818888 0.0078306054508656027 0 -0.0015089407820241629 0.0078764199009374626 0 -0.0015854794511867489 0.0079261544793407662 0 -0.00012735529939104118 0.010984550840534627 0 -0.0001499473078181454 0.010990695650648712 0 -0.00011502624178385853 0.011026539121421835 0 -0.0008322271724264151 0.0094462564499285182 0 -0.00053504002157181668 0.0075517906744499048 0 -0.0011499691870480689 0.0048218563292521987 0 -0.00053504002157181668 0.0075517906744499048 0 -0.00056648821802893993 0.0021221673851960642 0 -0.00089332906421935422 0.0026597272847160517 0 -0.00022350401297541173 0.003203258601916171 0 -0.00093662008782747315 0.0021573003058492609 0 -0.0013489288434798854 0.0024855984852516235 0 -0.00089332906421935422 0.0026597272847160517 0 -0.00093662008782747315 0.0021573003058492609 0 -0.00056648821802893993 0.0021221673851960642 0 -0.00089332906421935422 0.0026597272847160517 0 -0.00089332906421935422 0.0026597272847160517 0 -0.00096870996325395587 0.0031398846141449149 0 -0.00022350401297541173 0.003203258601916171 0 -0.0013390210243737015 0.0028792316222479657 0 -0.00089332906421935422 0.0026597272847160517 0 -0.00096870996325395587 0.0031398846141449149 0 -0.00029797361080811523 0.0088974868979355241 0 -0.0010016582911311623 0.0086458279047570002 0 -0.00048157743848071437 0.0082321597754906588 0 -0.0010515188124290602 0.0065288994655290566 0 -0.00053504002157181668 0.0075517906744499048 0 -0.0017126554263289821 0.0041558224762944006 0 -0.00096870996325395587 0.0031398846141449149 0 -0.00022350401297541173 0.003203258601916171 0 -0.00011616831868034342 0.011056288283231597 0 -0.0001499473078181454 0.010990695650648712 0 -0.00011502624178385853 0.011026539121421835 0 -0.00012172482242469339 0.010420048357550529 0 -0.00053504002157181668 0.0075517906744499048 0 -0.0001005712783662779 0.011058914214694045 0 -0.00011502624178385853 0.011026539121421835 0 -8.8116922898587936e-05 0.011037825865890584 0 -0.00012735529939104118 0.010984550840534627 0 -8.8116922898587936e-05 0.011037825865890584 0 -0.00010728904237787811 0.010970798539497959 0 -0.00012735529939104118 0.010984550840534627 0 -0.00011502624178385853 0.011026539121421835 0 -8.8116922898587936e-05 0.011037825865890584 0 -0.00076398063580471968 0.012348959760138589 0 -0.00084388762460152532 0.011411488854352655 0 -0.0018308123310456588 0.015128285744977306 0 -0.0021927534298821667 0.015875260288671485 0 -0.0015135949028616947 0.01371091400089515 0 -0.0015051130513274369 0.013705195516734884 0 -0.0015303508470319066 0.01367430171889593 0 -0.0015059253909158775 0.013719087643155008 0 -0.0015135949028616947 0.01371091400089515 0 -0.0015051130513274369 0.013705195516734884 0 -0.0018665173761694043 0.01647669454269806 0 -0.0020771091664244252 0.016270048498686525 0 -0.0016105530638685364 0.016161140142472375 0 -0.0018645283855668847 0.018533477401574974 0 -0.0017983795408045677 0.018109364506529585 0 -0.0023018053968601395 0.017866745702923247 0 -0.0018645283855668847 0.018533477401574974 0 -0.0017983795408045677 0.018109364506529585 0 -0.0014709134993554187 0.018384164726907688 0 -0.0017983795408045677 0.018109364506529585 0 -0.0023018053968601395 0.017866745702923247 0 -0.0017719141462686123 0.017625120534553913 0 -0.0020771091664244252 0.016270048498686525 0 -0.0016105530638685364 0.016161140142472375 0 -0.0020080726079246681 0.015855398840821707 0 -0.0018645283855668847 0.018533477401574974 0 -0.0023018053968601395 0.017866745702923247 0 -0.0028209579077936764 0.017824495590683654 0 -0.0017375461633319007 0.017487051487851575 0 -0.0021927534298821667 0.015875260288671485 0 -0.0023018053968601395 0.017866745702923247 0 -0.0026008636216186803 0.017720636642200412 0 -0.0028209579077936764 0.017824495590683654 0 -0.0026008636216186803 0.017720636642200412 0 -0.0028209579077936764 0.017824495590683654 0 -0.0028081517146791124 0.01769291322083873 0 -0.0021927534298821667 0.015875260288671485 0 -0.0022873531426154249 0.016318469730566821 0 -0.0026468126970131396 0.017111192149220734 0 -0.0021190218077435465 0.017339161024269738 0 -0.0017432162114878974 0.016613952432574484 0 -0.0028081517146791124 0.01769291322083873 0 -0.0024761493889617768 0.017496698668948658 0 -0.0026468126970131396 0.017111192149220734 0 -0.0026008636216186803 0.017720636642200412 0 -0.0028081517146791124 0.01769291322083873 0 -0.0024761493889617768 0.017496698668948658 0 -0.0023018053968601395 0.017866745702923247 0 -0.0024761493889617768 0.017496698668948658 0 -0.0021190218077435465 0.017339161024269738 0 -0.0023018053968601395 0.017866745702923247 0 -0.0026008636216186803 0.017720636642200412 0 -0.0024761493889617768 0.017496698668948658 0 -0.0024761493889617768 0.017496698668948658 0 -0.0026468126970131396 0.017111192149220734 0 -0.0021190218077435465 0.017339161024269738 0 -0.0017719141462686123 0.017625120534553913 0 -0.0021190218077435465 0.017339161024269738 0 -0.0013552879785780493 0.017412003597615848 0 -0.0021190218077435465 0.017339161024269738 0 -0.0017432162114878974 0.016613952432574484 0 -0.0013552879785780493 0.017412003597615848 0 -0.0017983795408045677 0.018109364506529585 0 -0.0017719141462686123 0.017625120534553913 0 -0.0013552879785780493 0.017412003597615848 0 -0.0023018053968601395 0.017866745702923247 0 -0.0017719141462686123 0.017625120534553913 0 -0.0021190218077435465 0.017339161024269738 0 -0.00021422819110905074 0.013735127415354029 0 -0.00012508817252867503 0.013532141815964056 0 -0.0010637337286583343 0.013673112896322543 0 -0.00043944351922202901 0.013736322716673272 0 -0.0015985390834958593 0.013919438987512056 0 -0.0010323703529589499 0.013492042149182442 0 -0.0001461913303525213 0.013545137527678434 0 -0.0018645586205536346 0.014345111369425938 0 -0.0010226487254113579 0.01525536141111259 0 -0.0018645586205536346 0.014345111369425938 0 -0.0026468126970131396 0.017111192149220734 0 -0.0017432162114878974 0.016613952432574484 0 -0.0029104121455626711 0.016500460341137051 0 -0.0018645586205536346 0.014345111369425938 0 -0.00095942873551379865 0.013433159401188536 0 -0.0015621369449512984 0.013852253490490161 0 -0.0015709833307183594 0.013596181849943623 0 -0.0010323703529589499 0.013492042149182442 0 -0.0018104875514891089 0.013689650692697199 0 -0.0015621369449512984 0.013852253490490161 0 -0.0023808655834406615 0.013742041202225419 0 -0.0018645586205536346 0.014345111369425938 0 -0.0022315528245695176 0.013697890171400951 0 -0.0016173883422558816 0.013746672692278495 0 -0.0015621369449512984 0.013852253490490161 0 -0.0015709833307183594 0.013596181849943623 0 -0.0016173883422558816 0.013746672692278495 0 -0.0018104875514891089 0.013689650692697199 0 -0.0015709833307183594 0.013596181849943623 0 -0.0018645586205536346 0.014345111369425938 0 -0.0023327679195898408 0.014602985469275589 0 -0.0016877581863383557 0.013836315327598095 0 -0.0023453146490919519 0.013927020965842566 0 -0.0022387903718953913 0.014292657842198664 0 -0.0016371414691078369 0.013831889340064499 0 -0.0023808655834406615 0.013742041202225419 0 -0.0023453146490919519 0.013927020965842566 0 -0.0026468126970131396 0.017111192149220734 0 -0.0029104121455626711 0.016500460341137051 0 -0.0036713535166090563 0.017128327973513321 0 -0.0016173883422558816 0.013746672692278495 0 -0.0018104875514891089 0.013689650692697199 0 -0.0015621369449512984 0.013852253490490161 0 -0.0018645586205536346 0.014345111369425938 0 -0.0021921307756549318 0.013860633560613555 0 -0.0018104875514891089 0.013689650692697199 0 -0.0023808655834406615 0.013742041202225419 0 -0.0019207301278088183 0.013525857143573574 0 -0.0014963597985757898 0.0075592958859629243 0 -0.0014631907796726774 0.0077342383219622425 0 -0.0014424371977479495 0.0077537449975118907 0 -0.0021464286160255024 0.010497429658053822 0 -0.001932441900227261 0.010769969043857698 0 -0.0028836544809502521 0.013150845224572967 0 -0.0023808655834406615 0.013742041202225419 0 -0.0025657025202389023 0.014060570487161445 0 -0.0014897600588541394 0.0077835678280958331 0 -0.0014631907796726774 0.0077342383219622425 0 -0.0014468396664194568 0.0077507157975924904 0 -0.0021633967783142635 0.010237856337920868 0 -0.001932441900227261 0.010769969043857698 0 -0.0023808655834406615 0.013742041202225419 0 -0.0025657025202389023 0.014060570487161445 0 -0.0023453146490919519 0.013927020965842566 0 -0.0025657025202389023 0.014060570487161445 0 -0.0023453146490919519 0.013927020965842566 0 -0.0022387903718953913 0.014292657842198664 0 -0.001932441900227261 0.010769969043857698 0 -0.0023327679195898408 0.014602985469275589 0 -0.0020387962845146881 0.011812656513471477 0 -0.0011603182313813453 0.012490376643343569 0 -0.0016995918837884245 0.012915388593104595 0 -0.0014897600588541394 0.0077835678280958331 0 -0.0015089407820241629 0.0078764199009374626 0 -0.0014256551419737909 0.0078312265380564884 0 -0.0023327679195898408 0.014602985469275589 0 -0.00084388762460152532 0.011411488854352655 0 -0.001932441900227261 0.010769969043857698 0 -0.00084388762460152532 0.011411488854352655 0 -0.0014897600588541394 0.0077835678280958331 0 -0.0014468396664194568 0.0077507157975924904 0 -0.0014256551419737909 0.0078312265380564884 0 -0.0008322271724264151 0.0094462564499285182 0 -0.00084388762460152532 0.011411488854352655 0 -0.0015051130513274369 0.013705195516734884 0 -0.0015257497504517976 0.013673563042891404 0 -0.0015303508470319066 0.01367430171889593 0 -0.0028278237885053345 0.01781146567657033 0 -0.0028081517146791124 0.01769291322083873 0 -0.0036713535166090563 0.017128327973513321 0 -0.0028081517146791124 0.01769291322083873 0 -0.0026468126970131396 0.017111192149220734 0 -0.0036713535166090563 0.017128327973513321 0 -0.0021927534298821667 0.015875260288671485 0 -0.0023327679195898408 0.014602985469275589 0 -0.00032731500679305484 0.018420540832998423 0 -0.0004768602837572999 0.018220202076063868 0 -0.00015626409004809301 0.018187072802667039 0 -0.00032731500679305484 0.018420540832998423 0 -0.00015626409004809301 0.018187072802667039 0 -7.1163925870875881e-05 0.018360739564562828 0 -0.00032731500679305484 0.018420540832998423 0 -0.00010380878089063576 0.018607508699836271 0 -7.1163925870875881e-05 0.018360739564562828 0 -0.00032731500679305484 0.018420540832998423 0 -0.00037550495563545979 0.018719264863717635 0 -0.00010380878089063576 0.018607508699836271 0 -0.00037550495563545979 0.018719264863717635 0 -0.00010380878089063576 0.018607508699836271 0 -2.8336341204492463e-05 0.018923975507198557 0 -0.00068748997324850479 0.018923202213494923 0 -0.00037550495563545979 0.018719264863717635 0 -0.00076103847303901802 0.01842061130635041 0 -0.00032731500679305484 0.018420540832998423 0 -0.00076103847303901802 0.01842061130635041 0 -0.0004768602837572999 0.018220202076063868 0 -0.00032731500679305484 0.018420540832998423 0 -0.00037550495563545979 0.018719264863717635 0 -0.00076103847303901802 0.01842061130635041 0 -0.00076103847303901802 0.01842061130635041 0 -0.00064846219841428342 0.017935210316080953 0 -0.00029652545027064766 0.017973498373232279 0 -0.00069192736943086747 0.018363950725905007 0 -0.00047245453327920457 0.01820324668094651 0 -0.00076103847303901802 0.01842061130635041 0 -0.0011349905256429185 0.017880145406908757 0 -0.00064846219841428342 0.017935210316080953 0 -0.00076103847303901802 0.01842061130635041 0 -0.0011783648765036235 0.018417635946298798 0 -0.0011349905256429185 0.017880145406908757 0 -0.0012533082878832522 0.018968534939552244 0 -0.00076103847303901802 0.01842061130635041 0 -0.0011783648765036235 0.018417635946298798 0 -0.0012533082878832522 0.018968534939552244 0 -0.00068748997324850479 0.018923202213494923 0 -0.00076103847303901802 0.01842061130635041 0 -0.0012533082878832522 0.018968534939552244 0 -0.0018645283855668847 0.018533477401574974 0 -0.0014709134993554187 0.018384164726907688 0 -0.0012358295263701921 0.017697355015658028 0 -0.0017375461633319007 0.017487051487851575 0 -0.0012533082878832522 0.018968534939552244 0 -0.0011783648765036235 0.018417635946298798 0 -0.0014709134993554187 0.018384164726907688 0 -0.0017983795408045677 0.018109364506529585 0 -0.0014709134993554187 0.018384164726907688 0 -0.0011349905256429185 0.017880145406908757 0 -0.0017050515376891718 0.018014657679934275 0 -0.00093480113043966425 0.017925160998913451 0 -0.0011783648765036235 0.018417635946298798 0 -0.0014709134993554187 0.018384164726907688 0 -0.0011349905256429185 0.017880145406908757 0 -0.0013552879785780493 0.017412003597615848 0 -0.0010514729441081553 0.017045988456895859 0 -0.00055262478357656988 0.017456367793963375 0 -0.0017432162114878974 0.016613952432574484 0 -0.0013552879785780493 0.017412003597615848 0 -0.0010514729441081553 0.017045988456895859 0 -0.0017983795408045677 0.018109364506529585 0 -0.0013552879785780493 0.017412003597615848 0 -0.00055262478357656988 0.017456367793963375 0 -0.0010514729441081553 0.017045988456895859 0 -0.00054625110255691314 0.016710257435225119 0 -0.00055262478357656988 0.017456367793963375 0 -0.00021422819110905074 0.013735127415354029 0 -0.00012508817252867503 0.013532141815964056 0 0.0004181505795686524 0.013719439800839782 0 -0.0010226487254113579 0.01525536141111259 0 4.2166677989787531e-05 0.015172869720067386 0 -0.00012508817252867503 0.013532141815964056 0 0.0004181505795686524 0.013719439800839782 0 0.00052115531875945777 0.013478336769055814 0 -0.0017432162114878974 0.016613952432574484 0 -0.0010514729441081553 0.017045988456895859 0 -0.00054625110255691314 0.016710257435225119 0 0.0004181505795686524 0.013719439800839782 0 0.00068714832315294988 0.013472063877054821 0 0.00052115531875945777 0.013478336769055814 0 4.2166677989787531e-05 0.015172869720067386 0 0.00016335767009310575 0.015498277035264598 0 -0.00093480113043966425 0.017925160998913451 0 0.00016335767009310575 0.015498277035264598 0 -0.00054625110255691314 0.016710257435225119 0 -0.00055262478357656988 0.017456367793963375 0 0.00064903784658060725 0.016810337174648204 0 -0.00064846219841428342 0.017935210316080953 0 -0.00029652545027064766 0.017973498373232279 0 -0.00039454379725290732 0.017472034342427688 0 -0.0011349905256429185 0.017880145406908757 0 -0.00064846219841428342 0.017935210316080953 0 -0.00039454379725290732 0.017472034342427688 0 0.00077398252952179142 0.013558633945550952 0 0.00068714832315294988 0.013472063877054821 0 0.000783368876357398 0.01335508191274634 0 0.0004181505795686524 0.013719439800839782 0 0.00077398252952179142 0.013558633945550952 0 0.00068714832315294988 0.013472063877054821 0 0.00016335767009310575 0.015498277035264598 0 0.00012356793661309141 0.016989124498597474 0 0.00077398252952179142 0.013558633945550952 0 0.00077473700226815263 0.013355215011199293 0 0.00074864572515288743 0.013382086726500294 0 0.00016335767009310575 0.015498277035264598 0 0.00085344778350791969 0.012962326521649145 0 -0.0004301918340203175 0.014022445458821808 0 0.00044419677699035481 0.014091306507251267 0 0.00074864572515288743 0.013382086726500294 0 -0.0004768602837572999 0.018220202076063868 0 -0.00019591647890848093 0.017945280991640781 0 -0.00015626409004809301 0.018187072802667039 0 -0.00029652545027064766 0.017973498373232279 0 -0.00039454379725290732 0.017472034342427688 0 0.00014511887998024396 0.017519328621817602 0 -0.00047245453327920457 0.01820324668094651 0 0.00012356793661309141 0.016989124498597474 0 0.00078498568153801144 0.013302269742465973 0 0.00071992700439458548 0.013430192643090861 0 0.00071739507576504009 0.013375206393564832 0 0.00078498568153801144 0.013302269742465973 0 0.00080421164080876574 0.013374628239421156 0 0.00071992700439458548 0.013430192643090861 0 0.00078498568153801144 0.013302269742465973 0 0.00077473700226815263 0.013355215011199293 0 0.00071739507576504009 0.013375206393564832 0 0.00077398252952179142 0.013558633945550952 0 0.00077473700226815263 0.013355215011199293 0 0.000783368876357398 0.01335508191274634 0 0.00078498568153801144 0.013302269742465973 0 0.00077473700226815263 0.013355215011199293 0 0.000783368876357398 0.01335508191274634 0 0.000783368876357398 0.01335508191274634 0 0.00069938945486558543 0.013332703419929086 0 0.00089352685867326634 0.013117632444009058 0 0.00068714832315294988 0.013472063877054821 0 0.000783368876357398 0.01335508191274634 0 0.00069938945486558543 0.013332703419929086 0 0.00078498568153801144 0.013302269742465973 0 0.000783368876357398 0.01335508191274634 0 0.00089352685867326634 0.013117632444009058 0 0.00078498568153801144 0.013302269742465973 0 0.00089352685867326634 0.013117632444009058 0 0.00080421164080876574 0.013374628239421156 0 0.00089352685867326634 0.013117632444009058 0 0.00048913030483853034 0.013200311170291232 0 0.00019304965463345648 0.012824699870796123 0 0.00089352685867326634 0.013117632444009058 0 0.00019304965463345648 0.012824699870796123 0 0.00036781481348999287 0.012206673242787888 0 0.00069938945486558543 0.013332703419929086 0 0.00089352685867326634 0.013117632444009058 0 0.00048913030483853034 0.013200311170291232 0 0.00069938945486558543 0.013332703419929086 0 0.00052115531875945777 0.013478336769055814 0 0.00048913030483853034 0.013200311170291232 0 0.00052115531875945777 0.013478336769055814 0 0.00048913030483853034 0.013200311170291232 0 -2.4240660493181858e-05 0.013238677812426426 0 0.00068714832315294988 0.013472063877054821 0 0.00069938945486558543 0.013332703419929086 0 0.00052115531875945777 0.013478336769055814 0 -0.0001461913303525213 0.013545137527678434 0 0.00041390497145021366 0.013517664328755594 0 -0.00043944351922202901 0.013736322716673272 0 0.00052115531875945777 0.013478336769055814 0 -2.4240660493181858e-05 0.013238677812426426 0 -2.4240660493181858e-05 0.013238677812426426 0 0.00019304965463345648 0.012824699870796123 0 -0.00035973788064933785 0.012834347781664202 0 -2.4240660493181858e-05 0.013238677812426426 0 -0.00053357037162730849 0.013235327534760583 0 -0.00035973788064933785 0.012834347781664202 0 0.00048913030483853034 0.013200311170291232 0 -2.4240660493181858e-05 0.013238677812426426 0 0.00019304965463345648 0.012824699870796123 0 0.00019304965463345648 0.012824699870796123 0 -0.00022916480437684854 0.012279892026905433 0 -0.00035973788064933785 0.012834347781664202 0 0.00019304965463345648 0.012824699870796123 0 -0.00022916480437684854 0.012279892026905433 0 0.00036781481348999287 0.012206673242787888 0 -0.00022916480437684854 0.012279892026905433 0 -0.00010007537441845308 0.01163283038098656 0 0.00036781481348999287 0.012206673242787888 0 -0.00010007537441845308 0.01163283038098656 0 0.00043100774397620049 0.011320457734246144 0 0.00036781481348999287 0.012206673242787888 0 -0.00010007537441845308 0.01163283038098656 0 -0.00050320699686592419 0.011144190673588055 0 -4.9478146935398481e-06 0.011044260569884621 0 -0.00010007537441845308 0.01163283038098656 0 0.00043100774397620049 0.011320457734246144 0 -4.9478146935398481e-06 0.011044260569884621 0 0.00043100774397620049 0.011320457734246144 0 0.0011313048293911934 0.011653224280479966 0 0.00065379275691692599 0.010668971905262142 0 0.00043100774397620049 0.011320457734246144 0 0.00036781481348999287 0.012206673242787888 0 0.0011313048293911934 0.011653224280479966 0 0.00089352685867326634 0.013117632444009058 0 0.00036781481348999287 0.012206673242787888 0 0.0011313048293911934 0.011653224280479966 0 0.00089352685867326634 0.013117632444009058 0 0.00080421164080876574 0.013374628239421156 0 0.00095638035473060541 0.013595486457829542 0 0.00080421164080876574 0.013374628239421156 0 0.00095638035473060541 0.013595486457829542 0 0.00077819404732975184 0.013531405997143975 0 0.00091864435225238691 0.013145715710794037 0 0.0010480808507050314 0.012468777290069301 0 0.00095638035473060541 0.013595486457829542 0 0.00077819404732975184 0.013531405997143975 0 0.0007484662672343303 0.013691388887953161 0 0.00095638035473060541 0.013595486457829542 0 0.0007484662672343303 0.013691388887953161 0 0.00082495216870786105 0.013774771469506447 0 0.00077819404732975184 0.013531405997143975 0 0.0007484662672343303 0.013691388887953161 0 0.0006462190644967884 0.013578514649201187 0 0.00077819404732975184 0.013531405997143975 0 0.00071992700439458548 0.013430192643090861 0 0.0006462190644967884 0.013578514649201187 0 0.00080421164080876574 0.013374628239421156 0 0.00077819404732975184 0.013531405997143975 0 0.00071992700439458548 0.013430192643090861 0 -0.0016157903458634182 0.012748376696372439 0 -0.0013370270759729306 0.012405168364083417 0 -0.0018925554716023888 0.012389001398588735 0 -0.0016157903458634182 0.012748376696372439 0 -0.0019593673351482005 0.013043762991704242 0 -0.0018925554716023888 0.012389001398588735 0 -0.0016157903458634182 0.012748376696372439 0 -0.0019593673351482005 0.013043762991704242 0 -0.0015692604930755347 0.013235513951073561 0 -0.0019653272100713451 0.013196232554763598 0 -0.0023175352673921366 0.01159328429471135 0 -0.002554653897770375 0.012737259205614131 0 -0.0019593673351482005 0.013043762991704242 0 -0.0025270374832679797 0.012149855354435423 0 -0.0019593673351482005 0.013043762991704242 0 -0.0018925554716023888 0.012389001398588735 0 -0.0024387767240292993 0.012365818470514515 0 -0.0032106631981426801 0.012112822869399287 0 -0.002554653897770375 0.012737259205614131 0 -0.0025270374832679797 0.012149855354435423 0 -0.0023937569181301036 0.013257585665220525 0 -0.0021645997245869791 0.013393290049225294 0 -0.0019593673351482005 0.013043762991704242 0 -0.002554653897770375 0.012737259205614131 0 -0.0023937569181301036 0.013257585665220525 0 -0.0019593673351482005 0.013043762991704242 0 -0.0028836544809502521 0.013150845224572967 0 -0.002554653897770375 0.012737259205614131 0 -0.0023937569181301036 0.013257585665220525 0 -0.0028836544809502521 0.013150845224572967 0 -0.0023808655834406615 0.013742041202225419 0 -0.0023937569181301036 0.013257585665220525 0 -0.0023808655834406615 0.013742041202225419 0 -0.0021645997245869791 0.013393290049225294 0 -0.0019207301278088183 0.013525857143573574 0 -0.0023808655834406615 0.013742041202225419 0 -0.0023937569181301036 0.013257585665220525 0 -0.0021645997245869791 0.013393290049225294 0 -0.0021645997245869791 0.013393290049225294 0 -0.0019207301278088183 0.013525857143573574 0 -0.0019593673351482005 0.013043762991704242 0 -0.0019207301278088183 0.013525857143573574 0 -0.0019593673351482005 0.013043762991704242 0 -0.0015692604930755347 0.013235513951073561 0 -0.0018104875514891089 0.013689650692697199 0 -0.0019207301278088183 0.013525857143573574 0 -0.0015709833307183594 0.013596181849943623 0 -0.0019207301278088183 0.013525857143573574 0 -0.0015692604930755347 0.013235513951073561 0 -0.0015709833307183594 0.013596181849943623 0 -0.0015692604930755347 0.013235513951073561 0 -0.0015709833307183594 0.013596181849943623 0 -0.0010323703529589499 0.013492042149182442 0 -0.0010323703529589499 0.013492042149182442 0 -0.00083041449653770973 0.012882269608517388 0 -0.0012693475888246077 0.01296308490565465 0 -0.0015692604930755347 0.013235513951073561 0 -0.0010323703529589499 0.013492042149182442 0 -0.0012693475888246077 0.01296308490565465 0 -0.0010323703529589499 0.013492042149182442 0 -0.00053357037162730849 0.013235327534760583 0 -0.00083041449653770973 0.012882269608517388 0 -0.00043944351922202901 0.013736322716673272 0 -2.4240660493181858e-05 0.013238677812426426 0 -0.00053357037162730849 0.013235327534760583 0 -0.00043944351922202901 0.013736322716673272 0 -0.0010323703529589499 0.013492042149182442 0 -0.00053357037162730849 0.013235327534760583 0 -0.00053357037162730849 0.013235327534760583 0 -0.00035973788064933785 0.012834347781664202 0 -0.00083041449653770973 0.012882269608517388 0 -0.00035973788064933785 0.012834347781664202 0 -0.00083041449653770973 0.012882269608517388 0 -0.00075665939592216964 0.012343617639367963 0 -0.0016157903458634182 0.012748376696372439 0 -0.0015692604930755347 0.013235513951073561 0 -0.0012693475888246077 0.01296308490565465 0 -0.00083041449653770973 0.012882269608517388 0 -0.0012693475888246077 0.01296308490565465 0 -0.0013370270759729306 0.012405168364083417 0 -0.00083041449653770973 0.012882269608517388 0 -0.0013370270759729306 0.012405168364083417 0 -0.00075665939592216964 0.012343617639367963 0 -0.0016157903458634182 0.012748376696372439 0 -0.0012693475888246077 0.01296308490565465 0 -0.0013370270759729306 0.012405168364083417 0 -0.0013370270759729306 0.012405168364083417 0 -0.00075665939592216964 0.012343617639367963 0 -0.0012502748849739375 0.01180716760427856 0 -0.0013370270759729306 0.012405168364083417 0 -0.0012502748849739375 0.01180716760427856 0 -0.001750076523208102 0.011898728539662774 0 -0.00022916480437684854 0.012279892026905433 0 -0.00035973788064933785 0.012834347781664202 0 -0.00075665939592216964 0.012343617639367963 0 -0.00075665939592216964 0.012343617639367963 0 -0.00063403444630618895 0.011750363975781566 0 -0.0012502748849739375 0.01180716760427856 0 -0.00022916480437684854 0.012279892026905433 0 -0.00075665939592216964 0.012343617639367963 0 -0.00063403444630618895 0.011750363975781566 0 -0.00022916480437684854 0.012279892026905433 0 -0.00010007537441845308 0.01163283038098656 0 -0.00063403444630618895 0.011750363975781566 0 -0.00010007537441845308 0.01163283038098656 0 -0.00063403444630618895 0.011750363975781566 0 -0.00050320699686592419 0.011144190673588055 0 -0.00063403444630618895 0.011750363975781566 0 -0.00050320699686592419 0.011144190673588055 0 -0.0010584263537977948 0.011211632066499449 0 -0.0012502748849739375 0.01180716760427856 0 -0.0016818439510496127 0.011289452222390929 0 -0.001750076523208102 0.011898728539662774 0 -0.00063403444630618895 0.011750363975781566 0 -0.0012502748849739375 0.01180716760427856 0 -0.0010584263537977948 0.011211632066499449 0 -0.0012502748849739375 0.01180716760427856 0 -0.0010584263537977948 0.011211632066499449 0 -0.0016818439510496127 0.011289452222390929 0 -0.0016818439510496127 0.011289452222390929 0 -0.0024143703993478862 0.011601988407477707 0 -0.0020611547130039987 0.010766515956401908 0 -0.0016818439510496127 0.011289452222390929 0 -0.001750076523208102 0.011898728539662774 0 -0.0024143703993478862 0.011601988407477707 0 -0.0013370270759729306 0.012405168364083417 0 -0.001750076523208102 0.011898728539662774 0 -0.0020813819128240071 0.012389118831156763 0 -0.001750076523208102 0.011898728539662774 0 -0.0020813819128240071 0.012389118831156763 0 -0.0024143703993478862 0.011601988407477707 0 -0.0014115872835293074 0.01240339769496264 0 -0.0020182124028734942 0.012363605434882324 0 -0.0033849980926541931 0.011570999686529949 0 -0.0028185027591527681 0.012359062495690753 0 -0.0024143703993478862 0.011601988407477707 0 -0.0020182124028734942 0.012363605434882324 0 -0.0023175352673921366 0.01159328429471135 0 -0.0020813819128240071 0.012389118831156763 0 -0.0028185027591527681 0.012359062495690753 0 -0.0024143703993478862 0.011601988407477707 0 -0.0033849980926541931 0.011570999686529949 0 -0.0024143703993478862 0.011601988407477707 0 -0.0028009987569494361 0.010768688025063705 0 -0.0024143703993478862 0.011601988407477707 0 -0.0028009987569494361 0.010768688025063705 0 -0.0020611547130039987 0.010766515956401908 0 -0.0028009987569494361 0.010768688025063705 0 -0.0021511213215607275 0.0099149396216497206 0 -0.0031678385290180413 0.010057296721565072 0 -0.0021511213215607275 0.0099149396216497206 0 -0.0028893191637667966 0.0093702425643266835 0 -0.0031678385290180413 0.010057296721565072 0 -0.0021511213215607275 0.0099149396216497206 0 -0.0014062032420265227 0.01056845865218011 0 -0.0014075226020862301 0.0098580424484128789 0 -0.0021511213215607275 0.0099149396216497206 0 -0.0014075226020862301 0.0098580424484128789 0 -0.001802862458613745 0.0091144278036290726 0 -0.0028009987569494361 0.010768688025063705 0 -0.0021511213215607275 0.0099149396216497206 0 -0.0020611547130039987 0.010766515956401908 0 -0.0021511213215607275 0.0099149396216497206 0 -0.0020611547130039987 0.010766515956401908 0 -0.0014062032420265227 0.01056845865218011 0 -0.0016818439510496127 0.011289452222390929 0 -0.0020611547130039987 0.010766515956401908 0 -0.0014062032420265227 0.01056845865218011 0 -0.0010584263537977948 0.011211632066499449 0 -0.0016818439510496127 0.011289452222390929 0 -0.0014062032420265227 0.01056845865218011 0 -0.0010584263537977948 0.011211632066499449 0 -0.0014062032420265227 0.01056845865218011 0 -0.00079799819880656579 0.010701841489891029 0 -0.0014062032420265227 0.01056845865218011 0 -0.00079799819880656579 0.010701841489891029 0 -0.00084914795044729104 0.010170833003145009 0 -0.00050320699686592419 0.011144190673588055 0 -0.0010584263537977948 0.011211632066499449 0 -0.00079799819880656579 0.010701841489891029 0 -0.00079799819880656579 0.010701841489891029 0 -0.00084914795044729104 0.010170833003145009 0 -0.00025900697022525923 0.010426129132615815 0 -0.00050320699686592419 0.011144190673588055 0 -0.00079799819880656579 0.010701841489891029 0 -0.00025900697022525923 0.010426129132615815 0 -0.00084914795044729104 0.010170833003145009 0 -0.00044361768139856647 0.009773783007370921 0 -0.00025900697022525923 0.010426129132615815 0 -0.00084914795044729104 0.010170833003145009 0 -0.00044361768139856647 0.009773783007370921 0 -0.00093623992375699554 0.0096757364885540174 0 -0.0014062032420265227 0.01056845865218011 0 -0.00084914795044729104 0.010170833003145009 0 -0.0014075226020862301 0.0098580424484128789 0 -0.00084914795044729104 0.010170833003145009 0 -0.00093623992375699554 0.0096757364885540174 0 -0.0014075226020862301 0.0098580424484128789 0 -0.0011833812566979735 0.0092803415188051352 0 -0.0010134969870603605 0.0086665282898943895 0 -0.001802862458613745 0.0091144278036290726 0 -0.0014075226020862301 0.0098580424484128789 0 -0.0011833812566979735 0.0092803415188051352 0 -0.001802862458613745 0.0091144278036290726 0 -0.00093623992375699554 0.0096757364885540174 0 -0.0014075226020862301 0.0098580424484128789 0 -0.0011833812566979735 0.0092803415188051352 0 -0.00093623992375699554 0.0096757364885540174 0 -0.0011833812566979735 0.0092803415188051352 0 -0.00062160031211397132 0.0091180534457466489 0 -0.0011833812566979735 0.0092803415188051352 0 -0.00062160031211397132 0.0091180534457466489 0 -0.0010134969870603605 0.0086665282898943895 0 -0.00044361768139856647 0.009773783007370921 0 -0.00062160031211397132 0.0091180534457466489 0 -8.0629413389289803e-05 0.0094132551275882305 0 -0.00044361768139856647 0.009773783007370921 0 -0.00093623992375699554 0.0096757364885540174 0 -0.00062160031211397132 0.0091180534457466489 0 -0.00062160031211397132 0.0091180534457466489 0 -8.0629413389289803e-05 0.0094132551275882305 0 -0.00013608807569733363 0.0089080649055549074 0 -0.00062160031211397132 0.0091180534457466489 0 -0.00044484218936040131 0.0083543833990007282 0 -0.0010134969870603605 0.0086665282898943895 0 -0.00062160031211397132 0.0091180534457466489 0 -0.00044484218936040131 0.0083543833990007282 0 -0.00013608807569733363 0.0089080649055549074 0 -0.0010134969870603605 0.0086665282898943895 0 -0.0014601476306698316 0.0083391015776147406 0 -0.0011238405591171583 0.0081310933057543236 0 -0.00044484218936040131 0.0083543833990007282 0 -0.0010134969870603605 0.0086665282898943895 0 -0.0011238405591171583 0.0081310933057543236 0 -0.0010800217241805445 0.0085475295594231553 0 -0.0020005203468208672 0.0087089667838891813 0 -0.0010134969870603605 0.0086665282898943895 0 -0.002391530534325522 0.0083892437398901225 0 -0.001802862458613745 0.0091144278036290726 0 -0.0010134969870603605 0.0086665282898943895 0 -0.0014601476306698316 0.0083391015776147406 0 -0.0017171517079138015 0.0083353576862232239 0 -0.002391530534325522 0.0083892437398901225 0 -0.0024022031497540819 0.009012431457059154 0 -0.001802862458613745 0.0091144278036290726 0 -0.0017171517079138015 0.0083353576862232239 0 -0.0020002865448170608 0.007920622555165853 0 -0.0027033968728244684 0.008114434645823957 0 -0.002391530534325522 0.0083892437398901225 0 -0.0030586352301157651 0.0087841376227963432 0 -0.003701621960622509 0.0081170343750544896 0 -0.0014601476306698316 0.0083391015776147406 0 -0.0017171517079138015 0.0083353576862232239 0 -0.0020002865448170608 0.007920622555165853 0 -0.0020005203468208672 0.0087089667838891813 0 -0.003198771171313875 0.005728657590732592 0 -0.002391530534325522 0.0083892437398901225 0 -0.0030586352301157651 0.0087841376227963432 0 -0.0024022031497540819 0.009012431457059154 0 -0.0021511213215607275 0.0099149396216497206 0 -0.0024022031497540819 0.009012431457059154 0 -0.0028893191637667966 0.0093702425643266835 0 -0.0030586352301157651 0.0087841376227963432 0 -0.0024022031497540819 0.009012431457059154 0 -0.0028893191637667966 0.0093702425643266835 0 -0.0021511213215607275 0.0099149396216497206 0 -0.0024022031497540819 0.009012431457059154 0 -0.001802862458613745 0.0091144278036290726 0 0.00077422677588343848 0.013907813859998921 0 0.00073868798819451734 0.013828279672987307 0 0.00069013585943027156 0.013928656564904813 0 0.00077422677588343848 0.013907813859998921 0 0.00080286406563064971 0.013868359143828866 0 0.00081230989691351513 0.013900609074568596 0 0.00077422677588343848 0.013907813859998921 0 0.00080286406563064971 0.013868359143828866 0 0.00073868798819451734 0.013828279672987307 0 0.0007484662672343303 0.013691388887953161 0 0.00073868798819451734 0.013828279672987307 0 0.00058043827936698534 0.013791146946429468 0 0.0007484662672343303 0.013691388887953161 0 0.00073868798819451734 0.013828279672987307 0 0.00082495216870786105 0.013774771469506447 0 0.00080286406563064971 0.013868359143828866 0 0.00073868798819451734 0.013828279672987307 0 0.00082495216870786105 0.013774771469506447 0 0.00095638035473060541 0.013595486457829542 0 0.00089109813973360186 0.013809858517240051 0 0.00090040323274659362 0.013854831094620474 0 0.00082495216870786105 0.013774771469506447 0 0.00089109813973360186 0.013809858517240051 0 0.00084527377813348886 0.013848246142536404 0 0.00095638035473060541 0.013595486457829542 0 0.00082495216870786105 0.013774771469506447 0 0.00089109813973360186 0.013809858517240051 0 0.0010480808507050314 0.012468777290069301 0 0.00085441354817047293 0.012701266020644471 0 0.0010478255094291708 0.013393714780787113 0 0.00085441354817047293 0.012701266020644471 0 0.00087326673359588373 0.013856279927334816 0 0.00084057492767313337 0.01386810716112425 0 0.00077129297991919974 0.013860549090065526 0 0.00089109813973360186 0.013809858517240051 0 0.00087326673359588373 0.013856279927334816 0 0.00084527377813348886 0.013848246142536404 0 0.00085441354817047293 0.012701266020644471 0 0.00079137362573315361 0.014300284644764922 0 0.00084527377813348886 0.013848246142536404 0 0.00082591904531989404 0.013875201337194316 0 0.00084057492767313337 0.01386810716112425 0 0.00087326673359588373 0.013856279927334816 0 0.00084527377813348886 0.013848246142536404 0 0.00084057492767313337 0.01386810716112425 0 0.00080286406563064971 0.013868359143828866 0 0.00082495216870786105 0.013774771469506447 0 0.00084527377813348886 0.013848246142536404 0 0.00080286406563064971 0.013868359143828866 0 0.00084527377813348886 0.013848246142536404 0 0.00082591904531989404 0.013875201337194316 0 0.00080286406563064971 0.013868359143828866 0 0.00082591904531989404 0.013875201337194316 0 0.00081230989691351513 0.013900609074568596 0 0.00082591904531989404 0.013875201337194316 0 0.00082044773053849317 0.013876399529784275 0 0.00081230989691351513 0.013900609074568596 0 0.00082591904531989404 0.013875201337194316 0 0.00082044773053849317 0.013876399529784275 0 0.00084057492767313337 0.01386810716112425 0 0.0011578038716430394 0.010298334607030037 0 0.00068034621794584938 0.010006376208421252 0 0.00079873922783917919 0.0094500003484881204 0 0.00085441354817047293 0.012701266020644471 0 0.00085142596899507412 0.011797941723460182 0 0.00068034621794584938 0.010006376208421252 0 0.0003534254476790338 0.0099872428298622886 0 0.00036185683122916625 0.0096369307540521785 0 0.00068034621794584938 0.010006376208421252 0 0.00047743846442616225 0.010309988891992217 0 0.0007645405220098419 0.010318650844822521 0 0.00068034621794584938 0.010006376208421252 0 0.00047743846442616225 0.010309988891992217 0 0.0003534254476790338 0.0099872428298622886 0 0.00047743846442616225 0.010309988891992217 0 0.0007645405220098419 0.010318650844822521 0 0.00065379275691692599 0.010668971905262142 0 0.0011578038716430394 0.010298334607030037 0 0.0007645405220098419 0.010318650844822521 0 0.00065379275691692599 0.010668971905262142 0 0.0011578038716430394 0.010298334607030037 0 0.00068034621794584938 0.010006376208421252 0 0.0007645405220098419 0.010318650844822521 0 0.0011313048293911934 0.011653224280479966 0 0.0011578038716430394 0.010298334607030037 0 0.00065379275691692599 0.010668971905262142 0 0.00043100774397620049 0.011320457734246144 0 0.00065379275691692599 0.010668971905262142 0 0.00022132875964369256 0.010667376979478133 0 0.00047743846442616225 0.010309988891992217 0 0.00065379275691692599 0.010668971905262142 0 0.00022132875964369256 0.010667376979478133 0 0.00043100774397620049 0.011320457734246144 0 0.00022132875964369256 0.010667376979478133 0 -4.9478146935398481e-06 0.011044260569884621 0 -0.00050320699686592419 0.011144190673588055 0 -4.9478146935398481e-06 0.011044260569884621 0 -0.00025900697022525923 0.010426129132615815 0 0.00022132875964369256 0.010667376979478133 0 -4.9478146935398481e-06 0.011044260569884621 0 -0.00025900697022525923 0.010426129132615815 0 0.00022132875964369256 0.010667376979478133 0 -0.00025900697022525923 0.010426129132615815 0 0.00018029111770069688 0.010234484436965985 0 -0.00025900697022525923 0.010426129132615815 0 0.00018029111770069688 0.010234484436965985 0 1.0780187213750734e-05 0.0098628103349343871 0 0.00047743846442616225 0.010309988891992217 0 0.00022132875964369256 0.010667376979478133 0 0.00018029111770069688 0.010234484436965985 0 0.00047743846442616225 0.010309988891992217 0 0.00018029111770069688 0.010234484436965985 0 0.0003534254476790338 0.0099872428298622886 0 0.0003534254476790338 0.0099872428298622886 0 1.0780187213750734e-05 0.0098628103349343871 0 0.00036185683122916625 0.0096369307540521785 0 0.00018029111770069688 0.010234484436965985 0 0.0003534254476790338 0.0099872428298622886 0 1.0780187213750734e-05 0.0098628103349343871 0 -0.00044361768139856647 0.009773783007370921 0 -0.00025900697022525923 0.010426129132615815 0 1.0780187213750734e-05 0.0098628103349343871 0 -0.00044361768139856647 0.009773783007370921 0 1.0780187213750734e-05 0.0098628103349343871 0 -8.0629413389289803e-05 0.0094132551275882305 0 1.0780187213750734e-05 0.0098628103349343871 0 -8.0629413389289803e-05 0.0094132551275882305 0 0.00036185683122916625 0.0096369307540521785 0 -8.0629413389289803e-05 0.0094132551275882305 0 0.00036185683122916625 0.0096369307540521785 0 0.00025323743555331457 0.0091895952202963888 0 -8.0629413389289803e-05 0.0094132551275882305 0 0.00025323743555331457 0.0091895952202963888 0 -0.00013608807569733363 0.0089080649055549074 0 -0.00075798328096206475 0.0082072830051531011 0 -0.00039569654379835299 0.0083245941070540837 0 -0.00053217170457416552 0.0080317371548531465 0 -0.00044484218936040131 0.0083543833990007282 0 -0.00013608807569733363 0.0089080649055549074 0 0.00042822835686819684 0.0086253525428478892 0 -0.0006332335657370299 0.0081890681194957751 0 -0.0001411032309703886 0.0099041073476145731 0 -0.0001411032309703886 0.0099041073476145731 0 -0.0006838510584113623 0.0078939605156383274 0 0.00025323743555331457 0.0091895952202963888 0 -0.00013608807569733363 0.0089080649055549074 0 0.00042822835686819684 0.0086253525428478892 0 0.00064719947278953343 0.013710628914795759 0 0.00073564171191858006 0.013865651062024097 0 0.00077881894566650303 0.013796937559572025 0 -0.0001411032309703886 0.0099041073476145731 0 0.00033017526636398457 0.011275846412876676 0 -0.00049025973461147251 0.0086007927758761597 0 -7.6333654080924408e-05 0.0087585689475565189 0 -0.00024799868598208947 0.0082452511987741121 0 -0.0001411032309703886 0.0099041073476145731 0 0.00085142596899507412 0.011797941723460182 0 0.00025323743555331457 0.0091895952202963888 0 0.00042822835686819684 0.0086253525428478892 0 0.00079873922783917919 0.0094500003484881204 0 0.00075728551717912961 0.013869906198129466 0 0.00077129297991919974 0.013860549090065526 0 0.00073564171191858006 0.013865651062024097 0 0.00077129297991919974 0.013860549090065526 0 0.00073564171191858006 0.013865651062024097 0 0.00077881894566650303 0.013796937559572025 0 0.00036185683122916625 0.0096369307540521785 0 0.00025323743555331457 0.0091895952202963888 0 0.00079873922783917919 0.0094500003484881204 0 0.00068034621794584938 0.010006376208421252 0 0.00036185683122916625 0.0096369307540521785 0 0.00079873922783917919 0.0094500003484881204 0 0.00079647583553103254 0.013861556669259196 0 0.00077881894566650303 0.013796937559572025 0 0.00082277727995622065 0.013886769539502028 0 0.00082044773053849317 0.013876399529784275 0 0.00077129297991919974 0.013860549090065526 0 0.00080126022122932342 0.013876733810327212 0 0.00082044773053849317 0.013876399529784275 0 0.00084057492767313337 0.01386810716112425 0 0.00077129297991919974 0.013860549090065526 0 0.00082044773053849317 0.013876399529784275 0 0.00080126022122932342 0.013876733810327212 0 0.00081230989691351513 0.013900609074568596 0 0.00081230989691351513 0.013900609074568596 0 0.000807547110356089 0.013898345624243002 0 0.00080190162576101911 0.013940088691813941 0 0.00081230989691351513 0.013900609074568596 0 0.00080436657856494675 0.013883630869251354 0 0.000807547110356089 0.013898345624243002 0 0.00080126022122932342 0.013876733810327212 0 0.00081230989691351513 0.013900609074568596 0 0.00080436657856494675 0.013883630869251354 0 0.000807547110356089 0.013898345624243002 0 0.00079647583553103254 0.013861556669259196 0 0.00082277727995622065 0.013886769539502028 0 0.00080436657856494675 0.013883630869251354 0 0.000807547110356089 0.013898345624243002 0 0.00079647583553103254 0.013861556669259196 0 0.00077129297991919974 0.013860549090065526 0 0.00079647583553103254 0.013861556669259196 0 0.00077881894566650303 0.013796937559572025 0 0.00077129297991919974 0.013860549090065526 0 0.00080126022122932342 0.013876733810327212 0 0.00079647583553103254 0.013861556669259196 0 0.00080126022122932342 0.013876733810327212 0 0.00080436657856494675 0.013883630869251354 0 0.00079647583553103254 0.013861556669259196 0 -7.6333654080924408e-05 0.0087585689475565189 0 0.00037050496217777221 0.0089223534426792518 0 0.00024004836475700043 0.0081843724660524801 0 0.00033017526636398457 0.011275846412876676 0 0.0009463210844763393 0.012562448725756082 0 0.00083087609143761196 0.014158970339189524 0 0.00082375144586461255 0.014468830076634019 0 0.00064411092053821373 0.014308983642440589 0 0.0009463210844763393 0.012562448725756082 0 0.00046258035366969279 0.011091123543480505 0 0.00080936840869775032 0.013987133415163184 0 0.00080190162576101911 0.013940088691813941 0 0.00056047054374250705 0.014064973426858002 0 0.0009463210844763393 0.012562448725756082 0 0.00097586069465845299 0.013625505345636509 0 0.000807547110356089 0.013898345624243002 0 0.00082277727995622065 0.013886769539502028 0 0.00080190162576101911 0.013940088691813941 0 0.00077422677588343848 0.013907813859998921 0 0.00081230989691351513 0.013900609074568596 0 0.00080190162576101911 0.013940088691813941 0 0.00077422677588343848 0.013907813859998921 0 0.00080190162576101911 0.013940088691813941 0 0.00069013585943027156 0.013928656564904813 0 0.00073527890155359015 0.01459115756205338 0 0.00082375144586461255 0.014468830076634019 0 0.00066867618471961297 0.014489103024035195 0 0.00073527890155359015 0.01459115756205338 0 0.00082375144586461255 0.014468830076634019 0 0.00059692017870364349 0.014652805418894122 0 0.00082375144586461255 0.014468830076634019 0 0.00064411092053821373 0.014308983642440589 0 0.00066867618471961297 0.014489103024035195 0 0.00024004836475700043 0.0081843724660524801 0 -0.00012801792779124684 0.0078497533535548392 0 -0.00024799868598208947 0.0082452511987741121 0 -7.6333654080924408e-05 0.0087585689475565189 0 0.00024004836475700043 0.0081843724660524801 0 -0.00024799868598208947 0.0082452511987741121 0 0.00046258035366969279 0.011091123543480505 0 0.00032981127188223353 0.011160486788849018 0 0.00024004836475700043 0.0081843724660524801 0 -0.00012801792779124684 0.0078497533535548392 0 4.624133284443684e-05 0.0075832820471347104 0 -0.00012801792779124684 0.0078497533535548392 0 -0.0004365909613836425 0.0078918785503601166 0 -0.00024799868598208947 0.0082452511987741121 0 -0.00012801792779124684 0.0078497533535548392 0 -0.0004365909613836425 0.0078918785503601166 0 -0.00033351217088848208 0.0076804060859530683 0 -0.0004365909613836425 0.0078918785503601166 0 -0.00054310199484566694 0.0076410448044417854 0 -0.00033351217088848208 0.0076804060859530683 0 -0.00049025973461147251 0.0086007927758761597 0 -0.00024799868598208947 0.0082452511987741121 0 -0.00062931612676638622 0.0081954575296957002 0 -0.0004365909613836425 0.0078918785503601166 0 -0.00024799868598208947 0.0082452511987741121 0 -0.00062931612676638622 0.0081954575296957002 0 -0.00075798328096206475 0.0082072830051531011 0 -0.00053217170457416552 0.0080317371548531465 0 -0.00071973666420710306 0.007970121173265024 0 -0.00053217170457416552 0.0080317371548531465 0 -0.00069325311723264342 0.0077845207680970049 0 -0.00071973666420710306 0.007970121173265024 0 -0.0006838510584113623 0.0078939605156383274 0 -0.00064806161072807316 0.0079120112948201527 0 -0.0004365909613836425 0.0078918785503601166 0 -0.00062931612676638622 0.0081954575296957002 0 -0.00069325311723264342 0.0077845207680970049 0 -0.0004365909613836425 0.0078918785503601166 0 -0.00069325311723264342 0.0077845207680970049 0 -0.00054310199484566694 0.0076410448044417854 0 -0.00069325311723264342 0.0077845207680970049 0 -0.00054310199484566694 0.0076410448044417854 0 -0.00073627513793483076 0.0075232889624812132 0 -0.00054310199484566694 0.0076410448044417854 0 -0.00059814026485175819 0.0074532425273789709 0 -0.00073627513793483076 0.0075232889624812132 0 -0.00054310199484566694 0.0076410448044417854 0 -0.00059814026485175819 0.0074532425273789709 0 -0.00042161851380436609 0.0074836646233177083 0 -0.00059814026485175819 0.0074532425273789709 0 -0.00054037546463944742 0.0073100694839326108 0 -0.00042161851380436609 0.0074836646233177083 0 -0.00059814026485175819 0.0074532425273789709 0 -0.00073627513793483076 0.0075232889624812132 0 -0.00074994297947285967 0.0073182492529820058 0 -0.00064112046881457268 0.0071824570675730198 0 -0.00054037546463944742 0.0073100694839326108 0 -0.00074994297947285967 0.0073182492529820058 0 -0.00059814026485175819 0.0074532425273789709 0 -0.00054037546463944742 0.0073100694839326108 0 -0.00074994297947285967 0.0073182492529820058 0 -0.00064112046881457268 0.0071824570675730198 0 -0.00054037546463944742 0.0073100694839326108 0 -0.00048289166343645936 0.0071807614715882302 0 -0.00054037546463944742 0.0073100694839326108 0 -0.00035508343245504721 0.0073191399588024399 0 -0.00042161851380436609 0.0074836646233177083 0 -0.00054037546463944742 0.0073100694839326108 0 -0.00035508343245504721 0.0073191399588024399 0 -0.00048289166343645936 0.0071807614715882302 0 -0.00035508343245504721 0.0073191399588024399 0 -0.00032274203490754966 0.0071696732784287702 0 -0.00048289166343645936 0.0071807614715882302 0 -0.00035508343245504721 0.0073191399588024399 0 -0.00020299868414125406 0.0073396666495141255 0 -0.00032274203490754966 0.0071696732784287702 0 -0.00035508343245504721 0.0073191399588024399 0 -0.00020821625906503548 0.0075145722813475249 0 -0.00020299868414125406 0.0073396666495141255 0 -0.00035508343245504721 0.0073191399588024399 0 -0.00020821625906503548 0.0075145722813475249 0 -0.00042161851380436609 0.0074836646233177083 0 -0.00012801792779124684 0.0078497533535548392 0 -0.00020821625906503548 0.0075145722813475249 0 -0.00033351217088848208 0.0076804060859530683 0 -0.00054310199484566694 0.0076410448044417854 0 -0.00042161851380436609 0.0074836646233177083 0 -0.00033351217088848208 0.0076804060859530683 0 -0.00020821625906503548 0.0075145722813475249 0 -0.00042161851380436609 0.0074836646233177083 0 -0.00033351217088848208 0.0076804060859530683 0 -0.00012801792779124684 0.0078497533535548392 0 -0.00020821625906503548 0.0075145722813475249 0 4.624133284443684e-05 0.0075832820471347104 0 -0.00020821625906503548 0.0075145722813475249 0 4.624133284443684e-05 0.0075832820471347104 0 -0.00020299868414125406 0.0073396666495141255 0 4.624133284443684e-05 0.0075832820471347104 0 -0.00020299868414125406 0.0073396666495141255 0 -0.00016215248577152754 0.0071573168589052511 0 0.00032981127188223353 0.011160486788849018 0 7.0536436313120077e-05 0.010393045871725431 0 -0.00020299868414125406 0.0073396666495141255 0 -0.00016215248577152754 0.0071573168589052511 0 -0.00032274203490754966 0.0071696732784287702 0 0.00059692017870364349 0.014652805418894122 0 0.00092801763154459944 0.014205638815844926 0 0.00027379744525583794 0.013700385904387326 0 0.00081655215538521079 0.01462859297620199 0 0.00082916059978640718 0.014548204685102874 0 0.00078539558487852282 0.014667374569941929 0 0.00084760963728267805 0.01425080818250031 0 0.00081902884214425794 0.014527758559425768 0 0.00084760963728267805 0.01425080818250031 0 0.00090740372048356776 0.014730749821685315 0 0.00059692017870364349 0.014652805418894122 0 0.00092801763154459944 0.014205638815844926 0 0.00082916059978640718 0.014548204685102874 0 0.00082916059978640718 0.014548204685102874 0 0.0007741024091653748 0.014618418936377614 0 0.00078539558487852282 0.014667374569941929 0 0.00059692017870364349 0.014652805418894122 0 0.00082916059978640718 0.014548204685102874 0 0.0007741024091653748 0.014618418936377614 0 0.00073527890155359015 0.01459115756205338 0 0.00059692017870364349 0.014652805418894122 0 0.0007741024091653748 0.014618418936377614 0 -0.0014395806325977229 0.0075536484023590398 0 -0.0012238292661958207 0.0078641289466675375 0 -0.0010825569703791318 0.0076248020790123643 0 -0.0014395806325977229 0.0075536484023590398 0 -0.0010825569703791318 0.0076248020790123643 0 -0.0011657069869092302 0.0073769231428507517 0 -0.0014395806325977229 0.0075536484023590398 0 -0.0017066401721406292 0.0078014700352418602 0 -0.0014934984337015953 0.007903051539179971 0 -0.0014395806325977229 0.0075536484023590398 0 -0.0014934984337015953 0.007903051539179971 0 -0.0012238292661958207 0.0078641289466675375 0 -0.0014395806325977229 0.0075536484023590398 0 -0.0017774466484095602 0.0075044767281803532 0 -0.0016129857386401622 0.0072716436683630753 0 -0.0017774466484095602 0.0075044767281803532 0 -0.0019443089571538094 0.0072193080315059695 0 -0.0016129857386401622 0.0072716436683630753 0 -0.0017774466484095602 0.0075044767281803532 0 -0.0019443089571538094 0.0072193080315059695 0 -0.0020593652914201637 0.007602674713914289 0 -0.0017774466484095602 0.0075044767281803532 0 -0.0017066401721406292 0.0078014700352418602 0 -0.0020593652914201637 0.007602674713914289 0 -0.0014395806325977229 0.0075536484023590398 0 -0.0017774466484095602 0.0075044767281803532 0 -0.0017066401721406292 0.0078014700352418602 0 -0.0017066401721406292 0.0078014700352418602 0 -0.0018321132216867373 0.0081288747710556702 0 -0.0014934984337015953 0.007903051539179971 0 -0.0017066401721406292 0.0078014700352418602 0 -0.0018321132216867373 0.0081288747710556702 0 -0.0020593652914201637 0.007602674713914289 0 -0.0015565070385135775 0.0082573129665022404 0 -0.0018012190800857221 0.0081999221901558339 0 -0.0014601476306698316 0.0083391015776147406 0 -0.0018321132216867373 0.0081288747710556702 0 -0.0013698252422266462 0.0080881771850738818 0 -0.0018321132216867373 0.0081288747710556702 0 -0.0014934984337015953 0.007903051539179971 0 -0.0013698252422266462 0.0080881771850738818 0 -0.0014934984337015953 0.007903051539179971 0 -0.0013698252422266462 0.0080881771850738818 0 -0.0012238292661958207 0.0078641289466675375 0 -0.0014601476306698316 0.0083391015776147406 0 -0.0013698252422266462 0.0080881771850738818 0 -0.0011238405591171583 0.0081310933057543236 0 -0.0011238405591171583 0.0081310933057543236 0 -0.0012238292661958207 0.0078641289466675375 0 -0.00089532383730054862 0.0078833804313433106 0 -0.0013698252422266462 0.0080881771850738818 0 -0.0011238405591171583 0.0081310933057543236 0 -0.0012238292661958207 0.0078641289466675375 0 -0.00075798328096206475 0.0082072830051531011 0 -0.00089532383730054862 0.0078833804313433106 0 -0.00071973666420710306 0.007970121173265024 0 -0.00075798328096206475 0.0082072830051531011 0 -0.0011238405591171583 0.0081310933057543236 0 -0.00089532383730054862 0.0078833804313433106 0 -0.0006332335657370299 0.0081890681194957751 0 -0.0010687571121618612 0.0081564039411602916 0 -0.00069325311723264342 0.0077845207680970049 0 -0.00089532383730054862 0.0078833804313433106 0 -0.00071973666420710306 0.007970121173265024 0 -0.00069325311723264342 0.0077845207680970049 0 -0.00089532383730054862 0.0078833804313433106 0 -0.00088102521303785441 0.0076096024902775243 0 -0.00069325311723264342 0.0077845207680970049 0 -0.00088102521303785441 0.0076096024902775243 0 -0.00073627513793483076 0.0075232889624812132 0 -0.0012238292661958207 0.0078641289466675375 0 -0.00089532383730054862 0.0078833804313433106 0 -0.0010825569703791318 0.0076248020790123643 0 -0.00089532383730054862 0.0078833804313433106 0 -0.00088102521303785441 0.0076096024902775243 0 -0.0010825569703791318 0.0076248020790123643 0 -0.00088102521303785441 0.0076096024902775243 0 -0.0010825569703791318 0.0076248020790123643 0 -0.0010186905734327401 0.0074524061353276614 0 -0.0010186905734327401 0.0074524061353276614 0 -0.0010887633687954603 0.0072568528283488577 0 -0.0011657069869092302 0.0073769231428507517 0 -0.0010825569703791318 0.0076248020790123643 0 -0.0010186905734327401 0.0074524061353276614 0 -0.0011657069869092302 0.0073769231428507517 0 -0.00088102521303785441 0.0076096024902775243 0 -0.0010186905734327401 0.0074524061353276614 0 -0.00091392740945263969 0.0073755384173027462 0 -0.0010186905734327401 0.0074524061353276614 0 -0.0010887633687954603 0.0072568528283488577 0 -0.00091392740945263969 0.0073755384173027462 0 -0.00088102521303785441 0.0076096024902775243 0 -0.00073627513793483076 0.0075232889624812132 0 -0.00091392740945263969 0.0073755384173027462 0 -0.00073627513793483076 0.0075232889624812132 0 -0.00091392740945263969 0.0073755384173027462 0 -0.00074994297947285967 0.0073182492529820058 0 -0.00091392740945263969 0.0073755384173027462 0 -0.00074994297947285967 0.0073182492529820058 0 -0.00091591979036794607 0.0072520480615872896 0 -0.00074994297947285967 0.0073182492529820058 0 -0.00091591979036794607 0.0072520480615872896 0 -0.00080724348962352632 0.0071772702625351259 0 -0.00091591979036794607 0.0072520480615872896 0 -0.00080724348962352632 0.0071772702625351259 0 -0.00097516895588460487 0.0071583892615112157 0 -0.00064112046881457268 0.0071824570675730198 0 -0.00074994297947285967 0.0073182492529820058 0 -0.00080724348962352632 0.0071772702625351259 0 -0.0010887633687954603 0.0072568528283488577 0 -0.00091392740945263969 0.0073755384173027462 0 -0.00091591979036794607 0.0072520480615872896 0 -0.0010887633687954603 0.0072568528283488577 0 -0.00091591979036794607 0.0072520480615872896 0 -0.00097516895588460487 0.0071583892615112157 0 -0.0010887633687954603 0.0072568528283488577 0 -0.00097516895588460487 0.0071583892615112157 0 -0.0010989458979942478 0.0071396549338916 0 -0.0010832932561056113 0.0064349477146109025 0 -0.001383482442467772 0.0067012768827574166 0 -0.0013419593731039572 0.007195120354468577 0 -0.0011045563979187665 0.006793139786381467 0 -0.001322767373142669 0.0071904235842552245 0 -0.0010887633687954603 0.0072568528283488577 0 -0.0010989458979942478 0.0071396549338916 0 -0.0013419593731039572 0.007195120354468577 0 -0.0010832932561056113 0.0064349477146109025 0 -0.001383482442467772 0.0067012768827574166 0 -0.001385503596928903 0.0063856960066320323 0 -0.0010887633687954603 0.0072568528283488577 0 -0.0013419593731039572 0.007195120354468577 0 -0.0011657069869092302 0.0073769231428507517 0 -0.0014395806325977229 0.0075536484023590398 0 -0.0013419593731039572 0.007195120354468577 0 -0.0011657069869092302 0.0073769231428507517 0 -0.0014395806325977229 0.0075536484023590398 0 -0.0013419593731039572 0.007195120354468577 0 -0.0016129857386401622 0.0072716436683630753 0 -0.0019443089571538094 0.0072193080315059695 0 -0.0016607569030203393 0.0068222130457727178 0 -0.0024872429876699477 0.0068543803790698686 0 -0.0019443089571538094 0.0072193080315059695 0 -0.0016129857386401622 0.0072716436683630753 0 -0.0016607569030203393 0.0068222130457727178 0 -0.0013419593731039572 0.007195120354468577 0 -0.0016129857386401622 0.0072716436683630753 0 -0.0016607569030203393 0.0068222130457727178 0 -0.001383482442467772 0.0067012768827574166 0 -0.0013419593731039572 0.007195120354468577 0 -0.0016607569030203393 0.0068222130457727178 0 -0.001383482442467772 0.0067012768827574166 0 -0.0016607569030203393 0.0068222130457727178 0 -0.001385503596928903 0.0063856960066320323 0 -0.0016607569030203393 0.0068222130457727178 0 -0.0017303628278207137 0.0058087350801875855 0 -0.0011650275792292563 0.0053595176133538255 0 -0.0016463344900410721 0.0067621576984615425 0 -0.0012941241709516836 0.0059101224397917632 0 -0.0016607569030203393 0.0068222130457727178 0 -0.0017303628278207137 0.0058087350801875855 0 -0.0024872429876699477 0.0068543803790698686 0 -0.0019807306767159294 0.0047766215035101372 0 -0.0020702017315486097 0.0047467813032411035 0 -0.0020978303010305769 0.0051041847164552089 0 -0.0022234519628517068 0.0059068448444599382 0 -0.0021336528763632899 0.00510878458673583 0 -0.0017303628278207137 0.0058087350801875855 0 -0.0024872429876699477 0.0068543803790698686 0 -0.0020978303010305769 0.0051041847164552089 0 -0.0019807306767159294 0.0047766215035101372 0 -0.0019883907873501014 0.0047357283602784701 0 -0.0020702017315486097 0.0047467813032411035 0 -0.0019883907873501014 0.0047357283602784701 0 -0.0019562466636766592 0.004736423283200693 0 -0.0019345348493235973 0.0047245685450682225 0 -0.0019807306767159294 0.0047766215035101372 0 -0.0019883907873501014 0.0047357283602784701 0 -0.0019345348493235973 0.0047245685450682225 0 -0.0019883907873501014 0.0047357283602784701 0 -0.0020702017315486097 0.0047467813032411035 0 -0.0020098688630308934 0.0047239753791543252 0 -0.0019883907873501014 0.0047357283602784701 0 -0.0020098688630308934 0.0047239753791543252 0 -0.0019562466636766592 0.004736423283200693 0 -0.0019443089571538094 0.0072193080315059695 0 -0.0024872429876699477 0.0068543803790698686 0 -0.0020593652914201637 0.007602674713914289 0 -0.0022234519628517068 0.0059068448444599382 0 -0.0025708245899778372 0.0057543684120590962 0 -0.0020702017315486097 0.0047467813032411035 0 -0.0020098688630308934 0.0047239753791543252 0 -0.0020320774725893537 0.0046798844427674942 0 -0.0024872429876699477 0.0068543803790698686 0 -0.0020593652914201637 0.007602674713914289 0 -0.0024556975343126728 0.0078841267814059122 0 -0.0025708245899778372 0.0057543684120590962 0 -0.0027237675514711688 0.0036473205150339928 0 -0.0032523038230265642 0.0030960603229662977 0 -0.0030490439477429835 0.0030817871519322948 0 -0.003289569609608323 0.002949495910374389 0 -0.0020098688630308934 0.0047239753791543252 0 -0.0020320774725893537 0.0046798844427674942 0 -0.0019562466636766592 0.004736423283200693 0 -0.003283108516342414 0.0032035825374282529 0 -0.0031658849048888174 0.003164937116648967 0 -0.0030672283120721316 0.0032740728486522798 0 -0.0032523038230265642 0.0030960603229662977 0 -0.0031658849048888174 0.003164937116648967 0 -0.0030490439477429835 0.0030817871519322948 0 -0.0034981232414283319 0.0030858584700187573 0 -0.003198771171313875 0.005728657590732592 0 -0.0032523038230265642 0.0030960603229662977 0 -0.003283108516342414 0.0032035825374282529 0 -0.0031658849048888174 0.003164937116648967 0 -0.0020002865448170608 0.007920622555165853 0 -0.0026505888550061758 0.0075380388813485284 0 -0.0027033968728244684 0.008114434645823957 0 -0.0025708245899778372 0.0057543684120590962 0 -0.003198771171313875 0.005728657590732592 0 -0.0018012190800857221 0.0081999221901558339 0 -0.0025708245899778372 0.0057543684120590962 0 -0.0018321132216867373 0.0081288747710556702 0 -0.0020593652914201637 0.007602674713914289 0 -0.0024556975343126728 0.0078841267814059122 0 -0.0031658849048888174 0.003164937116648967 0 -0.0030490439477429835 0.0030817871519322948 0 -0.0030672283120721316 0.0032740728486522798 0 -0.0035241569168266039 0.0030494123946524969 0 -0.0034784378108484362 0.0031087877716877463 0 -0.0035906099065450949 0.0030638223651417449 0 -0.0033537821312380422 0.0032907247366457727 0 -0.0037075536107529475 0.0018693110723143553 0 -0.0034478934211934933 0.0030524557615674752 0 -0.0035241569168266039 0.0030494123946524969 0 -0.0034760065816690677 0.0031056922212008412 0 -0.0034478934211934933 0.0030524557615674752 0 -0.0035241569168266039 0.0030494123946524969 0 -0.00346111311192778 0.0029852358316442605 0 -0.0035241569168266039 0.0030494123946524969 0 -0.0034784378108484362 0.0031087877716877463 0 -0.0034760065816690677 0.0031056922212008412 0 -0.0035786233364605885 0.0031213710223258282 0 -0.0034784378108484362 0.0031087877716877463 0 -0.0035835325485047385 0.0031315075992450112 0 -0.0035786233364605885 0.0031213710223258282 0 -0.0034784378108484362 0.0031087877716877463 0 -0.0034760065816690677 0.0031056922212008412 0 -0.003283108516342414 0.0032035825374282529 0 -0.0034760065816690677 0.0031056922212008412 0 -0.0034011732994290449 0.0031027239572863877 0 -0.0034981232414283319 0.0030858584700187573 0 -0.0034437138750968801 0.0031291302636782797 0 -0.003283108516342414 0.0032035825374282529 0 -0.003328257687589846 0.0031119284263137251 0 -0.0034011732994290449 0.0031027239572863877 0 -0.0032523038230265642 0.0030960603229662977 0 -0.003328257687589846 0.0031119284263137251 0 -0.003372890444102993 0.0030495775860214249 0 -0.0032523038230265642 0.0030960603229662977 0 -0.003283108516342414 0.0032035825374282529 0 -0.003328257687589846 0.0031119284263137251 0 -0.0034478934211934933 0.0030524557615674752 0 -0.0034011732994290449 0.0031027239572863877 0 -0.003372890444102993 0.0030495775860214249 0 -0.0034478934211934933 0.0030524557615674752 0 -0.0034760065816690677 0.0031056922212008412 0 -0.0034011732994290449 0.0031027239572863877 0 -0.003328257687589846 0.0031119284263137251 0 -0.0034011732994290449 0.0031027239572863877 0 -0.003372890444102993 0.0030495775860214249 0 -0.003372890444102993 0.0030495775860214249 0 -0.003289569609608323 0.002949495910374389 0 -0.00346111311192778 0.0029852358316442605 0 -0.0034478934211934933 0.0030524557615674752 0 -0.003372890444102993 0.0030495775860214249 0 -0.00346111311192778 0.0029852358316442605 0 -0.0027237675514711688 0.0036473205150339928 0 -0.002779967045198783 0.0038817383410544547 0 -0.003289569609608323 0.002949495910374389 0 -0.00346111311192778 0.0029852358316442605 0 -0.0034736071779102821 0.0028704864274633236 0 -0.0032523038230265642 0.0030960603229662977 0 -0.003372890444102993 0.0030495775860214249 0 -0.003289569609608323 0.002949495910374389 0 -0.00346111311192778 0.0029852358316442605 0 -0.0035320317028676397 0.0029610598076954806 0 -0.0034736071779102821 0.0028704864274633236 0 -0.0035241569168266039 0.0030494123946524969 0 -0.00346111311192778 0.0029852358316442605 0 -0.0035320317028676397 0.0029610598076954806 0 -0.0020976271536284237 0.0048816314281633902 0 -0.0018949471185633882 0.0045163616110458294 0 -0.0029820740874358814 0.0045950323198082395 0 -0.002779967045198783 0.0038817383410544547 0 -0.0033058312457096657 0.0037903738074617772 0 -0.0020976271536284237 0.0048816314281633902 0 -0.0019345348493235973 0.0047245685450682225 0 -0.0018949471185633882 0.0045163616110458294 0 -0.0019562466636766592 0.004736423283200693 0 -0.0020976271536284237 0.0048816314281633902 0 -0.0019345348493235973 0.0047245685450682225 0 -0.0019807306767159294 0.0047766215035101372 0 -0.0019345348493235973 0.0047245685450682225 0 -0.0018949471185633882 0.0045163616110458294 0 -0.0019807306767159294 0.0047766215035101372 0 -0.0018949471185633882 0.0045163616110458294 0 -0.0020315913982752679 0.0048333816562594178 0 -0.0018949471185633882 0.0045163616110458294 0 -0.0029820740874358814 0.0045950323198082395 0 -0.0026999844717391346 0.0037137910855200226 0 -0.0029820740874358814 0.0045950323198082395 0 -0.0033718165929492888 0.003723313304531308 0 -0.0026999844717391346 0.0037137910855200226 0 -0.0033058312457096657 0.0037903738074617772 0 -0.0035443476914789017 0.0024699525472661886 0 -0.0035833759495454477 0.0028344878821039109 0 -0.0035498492398772538 0.0028757141816407629 0 -0.0035636086948065086 0.0028498235247292518 0 -0.0029820740874358814 0.0045950323198082395 0 -0.0042393632816203047 0.0039998635191667662 0 -0.0033718165929492888 0.003723313304531308 0 -0.0035443476914789017 0.0024699525472661886 0 -0.0033740308312742392 0.00093554007918061996 0 -0.0035498492398772538 0.0028757141816407629 0 -0.0035636086948065086 0.0028498235247292518 0 -0.0035329598685098864 0.0028601152080493294 0 -0.0035636086948065086 0.0028498235247292518 0 -0.0035329598685098864 0.0028601152080493294 0 -0.0035006459205402349 0.0028075870567716987 0 -0.0035833759495454477 0.0028344878821039109 0 -0.0035636086948065086 0.0028498235247292518 0 -0.003611426324173089 0.002847780464488435 0 -0.0035636086948065086 0.0028498235247292518 0 -0.003611426324173089 0.002847780464488435 0 -0.0035006459205402349 0.0028075870567716987 0 -0.0034736071779102821 0.0028704864274633236 0 -0.0035833759495454477 0.0028344878821039109 0 -0.003611426324173089 0.002847780464488435 0 -0.0024475543159691868 -0.00087405485603700721 0 -0.0022827991757864746 -0.0011984968713739043 0 -0.0020557044703429931 -0.0009046586112186546 0 -0.0024475543159691868 -0.00087405485603700721 0 -0.0022998707119286422 -0.00045579526249569304 0 -0.0020557044703429931 -0.0009046586112186546 0 -0.0024475543159691868 -0.00087405485603700721 0 -0.0028007487982766891 -0.00070698749342906124 0 -0.0022998707119286422 -0.00045579526249569304 0 -0.0032812430203935893 0.0016976223580350562 0 -0.0030906107540912653 0.0017988319042218136 0 -0.0030574350199567423 0.0012988875930141231 0 -0.0024475543159691868 -0.00087405485603700721 0 -0.0028007487982766891 -0.00070698749342906124 0 -0.0027868351453786398 -0.00092978403108552143 0 -0.0033740308312742392 0.00093554007918061996 0 -0.0030782817379435713 0.0010714239193999038 0 -0.0035443476914789017 0.0024699525472661886 0 -0.0030782817379435713 0.0010714239193999038 0 -0.0029933556339108059 0.001159766341512202 0 -0.0029428058171290482 0.00042664222389432661 0 -0.0026332404728684144 0.00052301430710145389 0 -0.0024475543159691868 -0.00087405485603700721 0 -0.0027868351453786398 -0.00092978403108552143 0 -0.0025849352848804942 -0.0012911459370010534 0 -0.0030782817379435713 0.0010714239193999038 0 -0.003238142042772829 0.0019417956460018781 0 -0.0030782817379435713 0.0010714239193999038 0 -0.0025557176545981889 -0.00047844874196859331 0 -0.0029428058171290482 0.00042664222389432661 0 -0.0026332404728684144 0.00052301430710145389 0 -0.0026103842966125725 7.7452933744385241e-05 0 -0.0024475543159691868 -0.00087405485603700721 0 -0.0025849352848804942 -0.0012911459370010534 0 -0.0022827991757864746 -0.0011984968713739043 0 -0.0022827991757864746 -0.0011984968713739043 0 -0.0023881462160179499 -0.0016399713866533442 0 -0.0019371978891762614 -0.0012715524022499738 0 -0.0025849352848804942 -0.0012911459370010534 0 -0.0022827991757864746 -0.0011984968713739043 0 -0.0023881462160179499 -0.0016399713866533442 0 -0.0022827991757864746 -0.0011984968713739043 0 -0.0020557044703429931 -0.0009046586112186546 0 -0.0019371978891762614 -0.0012715524022499738 0 -0.0023938352617492733 -0.0012040496837345024 0 -0.0020139084602553425 -0.0014265301350686696 0 -0.0021211595139840468 -0.0015988665197803045 0 -0.0024169261822392526 -0.0016755768478757932 0 -0.0019371978891762614 -0.0012715524022499738 0 -0.002146696078082635 -0.0017929416416736347 0 -0.0021211595139840468 -0.0015988665197803045 0 -0.0024112449348076691 -0.0016759944200194217 0 -0.0022382186728770329 -0.0015072673569421586 0 -0.0023938352617492733 -0.0012040496837345024 0 -0.0029428058171290482 0.00042664222389432661 0 -0.0026103842966125725 7.7452933744385241e-05 0 -0.0028947410426517417 -0.00030804798351799788 0 -0.003238142042772829 0.0019417956460018781 0 -0.0026806531881683649 0.00014924767587317872 0 -0.0024853541426570367 -0.00091410218604698768 0 -0.0024768100336133659 -0.00091026725813781264 0 -0.0024769350880790358 -0.00090785412639008442 0 -0.0022779481555805867 -0.00011607770379748043 0 -0.0026103842966125725 7.7452933744385241e-05 0 -0.0028947410426517417 -0.00030804798351799788 0 -0.0023938352617492733 -0.0012040496837345024 0 -0.0026806531881683649 0.00014924767587317872 0 -0.0026332404728684144 0.00052301430710145389 0 -0.0022779481555805867 -0.00011607770379748043 0 -0.0026103842966125725 7.7452933744385241e-05 0 -0.0025557176545981889 -0.00047844874196859331 0 -0.0023938352617492733 -0.0012040496837345024 0 -0.002324004422204662 -0.0009817407471037641 0 -0.0023021531547064242 -0.0013225681732387507 0 -0.0029047322744145377 -0.0018515980462961053 0 -0.002658251911650518 -0.0015215443260466119 0 -0.00277260294742788 -0.0024049414600718355 0 -0.0028001558269415052 -0.0018956035264205725 0 -0.0025750945726849728 -0.0021074716513986426 0 -0.0027754005280525638 -0.0023413098681324684 0 -0.0026806531881683649 0.00014924767587317872 0 -0.002658251911650518 -0.0015215443260466119 0 -0.0028001558269415052 -0.0018956035264205725 0 -0.0025750945726849728 -0.0021074716513986426 0 -0.0025144620689840614 -0.0018363408973270678 0 -0.0023938352617492733 -0.0012040496837345024 0 -0.002658251911650518 -0.0015215443260466119 0 -0.0024417665181327573 -0.0015822884939330011 0 -0.0028001558269415052 -0.0018956035264205725 0 -0.0025144620689840614 -0.0018363408973270678 0 -0.0023938352617492733 -0.0012040496837345024 0 -0.002176261042844756 -0.002079466867467729 0 -0.0024417665181327573 -0.0015822884939330011 0 -0.0025144620689840614 -0.0018363408973270678 0 -0.0022197410607622211 -0.0019825124737022724 0 -0.0025750945726849728 -0.0021074716513986426 0 -0.0025144620689840614 -0.0018363408973270678 0 -0.0022197410607622211 -0.0019825124737022724 0 -0.002146696078082635 -0.0017929416416736347 0 -0.0024112449348076691 -0.0016759944200194217 0 -0.0022009519439557443 -0.002052193630229987 0 -0.003611426324173089 0.002847780464488435 0 -0.0035604753145429538 0.0027431707244979296 0 -0.0036925692921382322 0.002606975233456048 0 -0.0035320317028676397 0.0029610598076954806 0 -0.003611426324173089 0.002847780464488435 0 -0.0035906099065450949 0.0030638223651417449 0 -0.0035506189058157971 0.0032504902106655544 0 -0.0037075536107529475 0.0018693110723143553 0 -0.0035320317028676397 0.0029610598076954806 0 -0.0034736071779102821 0.0028704864274633236 0 -0.003611426324173089 0.002847780464488435 0 -0.003611426324173089 0.002847780464488435 0 -0.0035006459205402349 0.0028075870567716987 0 -0.0035604753145429538 0.0027431707244979296 0 -0.0035006459205402349 0.0028075870567716987 0 -0.0034629731876115975 0.0026814333709184084 0 -0.0035604753145429538 0.0027431707244979296 0 -0.0034629731876115975 0.0026814333709184084 0 -0.0035604753145429538 0.0027431707244979296 0 -0.0036925692921382322 0.002606975233456048 0 -0.0026806531881683649 0.00014924767587317872 0 -0.0037075536107529475 0.0018693110723143553 0 -0.002324004422204662 -0.0009817407471037641 0 -0.0036077645026354396 -0.0013845361903306998 0 -0.0029047322744145377 -0.0018515980462961053 0 -0.002658251911650518 -0.0015215443260466119 0 -0.0030385519397444177 -0.0019982656343086268 0 -0.0035241569168266039 0.0030494123946524969 0 -0.0035320317028676397 0.0029610598076954806 0 -0.0035906099065450949 0.0030638223651417449 0 -0.0036077645026354396 -0.0013845361903306998 0 -0.0035035193036867577 -0.0023735926467480638 0 -0.0038421726808858829 -0.0024844868096864131 0 -0.0036077645026354396 -0.0013845361903306998 0 -0.0035035193036867577 -0.0023735926467480638 0 -0.0029047322744145377 -0.0018515980462961053 0 -0.0037075536107529475 0.0018693110723143553 0 -0.003504150312686599 5.188040841394299e-05 0 -0.0034504984028264963 -0.0023379688455362406 0 -0.0030385519397444177 -0.0019982656343086268 0 -0.0031592468901169733 -0.0021457709535192934 0 -0.0031039875610246533 -0.0025345206564242541 0 -0.0027754005280525638 -0.0023413098681324684 0 -0.0035035193036867577 -0.0023735926467480638 0 -0.0031592468901169733 -0.0021457709535192934 0 -0.0031039875610246533 -0.0025345206564242541 0 -0.0031039875610246533 -0.0025345206564242541 0 -0.0027263507211161579 -0.002723562057360132 0 -0.0030841729477208506 -0.0029806880997225375 0 -0.0031039875610246533 -0.0025345206564242541 0 -0.0033716658344905724 -0.002662731277182953 0 -0.0030841729477208506 -0.0029806880997225375 0 -0.0033716658344905724 -0.002662731277182953 0 -0.003532231715431251 -0.0029524577731337895 0 -0.0030841729477208506 -0.0029806880997225375 0 -0.0035035193036867577 -0.0023735926467480638 0 -0.0031039875610246533 -0.0025345206564242541 0 -0.0033716658344905724 -0.002662731277182953 0 -0.0038421726808858829 -0.0024844868096864131 0 -0.0033716658344905724 -0.002662731277182953 0 -0.003532231715431251 -0.0029524577731337895 0 -0.0038421726808858829 -0.0024844868096864131 0 -0.003532231715431251 -0.0029524577731337895 0 -0.0039931386362652152 -0.0031795748502905798 0 -0.0035035193036867577 -0.0023735926467480638 0 -0.0038421726808858829 -0.0024844868096864131 0 -0.0033716658344905724 -0.002662731277182953 0 -0.0025750945726849728 -0.0021074716513986426 0 -0.0022197410607622211 -0.0019825124737022724 0 -0.0023903486965522825 -0.0024767724253478571 0 -0.0022197410607622211 -0.0019825124737022724 0 -0.0023903486965522825 -0.0024767724253478571 0 -0.0020017242496305964 -0.0024034714426840608 0 -0.002176261042844756 -0.002079466867467729 0 -0.0020368538646749995 -0.0023363269339624773 0 -0.0027994630789589321 -0.0018389598991676653 0 -0.0031592468901169733 -0.0021457709535192934 0 -0.0027754005280525638 -0.0023413098681324684 0 -0.0023903486965522825 -0.0024767724253478571 0 -0.0027754005280525638 -0.0023413098681324684 0 -0.0027263507211161579 -0.002723562057360132 0 -0.0025750945726849728 -0.0021074716513986426 0 -0.0023903486965522825 -0.0024767724253478571 0 -0.0027754005280525638 -0.0023413098681324684 0 -0.0031039875610246533 -0.0025345206564242541 0 -0.0027754005280525638 -0.0023413098681324684 0 -0.0027263507211161579 -0.002723562057360132 0 -0.0027263507211161579 -0.002723562057360132 0 -0.0026855630799952853 -0.0030991237219703512 0 -0.0030841729477208506 -0.0029806880997225375 0 -0.0027263507211161579 -0.002723562057360132 0 -0.0023221245537591337 -0.0029537997789644056 0 -0.0026855630799952853 -0.0030991237219703512 0 -0.0023903486965522825 -0.0024767724253478571 0 -0.0023221245537591337 -0.0029537997789644056 0 -0.0018865947723557979 -0.0028317763561433867 0 -0.0023903486965522825 -0.0024767724253478571 0 -0.0027263507211161579 -0.002723562057360132 0 -0.0023221245537591337 -0.0029537997789644056 0 -0.0023221245537591337 -0.0029537997789644056 0 -0.0024240873841131138 -0.0034177887351802432 0 -0.00195893685861034 -0.0033280304712214378 0 -0.0023221245537591337 -0.0029537997789644056 0 -0.0026855630799952853 -0.0030991237219703512 0 -0.0024240873841131138 -0.0034177887351802432 0 -0.0026855630799952853 -0.0030991237219703512 0 -0.0028775751018508631 -0.0034230632564556476 0 -0.0024240873841131138 -0.0034177887351802432 0 -0.0026855630799952853 -0.0030991237219703512 0 -0.0028775751018508631 -0.0034230632564556476 0 -0.0030841729477208506 -0.0029806880997225375 0 -0.0026431853163868947 -0.0038634202624144953 0 -0.0028775751018508631 -0.0034230632564556476 0 -0.0024240873841131138 -0.0034177887351802432 0 -0.0026431853163868947 -0.0038634202624144953 0 -0.0028775751018508631 -0.0034230632564556476 0 -0.0030748875210229324 -0.0037997557752092021 0 -0.0021845152456356027 -0.0038991876178402704 0 -0.0024240873841131138 -0.0034177887351802432 0 -0.00195893685861034 -0.0033280304712214378 0 -0.0026431853163868947 -0.0038634202624144953 0 -0.0021845152456356027 -0.0038991876178402704 0 -0.0024240873841131138 -0.0034177887351802432 0 -0.003532231715431251 -0.0029524577731337895 0 -0.0033721109448866414 -0.0034011083031817491 0 -0.0039931386362652152 -0.0031795748502905798 0 -0.0028775751018508631 -0.0034230632564556476 0 -0.0030841729477208506 -0.0029806880997225375 0 -0.0033721109448866414 -0.0034011083031817491 0 -0.003532231715431251 -0.0029524577731337895 0 -0.0030841729477208506 -0.0029806880997225375 0 -0.0033721109448866414 -0.0034011083031817491 0 -0.0035184647785802296 -0.0039264418318182325 0 -0.0033721109448866414 -0.0034011083031817491 0 -0.0030748875210229324 -0.0037997557752092021 0 -0.0028775751018508631 -0.0034230632564556476 0 -0.0033721109448866414 -0.0034011083031817491 0 -0.0030748875210229324 -0.0037997557752092021 0 -0.0035184647785802296 -0.0039264418318182325 0 -0.0033721109448866414 -0.0034011083031817491 0 -0.0039931386362652152 -0.0031795748502905798 0 -0.0035184647785802296 -0.0039264418318182325 0 -0.0041763279162020019 -0.0038449694371472101 0 -0.0039931386362652152 -0.0031795748502905798 0 -0.0037833694740126863 -0.00087663461659121206 0 -0.0036377533646923125 -0.00036245972910667714 0 -0.0034023217733535355 0.0018693903590797079 0 -0.003271776646699046 0.0024344571502353169 0 -0.0036043304723163893 0.002419994921174617 0 -0.003271776646699046 0.0024344571502353169 0 -0.0036043304723163893 0.002419994921174617 0 -0.003493366981388401 0.0027802984067480984 0 -0.0036043304723163893 0.002419994921174617 0 -0.0038593156731455839 0.0026431252469350315 0 -0.003493366981388401 0.0027802984067480984 0 -0.0036043304723163893 0.002419994921174617 0 -0.0039071865603218904 0.0023190391597796667 0 -0.0038593156731455839 0.0026431252469350315 0 -0.0036043304723163893 0.002419994921174617 0 -0.0037592846998981719 0.0021240815362520461 0 -0.0039071865603218904 0.0023190391597796667 0 -0.0038018960112260677 0.0019020821254459464 0 -0.0034023217733535355 0.0018693903590797079 0 -0.0037592846998981719 0.0021240815362520461 0 -0.0034023217733535355 0.0018693903590797079 0 -0.0036043304723163893 0.002419994921174617 0 -0.0037592846998981719 0.0021240815362520461 0 -0.0038018960112260677 0.0019020821254459464 0 -0.0037592846998981719 0.0021240815362520461 0 -0.0039429821753315334 0.0020384432117663211 0 -0.0040248428057704424 0.0019656153722378096 0 -0.0038018960112260677 0.0019020821254459464 0 -0.0039429821753315334 0.0020384432117663211 0 -0.0037592846998981719 0.0021240815362520461 0 -0.0039429821753315334 0.0020384432117663211 0 -0.003909020128994278 0.0021545530932710021 0 -0.0035145910801846546 0.0056460019821714157 0 -0.0034703519216054959 0.0051367689348533344 0 -0.0038356115773822861 0.0046393201302575866 0 -0.0036491022297636664 0.0047484140087572539 0 -0.0040628230535258653 0.0037186190907568684 0 -0.0040248428057704424 0.0019656153722378096 0 -0.0039429821753315334 0.0020384432117663211 0 -0.0040135981744923634 0.0019573995255044701 0 -0.0039429821753315334 0.0020384432117663211 0 -0.0040135981744923634 0.0019573995255044701 0 -0.0040197669399206527 0.0021418592673099093 0 -0.0036491022297636664 0.0047484140087572539 0 -0.0034850406234524104 0.006949698728666541 0 -0.0034850406234524104 0.006949698728666541 0 -0.0040628230535258653 0.0037186190907568684 0 -0.0040628230535258653 0.0037186190907568684 0 -0.0043257206025364269 0.0025190039989733005 0 -0.0040197669399206527 0.0021418592673099093 0 -0.003909020128994278 0.0021545530932710021 0 -0.0039071865603218904 0.0023190391597796667 0 -0.0037592846998981719 0.0021240815362520461 0 -0.003909020128994278 0.0021545530932710021 0 -0.0039071865603218904 0.0023190391597796667 0 -0.0039429821753315334 0.0020384432117663211 0 -0.0040197669399206527 0.0021418592673099093 0 -0.003909020128994278 0.0021545530932710021 0 -0.0028009987569494361 0.010768688025063705 0 -0.0039528115806371101 0.010768201167601551 0 -0.0031678385290180413 0.010057296721565072 0 -0.0033849980926541931 0.011570999686529949 0 -0.0028009987569494361 0.010768688025063705 0 -0.0039528115806371101 0.010768201167601551 0 -0.0039528115806371101 0.010768201167601551 0 -0.0031678385290180413 0.010057296721565072 0 -0.0038293644224264918 0.0094516924393504374 0 -0.0028893191637667966 0.0093702425643266835 0 -0.0031678385290180413 0.010057296721565072 0 -0.0038293644224264918 0.0094516924393504374 0 -0.0033847718059650048 0.0044330364741479939 0 -0.0034743933912927722 0.0043085810610955007 0 -0.0033310915893048809 0.0035902055377895459 0 -0.0040278897483525143 0.0021646213477179922 0 -0.0039071865603218904 0.0023190391597796667 0 -0.0038593156731455839 0.0026431252469350315 0 -0.0034743933912927722 0.0043085810610955007 0 -0.0036471587544402123 0.0036477817645265433 0 -0.0033310915893048809 0.0035902055377895459 0 -0.0034850406234524104 0.006949698728666541 0 -0.0036590769272709157 0.0066443779001481929 0 -0.0040628230535258653 0.0037186190907568684 0 -0.0037273786430885867 0.0030604751528349053 0 -0.0033310915893048809 0.0035902055377895459 0 -0.0035149777655602826 0.0033471748192521978 0 -0.0033934389773018943 0.0030737158706700216 0 -0.0036471587544402123 0.0036477817645265433 0 -0.0035149777655602826 0.0033471748192521978 0 -0.0036370967540972823 0.0031316183788044753 0 -0.0036471587544402123 0.0036477817645265433 0 -0.0033310915893048809 0.0035902055377895459 0 -0.0035149777655602826 0.0033471748192521978 0 -0.0030586352301157651 0.0087841376227963432 0 -0.0028893191637667966 0.0093702425643266835 0 -0.0038293644224264918 0.0094516924393504374 0 -0.0036590769272709157 0.0066443779001481929 0 -0.003198771171313875 0.005728657590732592 0 -0.0030586352301157651 0.0087841376227963432 0 -0.0038293644224264918 0.0094516924393504374 0 -0.003701621960622509 0.0081170343750544896 0 -0.0035786233364605885 0.0031213710223258282 0 -0.0033934389773018943 0.0030737158706700216 0 -0.0035835325485047385 0.0031315075992450112 0 -0.0035149777655602826 0.0033471748192521978 0 -0.0033934389773018943 0.0030737158706700216 0 -0.0035664638731479226 0.0032127701714936242 0 -0.0035149777655602826 0.0033471748192521978 0 -0.0035664638731479226 0.0032127701714936242 0 -0.0036370967540972823 0.0031316183788044753 0 -0.0035664638731479226 0.0032127701714936242 0 -0.0035835325485047385 0.0031315075992450112 0 -0.0036370967540972823 0.0031316183788044753 0 -0.0033934389773018943 0.0030737158706700216 0 -0.0035664638731479226 0.0032127701714936242 0 -0.0035835325485047385 0.0031315075992450112 0 -0.0033537821312380422 0.0032907247366457727 0 -0.0036222809037360286 0.0031060337137347651 0 -0.0035835325485047385 0.0031315075992450112 0 -0.0036370967540972823 0.0031316183788044753 0 -0.0035586774111846962 0.0031465803868642875 0 -0.0034724276017443806 0.0032179492359370983 0 -0.0035835325485047385 0.0031315075992450112 0 -0.0035586774111846962 0.0031465803868642875 0 -0.0036370967540972823 0.0031316183788044753 0 -0.0035586774111846962 0.0031465803868642875 0 -0.0034498089409146673 0.0030308124810376961 0 -0.0036370967540972823 0.0031316183788044753 0 -0.0034498089409146673 0.0030308124810376961 0 -0.003493366981388401 0.0027802984067480984 0 -0.0034724276017443806 0.0032179492359370983 0 -0.0035586774111846962 0.0031465803868642875 0 -0.0034498089409146673 0.0030308124810376961 0 -0.0034724276017443806 0.0032179492359370983 0 -0.0032011515982570938 0.0029301500533562164 0 -0.0034498089409146673 0.0030308124810376961 0 -0.0034724276017443806 0.0032179492359370983 0 -0.0031230827608596662 0.0033008839866173374 0 -0.0032011515982570938 0.0029301500533562164 0 -0.0032011515982570938 0.0029301500533562164 0 -0.0034498089409146673 0.0030308124810376961 0 -0.003493366981388401 0.0027802984067480984 0 -0.0032011515982570938 0.0029301500533562164 0 -0.003271776646699046 0.0024344571502353169 0 -0.003493366981388401 0.0027802984067480984 0 -0.003504150312686599 5.188040841394299e-05 0 -0.0036377533646923125 -0.00036245972910667714 0 -0.0038593156731455839 0.0026431252469350315 0 -0.0036370967540972823 0.0031316183788044753 0 -0.003493366981388401 0.0027802984067480984 0 -0.0037273786430885867 0.0030604751528349053 0 -0.003659208054430992 0.0031750137247532587 0 -7.9733251755639434e-06 0.024973505013122177 0 -3.7278705375199874e-09 0.024999961177256697 0 4.1832229022109455e-09 0.024999991613051626 0 -7.9733251755639434e-06 0.024973505013122177 0 -7.5102821445371404e-06 0.024992248490117139 0 4.1832229022109455e-09 0.024999991613051626 0 -7.9733251755639434e-06 0.024973505013122177 0 -3.7278705375199874e-09 0.024999961177256697 0 -7.0928324292645325e-06 0.024968224666907561 0 -7.9733251755639434e-06 0.024973505013122177 0 -2.6382116158112709e-05 0.024927794704404739 0 -7.0928324292645325e-06 0.024968224666907561 0 -7.9733251755639434e-06 0.024973505013122177 0 -3.3344490540351731e-05 0.024948113449606766 0 -2.6382116158112709e-05 0.024927794704404739 0 -7.1085478084092241e-05 0.024867772185141995 0 -3.3344490540351731e-05 0.024948113449606766 0 -2.6382116158112709e-05 0.024927794704404739 0 -6.681281472362248e-05 0.024875455896173088 0 -1.9496938616619988e-06 0.024882627893878538 0 -7.6937304822534007e-05 0.024965893501771981 0 -3.3344490540351731e-05 0.024948113449606766 0 -2.1550656488195557e-05 0.024996669852130601 0 -7.1085478084092241e-05 0.024867772185141995 0 -7.6937304822534007e-05 0.024965893501771981 0 -3.3344490540351731e-05 0.024948113449606766 0 -7.9733251755639434e-06 0.024973505013122177 0 -3.3344490540351731e-05 0.024948113449606766 0 -2.1550656488195557e-05 0.024996669852130601 0 -7.6937304822534007e-05 0.024965893501771981 0 -2.1550656488195557e-05 0.024996669852130601 0 -7.3244188473747018e-05 0.025006535035945895 0 -2.1550656488195557e-05 0.024996669852130601 0 -7.3244188473747018e-05 0.025006535035945895 0 -4.285008594289331e-05 0.025016075923055686 0 -7.3244188473747018e-05 0.025006535035945895 0 -4.285008594289331e-05 0.025016075923055686 0 -9.167303140826248e-05 0.025036270537102202 0 -2.1550656488195557e-05 0.024996669852130601 0 -4.285008594289331e-05 0.025016075923055686 0 -1.8417798466266572e-05 0.025015192124969884 0 -2.1550656488195557e-05 0.024996669852130601 0 -5.9735075927435798e-06 0.025001032957185833 0 -1.8417798466266572e-05 0.025015192124969884 0 -2.1550656488195557e-05 0.024996669852130601 0 -5.9735075927435798e-06 0.025001032957185833 0 -7.5102821445371404e-06 0.024992248490117139 0 -7.9733251755639434e-06 0.024973505013122177 0 -2.1550656488195557e-05 0.024996669852130601 0 -7.5102821445371404e-06 0.024992248490117139 0 -5.9735075927435798e-06 0.025001032957185833 0 -7.5102821445371404e-06 0.024992248490117139 0 4.1832229022109455e-09 0.024999991613051626 0 -5.9735075927435798e-06 0.025001032957185833 0 4.1832229022109455e-09 0.024999991613051626 0 -5.9131157800695193e-09 0.02500000479788481 0 -5.9735075927435798e-06 0.025001032957185833 0 -5.9131157800695193e-09 0.02500000479788481 0 -5.9917198399050948e-06 0.025007622907807371 0 -5.9131157800695193e-09 0.02500000479788481 0 -5.9917198399050948e-06 0.025007622907807371 0 1.4843949101130595e-09 0.025000026889722891 0 -5.9735075927435798e-06 0.025001032957185833 0 -5.9917198399050948e-06 0.025007622907807371 0 -1.8417798466266572e-05 0.025015192124969884 0 -5.9917198399050948e-06 0.025007622907807371 0 -1.2548486267640987e-05 0.025014540015099097 0 -1.8417798466266572e-05 0.025015192124969884 0 -5.9917198399050948e-06 0.025007622907807371 0 -1.2548486267640987e-05 0.025014540015099097 0 -5.0029063691427171e-06 0.025007787660216999 0 -1.2548486267640987e-05 0.025014540015099097 0 -5.0029063691427171e-06 0.025007787660216999 0 -6.8352979547522174e-06 0.025010365167966342 0 -5.0029063691427171e-06 0.025007787660216999 0 -3.5648894362116686e-06 0.025007501536635605 0 -6.8352979547522174e-06 0.025010365167966342 0 -1.2548486267640987e-05 0.025014540015099097 0 -6.8352979547522174e-06 0.025010365167966342 0 -1.5273197830562005e-05 0.025014911427484649 0 -5.9917198399050948e-06 0.025007622907807371 0 -5.0029063691427171e-06 0.025007787660216999 0 1.4843949101130595e-09 0.025000026889722891 0 -5.0029063691427171e-06 0.025007787660216999 0 1.4843949101130595e-09 0.025000026889722891 0 -2.8320226306635786e-06 0.025003078241597171 0 1.4843949101130595e-09 0.025000026889722891 0 -2.8320226306635786e-06 0.025003078241597171 0 -2.8030654400989444e-08 0.024999960002842343 0 -2.8320226306635786e-06 0.025003078241597171 0 -2.8030654400989444e-08 0.024999960002842343 0 -2.5718007193689399e-06 0.024996427531356329 0 -2.3090990308143689e-06 0.025003838989333897 0 -2.8320226306635786e-06 0.025003078241597171 0 -2.5718007193689399e-06 0.024996427531356329 0 -2.3090990308143689e-06 0.025003838989333897 0 -2.8320226306635786e-06 0.025003078241597171 0 -3.5648894362116686e-06 0.025007501536635605 0 -5.0029063691427171e-06 0.025007787660216999 0 -2.8320226306635786e-06 0.025003078241597171 0 -3.5648894362116686e-06 0.025007501536635605 0 -3.5648894362116686e-06 0.025007501536635605 0 -6.8352979547522174e-06 0.025010365167966342 0 -1.3501981795162603e-07 0.025008591893640856 0 -2.3090990308143689e-06 0.025003838989333897 0 -3.5648894362116686e-06 0.025007501536635605 0 -1.3501981795162603e-07 0.025008591893640856 0 -9.7033340828610032e-07 0.024849748462551516 0 2.3331976528594127e-05 0.024873263189952696 0 -6.8352979547522174e-06 0.025010365167966342 0 -2.4203667815673887e-06 0.025009481058735062 0 -1.5273197830562005e-05 0.025014911427484649 0 -6.8352979547522174e-06 0.025010365167966342 0 -2.4203667815673887e-06 0.025009481058735062 0 -1.3501981795162603e-07 0.025008591893640856 0 -9.7033340828610032e-07 0.024849748462551516 0 -4.8911526060640646e-06 0.024858271942759518 0 -2.3090990308143689e-06 0.025003838989333897 0 -1.3501981795162603e-07 0.025008591893640856 0 -2.5718007193689399e-06 0.024996427531356329 0 2.1191734552042285e-06 0.025009406027109389 0 -1.3501981795162603e-07 0.025008591893640856 0 -2.5718007193689399e-06 0.024996427531356329 0 -1.4205593313405773e-05 0.024920241611098778 0 -1.1237665807801339e-05 0.024903932942233 0 -4.9583299558962591e-06 0.024973455905524428 0 -1.4205593313405773e-05 0.024920241611098778 0 -1.1237665807801339e-05 0.024903932942233 0 5.3221753398560339e-05 0.024863631774081549 0 -3.7326277236972638e-05 0.024852457068560596 0 -1.1237665807801339e-05 0.024903932942233 0 5.3221753398560339e-05 0.024863631774081549 0 -1.4639139886669217e-05 0.024912752122420279 0 -3.7326277236972638e-05 0.024852457068560596 0 -1.1237665807801339e-05 0.024903932942233 0 -1.4639139886669217e-05 0.024912752122420279 0 -1.1237665807801339e-05 0.024903932942233 0 -4.9583299558962591e-06 0.024973455905524428 0 -9.7033340828610032e-07 0.024849748462551516 0 1.0646758533558251e-06 0.025010291553102318 0 2.1191734552042285e-06 0.025009406027109389 0 -4.9583299558962591e-06 0.024973455905524428 0 -2.5718007193689399e-06 0.024996427531356329 0 -4.9583299558962591e-06 0.024973455905524428 0 -2.8030654400989444e-08 0.024999960002842343 0 -2.5718007193689399e-06 0.024996427531356329 0 0.00019321876758284474 0.0246672381299015 0 0.00018178688281163781 0.024877611431748537 0 0.00030951439129033541 0.02468636894367577 0 -1.4205593313405773e-05 0.024920241611098778 0 0.00018178688281163781 0.024877611431748537 0 5.3221753398560339e-05 0.024863631774081549 0 0.00019321876758284474 0.0246672381299015 0 0.00018178688281163781 0.024877611431748537 0 5.3221753398560339e-05 0.024863631774081549 0 -5.5251981298681449e-05 0.024609048979560802 0 0.00020255494106279228 0.024550191111462595 0 5.1573387177487217e-05 0.02471614813712324 0 -9.7033340828610032e-07 0.024849748462551516 0 0.00018471475472380547 0.024699561260655735 0 0.00020255494106279228 0.024550191111462595 0 0.00017487635447064462 0.024698773357129607 0 5.1573387177487217e-05 0.02471614813712324 0 0.00020255494106279228 0.024550191111462595 0 0.00028815721001880209 0.024704160105273723 0 0.00039932592184081301 0.024634577740555722 0 0.00020255494106279228 0.024550191111462595 0 0.00017487635447064462 0.024698773357129607 0 0.00028815721001880209 0.024704160105273723 0 0.00028815721001880209 0.024704160105273723 0 0.00015772816519643855 0.024824999228108789 0 0.0004371291847812467 0.024801558665024395 0 -7.9962243529713544e-05 0.024915259461178788 0 -2.7171168398245128e-05 0.024758480483876168 0 0.00017487635447064462 0.024698773357129607 0 0.00028815721001880209 0.024704160105273723 0 0.00015772816519643855 0.024824999228108789 0 -7.9962243529713544e-05 0.024915259461178788 0 2.3331976528594127e-05 0.024873263189952696 0 0.00017487635447064462 0.024698773357129607 0 0.00015772816519643855 0.024824999228108789 0 5.1573387177487217e-05 0.02471614813712324 0 -1.8722962510745041e-05 0.025022628968024714 0 -1.5273197830562005e-05 0.025014911427484649 0 -2.1691104590117064e-05 0.025023176704017467 0 -7.9962243529713544e-05 0.024915259461178788 0 -2.9964409341868588e-05 0.024966866709849399 0 -1.2548486267640987e-05 0.025014540015099097 0 -1.5273197830562005e-05 0.025014911427484649 0 -2.1691104590117064e-05 0.025023176704017467 0 -1.2548486267640987e-05 0.025014540015099097 0 -2.1691104590117064e-05 0.025023176704017467 0 -1.8417798466266572e-05 0.025015192124969884 0 -3.6838762188036205e-05 0.025033590713390376 0 -2.1691104590117064e-05 0.025023176704017467 0 -3.93599861283266e-05 0.025025077263653696 0 -2.1691104590117064e-05 0.025023176704017467 0 -3.93599861283266e-05 0.025025077263653696 0 -1.8417798466266572e-05 0.025015192124969884 0 -4.285008594289331e-05 0.025016075923055686 0 -3.93599861283266e-05 0.025025077263653696 0 -1.8417798466266572e-05 0.025015192124969884 0 -4.285008594289331e-05 0.025016075923055686 0 -3.93599861283266e-05 0.025025077263653696 0 -9.167303140826248e-05 0.025036270537102202 0 -3.6838762188036205e-05 0.025033590713390376 0 -3.93599861283266e-05 0.025025077263653696 0 -9.167303140826248e-05 0.025036270537102202 0 -7.9962243529713544e-05 0.024915259461178788 0 -0.00029952681242660287 0.0248901683121865 0 -0.00040689333515712029 0.02479614938032014 0 -0.00046696297840618758 0.02479400365769201 0 -0.00045193639467491428 0.024759514574918883 0 -0.00049069899316619753 0.024764550567113863 0 -0.00046696297840618758 0.02479400365769201 0 -0.00045193639467491428 0.024759514574918883 0 -0.00049069899316619753 0.024764550567113863 0 -0.00046696297840618758 0.02479400365769201 0 -0.00050783435087833179 0.024780073481558341 0 0.0004371291847812467 0.024801558665024395 0 0.0005999961816858853 0.024623207422192105 0 0.00071113041434955925 0.024769681497934185 0 -2.7171168398245128e-05 0.024758480483876168 0 0.0001216751976861784 0.024947102357380808 0 0.00028815721001880209 0.024704160105273723 0 0.0004371291847812467 0.024801558665024395 0 0.00039932592184081301 0.024634577740555722 0 0.00020255494106279228 0.024550191111462595 0 0.00039932592184081301 0.024634577740555722 0 0.00046770903935323759 0.024492985286260146 0 0.0004371291847812467 0.024801558665024395 0 0.00039932592184081301 0.024634577740555722 0 0.0005999961816858853 0.024623207422192105 0 0.00039932592184081301 0.024634577740555722 0 0.00046770903935323759 0.024492985286260146 0 0.0005999961816858853 0.024623207422192105 0 0.00057428913505744837 0.024507111781490405 0 0.00047316265843203996 0.02470639190099385 0 0.00073518794502063336 0.024452988877270897 0 0.00018471475472380547 0.024699561260655735 0 0.00046607522975962158 0.02459794725772179 0 0.00018178688281163781 0.024877611431748537 0 0.00047316265843203996 0.02470639190099385 0 0.00030951439129033541 0.02468636894367577 0 0.00084049050164568067 0.024349047211758974 0 0.00073518794502063336 0.024452988877270897 0 0.0008003248260446842 0.024578322822792407 0 0.00084049050164568067 0.024349047211758974 0 0.0008003248260446842 0.024578322822792407 0 0.00095829470870093447 0.024512535636255998 0 0.00073518794502063336 0.024452988877270897 0 0.0005999961816858853 0.024623207422192105 0 0.0008003248260446842 0.024578322822792407 0 0.00046770903935323759 0.024492985286260146 0 0.00073518794502063336 0.024452988877270897 0 0.0005999961816858853 0.024623207422192105 0 0.00046607522975962158 0.02459794725772179 0 0.0007141850536271909 0.024472441238149109 0 0.0005999961816858853 0.024623207422192105 0 0.0008003248260446842 0.024578322822792407 0 0.00071113041434955925 0.024769681497934185 0 0.0008003248260446842 0.024578322822792407 0 0.00071113041434955925 0.024769681497934185 0 0.00097514476049184577 0.024735344981099097 0 0.0001216751976861784 0.024947102357380808 0 0.00011400240716556058 0.023556691215473782 0 -0.00050783435087833179 0.024780073481558341 0 -0.0005251380152833079 0.024761402021240705 0 -0.00052854505255002548 0.024762175658392203 0 -0.00049069899316619753 0.024764550567113863 0 -0.00050783435087833179 0.024780073481558341 0 -0.00051928595380470858 0.024756045190111861 0 -0.00050783435087833179 0.024780073481558341 0 -0.0005251380152833079 0.024761402021240705 0 -0.00051928595380470858 0.024756045190111861 0 -0.00053520729742842575 0.024747629743375951 0 -0.0004937756100017041 0.024742392437774294 0 -0.00052465209621527719 0.024739866910456952 0 -0.00051928595380470858 0.024756045190111861 0 -0.00053520729742842575 0.024747629743375951 0 -0.0004937756100017041 0.024742392437774294 0 -0.00051928595380470858 0.024756045190111861 0 -0.00053520729742842575 0.024747629743375951 0 -0.00054051998846680531 0.024748490612860597 0 -0.00049069899316619753 0.024764550567113863 0 -0.00051928595380470858 0.024756045190111861 0 -0.0004937756100017041 0.024742392437774294 0 -0.00049069899316619753 0.024764550567113863 0 -0.00045193639467491428 0.024759514574918883 0 -0.0004937756100017041 0.024742392437774294 0 -7.3244188473747018e-05 0.025006535035945895 0 -9.167303140826248e-05 0.025036270537102202 0 -0.00019007745774513962 0.025015278801852805 0 -0.00029952681242660287 0.0248901683121865 0 -0.00033824030446242951 0.024880044477646811 0 -7.6937304822534007e-05 0.024965893501771981 0 -7.3244188473747018e-05 0.025006535035945895 0 -0.00019007745774513962 0.025015278801852805 0 -0.00019007745774513962 0.025015278801852805 0 -0.00019052075296545893 0.024872440748846376 0 -0.00034286502631932658 0.024930744858967912 0 -7.6937304822534007e-05 0.024965893501771981 0 -0.00019007745774513962 0.025015278801852805 0 -0.00019052075296545893 0.024872440748846376 0 -7.1085478084092241e-05 0.024867772185141995 0 -0.00019052075296545893 0.024872440748846376 0 -0.00012307687748284895 0.024760219279481445 0 -7.1085478084092241e-05 0.024867772185141995 0 -7.6937304822534007e-05 0.024965893501771981 0 -0.00019052075296545893 0.024872440748846376 0 -0.00019052075296545893 0.024872440748846376 0 -0.00035271637380583637 0.024769975214173331 0 -0.00034286502631932658 0.024930744858967912 0 -0.00035271637380583637 0.024769975214173331 0 -0.00034286502631932658 0.024930744858967912 0 -0.00053814594505949504 0.024742849852165235 0 -0.00052465209621527719 0.024739866910456952 0 -0.00054849783953637684 0.024748582630524901 0 -0.00053814594505949504 0.024742849852165235 0 -0.00043563345314252849 0.024831021031424688 0 -0.00053138523459248302 0.024748175890807283 0 -0.00053520729742842575 0.024747629743375951 0 -0.00052465209621527719 0.024739866910456952 0 -0.00054849783953637684 0.024748582630524901 0 -0.00033824030446242951 0.024880044477646811 0 -0.00043563345314252849 0.024831021031424688 0 -0.00079197894808884955 0.022367844254063445 0 -0.00068878664740261723 0.022320732295578478 0 -0.00067114340596335323 0.022313485775951786 0 -0.00071418126020363689 0.023554660022613517 0 -0.00060670509883599063 0.023535771508008833 0 -0.00054849783953637684 0.024748582630524901 0 -0.00062837497229849759 0.024737813587188729 0 -0.00055812137675155277 0.024746019788839661 0 -0.00053520729742842575 0.024747629743375951 0 -0.00054849783953637684 0.024748582630524901 0 -0.00055812137675155277 0.024746019788839661 0 -0.00054849783953637684 0.024748582630524901 0 -0.00053814594505949504 0.024742849852165235 0 -0.00062837497229849759 0.024737813587188729 0 -0.00079197894808884955 0.022367844254063445 0 -0.00068878664740261723 0.022320732295578478 0 -0.00070774122477524747 0.022401867907750918 0 -0.00063700677880103448 0.022348567794137852 0 -0.00068878664740261723 0.022320732295578478 0 -0.00070774122477524747 0.022401867907750918 0 -0.00063700677880103448 0.022348567794137852 0 -0.0006355624320875798 0.02230202308023577 0 -0.00059019240505014752 0.022347334055653353 0 -0.00063700677880103448 0.022348567794137852 0 -0.00059019240505014752 0.022347334055653353 0 -0.00056787963297804127 0.022412838462997502 0 -0.00063700677880103448 0.022348567794137852 0 -0.0006355624320875798 0.02230202308023577 0 -0.00068878664740261723 0.022320732295578478 0 -0.00068878664740261723 0.022320732295578478 0 -0.00064628810270002 0.022300968295025769 0 -0.00067114340596335323 0.022313485775951786 0 -0.0006355624320875798 0.02230202308023577 0 -0.00068878664740261723 0.022320732295578478 0 -0.00064628810270002 0.022300968295025769 0 -0.00064628810270002 0.022300968295025769 0 -0.00062253563704011642 0.022308080404128957 0 -0.00062428809160407662 0.022274344468338734 0 -0.0006355624320875798 0.02230202308023577 0 -0.00064628810270002 0.022300968295025769 0 -0.00062428809160407662 0.022274344468338734 0 -0.00064628810270002 0.022300968295025769 0 -0.00062253563704011642 0.022308080404128957 0 -0.00060899648101120124 0.022349383989181893 0 -0.00064628810270002 0.022300968295025769 0 -0.00060129816643557116 0.02234613384992519 0 -0.00060899648101120124 0.022349383989181893 0 -0.00060670509883599063 0.023535771508008833 0 -0.00065948207886815558 0.0235446162245058 0 -0.00064628810270002 0.022300968295025769 0 -0.00067114340596335323 0.022313485775951786 0 -0.00060129816643557116 0.02234613384992519 0 -0.00053520729742842575 0.024747629743375951 0 -0.00055812137675155277 0.024746019788839661 0 -0.00054051998846680531 0.024748490612860597 0 -0.0005251380152833079 0.024761402021240705 0 -0.00051928595380470858 0.024756045190111861 0 -0.00054051998846680531 0.024748490612860597 0 -0.0005251380152833079 0.024761402021240705 0 -0.00054051998846680531 0.024748490612860597 0 -0.00052854505255002548 0.024762175658392203 0 -0.00065948207886815558 0.0235446162245058 0 0.00011400240716556058 0.023556691215473782 0 -0.00060129816643557116 0.02234613384992519 0 -0.00057429384619827857 0.022388410667380391 0 -0.00060899648101120124 0.022349383989181893 0 0.00011400240716556058 0.023556691215473782 0 -0.00036892336293371157 0.022258293799972118 0 -0.00057429384619827857 0.022388410667380391 0 -0.00059665892409727236 0.022387252883969956 0 -0.00060899648101120124 0.022349383989181893 0 0.00011400240716556058 0.023556691215473782 0 0.000947361886653605 0.023832037192564055 0 0.0008003248260446842 0.024578322822792407 0 0.00097514476049184577 0.024735344981099097 0 0.00095829470870093447 0.024512535636255998 0 0.00064354046959530834 0.022371599575508407 0 0.00012264344841639757 0.023013002172820252 0 0.00081830792033827835 0.023105716803522545 0 0.00064354046959530834 0.022371599575508407 0 0.00012264344841639757 0.023013002172820252 0 -0.00011894872647522237 0.022471303353226953 0 0.00018109810042222808 0.023410632909879804 0 0.00012153692147835174 0.02310302238396833 0 0.00012264344841639757 0.023013002172820252 0 0.00081830792033827835 0.023105716803522545 0 0.00055014060538883115 0.023616964249646603 0 -8.3559366527994266e-06 0.023174860633287421 0 0.00013400887993168131 0.023173595857984678 0 0.00012264344841639757 0.023013002172820252 0 0.00021447172414155457 0.023794796776367776 0 0.00012264344841639757 0.023013002172820252 0 0.00055014060538883115 0.023616964249646603 0 0.00086206901563993653 0.024165081227090508 0 0.000947361886653605 0.023832037192564055 0 0.000862620424296853 0.024204290887390411 0 0.00081830792033827835 0.023105716803522545 0 0.00055014060538883115 0.023616964249646603 0 0.00059917788932228227 0.021222973556589139 0 0.00024041810244981084 0.020832890355637547 0 -0.00021245745306686426 0.023237092712663977 0 -0.00019425724878366363 0.022949486093626365 0 -0.00055978164212504235 0.022900974897403635 0 -0.00019425724878366363 0.022949486093626365 0 -0.0003745600461345567 0.022696704724363404 0 -0.00055978164212504235 0.022900974897403635 0 -8.3559366527994266e-06 0.023174860633287421 0 -0.00021245745306686426 0.023237092712663977 0 -0.00019425724878366363 0.022949486093626365 0 -8.3559366527994266e-06 0.023174860633287421 0 0.00012264344841639757 0.023013002172820252 0 -0.00019425724878366363 0.022949486093626365 0 0.00012264344841639757 0.023013002172820252 0 -0.00019425724878366363 0.022949486093626365 0 -0.00011894872647522237 0.022471303353226953 0 -0.00019425724878366363 0.022949486093626365 0 -0.0003745600461345567 0.022696704724363404 0 -0.00011894872647522237 0.022471303353226953 0 -0.0003745600461345567 0.022696704724363404 0 -0.00011894872647522237 0.022471303353226953 0 -0.00061285917000616843 0.022466471645959784 0 -0.00059665892409727236 0.022387252883969956 0 -0.00060748757259016287 0.022369259988072095 0 -0.00061285917000616843 0.022466471645959784 0 -0.00036892336293371157 0.022258293799972118 0 -0.00060669988298221701 0.022511272836075808 0 -0.00059665892409727236 0.022387252883969956 0 -0.00060899648101120124 0.022349383989181893 0 -0.00060748757259016287 0.022369259988072095 0 -0.00062253563704011642 0.022308080404128957 0 -0.00060899648101120124 0.022349383989181893 0 -0.00060748757259016287 0.022369259988072095 0 -0.00062253563704011642 0.022308080404128957 0 -0.00060748757259016287 0.022369259988072095 0 -0.00066064343934031829 0.022330889639475958 0 -0.00060748757259016287 0.022369259988072095 0 -0.00066064343934031829 0.022330889639475958 0 -0.00061285917000616843 0.022466471645959784 0 -0.00066064343934031829 0.022330889639475958 0 -0.00072550881533352404 0.022392778815069739 0 -0.00074534484697885218 0.022296668021066605 0 -0.00072550881533352404 0.022392778815069739 0 -0.00076145144050169275 0.022529905155263801 0 -0.00079520772531497857 0.022372942475058662 0 -0.00066064343934031829 0.022330889639475958 0 -0.00072550881533352404 0.022392778815069739 0 -0.00061285917000616843 0.022466471645959784 0 -0.00072550881533352404 0.022392778815069739 0 -0.00061285917000616843 0.022466471645959784 0 -0.00076145144050169275 0.022529905155263801 0 -8.7048270664462601e-05 0.020549883662468998 0 0.00024041810244981084 0.020832890355637547 0 -0.00061285917000616843 0.022466471645959784 0 -0.00076145144050169275 0.022529905155263801 0 -0.00055978164212504235 0.022900974897403635 0 -0.0003745600461345567 0.022696704724363404 0 -0.00061285917000616843 0.022466471645959784 0 -0.00055978164212504235 0.022900974897403635 0 0.0006629002570149343 0.018402258394828817 0 0.0006396736281783288 0.018784820804711461 0 0.00034449573500717763 0.018629172309246735 0 0.00036403332872067003 0.018996897433904758 0 0.00083938996787148322 0.019115725740832767 0 0.0006396736281783288 0.018784820804711461 0 0.0006629002570149343 0.018402258394828817 0 0.0006396736281783288 0.018784820804711461 0 0.0010289103563398936 0.018794898147225469 0 0.00083938996787148322 0.019115725740832767 0 0.0006396736281783288 0.018784820804711461 0 0.0010289103563398936 0.018794898147225469 0 0.00036403332872067003 0.018996897433904758 0 0.00013209841673418471 0.018736544402177518 0 -2.8336341204492463e-05 0.018923975507198557 0 0.00013209841673418471 0.018736544402177518 0 -0.00010380878089063576 0.018607508699836271 0 8.326938515190007e-05 0.01852542274713867 0 0.00013209841673418471 0.018736544402177518 0 -0.00010380878089063576 0.018607508699836271 0 -2.8336341204492463e-05 0.018923975507198557 0 0.00036403332872067003 0.018996897433904758 0 0.00013209841673418471 0.018736544402177518 0 0.00034449573500717763 0.018629172309246735 0 0.00036403332872067003 0.018996897433904758 0 0.0006396736281783288 0.018784820804711461 0 0.00034449573500717763 0.018629172309246735 0 0.00013209841673418471 0.018736544402177518 0 0.00034449573500717763 0.018629172309246735 0 8.326938515190007e-05 0.01852542274713867 0 0.00034449573500717763 0.018629172309246735 0 0.000222920993941942 0.018376045989428363 0 8.326938515190007e-05 0.01852542274713867 0 0.0006629002570149343 0.018402258394828817 0 0.00034449573500717763 0.018629172309246735 0 0.000222920993941942 0.018376045989428363 0 0.0006629002570149343 0.018402258394828817 0 0.000222920993941942 0.018376045989428363 0 0.00026827180104597098 0.018151939668678091 0 0.000222920993941942 0.018376045989428363 0 -7.1163925870875881e-05 0.018360739564562828 0 6.6181559560352991e-05 0.018201577168769387 0 0.000222920993941942 0.018376045989428363 0 8.326938515190007e-05 0.01852542274713867 0 -7.1163925870875881e-05 0.018360739564562828 0 -0.00010380878089063576 0.018607508699836271 0 8.326938515190007e-05 0.01852542274713867 0 -7.1163925870875881e-05 0.018360739564562828 0 -0.00015626409004809301 0.018187072802667039 0 -7.1163925870875881e-05 0.018360739564562828 0 6.6181559560352991e-05 0.018201577168769387 0 6.6181559560352991e-05 0.018201577168769387 0 8.0108102451216171e-05 0.017975254078405674 0 0.00026827180104597098 0.018151939668678091 0 -0.00019591647890848093 0.017945280991640781 0 -0.00015626409004809301 0.018187072802667039 0 8.0108102451216171e-05 0.017975254078405674 0 -0.00015626409004809301 0.018187072802667039 0 6.6181559560352991e-05 0.018201577168769387 0 8.0108102451216171e-05 0.017975254078405674 0 0.00012356793661309141 0.016989124498597474 0 -5.9270135828552514e-06 0.017797207147961996 0 -8.7048270664462601e-05 0.020549883662468998 0 0.00022791016303932862 0.019568940722320034 0 0.0006629002570149343 0.018402258394828817 0 0.00026827180104597098 0.018151939668678091 0 0.00029731665758882427 0.018025443520155008 0 0.000222920993941942 0.018376045989428363 0 6.6181559560352991e-05 0.018201577168769387 0 0.00026827180104597098 0.018151939668678091 0 8.0108102451216171e-05 0.017975254078405674 0 0.00026827180104597098 0.018151939668678091 0 0.00030303906791572942 0.018012949094957986 0 0.00039163783201956416 0.018435986384447382 0 0.00022791016303932862 0.019568940722320034 0 0.00034141943405508504 0.018446582370739623 0 0.00036286960417701694 0.018333536879395668 0 0.00025937280611916709 0.018348387555749905 0 0.00022791016303932862 0.019568940722320034 0 -0.00028498041734302158 0.020722219891609835 0 -0.00072550881533352404 0.022392778815069739 0 -0.00079520772531497857 0.022372942475058662 0 -0.00074534484697885218 0.022296668021066605 0 0.00012356793661309141 0.016989124498597474 0 0.00041193391611064575 0.016119890038230892 0 -0.0002051482480638728 0.017936185087888534 0 8.0108102451216171e-05 0.017975254078405674 0 1.3335242578742802e-05 0.017714024432114554 0 8.0108102451216171e-05 0.017975254078405674 0 0.00030303906791572942 0.018012949094957986 0 1.3335242578742802e-05 0.017714024432114554 0 0.00022791016303932862 0.019568940722320034 0 0.00041193391611064575 0.016119890038230892 0 0.00078278222083686452 0.013390983124407148 0 0.00093056968129334803 0.013526730193915853 0 0.00074864572515288743 0.013382086726500294 0 0.00044419677699035481 0.014091306507251267 0 0.00093056968129334803 0.013526730193915853 0 0.00074864572515288743 0.013382086726500294 0 0.0001215834376768756 0.015398224706132918 0 0.00041193391611064575 0.016119890038230892 0 0.00077473700226815263 0.013355215011199293 0 0.00074864572515288743 0.013382086726500294 0 0.00072276192012812597 0.013366519873174332 0 0.00072276192012812597 0.013366519873174332 0 0.00062489458264237312 0.013439727493424269 0 0.00064901530536123258 0.013363216578178882 0 0.00078278222083686452 0.013390983124407148 0 0.00074864572515288743 0.013382086726500294 0 0.00072276192012812597 0.013366519873174332 0 0.00041193391611064575 0.016119890038230892 0 0.00080931289618210668 0.015612565174050522 0 0.00078278222083686452 0.013390983124407148 0 0.00072276192012812597 0.013366519873174332 0 0.00064901530536123258 0.013363216578178882 0 0.00078278222083686452 0.013390983124407148 0 0.00076195490654041209 0.013373952055927115 0 0.00064901530536123258 0.013363216578178882 0 0.00077473700226815263 0.013355215011199293 0 0.00072276192012812597 0.013366519873174332 0 0.00071739507576504009 0.013375206393564832 0 0.00072276192012812597 0.013366519873174332 0 0.00062489458264237312 0.013439727493424269 0 0.00071739507576504009 0.013375206393564832 0 0.00071992700439458548 0.013430192643090861 0 0.00062489458264237312 0.013439727493424269 0 0.00071739507576504009 0.013375206393564832 0 0.00062489458264237312 0.013439727493424269 0 0.00053199597987844971 0.013416187935883266 0 0.00064901530536123258 0.013363216578178882 0 0.00062489458264237312 0.013439727493424269 0 0.00053199597987844971 0.013416187935883266 0 0.00040557498910271761 0.013614460470259744 0 -0.00074534484697885218 0.022296668021066605 0 -0.00068694004764637668 0.022235075045502661 0 -0.00068333082392872657 0.022282765424874444 0 7.7252770720683236e-05 0.018781058987583626 0 0.00080931289618210668 0.015612565174050522 0 0.00036286960417701694 0.018333536879395668 0 0.0003739356076520928 0.018235826724608377 0 0.00032441896594930691 0.018289311128773886 0 0.00036286960417701694 0.018333536879395668 0 0.00025937280611916709 0.018348387555749905 0 0.00032441896594930691 0.018289311128773886 0 -0.00028498041734302158 0.020722219891609835 0 7.7252770720683236e-05 0.018781058987583626 0 -0.00068694004764637668 0.022235075045502661 0 -0.00064089644620856626 0.022272782222077975 0 -0.00068333082392872657 0.022282765424874444 0 -0.00066064343934031829 0.022330889639475958 0 -0.00074534484697885218 0.022296668021066605 0 -0.00068333082392872657 0.022282765424874444 0 -0.00066064343934031829 0.022330889639475958 0 -0.00064089644620856626 0.022272782222077975 0 -0.00068333082392872657 0.022282765424874444 0 -0.00062253563704011642 0.022308080404128957 0 -0.00064089644620856626 0.022272782222077975 0 -0.00062428809160407662 0.022274344468338734 0 -0.00062253563704011642 0.022308080404128957 0 -0.00066064343934031829 0.022330889639475958 0 -0.00064089644620856626 0.022272782222077975 0 -0.00064089644620856626 0.022272782222077975 0 -0.00062428809160407662 0.022274344468338734 0 -0.00060625911598038138 0.02221974719600054 0 -0.00062428809160407662 0.022274344468338734 0 -0.00060625911598038138 0.02221974719600054 0 -0.00060457063167771265 0.022279007563713087 0 -0.00068694004764637668 0.022235075045502661 0 -0.00064089644620856626 0.022272782222077975 0 -0.00060625911598038138 0.02221974719600054 0 -0.0005565076466568545 0.022144801384602779 0 -0.00060625911598038138 0.02221974719600054 0 -0.00054773690769917966 0.022287973290492844 0 7.7252770720683236e-05 0.018781058987583626 0 -0.0013427998084367232 0.022625333952615189 0 7.7252770720683236e-05 0.018781058987583626 0 -6.0546955465016675e-05 0.017704731761569399 0 -0.00060625911598038138 0.02221974719600054 0 -0.00054773690769917966 0.022287973290492844 0 -0.00060457063167771265 0.022279007563713087 0 -0.0006355624320875798 0.02230202308023577 0 -0.00062428809160407662 0.022274344468338734 0 -0.00060457063167771265 0.022279007563713087 0 -0.0006355624320875798 0.02230202308023577 0 -0.00060457063167771265 0.022279007563713087 0 -0.00059019240505014752 0.022347334055653353 0 -0.00054773690769917966 0.022287973290492844 0 -0.00060457063167771265 0.022279007563713087 0 -0.00059019240505014752 0.022347334055653353 0 -6.0546955465016675e-05 0.017704731761569399 0 -0.00016019847726811222 0.018339380954502327 0 -0.00054773690769917966 0.022287973290492844 0 -0.00059019240505014752 0.022347334055653353 0 -0.00055220190193011511 0.022442364616581941 0 0.00040557498910271761 0.013614460470259744 0 0.0006462190644967884 0.013578514649201187 0 0.00058043827936698534 0.013791146946429468 0 0.0007484662672343303 0.013691388887953161 0 0.0006462190644967884 0.013578514649201187 0 0.00058043827936698534 0.013791146946429468 0 0.00071992700439458548 0.013430192643090861 0 0.00062489458264237312 0.013439727493424269 0 0.0006462190644967884 0.013578514649201187 0 0.00062489458264237312 0.013439727493424269 0 0.00040557498910271761 0.013614460470259744 0 0.0006462190644967884 0.013578514649201187 0 0.00058043827936698534 0.013791146946429468 0 0.00029454871693911994 0.013880351709881016 0 0.00056047054374250705 0.014064973426858002 0 0.00073868798819451734 0.013828279672987307 0 0.00069013585943027156 0.013928656564904813 0 0.00058043827936698534 0.013791146946429468 0 0.00069013585943027156 0.013928656564904813 0 0.00058043827936698534 0.013791146946429468 0 0.00056047054374250705 0.014064973426858002 0 0.00040557498910271761 0.013614460470259744 0 0.00058043827936698534 0.013791146946429468 0 0.00029454871693911994 0.013880351709881016 0 0.00029454871693911994 0.013880351709881016 0 0.00019586752312139257 0.014181705889504896 0 0.00056047054374250705 0.014064973426858002 0 -0.00059019240505014752 0.022347334055653353 0 -0.00055220190193011511 0.022442364616581941 0 -0.00056787963297804127 0.022412838462997502 0 -0.00055220190193011511 0.022442364616581941 0 -0.00046348908252231042 0.022444249174489121 0 -0.00056787963297804127 0.022412838462997502 0 -0.00055220190193011511 0.022442364616581941 0 -0.00046348908252231042 0.022444249174489121 0 -0.00058973042171899101 0.022051685224376033 0 -0.00016019847726811222 0.018339380954502327 0 -0.00011324405289932659 0.017515957908791496 0 0.00019586752312139257 0.014181705889504896 0 0.00039621828741440293 0.014343469311589162 0 0.00056047054374250705 0.014064973426858002 0 -0.00046348908252231042 0.022444249174489121 0 -0.00037433792752946261 0.023018431419011148 0 -0.00058262523831141382 0.022737752682212089 0 -0.00046348908252231042 0.022444249174489121 0 -0.00058973042171899101 0.022051685224376033 0 -0.00039852366377391346 0.021938466530896723 0 -0.00044885150058082419 0.022268355168661279 0 -0.00040428894567858756 0.022903639799605021 0 -0.00058973042171899101 0.022051685224376033 0 -0.00039852366377391346 0.021938466530896723 0 -0.00046267971591103837 0.021174752515580684 0 -0.00011324405289932659 0.017515957908791496 0 -0.00037760447932288713 0.020389576538393222 0 -0.00037433792752946261 0.023018431419011148 0 -0.00048667385016394556 0.023459436966305945 0 -0.00067685085072702767 0.02331854530819618 0 -0.00040428894567858756 0.022903639799605021 0 -0.00037760447932288713 0.020389576538393222 0 0.00019586752312139257 0.014181705889504896 0 0.00039621828741440293 0.014343469311589162 0 0.00010628621071906599 0.01450661584994207 0 0.00039621828741440293 0.014343469311589162 0 0.00056047054374250705 0.014064973426858002 0 0.00064411092053821373 0.014308983642440589 0 0.00080190162576101911 0.013940088691813941 0 0.00069013585943027156 0.013928656564904813 0 0.00056047054374250705 0.014064973426858002 0 0.0009463210844763393 0.012562448725756082 0 0.00057850628321882741 0.014469310997003925 0 0.00083087609143761196 0.014158970339189524 0 0.00056047054374250705 0.014064973426858002 0 0.00064411092053821373 0.014308983642440589 0 0.00064411092053821373 0.014308983642440589 0 0.00066867618471961297 0.014489103024035195 0 0.00051938745213635088 0.01450471594386343 0 0.00039621828741440293 0.014343469311589162 0 0.00064411092053821373 0.014308983642440589 0 0.00051938745213635088 0.01450471594386343 0 0.00039621828741440293 0.014343469311589162 0 0.00051938745213635088 0.01450471594386343 0 0.0003071170873701559 0.014568429774975609 0 0.00051938745213635088 0.01450471594386343 0 0.00042270480652485557 0.01473299688225168 0 0.0003071170873701559 0.014568429774975609 0 0.00051938745213635088 0.01450471594386343 0 0.00065110644039657385 0.014630752187603117 0 0.00042270480652485557 0.01473299688225168 0 0.00073527890155359015 0.01459115756205338 0 0.00066867618471961297 0.014489103024035195 0 0.00065110644039657385 0.014630752187603117 0 0.00066867618471961297 0.014489103024035195 0 0.00051938745213635088 0.01450471594386343 0 0.00065110644039657385 0.014630752187603117 0 0.00073527890155359015 0.01459115756205338 0 0.0007741024091653748 0.014618418936377614 0 0.00065110644039657385 0.014630752187603117 0 0.0007741024091653748 0.014618418936377614 0 0.00065110644039657385 0.014630752187603117 0 0.00078539558487852282 0.014667374569941929 0 0.00065110644039657385 0.014630752187603117 0 0.00078539558487852282 0.014667374569941929 0 0.00061287242901217982 0.014766383421827367 0 0.00065110644039657385 0.014630752187603117 0 0.00061287242901217982 0.014766383421827367 0 0.00042270480652485557 0.01473299688225168 0 0.00061287242901217982 0.014766383421827367 0 0.00042270480652485557 0.01473299688225168 0 0.00051998442519120638 0.015014170300519065 0 0.00042270480652485557 0.01473299688225168 0 0.00051998442519120638 0.015014170300519065 0 0.00027710665784275726 0.014969248265536033 0 0.00051998442519120638 0.015014170300519065 0 0.00027710665784275726 0.014969248265536033 0 0.0002914685329937157 0.015318542105352927 0 0.00051998442519120638 0.015014170300519065 0 0.00069827225300535375 0.01492538576427415 0 0.00071854186833751523 0.015107324315699245 0 0.00094366206930602994 0.0149212190382186 0 0.00069827225300535375 0.01492538576427415 0 0.00071854186833751523 0.015107324315699245 0 0.00078539558487852282 0.014667374569941929 0 0.00061287242901217982 0.014766383421827367 0 0.00069827225300535375 0.01492538576427415 0 0.00094366206930602994 0.0149212190382186 0 0.00078539558487852282 0.014667374569941929 0 0.00069827225300535375 0.01492538576427415 0 0.00061287242901217982 0.014766383421827367 0 0.00051998442519120638 0.015014170300519065 0 0.00069827225300535375 0.01492538576427415 0 -0.00083559439816078727 0.023540975268469697 0 -0.00098708836752049636 0.023499834397975324 0 -0.00069215872402811547 0.023502706827965583 0 3.0005440447753937e-05 0.015113697550761723 0 0.00027710665784275726 0.014969248265536033 0 8.145484396994815e-05 0.014768252612958725 0 -0.00047258507969175496 0.019361123585871144 0 -0.00032307325482060207 0.018759443436373348 0 -0.00083559439816078727 0.023540975268469697 0 -0.00098708836752049636 0.023499834397975324 0 -0.00081740629210994237 0.023422543875882957 0 3.0005440447753937e-05 0.015113697550761723 0 0.00027710665784275726 0.014969248265536033 0 0.0002914685329937157 0.015318542105352927 0 0.00042270480652485557 0.01473299688225168 0 0.00027710665784275726 0.014969248265536033 0 8.145484396994815e-05 0.014768252612958725 0 -0.00083559439816078727 0.023540975268469697 0 -0.00069215872402811547 0.023502706827965583 0 -0.00078454118408849785 0.023573479905897126 0 8.145484396994815e-05 0.014768252612958725 0 0.0003071170873701559 0.014568429774975609 0 0.00010628621071906599 0.01450661584994207 0 -0.00092572876946004073 0.024755689449148573 0 -0.00037760447932288713 0.020389576538393222 0 -0.00069215872402811547 0.023502706827965583 0 -0.00078454118408849785 0.023573479905897126 0 -0.00073800528656395466 0.022907170293715889 0 -0.00032307325482060207 0.018759443436373348 0 -0.00037760447932288713 0.020389576538393222 0 0.00042270480652485557 0.01473299688225168 0 8.145484396994815e-05 0.014768252612958725 0 0.0003071170873701559 0.014568429774975609 0 0.00039621828741440293 0.014343469311589162 0 0.0003071170873701559 0.014568429774975609 0 0.00010628621071906599 0.01450661584994207 0 -0.00048667385016394556 0.023459436966305945 0 -0.00071952383705373602 0.023596079137675575 0 -0.00067685085072702767 0.02331854530819618 0 -0.0008819069101338704 0.023697590618837566 0 -0.00091821577142150871 0.023663143741918365 0 -0.00086828553754735385 0.023698677603067743 0 -0.00071952383705373602 0.023596079137675575 0 -0.00067685085072702767 0.02331854530819618 0 -0.00086828553754735385 0.023698677603067743 0 -0.0010135137009842198 0.02308485309255396 0 -0.00067685085072702767 0.02331854530819618 0 -0.00086828553754735385 0.023698677603067743 0 -0.00071952383705373602 0.023596079137675575 0 -0.00077291409895913123 0.023627742399667442 0 -0.00078454118408849785 0.023573479905897126 0 -0.00048667385016394556 0.023459436966305945 0 -0.00071952383705373602 0.023596079137675575 0 -0.00071952383705373602 0.023596079137675575 0 -0.00076079300946556034 0.023591914878997991 0 -0.00077291409895913123 0.023627742399667442 0 -0.00078454118408849785 0.023573479905897126 0 -0.00071952383705373602 0.023596079137675575 0 -0.00076079300946556034 0.023591914878997991 0 -0.00078454118408849785 0.023573479905897126 0 -0.00078936408208453576 0.023561471649081948 0 -0.00076079300946556034 0.023591914878997991 0 -0.00083559439816078727 0.023540975268469697 0 -0.00078454118408849785 0.023573479905897126 0 -0.00078936408208453576 0.023561471649081948 0 -0.00078936408208453576 0.023561471649081948 0 -0.00076379968193866082 0.023578385904159754 0 -0.00078204636780258895 0.023499250518186188 0 -0.00078936408208453576 0.023561471649081948 0 -0.00076379968193866082 0.023578385904159754 0 -0.00076079300946556034 0.023591914878997991 0 -0.00076379968193866082 0.023578385904159754 0 -0.00076079300946556034 0.023591914878997991 0 -0.00077291409895913123 0.023627742399667442 0 -0.00077291409895913123 0.023627742399667442 0 -0.00073776301827171032 0.023551293683320842 0 -0.00069825793396174397 0.023561702248101699 0 -0.00076379968193866082 0.023578385904159754 0 -0.00077291409895913123 0.023627742399667442 0 -0.00073776301827171032 0.023551293683320842 0 -0.00076379968193866082 0.023578385904159754 0 -0.00073776301827171032 0.023551293683320842 0 -0.00074038921189413574 0.023494133385061722 0 -0.00073776301827171032 0.023551293683320842 0 -0.0007080363021435258 0.023491492004398887 0 -0.00074038921189413574 0.023494133385061722 0 -0.00073776301827171032 0.023551293683320842 0 -0.0007080363021435258 0.023491492004398887 0 -0.00069825793396174397 0.023561702248101699 0 -0.0007080363021435258 0.023491492004398887 0 -0.00074038921189413574 0.023494133385061722 0 -0.00071074494785793518 0.023415794717636568 0 -0.00074038921189413574 0.023494133385061722 0 -0.00075241901102579133 0.023424846932735721 0 -0.00071074494785793518 0.023415794717636568 0 -0.00074038921189413574 0.023494133385061722 0 -0.00075241901102579133 0.023424846932735721 0 -0.00078204636780258895 0.023499250518186188 0 -0.00075241901102579133 0.023424846932735721 0 -0.00081740629210994237 0.023422543875882957 0 -0.00078204636780258895 0.023499250518186188 0 -0.00083559439816078727 0.023540975268469697 0 -0.00078936408208453576 0.023561471649081948 0 -0.00078204636780258895 0.023499250518186188 0 -0.00083559439816078727 0.023540975268469697 0 -0.00081740629210994237 0.023422543875882957 0 -0.00078204636780258895 0.023499250518186188 0 -0.00076379968193866082 0.023578385904159754 0 -0.00074038921189413574 0.023494133385061722 0 -0.00078204636780258895 0.023499250518186188 0 -0.00063574443837306402 0.023540615420299407 0 -0.00057652939010242063 0.023657483275162511 0 -0.00052411072191171416 0.023514328453197429 0 -0.00063574443837306402 0.023540615420299407 0 -0.00069825793396174397 0.023561702248101699 0 -0.00069758930349363439 0.023651113682486909 0 -0.00063574443837306402 0.023540615420299407 0 -0.00067987883473672503 0.023494189960378262 0 -0.00069825793396174397 0.023561702248101699 0 -0.00063574443837306402 0.023540615420299407 0 -0.00067987883473672503 0.023494189960378262 0 -0.00066119136151793743 0.023463287304223431 0 -0.0007080363021435258 0.023491492004398887 0 -0.00067987883473672503 0.023494189960378262 0 -0.00069825793396174397 0.023561702248101699 0 -0.0007080363021435258 0.023491492004398887 0 -0.00067987883473672503 0.023494189960378262 0 -0.00069146091339855164 0.023454036547543491 0 -0.00077291409895913123 0.023627742399667442 0 -0.00069825793396174397 0.023561702248101699 0 -0.00069758930349363439 0.023651113682486909 0 -0.00069758930349363439 0.023651113682486909 0 -0.00057652939010242063 0.023657483275162511 0 -0.00060769701951779475 0.023797038934227303 0 -0.00063574443837306402 0.023540615420299407 0 -0.00069758930349363439 0.023651113682486909 0 -0.00057652939010242063 0.023657483275162511 0 -0.00086828553754735385 0.023698677603067743 0 -0.00069758930349363439 0.023651113682486909 0 -0.00060769701951779475 0.023797038934227303 0 -0.00086828553754735385 0.023698677603067743 0 -0.00077291409895913123 0.023627742399667442 0 -0.00069758930349363439 0.023651113682486909 0 -0.00086828553754735385 0.023698677603067743 0 -0.00060769701951779475 0.023797038934227303 0 -0.00064757052414017265 0.023988946000529761 0 -0.00086828553754735385 0.023698677603067743 0 -0.00064757052414017265 0.023988946000529761 0 -0.00085181018495903923 0.024243396302606694 0 -0.00060769701951779475 0.023797038934227303 0 -0.00064757052414017265 0.023988946000529761 0 -0.00042441078271593488 0.024098990597522699 0 -0.00062655292443303289 0.024447012479433483 0 -0.00085181018495903923 0.024243396302606694 0 -0.00050777374377066788 0.024274799937042218 0 -0.00064757052414017265 0.023988946000529761 0 -0.00085181018495903923 0.024243396302606694 0 -0.00050777374377066788 0.024274799937042218 0 -0.00062655292443303289 0.024447012479433483 0 -0.00044489906501336173 0.024584108285806365 0 -0.00050777374377066788 0.024274799937042218 0 -0.00062655292443303289 0.024447012479433483 0 -0.00085181018495903923 0.024243396302606694 0 -0.00075177031234406697 0.024557491423051126 0 -0.00091821577142150871 0.023663143741918365 0 -0.00084165028577622635 0.023581261995614229 0 -0.0010135137009842198 0.02308485309255396 0 -0.00067685085072702767 0.02331854530819618 0 -0.00062553464208537865 0.02300758870455372 0 -0.00037433792752946261 0.023018431419011148 0 -0.00067685085072702767 0.02331854530819618 0 -0.00062553464208537865 0.02300758870455372 0 -0.00037433792752946261 0.023018431419011148 0 -0.00062553464208537865 0.02300758870455372 0 -0.00058262523831141382 0.022737752682212089 0 -0.00062553464208537865 0.02300758870455372 0 -0.00058262523831141382 0.022737752682212089 0 -0.00074740502810643464 0.022777095101284416 0 -0.0010135137009842198 0.02308485309255396 0 -0.00062553464208537865 0.02300758870455372 0 -0.00074740502810643464 0.022777095101284416 0 -0.0010135137009842198 0.02308485309255396 0 -0.00074740502810643464 0.022777095101284416 0 -0.00093645917794430843 0.022593014741334964 0 -0.00074740502810643464 0.022777095101284416 0 -0.00063353518145486585 0.022516520217007924 0 -0.00093645917794430843 0.022593014741334964 0 -0.00046348908252231042 0.022444249174489121 0 -0.00058262523831141382 0.022737752682212089 0 -0.00063353518145486585 0.022516520217007924 0 -0.00058262523831141382 0.022737752682212089 0 -0.00074740502810643464 0.022777095101284416 0 -0.00063353518145486585 0.022516520217007924 0 -0.00046348908252231042 0.022444249174489121 0 -0.00063353518145486585 0.022516520217007924 0 -0.00056787963297804127 0.022412838462997502 0 -0.00063700677880103448 0.022348567794137852 0 -0.00056787963297804127 0.022412838462997502 0 -0.00070774122477524747 0.022401867907750918 0 -0.00063353518145486585 0.022516520217007924 0 -0.00056787963297804127 0.022412838462997502 0 -0.00070774122477524747 0.022401867907750918 0 -0.00063353518145486585 0.022516520217007924 0 -0.00070774122477524747 0.022401867907750918 0 -0.00093645917794430843 0.022593014741334964 0 -0.00079197894808884955 0.022367844254063445 0 -0.00070774122477524747 0.022401867907750918 0 -0.00093645917794430843 0.022593014741334964 0 -0.00062837497229849759 0.024737813587188729 0 -0.00059062227600394611 0.024619801488597992 0 -0.00075177031234406697 0.024557491423051126 0 -0.00071418126020363689 0.023554660022613517 0 -0.00084165028577622635 0.023581261995614229 0 -0.00053814594505949504 0.024742849852165235 0 -0.00062837497229849759 0.024737813587188729 0 -0.00059062227600394611 0.024619801488597992 0 -0.00053814594505949504 0.024742849852165235 0 -0.00059062227600394611 0.024619801488597992 0 -0.00044489906501336173 0.024584108285806365 0 -0.00062655292443303289 0.024447012479433483 0 -0.00059062227600394611 0.024619801488597992 0 -0.00075177031234406697 0.024557491423051126 0 -0.00062655292443303289 0.024447012479433483 0 -0.00059062227600394611 0.024619801488597992 0 -0.00044489906501336173 0.024584108285806365 0 -0.00044489906501336173 0.024584108285806365 0 -0.00024655972679185726 0.024694442150749878 0 -0.00026962857111615724 0.024436672267335632 0 -0.00035271637380583637 0.024769975214173331 0 -0.00053814594505949504 0.024742849852165235 0 -0.00044489906501336173 0.024584108285806365 0 -0.00035271637380583637 0.024769975214173331 0 -0.00044489906501336173 0.024584108285806365 0 -0.00024655972679185726 0.024694442150749878 0 -0.00019052075296545893 0.024872440748846376 0 -0.00035271637380583637 0.024769975214173331 0 -0.00024655972679185726 0.024694442150749878 0 -0.00019052075296545893 0.024872440748846376 0 -0.00024655972679185726 0.024694442150749878 0 -0.00012307687748284895 0.024760219279481445 0 -7.1085478084092241e-05 0.024867772185141995 0 -0.00012307687748284895 0.024760219279481445 0 -2.9894182048239011e-05 0.024752321344842426 0 -0.00012307687748284895 0.024760219279481445 0 -7.8058739249543894e-05 0.024591789277077451 0 -2.9894182048239011e-05 0.024752321344842426 0 -0.00024655972679185726 0.024694442150749878 0 -0.00012307687748284895 0.024760219279481445 0 -7.8058739249543894e-05 0.024591789277077451 0 -0.00024655972679185726 0.024694442150749878 0 -7.8058739249543894e-05 0.024591789277077451 0 -0.00026962857111615724 0.024436672267335632 0 -4.9514163208122792e-05 0.02464508041595426 0 -0.00010894657590389065 0.024400626564865673 0 -0.0002863207220294768 0.024465302679804585 0 -6.5695117060381991e-05 0.024622450154565389 0 -0.00027898339381107485 0.024447309105905451 0 -0.00010894657590389065 0.024400626564865673 0 -0.0002863207220294768 0.024465302679804585 0 -0.00024563208166071668 0.024130300573244272 0 -4.9514163208122792e-05 0.02464508041595426 0 -0.00010894657590389065 0.024400626564865673 0 7.2506388465156879e-05 0.02449822650497048 0 -0.00027898339381107485 0.024447309105905451 0 -0.00049867448735851287 0.024295149650873114 0 -0.00044489906501336173 0.024584108285806365 0 -0.00026962857111615724 0.024436672267335632 0 -0.00050777374377066788 0.024274799937042218 0 -0.0002863207220294768 0.024465302679804585 0 -0.00050777374377066788 0.024274799937042218 0 -0.00042441078271593488 0.024098990597522699 0 -0.0002863207220294768 0.024465302679804585 0 -0.00042441078271593488 0.024098990597522699 0 -0.00024563208166071668 0.024130300573244272 0 -0.00064757052414017265 0.023988946000529761 0 -0.00050777374377066788 0.024274799937042218 0 -0.00042441078271593488 0.024098990597522699 0 -0.00042441078271593488 0.024098990597522699 0 -0.00041129619489986357 0.023842162600872914 0 -0.00024563208166071668 0.024130300573244272 0 -0.00041129619489986357 0.023842162600872914 0 -0.00023870607523896693 0.023890775669283913 0 -0.00024563208166071668 0.024130300573244272 0 -0.00060769701951779475 0.023797038934227303 0 -0.00042441078271593488 0.024098990597522699 0 -0.00041129619489986357 0.023842162600872914 0 -0.00057652939010242063 0.023657483275162511 0 -0.00041129619489986357 0.023842162600872914 0 -0.00046143994165750215 0.023627034163026209 0 -0.00057652939010242063 0.023657483275162511 0 -0.00060769701951779475 0.023797038934227303 0 -0.00041129619489986357 0.023842162600872914 0 -0.00041129619489986357 0.023842162600872914 0 -0.00029988659709748682 0.023719360487778715 0 -0.00023870607523896693 0.023890775669283913 0 -0.00041129619489986357 0.023842162600872914 0 -0.00029988659709748682 0.023719360487778715 0 -0.00046143994165750215 0.023627034163026209 0 -0.00030678028321931713 0.023676360101097717 0 -0.00044892886821309953 0.023639932931831312 0 -0.00029369170199706763 0.023658754749229492 0 -0.00033401751076829288 0.023522043134201778 0 -0.00046143994165750215 0.023627034163026209 0 -0.00033401751076829288 0.023522043134201778 0 -0.00046143994165750215 0.023627034163026209 0 -0.00052411072191171416 0.023514328453197429 0 -0.00057652939010242063 0.023657483275162511 0 -0.00046143994165750215 0.023627034163026209 0 -0.00052411072191171416 0.023514328453197429 0 -8.0022972168133729e-05 0.024103584016727145 0 -7.8470336641491605e-05 0.024149952226561088 0 -7.6308149647220731e-06 0.024163766961699876 0 -5.269306967815715e-05 0.024325822103009272 0 -3.0931235506752296e-05 0.024417928164636914 0 -1.4359933846119817e-05 0.024770592568506278 0 1.0190025709147218e-05 0.024712399311219893 0 -3.8873767479996621e-05 0.024545796120956011 0 -2.9295534016754133e-05 0.024547473242613905 0 -2.4461705196540126e-06 0.024575218474139921 0 -5.269306967815715e-05 0.024325822103009272 0 -0.00014025519393355112 0.024249928099253738 0 -1.4359933846119817e-05 0.024770592568506278 0 -1.9110601709845457e-05 0.024787181060140349 0 -0.00027572181625994314 0.023794328716259736 0 -0.0001273398839163427 0.023964059490183685 0 -0.00017499490572495249 0.024070933013036658 0 -8.0022972168133729e-05 0.024103584016727145 0 -0.00015066039061744092 0.024045541065739178 0 -0.00017499490572495249 0.024070933013036658 0 -8.0022972168133729e-05 0.024103584016727145 0 -7.8470336641491605e-05 0.024149952226561088 0 -0.00029369170199706763 0.023658754749229492 0 -0.00033401751076829288 0.023522043134201778 0 -0.00011744114089221658 0.023689999978800939 0 -3.8873767479996621e-05 0.024545796120956011 0 -2.9295534016754133e-05 0.024547473242613905 0 -7.0521459582445828e-05 0.024517963871295578 0 -0.00023870607523896693 0.023890775669283913 0 -0.0001242245181333164 0.023789699855892112 0 -0.00011378146820277627 0.023990467170392035 0 -0.00030678028321931713 0.023676360101097717 0 -0.0001273398839163427 0.023964059490183685 0 -0.00029988659709748682 0.023719360487778715 0 -0.00023870607523896693 0.023890775669283913 0 -0.0001242245181333164 0.023789699855892112 0 -0.00019915513990504543 0.024225439763077349 0 -2.0805180082276085e-05 0.024367085393931884 0 -4.4421965100492883e-05 0.024253131462412311 0 -0.0001273398839163427 0.023964059490183685 0 3.3185680692082908e-05 0.024161966303281712 0 -0.0001273398839163427 0.023964059490183685 0 -3.0931235506752296e-05 0.024417928164636914 0 -0.0001242245181333164 0.023789699855892112 0 -0.00011378146820277627 0.023990467170392035 0 7.3775305850824028e-05 0.023988196957300256 0 -0.00011378146820277627 0.023990467170392035 0 -0.00024563208166071668 0.024130300573244272 0 -7.1539744632084543e-05 0.024207819344396465 0 -0.00011378146820277627 0.023990467170392035 0 -7.1539744632084543e-05 0.024207819344396465 0 7.3775305850824028e-05 0.023988196957300256 0 -0.00023870607523896693 0.023890775669283913 0 -0.00011378146820277627 0.023990467170392035 0 -0.00024563208166071668 0.024130300573244272 0 -0.00010894657590389065 0.024400626564865673 0 -7.1539744632084543e-05 0.024207819344396465 0 7.2506388465156879e-05 0.02449822650497048 0 -0.00010894657590389065 0.024400626564865673 0 -0.00024563208166071668 0.024130300573244272 0 -7.1539744632084543e-05 0.024207819344396465 0 -7.1539744632084543e-05 0.024207819344396465 0 7.2506388465156879e-05 0.02449822650497048 0 7.3775305850824028e-05 0.023988196957300256 0 7.2506388465156879e-05 0.02449822650497048 0 0.00035148755021276152 0.02425622618271055 0 7.3775305850824028e-05 0.023988196957300256 0 7.2506388465156879e-05 0.02449822650497048 0 7.2118922488558133e-05 0.024578745037155781 0 6.6070584411420159e-05 0.024677345520974635 0 0.00012783919226756413 0.024453062563928794 0 0.00012926961521582471 0.024569334583199671 0 -4.7972747890099075e-05 0.024961660476384536 0 -3.9188007713737491e-05 0.024953239853506295 0 -2.4882576530724623e-05 0.024968069566769852 0 6.2781964226478966e-06 0.024640974434988586 0 -2.3844279219632943e-05 0.024597166745447346 0 8.0117679585326332e-05 0.024676053256868006 0 6.5346100208100235e-05 0.024690118938107963 0 6.2781964226478966e-06 0.024640974434988586 0 8.0117679585326332e-05 0.024676053256868006 0 0.00015746710393148891 0.024508514325762794 0 0.00020758682485172141 0.024460623516169764 0 8.164733546737881e-05 0.024356801722536719 0 0.00012926961521582471 0.024569334583199671 0 3.1225005150785553e-05 0.024732634626912813 0 3.1225005150785553e-05 0.024732634626912813 0 4.0800596630279275e-05 0.024495441615490714 0 0.00012926961521582471 0.024569334583199671 0 3.3185680692082908e-05 0.024161966303281712 0 0.00015746710393148891 0.024508514325762794 0 8.164733546737881e-05 0.024356801722536719 0 -2.0805180082276085e-05 0.024367085393931884 0 -2.9295534016754133e-05 0.024547473242613905 0 -2.4461705196540126e-06 0.024575218474139921 0 1.1725338165463519e-05 0.024577804684565628 0 -3.0931235506752296e-05 0.024417928164636914 0 1.0190025709147218e-05 0.024712399311219893 0 6.2781964226478966e-06 0.024640974434988586 0 -5.2846348737824197e-05 0.024591831954780496 0 -2.3844279219632943e-05 0.024597166745447346 0 8.164733546737881e-05 0.024356801722536719 0 -2.0805180082276085e-05 0.024367085393931884 0 -4.4421965100492883e-05 0.024253131462412311 0 4.0800596630279275e-05 0.024495441615490714 0 -3.0931235506752296e-05 0.024417928164636914 0 4.331086587469892e-06 0.024988982469905611 0 4.4232830868690621e-06 0.024990703602353913 0 4.9094351720323779e-06 0.02498944592473927 0 1.0190025709147218e-05 0.024712399311219893 0 4.5248550166837055e-06 0.02491363259102105 0 1.0190025709147218e-05 0.024712399311219893 0 -4.5854056214835636e-06 0.024800719836777587 0 -4.813523946107768e-06 0.024827338734036631 0 -4.2727345101537939e-06 0.024828437857305735 0 -4.1426047708068193e-06 0.024829135533843114 0 4.9094351720323779e-06 0.02498944592473927 0 3.995333221629917e-06 0.024992344362454816 0 5.5014411667965523e-06 0.024990609670517801 0 4.4232830868690621e-06 0.024990703602353913 0 4.9094351720323779e-06 0.02498944592473927 0 3.995333221629917e-06 0.024992344362454816 0 3.0609019370293242e-06 0.024986693728564484 0 4.331086587469892e-06 0.024988982469905611 0 4.9094351720323779e-06 0.02498944592473927 0 3.0609019370293242e-06 0.024986693728564484 0 4.9094351720323779e-06 0.02498944592473927 0 4.5269992378616753e-06 0.024986266724790561 0 5.5381001042818549e-11 0.024999983423295229 0 1.1734417897137677e-06 0.024997183646662646 0 3.8954190390861215e-10 0.024999998003741149 0 1.1734417897137677e-06 0.024997183646662646 0 2.5064164377766073e-06 0.024994594780361173 0 1.8362337908656652e-06 0.024994390511489873 0 5.5381001042818549e-11 0.024999983423295229 0 1.1734417897137677e-06 0.024997183646662646 0 1.8362337908656652e-06 0.024994390511489873 0 1.1734417897137677e-06 0.024997183646662646 0 2.5064164377766073e-06 0.024994594780361173 0 2.3212487618251974e-06 0.024995419434596489 0 3.995333221629917e-06 0.024992344362454816 0 2.5064164377766073e-06 0.024994594780361173 0 2.3212487618251974e-06 0.024995419434596489 0 3.995333221629917e-06 0.024992344362454816 0 2.5064164377766073e-06 0.024994594780361173 0 2.9934119884296895e-06 0.02499281950680874 0 2.5064164377766073e-06 0.024994594780361173 0 2.9934119884296895e-06 0.02499281950680874 0 1.8362337908656652e-06 0.024994390511489873 0 2.9934119884296895e-06 0.02499281950680874 0 1.3219917329622918e-06 0.024991949547185619 0 1.8362337908656652e-06 0.024994390511489873 0 4.4232830868690621e-06 0.024990703602353913 0 2.9934119884296895e-06 0.02499281950680874 0 2.0589804191498108e-06 0.024991161235159043 0 4.5248550166837055e-06 0.02491363259102105 0 -1.304344363564483e-05 0.024933378967172182 0 4.4232830868690621e-06 0.024990703602353913 0 3.995333221629917e-06 0.024992344362454816 0 2.9934119884296895e-06 0.02499281950680874 0 -4.2727345101537939e-06 0.024828437857305735 0 -3.8639465375311499e-06 0.024829443179066765 0 -4.1426047708068193e-06 0.024829135533843114 0 2.9934119884296895e-06 0.02499281950680874 0 2.0589804191498108e-06 0.024991161235159043 0 1.3219917329622918e-06 0.024991949547185619 0 -1.5980496256894444e-05 0.024936480312542454 0 -8.4345762791106392e-06 0.024937481602484289 0 -1.5718555864136408e-05 0.024944475121774539 0 -1.304344363564483e-05 0.024933378967172182 0 -6.2949361606021536e-06 0.02496896091225274 0 -8.69881565278657e-08 0.024999887958733102 0 -8.9010541649144469e-08 0.024999876826930653 0 -1.1745328159421977e-10 0.024999999826303 0 1.2578557173769325e-11 0.024999999874708061 0 -8.9010541649144469e-08 0.024999876826930653 0 -1.1745328159421977e-10 0.024999999826303 0 -6.2949361606021536e-06 0.02496896091225274 0 -8.9893312154475094e-06 0.024978985284322099 0 -1.1505282724223823e-05 0.02495444016145687 0 -1.0605967178787438e-05 0.024954628738917448 0 -1.0845300541164667e-05 0.024953868842215583 0 -1.304344363564483e-05 0.024933378967172182 0 -8.9893312154475094e-06 0.024978985284322099 0 -8.9893312154475094e-06 0.024978985284322099 0 -1.7306734355937274e-06 0.024993891867429958 0 5.5381001042818549e-11 0.024999983423295229 0 1.3031347229510776e-06 0.024992633256231137 0 1.8362337908656652e-06 0.024994390511489873 0 -2.110653365216775e-09 0.025000001886959618 0 -8.9893312154475094e-06 0.024978985284322099 0 -6.2949361606021536e-06 0.02496896091225274 0 6.141048206869169e-09 0.024999988017003906 0 -8.1434324290978964e-11 0.02499999948551172 0 -1.3938995848537546e-11 0.024999999985883235 0 -1.2080003201971023e-08 0.024999968293224584 0 -1.0667255297827424e-07 0.024999814502257463 0 -8.1434324290978964e-11 0.02499999948551172 0 -1.2080003201971023e-08 0.024999968293224584 0 -8.4345762791106392e-06 0.024937481602484289 0 -1.4923133194935703e-05 0.024953040797787346 0 -4.187543899266352e-07 0.024968815057259078 0 -6.2949361606021536e-06 0.02496896091225274 0 -6.4616897517146748e-07 0.024984110428342535 0 -8.4345762791106392e-06 0.024937481602484289 0 -1.5718555864136408e-05 0.024944475121774539 0 -1.4923133194935703e-05 0.024953040797787346 0 -1.4923133194935703e-05 0.024953040797787346 0 -1.4911242077752809e-05 0.024964866578084818 0 -4.187543899266352e-07 0.024968815057259078 0 -1.5980496256894444e-05 0.024936480312542454 0 -2.3183337331206261e-05 0.02495082233424795 0 -1.5718555864136408e-05 0.024944475121774539 0 -1.304344363564483e-05 0.024933378967172182 0 -4.5854056214835636e-06 0.024800719836777587 0 -1.5980496256894444e-05 0.024936480312542454 0 -2.3183337331206261e-05 0.02495082233424795 0 -3.3067474987065725e-05 0.024952947121555574 0 -2.3183337331206261e-05 0.02495082233424795 0 -1.5718555864136408e-05 0.024944475121774539 0 -1.4923133194935703e-05 0.024953040797787346 0 -1.4923133194935703e-05 0.024953040797787346 0 -2.1081405424921598e-05 0.024958283435616516 0 -1.4911242077752809e-05 0.024964866578084818 0 -2.1081405424921598e-05 0.024958283435616516 0 -2.4882576530724623e-05 0.024968069566769852 0 -1.4911242077752809e-05 0.024964866578084818 0 -2.3183337331206261e-05 0.02495082233424795 0 -2.1081405424921598e-05 0.024958283435616516 0 -3.0318760770323769e-05 0.024954935227719986 0 -2.3183337331206261e-05 0.02495082233424795 0 -1.4923133194935703e-05 0.024953040797787346 0 -2.1081405424921598e-05 0.024958283435616516 0 -2.1081405424921598e-05 0.024958283435616516 0 -3.0318760770323769e-05 0.024954935227719986 0 -2.4882576530724623e-05 0.024968069566769852 0 -3.7551672165091863e-05 0.024956992169778845 0 -3.0318760770323769e-05 0.024954935227719986 0 -2.4882576530724623e-05 0.024968069566769852 0 3.1225005150785553e-05 0.024732634626912813 0 2.2091826733120055e-05 0.024927106186067801 0 -2.3183337331206261e-05 0.02495082233424795 0 -3.0318760770323769e-05 0.024954935227719986 0 -3.3067474987065725e-05 0.024952947121555574 0 -3.7551672165091863e-05 0.024956992169778845 0 -3.0318760770323769e-05 0.024954935227719986 0 -3.2944998572312175e-05 0.024952707677180472 0 3.1225005150785553e-05 0.024732634626912813 0 -4.5854056214835636e-06 0.024800719836777587 0 1.9539353979844293e-06 0.024815093796609081 0 -4.5854056214835636e-06 0.024800719836777587 0 0.00012926961521582471 0.024569334583199671 0 5.1230523602042452e-06 0.02487994778971166 0 -4.7972747890099075e-05 0.024961660476384536 0 -2.4882576530724623e-05 0.024968069566769852 0 -1.7764217131154505e-05 0.024989014356625278 0 -2.4882576530724623e-05 0.024968069566769852 0 -1.4911242077752809e-05 0.024964866578084818 0 -1.2562782705920182e-05 0.024976162515778215 0 -2.4882576530724623e-05 0.024968069566769852 0 -1.2562782705920182e-05 0.024976162515778215 0 -1.7764217131154505e-05 0.024989014356625278 0 -4.187543899266352e-07 0.024968815057259078 0 -7.3937096308965433e-09 0.024999944689139485 0 -6.7967147620569118e-06 0.024990002164247536 0 -6.4616897517146748e-07 0.024984110428342535 0 4.977019183697842e-10 0.024999994372439483 0 -1.3938995848537546e-11 0.024999999985883235 0 -1.2080003201971023e-08 0.024999968293224584 0 2.0121619884424889e-11 0.024999999952497697 0 -1.4911242077752809e-05 0.024964866578084818 0 -4.187543899266352e-07 0.024968815057259078 0 -1.2562782705920182e-05 0.024976162515778215 0 -1.2562782705920182e-05 0.024976162515778215 0 -6.7967147620569118e-06 0.024990002164247536 0 -1.7764217131154505e-05 0.024989014356625278 0 -4.187543899266352e-07 0.024968815057259078 0 -1.2562782705920182e-05 0.024976162515778215 0 -6.7967147620569118e-06 0.024990002164247536 0 -1.3352779932471999e-08 0.024999909153736805 0 5.1230523602042452e-06 0.02487994778971166 0 1.6985951454445824e-07 0.024999616186933141 0 5.7902081647750473e-05 0.024840861903374565 0 7.5407191924722024e-05 0.024735667591837786 0 -7.3937096308965433e-09 0.024999944689139485 0 -6.7967147620569118e-06 0.024990002164247536 0 9.4656002400915998e-09 0.025000046862684894 0 -6.7967147620569118e-06 0.024990002164247536 0 9.4656002400915998e-09 0.025000046862684894 0 -1.7764217131154505e-05 0.024989014356625278 0 1.6985951454445824e-07 0.024999616186933141 0 -1.399059406757056e-08 0.024999993284470907 0 5.7902081647750473e-05 0.024840861903374565 0 -1.399059406757056e-08 0.024999993284470907 0 5.7902081647750473e-05 0.024840861903374565 0 4.2498352107230727e-05 0.024896394143731855 0 5.7902081647750473e-05 0.024840861903374565 0 7.5407191924722024e-05 0.024735667591837786 0 6.6070584411420159e-05 0.024677345520974635 0 7.2118922488558133e-05 0.024578745037155781 0 7.5407191924722024e-05 0.024735667591837786 0 6.6070584411420159e-05 0.024677345520974635 0 -4.9514163208122792e-05 0.02464508041595426 0 7.2506388465156879e-05 0.02449822650497048 0 6.6070584411420159e-05 0.024677345520974635 0 -4.9514163208122792e-05 0.02464508041595426 0 6.6070584411420159e-05 0.024677345520974635 0 4.9688136193912752e-05 0.024775414805705422 0 -6.5695117060381991e-05 0.024622450154565389 0 4.6423705921369414e-05 0.024754391211104784 0 5.7902081647750473e-05 0.024840861903374565 0 6.6070584411420159e-05 0.024677345520974635 0 4.9688136193912752e-05 0.024775414805705422 0 4.9688136193912752e-05 0.024775414805705422 0 -2.9894182048239011e-05 0.024752321344842426 0 3.4595782680020584e-05 0.024834799342431761 0 -7.8058739249543894e-05 0.024591789277077451 0 4.9688136193912752e-05 0.024775414805705422 0 -2.9894182048239011e-05 0.024752321344842426 0 -7.1085478084092241e-05 0.024867772185141995 0 -2.9894182048239011e-05 0.024752321344842426 0 3.4595782680020584e-05 0.024834799342431761 0 4.9688136193912752e-05 0.024775414805705422 0 3.4595782680020584e-05 0.024834799342431761 0 5.3841840674046071e-05 0.024862794032219214 0 -1.9496938616619988e-06 0.024882627893878538 0 2.652262626019175e-05 0.024918940649349901 0 2.652262626019175e-05 0.024918940649349901 0 1.7311555240087664e-08 0.024999957849197466 0 -3.7278705375199874e-09 0.024999961177256697 0 -7.0928324292645325e-06 0.024968224666907561 0 -2.8994862105247921e-09 0.02499996994741437 0 5.3841840674046071e-05 0.024862794032219214 0 4.8796329622212984e-08 0.024999745377594237 0 4.2498352107230727e-05 0.024896394143731855 0 -1.399059406757056e-08 0.024999993284470907 0 4.8796329622212984e-08 0.024999745377594237 0 4.2498352107230727e-05 0.024896394143731855 0 5.7902081647750473e-05 0.024840861903374565 0 4.9688136193912752e-05 0.024775414805705422 0 4.2498352107230727e-05 0.024896394143731855 0 4.9688136193912752e-05 0.024775414805705422 0 5.3841840674046071e-05 0.024862794032219214 0 4.2498352107230727e-05 0.024896394143731855 0 0.00012096287650354846 0.024873146422859132 0 0.00015975226627951857 0.024819393310882787 0 0.0002061933965115762 0.024754625693944918 0 0.00012096287650354846 0.024873146422859132 0 8.6568192428316549e-08 0.024999786951845248 0 0.00015975226627951857 0.024819393310882787 0 8.6568192428316549e-08 0.024999786951845248 0 0.00015975226627951857 0.024819393310882787 0 1.7436618100625702e-07 0.024999686479787765 0 0.00015975226627951857 0.024819393310882787 0 0.00027143469407489698 0.024581526609052499 0 0.00019922431617964089 0.024764523319020664 0 0.00015975226627951857 0.024819393310882787 0 0.00027143469407489698 0.024581526609052499 0 0.0002061933965115762 0.024754625693944918 0 0.00027143469407489698 0.024581526609052499 0 0.00026151906706869667 0.024412779358862442 0 0.00029682104023989975 0.024340167023958297 0 0.00027143469407489698 0.024581526609052499 0 0.00024469806179354034 0.024628056006725855 0 0.00026151906706869667 0.024412779358862442 0 0.00027143469407489698 0.024581526609052499 0 0.00024469806179354034 0.024628056006725855 0 0.0002061933965115762 0.024754625693944918 0 0.0002061933965115762 0.024754625693944918 0 0.00020846204137866774 0.024767877829186095 0 0.00012756254776077297 0.02486998123349915 0 0.00024469806179354034 0.024628056006725855 0 0.00020846204137866774 0.024767877829186095 0 0.00021058432551788019 0.024685319795139129 0 0.00024469806179354034 0.024628056006725855 0 0.0002061933965115762 0.024754625693944918 0 0.00020846204137866774 0.024767877829186095 0 0.00020846204137866774 0.024767877829186095 0 0.00012756254776077297 0.02486998123349915 0 0.00012868887245749707 0.024823191850851929 0 0.00012096287650354846 0.024873146422859132 0 0.0002061933965115762 0.024754625693944918 0 0.00012756254776077297 0.02486998123349915 0 0.00012096287650354846 0.024873146422859132 0 0.00012756254776077297 0.02486998123349915 0 9.0009131333226012e-08 0.024999907102521795 0 0.00012096287650354846 0.024873146422859132 0 8.6568192428316549e-08 0.024999786951845248 0 9.0009131333226012e-08 0.024999907102521795 0 0.00012756254776077297 0.02486998123349915 0 9.0009131333226012e-08 0.024999907102521795 0 5.2857294549629134e-08 0.024999626095989033 0 0.00012756254776077297 0.02486998123349915 0 5.2857294549629134e-08 0.024999626095989033 0 0.00012868887245749707 0.024823191850851929 0 1.8293614306164135e-09 0.025000011482259908 0 5.0535355772634829e-06 0.024994816346193469 0 -5.5976877047873142e-10 0.024999978717648943 0 3.6097167931098551e-08 0.024999958846666778 0 7.33499319838733e-05 0.024912058056115766 0 5.0535355772634829e-06 0.024994816346193469 0 4.6626579984473026e-06 0.024990295419899222 0 5.9933699827237802e-06 0.024988813851414535 0 1.3640839978212453e-09 0.024999997786495008 0 3.3278026262315586e-06 0.024994599317894845 0 5.0535355772634829e-06 0.024994816346193469 0 -5.5976877047873142e-10 0.024999978717648943 0 4.6626579984473026e-06 0.024990295419899222 0 6.1880429292796889e-10 0.025000001467045726 0 1.83467794034762e-06 0.02499900036312859 0 3.8954190390861215e-10 0.024999998003741149 0 3.3278026262315586e-06 0.024994599317894845 0 5.1848782994411299e-06 0.024991309638435568 0 1.83467794034762e-06 0.02499900036312859 0 2.3212487618251974e-06 0.024995419434596489 0 5.5014411667965523e-06 0.024990609670517801 0 3.995333221629917e-06 0.024992344362454816 0 2.3212487618251974e-06 0.024995419434596489 0 5.5014411667965523e-06 0.024990609670517801 0 1.1734417897137677e-06 0.024997183646662646 0 2.3212487618251974e-06 0.024995419434596489 0 3.8954190390861215e-10 0.024999998003741149 0 1.83467794034762e-06 0.02499900036312859 0 2.3212487618251974e-06 0.024995419434596489 0 3.8954190390861215e-10 0.024999998003741149 0 4.9094351720323779e-06 0.02498944592473927 0 4.5269992378616753e-06 0.024986266724790561 0 5.5014411667965523e-06 0.024990609670517801 0 4.5269992378616753e-06 0.024986266724790561 0 5.5014411667965523e-06 0.024990609670517801 0 5.3230522273019278e-06 0.0249855611638258 0 4.6626579984473026e-06 0.024990295419899222 0 5.5014411667965523e-06 0.024990609670517801 0 5.9933699827237802e-06 0.024988813851414535 0 5.5014411667965523e-06 0.024990609670517801 0 5.9933699827237802e-06 0.024988813851414535 0 5.3230522273019278e-06 0.0249855611638258 0 5.9933699827237802e-06 0.024988813851414535 0 5.3230522273019278e-06 0.0249855611638258 0 6.8166730571863001e-06 0.024987365829820026 0 5.3230522273019278e-06 0.0249855611638258 0 6.8166730571863001e-06 0.024987365829820026 0 4.399191725427925e-06 0.024980481337237903 0 9.7926147787959087e-05 0.024875808503216693 0 0.00010821726946680562 0.024853988252442401 0 5.0535355772634829e-06 0.024994816346193469 0 5.9933699827237802e-06 0.024988813851414535 0 6.8166730571863001e-06 0.024987365829820026 0 7.33499319838733e-05 0.024912058056115766 0 9.7926147787959087e-05 0.024875808503216693 0 0.00020846204137866774 0.024767877829186095 0 0.00012868887245749707 0.024823191850851929 0 0.00019291440691058848 0.024759763342034603 0 0.00020846204137866774 0.024767877829186095 0 0.00019291440691058848 0.024759763342034603 0 0.000202995124627451 0.024738309520437915 0 0.000202995124627451 0.024738309520437915 0 0.00018255871622655342 0.02473073449344285 0 0.00019680568941865157 0.024743382689968355 0 0.000202995124627451 0.024738309520437915 0 0.00018255871622655342 0.02473073449344285 0 0.00017847488464575601 0.024717879771014625 0 0.00010821726946680562 0.024853988252442401 0 6.3507627688257518e-05 0.024920460411524067 0 4.399191725427925e-06 0.024980481337237903 0 1.4432525468565642e-06 0.024977226721614981 0 -1.0966039001757613e-07 0.024974263517897756 0 0.00018255871622655342 0.02473073449344285 0 0.00019680568941865157 0.024743382689968355 0 0.00018129190779238134 0.02473308693228694 0 0.00019291440691058848 0.024759763342034603 0 0.000202995124627451 0.024738309520437915 0 0.00019680568941865157 0.024743382689968355 0 4.399191725427925e-06 0.024980481337237903 0 3.1083835264032058e-06 0.024981213238936862 0 1.4432525468565642e-06 0.024977226721614981 0 4.5269992378616753e-06 0.024986266724790561 0 5.3230522273019278e-06 0.0249855611638258 0 3.1083835264032058e-06 0.024981213238936862 0 5.3230522273019278e-06 0.0249855611638258 0 4.399191725427925e-06 0.024980481337237903 0 3.1083835264032058e-06 0.024981213238936862 0 3.1083835264032058e-06 0.024981213238936862 0 1.4432525468565642e-06 0.024977226721614981 0 -6.8064788515098791e-07 0.024972856568850212 0 1.4432525468565642e-06 0.024977226721614981 0 -6.8064788515098791e-07 0.024972856568850212 0 -1.0966039001757613e-07 0.024974263517897756 0 3.0609019370293242e-06 0.024986693728564484 0 3.1083835264032058e-06 0.024981213238936862 0 -1.6899855609858846e-07 0.024981146165189125 0 3.1083835264032058e-06 0.024981213238936862 0 -1.6899855609858846e-07 0.024981146165189125 0 -6.8064788515098791e-07 0.024972856568850212 0 -3.8873767479996621e-05 0.024545796120956011 0 -7.0521459582445828e-05 0.024517963871295578 0 -7.5477460745146973e-05 0.024517185922990441 0 3.0609019370293242e-06 0.024986693728564484 0 4.5269992378616753e-06 0.024986266724790561 0 3.1083835264032058e-06 0.024981213238936862 0 -0.00027572181625994314 0.023794328716259736 0 -0.0002524015798195811 0.023639450938850781 0 -0.00017499490572495249 0.024070933013036658 0 -0.00021598590956609649 0.023991803952005005 0 -0.00026431521238723675 0.023998287321986958 0 -0.00033401751076829288 0.023522043134201778 0 -0.00052411072191171416 0.023514328453197429 0 -0.00052918918562314295 0.023383717386276474 0 -0.00014025519393355112 0.024249928099253738 0 -6.9101831859094616e-05 0.024447600538612984 0 -7.0521459582445828e-05 0.024517963871295578 0 -7.5477460745146973e-05 0.024517185922990441 0 -0.0001115544538079538 0.024488716314185581 0 -1.9110601709845457e-05 0.024787181060140349 0 -6.9101831859094616e-05 0.024447600538612984 0 -0.00017499490572495249 0.024070933013036658 0 -0.00015066039061744092 0.024045541065739178 0 -0.00021598590956609649 0.023991803952005005 0 -1.4574503956888022e-05 0.024931855502822134 0 -6.9101831859094616e-05 0.024447600538612984 0 0.00014198516888676356 0.024267933847978776 0 6.3507627688257518e-05 0.024920460411524067 0 -6.8064788515098791e-07 0.024972856568850212 0 3.9780458555995188e-06 0.024964582871353006 0 -1.0966039001757613e-07 0.024974263517897756 0 3.9780458555995188e-06 0.024964582871353006 0 4.8016161188718977e-06 0.024964358997942051 0 -1.0966039001757613e-07 0.024974263517897756 0 -1.6899855609858846e-07 0.024981146165189125 0 -6.8064788515098791e-07 0.024972856568850212 0 -9.1055457941127776e-06 0.024970442300590492 0 4.8016161188718977e-06 0.024964358997942051 0 7.1326893996796411e-06 0.024963228661061061 0 -1.0966039001757613e-07 0.024974263517897756 0 -1.1601961951009e-05 0.024425973030023074 0 0.00014198516888676356 0.024267933847978776 0 -1.851381025032899e-05 0.023960911554566294 0 -1.8991437410029202e-05 0.023959985128810236 0 -2.1871850976905751e-05 0.023958472549118332 0 -6.9101831859094616e-05 0.024447600538612984 0 -1.1601961951009e-05 0.024425973030023074 0 -1.8991437410029202e-05 0.023959985128810236 0 -2.1871850976905751e-05 0.023958472549118332 0 -2.0323264495787013e-05 0.023957625683728383 0 -6.9101831859094616e-05 0.024447600538612984 0 -0.0002524015798195811 0.023639450938850781 0 0.00013880421716808809 0.024328932060163105 0 0.00017373728541245876 0.023669371926599216 0 0.00015404042496131501 0.024730977995704319 0 0.00017526696201056242 0.024724603934675501 0 0.00016873094371763655 0.024695720391248521 0 0.00015404042496131501 0.024730977995704319 0 0.00016873094371763655 0.024695720391248521 0 0.00013352575827650634 0.024709157393415511 0 0.00021168652858404605 0.024840476769743641 0 0.00013880421716808809 0.024328932060163105 0 0.00018255871622655342 0.02473073449344285 0 0.00017526696201056242 0.024724603934675501 0 0.00017326158103551432 0.024723235555031149 0 0.00015404042496131501 0.024730977995704319 0 0.00018129190779238134 0.02473308693228694 0 0.00017526696201056242 0.024724603934675501 0 0.00018255871622655342 0.02473073449344285 0 0.00018129190779238134 0.02473308693228694 0 0.00017526696201056242 0.024724603934675501 0 0.00018255871622655342 0.02473073449344285 0 0.00017326158103551432 0.024723235555031149 0 0.00017847488464575601 0.024717879771014625 0 0.00013880421716808809 0.024328932060163105 0 0.00012506934539576066 0.024764659126389827 0 0.00017859346229171844 0.023387210818466234 0 0.00013333057935545695 0.023236505221594487 0 5.7557707400698157e-05 0.023343885117229974 0 0.00013880421716808809 0.024328932060163105 0 3.9575485848935871e-05 0.023859260561901467 0 -4.3719218773403438e-05 0.024609465206305241 0 0.00012987040478324279 0.024582544785073969 0 3.126626424961875e-05 0.024493882539556564 0 -4.3719218773403438e-05 0.024609465206305241 0 0.00013854063785698949 0.024714647038255225 0 0.00012987040478324279 0.024582544785073969 0 1.6487123225931957e-05 0.024784831590625542 0 -4.3719218773403438e-05 0.024609465206305241 0 0.00013854063785698949 0.024714647038255225 0 0.00013854063785698949 0.024714647038255225 0 0.00021058432551788019 0.024685319795139129 0 0.00012987040478324279 0.024582544785073969 0 0.00012506934539576066 0.024764659126389827 0 0.00022434226885912603 0.024672500188937609 0 0.000202995124627451 0.024738309520437915 0 0.00017847488464575601 0.024717879771014625 0 0.00021058432551788019 0.024685319795139129 0 0.00020846204137866774 0.024767877829186095 0 0.000202995124627451 0.024738309520437915 0 0.00021058432551788019 0.024685319795139129 0 0.00024469806179354034 0.024628056006725855 0 0.00021058432551788019 0.024685319795139129 0 0.00020925653896744693 0.024546055852908574 0 0.00021058432551788019 0.024685319795139129 0 0.00012987040478324279 0.024582544785073969 0 0.00020925653896744693 0.024546055852908574 0 0.00020925653896744693 0.024546055852908574 0 0.00015630575180944546 0.024420538858940348 0 0.00026151906706869667 0.024412779358862442 0 0.00012987040478324279 0.024582544785073969 0 0.00020925653896744693 0.024546055852908574 0 0.00015630575180944546 0.024420538858940348 0 0.00024469806179354034 0.024628056006725855 0 0.00020925653896744693 0.024546055852908574 0 0.00026151906706869667 0.024412779358862442 0 0.00015630575180944546 0.024420538858940348 0 0.00026151906706869667 0.024412779358862442 0 0.0001971234596192188 0.024196509616907377 0 0.00026151906706869667 0.024412779358862442 0 0.0001971234596192188 0.024196509616907377 0 0.00027951989695821429 0.024119898452949231 0 0.00015630575180944546 0.024420538858940348 0 0.0001971234596192188 0.024196509616907377 0 3.0075187067655616e-05 0.024342989803224292 0 0.0001971234596192188 0.024196509616907377 0 3.0075187067655616e-05 0.024342989803224292 0 9.8607612948918916e-05 0.024064014383558232 0 -7.1228569034777079e-05 0.024027014850838291 0 3.0075187067655616e-05 0.024342989803224292 0 9.8607612948918916e-05 0.024064014383558232 0 -7.1228569034777079e-05 0.024027014850838291 0 3.0075187067655616e-05 0.024342989803224292 0 -0.00021773113950848718 0.024336330293593465 0 3.126626424961875e-05 0.024493882539556564 0 3.0075187067655616e-05 0.024342989803224292 0 -0.00013933522849189823 0.024351629275838289 0 -4.3719218773403438e-05 0.024609465206305241 0 3.126626424961875e-05 0.024493882539556564 0 -0.00013933522849189823 0.024351629275838289 0 3.9575485848935871e-05 0.023859260561901467 0 -8.8864981307433365e-05 0.023777091765040569 0 -2.2527444363210405e-05 0.024321462392339746 0 -8.8864981307433365e-05 0.023777091765040569 0 0.00015630575180944546 0.024420538858940348 0 3.126626424961875e-05 0.024493882539556564 0 3.0075187067655616e-05 0.024342989803224292 0 0.00012987040478324279 0.024582544785073969 0 0.00015630575180944546 0.024420538858940348 0 3.126626424961875e-05 0.024493882539556564 0 -0.00020381906836974711 0.021694122871013449 0 -0.00017406672553487717 0.021662762331311414 0 -0.00018673130932547464 0.021740569727044894 0 -0.00021443766178734399 0.022387035960092595 0 -0.00011641035647854169 0.022535291779805039 0 -0.00020381906836974711 0.021694122871013449 0 -0.00017406672553487717 0.021662762331311414 0 -0.00024000323449067403 0.02165485811050075 0 -0.00021443766178734399 0.022387035960092595 0 -0.00046916753088011498 0.021013902414709542 0 0.00013333057935545695 0.023236505221594487 0 8.6533031687285194e-05 0.023087109335822413 0 4.9370103381118821e-05 0.023173597633672931 0 8.6533031687285194e-05 0.023087109335822413 0 1.016762356498407e-05 0.023083131818970034 0 4.9370103381118821e-05 0.023173597633672931 0 -8.8864981307433365e-05 0.023777091765040569 0 -0.00021443766178734399 0.022387035960092595 0 -0.00018699853047565157 0.023085858689686423 0 -0.00026326855193814605 0.023082914264830997 0 -0.00023456043643492854 0.022937204707634481 0 -0.00021443766178734399 0.022387035960092595 0 -0.00030372964151410289 0.022935042486879498 0 -8.8864981307433365e-05 0.023777091765040569 0 -0.00030372964151410289 0.022935042486879498 0 -7.1228569034777079e-05 0.024027014850838291 0 -0.00021773113950848718 0.024336330293593465 0 -0.00035079367929067109 0.023767760788384863 0 -0.00038196720821110784 0.022028170504371662 0 -0.00048901704130488671 0.021876839103162505 0 -0.0006815207764788746 0.022047070581663143 0 -0.00038196720821110784 0.022028170504371662 0 -0.00048901704130488671 0.021876839103162505 0 -0.00034749449304517679 0.021757343399053414 0 -0.00048901704130488671 0.021876839103162505 0 -0.00073550257653854376 0.021837978555650246 0 -0.0006815207764788746 0.022047070581663143 0 -0.00083733209364558509 0.021250164959800047 0 -0.00074622983931679104 0.021199593464197967 0 -0.00073422321271902468 0.021317115917848441 0 -0.00083733209364558509 0.021250164959800047 0 -0.00074622983931679104 0.021199593464197967 0 -0.00085316331612643036 0.02110510772803564 0 -0.00075376970407166029 0.021613474777505581 0 -0.00046916753088011498 0.021013902414709542 0 -0.00074622983931679104 0.021199593464197967 0 -0.00068628587790010734 0.021104389222467979 0 -0.00085316331612643036 0.02110510772803564 0 -0.0006589664505615826 0.021236446747028407 0 -0.00074622983931679104 0.021199593464197967 0 -0.00073422321271902468 0.021317115917848441 0 -0.0006589664505615826 0.021236446747028407 0 -0.00074622983931679104 0.021199593464197967 0 -0.00068628587790010734 0.021104389222467979 0 -0.00059379166022124322 0.020283145278750147 0 -0.00046916753088011498 0.021013902414709542 0 -0.00036294736726141547 0.019314667033257186 0 -0.00028685127674975416 0.019643276067797588 0 0.00012373090368425482 0.019316910723627862 0 -0.00036294736726141547 0.019314667033257186 0 -0.00028685127674975416 0.019643276067797588 0 -0.0005573122774648996 0.019592319503379235 0 -0.00020381906836974711 0.021694122871013449 0 -0.00024000323449067403 0.02165485811050075 0 -0.0002249834216061712 0.021733032834868705 0 -0.00046916753088011498 0.021013902414709542 0 5.5777966675250302e-05 0.020730996475395301 0 -0.00028685127674975416 0.019643276067797588 0 0.00012373090368425482 0.019316910723627862 0 -9.8843243404146721e-05 0.019890381836044694 0 0.00012373090368425482 0.019316910723627862 0 -9.8843243404146721e-05 0.019890381836044694 0 0.00025061572140762123 0.020006473687470789 0 -9.8843243404146721e-05 0.019890381836044694 0 0.00025061572140762123 0.020006473687470789 0 3.3993482129761073e-05 0.020148223028066584 0 -9.8843243404146721e-05 0.019890381836044694 0 -0.00019736492837434675 0.02007988603571418 0 3.3993482129761073e-05 0.020148223028066584 0 -0.00028685127674975416 0.019643276067797588 0 -0.00048378330802578901 0.019853677589386633 0 -0.0005573122774648996 0.019592319503379235 0 -0.00028685127674975416 0.019643276067797588 0 -0.00032687697897496639 0.019928577165466373 0 -0.00048378330802578901 0.019853677589386633 0 -0.00028685127674975416 0.019643276067797588 0 -9.8843243404146721e-05 0.019890381836044694 0 -0.00032687697897496639 0.019928577165466373 0 -9.8843243404146721e-05 0.019890381836044694 0 -0.00019736492837434675 0.02007988603571418 0 -0.00032687697897496639 0.019928577165466373 0 -0.00019736492837434675 0.02007988603571418 0 -0.00032687697897496639 0.019928577165466373 0 -0.00038979349438338085 0.020127485487233487 0 -0.00046678117296100889 0.019986502251321561 0 -0.00038979349438338085 0.020127485487233487 0 -0.00067599310733068129 0.020039353977083001 0 -0.00032687697897496639 0.019928577165466373 0 -0.00046678117296100889 0.019986502251321561 0 -0.00038979349438338085 0.020127485487233487 0 -0.00032687697897496639 0.019928577165466373 0 -0.00046678117296100889 0.019986502251321561 0 -0.00048378330802578901 0.019853677589386633 0 -0.00038979349438338085 0.020127485487233487 0 -0.00013349250489368502 0.02044974889417581 0 -0.00067599310733068129 0.020039353977083001 0 -6.101365152357193e-05 0.020499287958764951 0 -0.00015660588947093141 0.020732459661466217 0 -0.00067599310733068129 0.020039353977083001 0 -8.3689906356698723e-05 0.020393978286837196 0 -0.00063808118950786229 0.020087255813479518 0 -0.00038979349438338085 0.020127485487233487 0 -0.00019194790172500541 0.020278270766560722 0 -0.00013349250489368502 0.02044974889417581 0 -0.00019736492837434675 0.02007988603571418 0 -0.00019194790172500541 0.020278270766560722 0 3.3993482129761073e-05 0.020148223028066584 0 -0.00019736492837434675 0.02007988603571418 0 -0.00038979349438338085 0.020127485487233487 0 -0.00019194790172500541 0.020278270766560722 0 -0.00011421167601319241 0.020118302839863982 0 7.5136007916234976e-05 0.021435838903302397 0 0.00025061572140762123 0.020006473687470789 0 3.3993482129761073e-05 0.020148223028066584 0 0.00036606917958802512 0.020738923290502545 0 -0.00019194790172500541 0.020278270766560722 0 -0.00013349250489368502 0.02044974889417581 0 0.00040883230930274339 0.020784641701163748 0 5.5777966675250302e-05 0.020730996475395301 0 7.5136007916234976e-05 0.021435838903302397 0 -0.00019194790172500541 0.020278270766560722 0 3.3993482129761073e-05 0.020148223028066584 0 0.00036606917958802512 0.020738923290502545 0 -2.0055760776751726e-05 0.023235775271930676 0 5.7557707400698157e-05 0.023343885117229974 0 -5.0679779288731527e-05 0.023387178644810311 0 -0.00011641035647854169 0.022535291779805039 0 7.7642763147729553e-05 0.022379070158211417 0 -0.0002249834216061712 0.021733032834868705 0 -0.00018673130932547464 0.021740569727044894 0 -0.00020658203837031918 0.021817168296257503 0 -0.00020381906836974711 0.021694122871013449 0 -0.0002249834216061712 0.021733032834868705 0 -0.00018673130932547464 0.021740569727044894 0 1.016762356498407e-05 0.023083131818970034 0 -2.0055760776751726e-05 0.023235775271930676 0 4.9370103381118821e-05 0.023173597633672931 0 0.00013333057935545695 0.023236505221594487 0 -2.0055760776751726e-05 0.023235775271930676 0 4.9370103381118821e-05 0.023173597633672931 0 0.00013333057935545695 0.023236505221594487 0 -2.0055760776751726e-05 0.023235775271930676 0 5.7557707400698157e-05 0.023343885117229974 0 0.00017859346229171844 0.023387210818466234 0 5.7557707400698157e-05 0.023343885117229974 0 3.4636720026944587e-05 0.023469707226271629 0 5.7557707400698157e-05 0.023343885117229974 0 -5.0679779288731527e-05 0.023387178644810311 0 3.4636720026944587e-05 0.023469707226271629 0 -0.00018673130932547464 0.021740569727044894 0 -0.00019693799864884979 0.021825290293933049 0 -0.00020658203837031918 0.021817168296257503 0 0.00014449900792778232 0.022147498181124697 0 0.00027562584041492476 0.021986960972027274 0 7.7642763147729553e-05 0.022379070158211417 0 0.00014449900792778232 0.022147498181124697 0 0.00021407536169326568 0.021917027072475316 0 0.00019735256167093562 0.021998445617899064 0 0.00012491311076276874 0.021945616176418468 0 0.00014449900792778232 0.022147498181124697 0 0.00016924844263760879 0.021608962503640822 0 0.00031242500067808223 0.021930419474957458 0 0.00029340903540138512 0.021916525513054081 0 0.00030374519706127801 0.02197629278161535 0 0.00016924844263760879 0.021608962503640822 0 0.00027562584041492476 0.021986960972027274 0 0.00021407536169326568 0.021917027072475316 0 0.00012491311076276874 0.021945616176418468 0 0.00010666025349028554 0.02183084118420995 0 0.00016924844263760879 0.021608962503640822 0 7.5136007916234976e-05 0.021435838903302397 0 7.7642763147729553e-05 0.022379070158211417 0 7.5136007916234976e-05 0.021435838903302397 0 0.00044865050270210654 0.022082389796115418 0 0.00011994292057851386 0.023459637842739845 0 0.00014449900792778232 0.022147498181124697 0 0.00017373728541245876 0.023669371926599216 0 7.7642763147729553e-05 0.022379070158211417 0 0.00017373728541245876 0.023669371926599216 0 -0.00013544487123329734 0.022849037738532006 0 -5.4138768879589367e-05 0.023030425430762249 0 0.00022798410649747561 0.02312449472234257 0 -0.00017600933067699772 0.023051251974645158 0 7.5783055642065285e-05 0.023218623371238235 0 0.00030222500060623136 0.023439984752329637 0 -0.00021538142675241751 0.022563362337570746 0 -0.00023839403957284308 0.022672572192300264 0 0.00051829905348852563 0.023242933654499729 0 -0.00013544487123329734 0.022849037738532006 0 -0.00015894754238471813 0.022962791144568031 0 -5.4138768879589367e-05 0.023030425430762249 0 0.00058848900468847192 0.020984198265895777 0 0.0005937283362753039 0.021336846349411173 0 0.0006216084741235095 0.021204511932482364 0 0.00044865050270210654 0.022082389796115418 0 0.00027562584041492476 0.021986960972027274 0 -0.00017600933067699772 0.023051251974645158 0 -0.00015894754238471813 0.022962791144568031 0 -5.4138768879589367e-05 0.023030425430762249 0 -0.00017600933067699772 0.023051251974645158 0 -5.4138768879589367e-05 0.023030425430762249 0 7.5783055642065285e-05 0.023218623371238235 0 -5.4138768879589367e-05 0.023030425430762249 0 7.5783055642065285e-05 0.023218623371238235 0 0.00022798410649747561 0.02312449472234257 0 7.5783055642065285e-05 0.023218623371238235 0 0.00022210599129896937 0.023131565135796218 0 0.00030222500060623136 0.023439984752329637 0 0.00024260030177465668 0.023402499450462185 0 0.00017373728541245876 0.023669371926599216 0 0.00014198516888676356 0.024267933847978776 0 0.00017373728541245876 0.023669371926599216 0 -0.00013729991315696515 0.023326547956971064 0 -0.00012449949141425667 0.02333470859039179 0 -9.1475022924406637e-05 0.02331401538491297 0 0.00055660742759365838 0.023385834656526362 0 0.00022210599129896937 0.023131565135796218 0 0.00030222500060623136 0.023439984752329637 0 0.00014198516888676356 0.024267933847978776 0 0.00011994292057851386 0.023459637842739845 0 -2.1871850976905751e-05 0.023958472549118332 0 -2.0323264495787013e-05 0.023957625683728383 0 -2.2928405614396503e-05 0.023955700946966398 0 -0.0002524015798195811 0.023639450938850781 0 0.00011994292057851386 0.023459637842739845 0 -0.00012449949141425667 0.02333470859039179 0 -9.1475022924406637e-05 0.02331401538491297 0 -8.2325877669952335e-05 0.023320773628932936 0 0.0001413552860653477 0.02264279761917452 0 0.00039411759544863667 0.0228454550670549 0 8.4525107816630604e-05 0.022913077952155299 0 0.00011994292057851386 0.023459637842739845 0 9.1239425654686152e-05 0.022887600239930448 0 0.00044865050270210654 0.022082389796115418 0 9.1239425654686152e-05 0.022887600239930448 0 -0.00068829140583667866 0.023422029991996104 0 -0.00066119136151793743 0.023463287304223431 0 -0.00060886410983771681 0.023450351297430644 0 -0.00040445824298027263 0.023309722180030766 0 -0.0003508616441781397 0.023308427805666873 0 -0.00068829140583667866 0.023422029991996104 0 -0.00069146091339855164 0.023454036547543491 0 -0.00066119136151793743 0.023463287304223431 0 -0.00067987883473672503 0.023494189960378262 0 -0.00069146091339855164 0.023454036547543491 0 -0.00066119136151793743 0.023463287304223431 0 -0.00063574443837306402 0.023540615420299407 0 -0.00066119136151793743 0.023463287304223431 0 -0.00060886410983771681 0.023450351297430644 0 -0.00052411072191171416 0.023514328453197429 0 -0.00052918918562314295 0.023383717386276474 0 -0.00060886410983771681 0.023450351297430644 0 -0.00063574443837306402 0.023540615420299407 0 -0.00052411072191171416 0.023514328453197429 0 -0.00060886410983771681 0.023450351297430644 0 -0.00052918918562314295 0.023383717386276474 0 -0.00068829140583667866 0.023422029991996104 0 -0.00060886410983771681 0.023450351297430644 0 -0.0002524015798195811 0.023639450938850781 0 -0.00040445824298027263 0.023309722180030766 0 -0.00033675907110772952 0.023044676030845652 0 -0.00086478020996173365 0.023112296177307264 0 -0.00064562637565342672 0.023184996422297887 0 -0.00075665419172719016 0.023260866396738019 0 -0.00092140507881445478 0.023089831148805751 0 -0.00064562637565342672 0.023184996422297887 0 -0.00075665419172719016 0.023260866396738019 0 -0.00039158645673698404 0.023224955691733658 0 -0.00081740629210994237 0.023422543875882957 0 -0.00075665419172719016 0.023260866396738019 0 -0.00092140507881445478 0.023089831148805751 0 -0.00075241901102579133 0.023424846932735721 0 -0.00081740629210994237 0.023422543875882957 0 -0.00075665419172719016 0.023260866396738019 0 -0.00075241901102579133 0.023424846932735721 0 -0.00075665419172719016 0.023260866396738019 0 -0.00071074494785793518 0.023415794717636568 0 -0.00075665419172719016 0.023260866396738019 0 -0.00071074494785793518 0.023415794717636568 0 -0.0006946180064622482 0.023416771400228496 0 -0.00082560791575266165 0.023291413657326364 0 -0.0003508616441781397 0.023308427805666873 0 -0.00064562637565342672 0.023184996422297887 0 -0.00039158645673698404 0.023224955691733658 0 -0.00037406828964465648 0.023128806322089076 0 -0.00068829140583667866 0.023422029991996104 0 -0.00069146091339855164 0.023454036547543491 0 -0.00071074494785793518 0.023415794717636568 0 -0.0007080363021435258 0.023491492004398887 0 -0.00069146091339855164 0.023454036547543491 0 -0.00071074494785793518 0.023415794717636568 0 -0.00068829140583667866 0.023422029991996104 0 -0.00071074494785793518 0.023415794717636568 0 -0.0006946180064622482 0.023416771400228496 0 -0.0003508616441781397 0.023308427805666873 0 9.1239425654686152e-05 0.022887600239930448 0 -9.1475022924406637e-05 0.02331401538491297 0 -8.1346849997631135e-05 0.023311822581248202 0 -8.2325877669952335e-05 0.023320773628932936 0 -0.00033675907110772952 0.023044676030845652 0 9.1239425654686152e-05 0.022887600239930448 0 0.0011338419781988986 0.021514646191085875 0 0.00086534522305755886 0.02274466195438193 0 0.00032130736270409002 0.022297891685776186 0 -4.4291138206145286e-05 0.022940873083491378 0 0.00086534522305755886 0.02274466195438193 0 0.00032130736270409002 0.022297891685776186 0 0.00032130736270409002 0.022297891685776186 0 -0.0001264896994068151 0.022380973507530506 0 -0.00021519487808508491 0.021787821247134565 0 -4.4291138206145286e-05 0.022940873083491378 0 -0.00056985666086911062 0.022486320402077653 0 -0.00092140507881445478 0.023089831148805751 0 -4.4291138206145286e-05 0.022940873083491378 0 -0.0001264896994068151 0.022380973507530506 0 -0.00056985666086911062 0.022486320402077653 0 -4.4291138206145286e-05 0.022940873083491378 0 0.00032130736270409002 0.022297891685776186 0 -0.0001264896994068151 0.022380973507530506 0 -0.0001264896994068151 0.022380973507530506 0 -0.00056985666086911062 0.022486320402077653 0 -0.00021519487808508491 0.021787821247134565 0 -0.00056985666086911062 0.022486320402077653 0 -0.00021519487808508491 0.021787821247134565 0 -0.00083498192829123993 0.02196264632917843 0 0.0011338419781988986 0.021514646191085875 0 -0.00021519487808508491 0.021787821247134565 0 -8.1819910742431825e-05 0.020537888264661231 0 0.0011338419781988986 0.021514646191085875 0 0.00032130736270409002 0.022297891685776186 0 -0.00021519487808508491 0.021787821247134565 0 -6.101365152357193e-05 0.020499287958764951 0 0.00058848900468847192 0.020984198265895777 0 -0.00015660588947093141 0.020732459661466217 0 -0.00013349250489368502 0.02044974889417581 0 0.00042236259053745506 0.020880384466211186 0 0.00040883230930274339 0.020784641701163748 0 0.00044865050270210654 0.022082389796115418 0 -0.00013773500453193537 0.020730266054632261 0 0.00058848900468847192 0.020984198265895777 0 0.0005937283362753039 0.021336846349411173 0 -0.00015660588947093141 0.020732459661466217 0 -8.3689906356698723e-05 0.020393978286837196 0 0.00016924844263760879 0.021608962503640822 0 -0.00021519487808508491 0.021787821247134565 0 -8.1819910742431825e-05 0.020537888264661231 0 -0.0013353185488595755 0.021036037089638113 0 -0.00071453655873566049 0.018484339847731176 0 -0.00055175819018799086 0.018609524709359958 0 -8.1819910742431825e-05 0.020537888264661231 0 -0.0013353185488595755 0.021036037089638113 0 -0.0013938719354400989 0.019598118404355651 0 0.00020084223276616134 0.016189663199933972 0 0.00056591074101818256 0.015583575080348923 0 -5.9279594538129224e-05 0.016090765092331611 0 0.00029365396009416915 0.015824893929545059 0 0.00023977924978381713 0.016569505519499865 0 0.00029365396009416915 0.015824893929545059 0 0.0004283243068217664 0.016026100040366184 0 0.00027478203923327158 0.016152944179146731 0 0.00041926939784583408 0.015085266748978197 0 0.00056591074101818256 0.015583575080348923 0 -5.9279594538129224e-05 0.016090765092331611 0 0.00029365396009416915 0.015824893929545059 0 -1.3360480914653131e-05 0.015530961281207119 0 -0.00071453655873566049 0.018484339847731176 0 -0.00061572873202141761 0.019018942666678054 0 -0.00021519487808508491 0.021787821247134565 0 -0.0013353185488595755 0.021036037089638113 0 -0.00083498192829123993 0.02196264632917843 0 -0.0013353185488595755 0.021036037089638113 0 -0.00083498192829123993 0.02196264632917843 0 -0.0012348723737580082 0.022513856495464543 0 -0.00056985666086911062 0.022486320402077653 0 -0.00083498192829123993 0.02196264632917843 0 -0.0012348723737580082 0.022513856495464543 0 -0.00056985666086911062 0.022486320402077653 0 -0.0012348723737580082 0.022513856495464543 0 -0.00092140507881445478 0.023089831148805751 0 -1.3360480914653131e-05 0.015530961281207119 0 0.0002952096535986419 0.01556501776282663 0 0.0002914685329937157 0.015318542105352927 0 0.00029365396009416915 0.015824893929545059 0 -1.3360480914653131e-05 0.015530961281207119 0 0.0002952096535986419 0.01556501776282663 0 0.00029365396009416915 0.015824893929545059 0 0.0002952096535986419 0.01556501776282663 0 0.00049286754010514282 0.01558286906028402 0 0.0002952096535986419 0.01556501776282663 0 0.0002914685329937157 0.015318542105352927 0 0.00049286754010514282 0.01558286906028402 0 -0.00098708836752049636 0.023499834397975324 0 -0.0012348723737580082 0.022513856495464543 0 -0.00092140507881445478 0.023089831148805751 0 3.0005440447753937e-05 0.015113697550761723 0 -1.3360480914653131e-05 0.015530961281207119 0 0.0002914685329937157 0.015318542105352927 0 -0.00047258507969175496 0.019361123585871144 0 -0.00061572873202141761 0.019018942666678054 0 -0.00098708836752049636 0.023499834397975324 0 -0.00081740629210994237 0.023422543875882957 0 -0.00092140507881445478 0.023089831148805751 0 0.00094366206930602994 0.0149212190382186 0 0.00086417955182790495 0.015349330042677781 0 0.00071854186833751523 0.015107324315699245 0 0.00051998442519120638 0.015014170300519065 0 0.00071854186833751523 0.015107324315699245 0 0.0006013892284335321 0.01532148052666747 0 0.00086417955182790495 0.015349330042677781 0 0.00071854186833751523 0.015107324315699245 0 0.0006013892284335321 0.01532148052666747 0 0.00051998442519120638 0.015014170300519065 0 0.0002914685329937157 0.015318542105352927 0 0.0006013892284335321 0.01532148052666747 0 0.0002914685329937157 0.015318542105352927 0 0.0006013892284335321 0.01532148052666747 0 0.00049286754010514282 0.01558286906028402 0 0.0006013892284335321 0.01532148052666747 0 0.00049286754010514282 0.01558286906028402 0 0.0006739217628529019 0.015540530524432817 0 0.00049286754010514282 0.01558286906028402 0 0.0006739217628529019 0.015540530524432817 0 0.00062622825542809398 0.015703450439605735 0 0.0010208075982370271 0.014022657558065558 0 0.0010400513168004567 0.012612700001225155 0 0.00086417955182790495 0.015349330042677781 0 0.0006739217628529019 0.015540530524432817 0 0.000784842106725951 0.01574013132268013 0 0.00086417955182790495 0.015349330042677781 0 0.0006013892284335321 0.01532148052666747 0 0.0006739217628529019 0.015540530524432817 0 0.0014759131281485798 0.010950388489342471 0 0.0012423396995950996 0.0098862492737911735 0 0.0010060603275721201 0.010446359821121697 0 0.0006739217628529019 0.015540530524432817 0 0.000784842106725951 0.01574013132268013 0 0.00062622825542809398 0.015703450439605735 0 0.000784842106725951 0.01574013132268013 0 0.00062622825542809398 0.015703450439605735 0 0.00063101436629668856 0.01587248289847585 0 0.0010400513168004567 0.012612700001225155 0 0.00041567109290826355 0.014019945137852104 0 0.00029365396009416915 0.015824893929545059 0 0.00051379403897722946 0.015819184747916753 0 0.0004283243068217664 0.016026100040366184 0 0.00029365396009416915 0.015824893929545059 0 0.00049286754010514282 0.01558286906028402 0 0.00051379403897722946 0.015819184747916753 0 0.00049286754010514282 0.01558286906028402 0 0.00062622825542809398 0.015703450439605735 0 0.00051379403897722946 0.015819184747916753 0 0.00062622825542809398 0.015703450439605735 0 0.00063101436629668856 0.01587248289847585 0 0.00051379403897722946 0.015819184747916753 0 3.6472817267149232e-05 0.014469676110533573 0 0.0004950974990801817 0.014084628491276643 0 0.00010594286208756091 0.013448479887903158 0 0.00041567109290826355 0.014019945137852104 0 0.00062637943168894288 0.012445735541467997 0 0.00041567109290826355 0.014019945137852104 0 0.00041926939784583408 0.015085266748978197 0 0.00063101436629668856 0.01587248289847585 0 0.00051379403897722946 0.015819184747916753 0 0.0004283243068217664 0.016026100040366184 0 0.0014759131281485798 0.010950388489342471 0 0.0012423396995950996 0.0098862492737911735 0 0.0017354512013686748 0.0094867742256078674 0 0.0010288115597598313 0.012718783773353131 0 0.00087770371918277352 0.011793487672953401 0 0.0011205164781512727 0.011327095888473457 0 0.00060115556348068044 0.013081500832266765 0 0.0010288115597598313 0.012718783773353131 0 0.00087770371918277352 0.011793487672953401 0 0.0010400513168004567 0.012612700001225155 0 0.0013988841587983046 0.010308991087988162 0 0.0013988841587983046 0.010308991087988162 0 0.0011125797415412176 0.010316671546931978 0 0.0012423396995950996 0.0098862492737911735 0 0.0013813637527932288 0.0091667441347067138 0 0.0017354512013686748 0.0094867742256078674 0 0.00087770371918277352 0.011793487672953401 0 0.0011718397438617689 0.010505479889441073 0 0.0011205164781512727 0.011327095888473457 0 0.0012423396995950996 0.0098862492737911735 0 0.0013813637527932288 0.0091667441347067138 0 0.0010213598001461057 0.0093233524966790399 0 0.0017354512013686748 0.0094867742256078674 0 0.0014909573433632779 0.008721389289883065 0 0.0020006943073933177 0.0081433837857942063 0 0.0013813637527932288 0.0091667441347067138 0 0.0017354512013686748 0.0094867742256078674 0 0.0014909573433632779 0.008721389289883065 0 0.0013813637527932288 0.0091667441347067138 0 0.0014909573433632779 0.008721389289883065 0 0.00073998523074969038 0.0086436199944734515 0 0.0014909573433632779 0.008721389289883065 0 0.0015128464845545146 0.008235614902419551 0 0.00073998523074969038 0.0086436199944734515 0 0.0014909573433632779 0.008721389289883065 0 0.0015128464845545146 0.008235614902419551 0 0.0020006943073933177 0.0081433837857942063 0 0.0015128464845545146 0.008235614902419551 0 0.0020006943073933177 0.0081433837857942063 0 0.0016335020202412091 0.0078032588653208137 0 0.0015128464845545146 0.008235614902419551 0 0.0011326048412486792 0.0079189629859919321 0 0.00073998523074969038 0.0086436199944734515 0 0.0015128464845545146 0.008235614902419551 0 0.0011326048412486792 0.0079189629859919321 0 0.0016335020202412091 0.0078032588653208137 0 0.00058816833956613814 0.013342493293864428 0 0.0010409729007201589 0.013091522382247704 0 0.00017842057888797311 0.012395043921665447 0 0.0011125797415412176 0.010316671546931978 0 0.00062637943168894288 0.012445735541467997 0 0.00014647189691285748 0.012827066179692332 0 0.00058816833956613814 0.013342493293864428 0 0.00017842057888797311 0.012395043921665447 0 0.00014647189691285748 0.012827066179692332 0 0.00058816833956613814 0.013342493293864428 0 0.00010594286208756091 0.013448479887903158 0 3.216459479198306e-05 0.015317849983832281 0 0.00030475515218589424 0.011363310257510265 0 0.0004950974990801817 0.014084628491276643 0 0.00058816833956613814 0.013342493293864428 0 0.00010594286208756091 0.013448479887903158 0 0.00058816833956613814 0.013342493293864428 0 0.00095913510566276474 0.013702186434384573 0 0.0010409729007201589 0.013091522382247704 0 0.0004950974990801817 0.014084628491276643 0 0.00058816833956613814 0.013342493293864428 0 0.00095913510566276474 0.013702186434384573 0 0.00015690529900514491 0.016289936955656659 0 -0.00011532690701750861 0.016519929428381055 0 9.6826816879296368e-05 0.016727673195939773 0 0.00056591074101818256 0.015583575080348923 0 3.216459479198306e-05 0.015317849983832281 0 0.00056591074101818256 0.015583575080348923 0 -0.00055175819018799086 0.018609524709359958 0 -0.00013773500453193537 0.020730266054632261 0 -0.00055175819018799086 0.018609524709359958 0 -0.00015660588947093141 0.020732459661466217 0 -0.00089684390790216797 0.020186279532050801 0 -0.00067599310733068129 0.020039353977083001 0 -5.9279594538129224e-05 0.016090765092331611 0 0.00023977924978381713 0.016569505519499865 0 -4.9399579002372265e-05 0.016821054898399135 0 -0.0001132172904315824 0.016571780831659052 0 -0.00011532690701750861 0.016519929428381055 0 9.6826816879296368e-05 0.016727673195939773 0 -0.00040291531372552939 0.018000497824917718 0 -0.00055175819018799086 0.018609524709359958 0 -0.00040291531372552939 0.018000497824917718 0 -0.00045205062003879766 0.018389598156299342 0 -0.00012567517120646982 0.017069751165828817 0 -0.00014081138785017994 0.01676106116066935 0 -0.00027771057191787522 0.016947880722758588 0 -0.00077718027482245747 0.020031750000749464 0 -0.00068558179647102498 0.019864382142011847 0 -0.00080069930680224017 0.019688249674789635 0 -0.0008264053361274142 0.020146893601729787 0 -0.00055175819018799086 0.018609524709359958 0 -0.00048378330802578901 0.019853677589386633 0 -0.00089684390790216797 0.020186279532050801 0 -0.00067599310733068129 0.020039353977083001 0 -0.00048378330802578901 0.019853677589386633 0 -0.00077599846545786102 0.020071578008060059 0 -0.00068558179647102498 0.019864382142011847 0 -0.00046678117296100889 0.019986502251321561 0 -0.00048378330802578901 0.019853677589386633 0 -0.00067599310733068129 0.020039353977083001 0 -0.00077718027482245747 0.020031750000749464 0 -0.00077599846545786102 0.020071578008060059 0 -0.00068558179647102498 0.019864382142011847 0 -0.00068558179647102498 0.019864382142011847 0 -0.00080069930680224017 0.019688249674789635 0 -0.0005573122774648996 0.019592319503379235 0 -0.00048378330802578901 0.019853677589386633 0 -0.00068558179647102498 0.019864382142011847 0 -0.0005573122774648996 0.019592319503379235 0 -0.00040291531372552939 0.018000497824917718 0 3.216459479198306e-05 0.015317849983832281 0 -0.00014081138785017994 0.01676106116066935 0 -0.00027771057191787522 0.016947880722758588 0 -0.00021745939078002147 0.016451500009756329 0 -0.00030491229979282111 0.015353928594640371 0 -0.00046538340674470854 0.012910754316188922 0 3.216459479198306e-05 0.015317849983832281 0 -0.00030491229979282111 0.015353928594640371 0 -3.2708859415940139e-05 0.01447620523329972 0 4.1142664347610846e-05 0.013867018756586517 0 -0.00058037516728757859 0.014037714041445543 0 -0.00014081138785017994 0.01676106116066935 0 -0.00021745939078002147 0.016451500009756329 0 -0.00015564020058276505 0.016452988161308937 0 -0.00036294736726141547 0.019314667033257186 0 -0.0005573122774648996 0.019592319503379235 0 -0.0008212668550244194 0.019307200492732553 0 -0.00080069930680224017 0.019688249674789635 0 -0.0005573122774648996 0.019592319503379235 0 -0.0008212668550244194 0.019307200492732553 0 -0.00059379166022124322 0.020283145278750147 0 -0.00019508906999060377 0.017325044687958348 0 -0.00045205062003879766 0.018389598156299342 0 -0.00019508906999060377 0.017325044687958348 0 -0.00030491229979282111 0.015353928594640371 0 -0.00019508906999060377 0.017325044687958348 0 -0.00019037988825416284 0.013646966804502395 0 -0.00022967982510263085 0.013559265368445357 0 -0.00024811506044052653 0.013310238821426941 0 -0.0006589664505615826 0.021236446747028407 0 -0.00054003458600845845 0.021085890736739693 0 -0.000566368428264033 0.021296869917176192 0 -0.00019508906999060377 0.017325044687958348 0 -0.00037614536027340322 0.017344433352029735 0 -0.0006589664505615826 0.021236446747028407 0 -0.00068628587790010734 0.021104389222467979 0 -0.00054003458600845845 0.021085890736739693 0 -0.00023643527512287257 0.013628464879959147 0 -0.00037335458566389081 0.013527915428925471 0 -0.00053276159670879097 0.013609757269382254 0 -0.00023643527512287257 0.013628464879959147 0 -0.00037335458566389081 0.013527915428925471 0 -0.00022967982510263085 0.013559265368445357 0 -0.00030491229979282111 0.015353928594640371 0 -0.00017506205758228827 0.01391578541704947 0 -0.00023490278555967674 0.013649607368074494 0 -0.00019037988825416284 0.013646966804502395 0 -0.00022967982510263085 0.013559265368445357 0 -0.00037335458566389081 0.013527915428925471 0 -0.00022967982510263085 0.013559265368445357 0 -0.00033389123010727157 0.013387405652109639 0 -0.00046538340674470854 0.012910754316188922 0 -0.00050736386276397261 0.013590270187162058 0 -0.00063245107434238557 0.013363573405787508 0 -0.00050655805513684002 0.013517212619267874 0 -0.0004809705272047086 0.013306432919916733 0 -0.00037335458566389081 0.013527915428925471 0 -0.00053276159670879097 0.013609757269382254 0 -0.0004809705272047086 0.013306432919916733 0 -0.00063245107434238557 0.013363573405787508 0 -0.00061225425650358097 0.013518341927489408 0 -0.00050655805513684002 0.013517212619267874 0 -0.00063245107434238557 0.013363573405787508 0 -0.00061225425650358097 0.013518341927489408 0 -0.00084069946217493199 0.013386569814472697 0 0.0011326048412486792 0.0079189629859919321 0 0.0014999804045772733 0.007148401521523717 0 0.00060116894876529529 0.0076978483680796546 0 0.00018082325117270675 0.0097663145757392166 0 -0.00046538340674470854 0.012910754316188922 0 0.00018082325117270675 0.0097663145757392166 0 0.00030475515218589424 0.011363310257510265 0 0.0011326048412486792 0.0079189629859919321 0 0.0014999804045772733 0.007148401521523717 0 0.0016335020202412091 0.0078032588653208137 0 0.0014999804045772733 0.007148401521523717 0 0.0016335020202412091 0.0078032588653208137 0 0.0020357637255540564 0.0075701800963215958 0 0.0011125797415412176 0.010316671546931978 0 0.00030475515218589424 0.011363310257510265 0 0.0020006943073933177 0.0081433837857942063 0 0.0016335020202412091 0.0078032588653208137 0 0.0020357637255540564 0.0075701800963215958 0 4.1142664347610846e-05 0.013867018756586517 0 -0.00058037516728757859 0.014037714041445543 0 -0.00056649674736559605 0.013850015356758298 0 -5.7365448364933353e-05 0.011074341203636229 0 0.00030069335159053337 0.011354940241935016 0 0.00032042143615634611 0.011080819351490809 0 0.00030475515218589424 0.011363310257510265 0 -0.00046538340674470854 0.012910754316188922 0 -0.00041775675181734382 0.013100631343725489 0 -0.0004809705272047086 0.013306432919916733 0 -0.00036502678046763671 0.013190448315362568 0 -0.00041775675181734382 0.013100631343725489 0 -0.00058072123374205238 0.013104098545668833 0 -0.0004809705272047086 0.013306432919916733 0 -0.00041775675181734382 0.013100631343725489 0 -0.00058072123374205238 0.013104098545668833 0 -0.00059158578572603864 0.012829166827721113 0 -0.00058072123374205238 0.013104098545668833 0 -0.00076802094431122135 0.013103783485860328 0 -0.00072470898582900601 0.012923576587432593 0 -0.00063245107434238557 0.013363573405787508 0 -0.00058072123374205238 0.013104098545668833 0 -0.00076802094431122135 0.013103783485860328 0 -0.00063245107434238557 0.013363573405787508 0 -0.00058072123374205238 0.013104098545668833 0 -0.0004809705272047086 0.013306432919916733 0 -0.0004809705272047086 0.013306432919916733 0 -0.00033389123010727157 0.013387405652109639 0 -0.00036502678046763671 0.013190448315362568 0 -0.00037335458566389081 0.013527915428925471 0 -0.0004809705272047086 0.013306432919916733 0 -0.00033389123010727157 0.013387405652109639 0 -0.00022967982510263085 0.013559265368445357 0 -0.00033389123010727157 0.013387405652109639 0 -0.00024811506044052653 0.013310238821426941 0 -0.00033389123010727157 0.013387405652109639 0 -0.00024811506044052653 0.013310238821426941 0 -0.00036502678046763671 0.013190448315362568 0 -0.0006589664505615826 0.021236446747028407 0 -0.000566368428264033 0.021296869917176192 0 -0.00069998796045242994 0.021382644951316775 0 -0.000566368428264033 0.021296869917176192 0 -0.00059313034535487608 0.021389783423098007 0 -0.00067827647910908152 0.021405542139381672 0 -0.000566368428264033 0.021296869917176192 0 -0.00067827647910908152 0.021405542139381672 0 -0.00069998796045242994 0.021382644951316775 0 -0.00024811506044052653 0.013310238821426941 0 -0.00036502678046763671 0.013190448315362568 0 -0.00033618117765194541 0.013166687922809119 0 -0.00037614536027340322 0.017344433352029735 0 -0.00089309346438410644 0.017146309221658419 0 -0.00089309346438410644 0.017146309221658419 0 -0.00070923776114551851 0.012681069946600969 0 -0.00036502678046763671 0.013190448315362568 0 -0.00033618117765194541 0.013166687922809119 0 -0.00042458103664025083 0.013171951259201429 0 -0.0024882770571372334 0.021315737037685741 0 -0.0017213240516206979 0.020878511860293117 0 -0.0016438435477576991 0.021725586840000033 0 -0.00089309346438410644 0.017146309221658419 0 -0.0010600985531806751 0.021888788099677304 0 -0.0030849248049673863 0.020244491611932144 0 -0.0017296336055813071 0.019718541528756135 0 -0.0017213240516206979 0.020878511860293117 0 -0.0019919637026348065 0.017543160250749909 0 -0.0018232836026170736 0.021346378709294039 0 -0.0024882770571372334 0.021315737037685741 0 -0.0025334964784403369 0.020417281481221419 0 -0.0017213240516206979 0.020878511860293117 0 -0.0005698318450809382 0.013161105674343834 0 -0.00056959966496107585 0.013318900773967388 0 -0.00042458103664025083 0.013171951259201429 0 -0.00056959966496107585 0.013318900773967388 0 -0.0003924720280870779 0.013269571714297183 0 -0.00042458103664025083 0.013171951259201429 0 -0.00056959966496107585 0.013318900773967388 0 -0.0003924720280870779 0.013269571714297183 0 -0.0004423186513236977 0.013359579097934787 0 -0.00089309346438410644 0.017146309221658419 0 -0.0019919637026348065 0.017543160250749909 0 -0.0003924720280870779 0.013269571714297183 0 -0.0003540918139025317 0.013191814041174643 0 -0.00030882034118166361 0.013292488980863696 0 -0.0003924720280870779 0.013269571714297183 0 -0.0003540918139025317 0.013191814041174643 0 -0.00042458103664025083 0.013171951259201429 0 -0.00041775675181734382 0.013100631343725489 0 -0.00036502678046763671 0.013190448315362568 0 -0.00042458103664025083 0.013171951259201429 0 -0.00041775675181734382 0.013100631343725489 0 -0.0003540918139025317 0.013191814041174643 0 -0.00042458103664025083 0.013171951259201429 0 -0.00058072123374205238 0.013104098545668833 0 -0.00059158578572603864 0.012829166827721113 0 -0.00072470898582900601 0.012923576587432593 0 -0.00041775675181734382 0.013100631343725489 0 -0.0003540918139025317 0.013191814041174643 0 -0.00029021127058860834 0.013141504298026629 0 -0.00041364161026454009 0.013069460398437453 0 -0.00045793673806039062 0.012981817143189108 0 -0.0003540918139025317 0.013191814041174643 0 -0.00029021127058860834 0.013141504298026629 0 -0.00026271573721631323 0.013226765515614324 0 -0.00045793673806039062 0.012981817143189108 0 -0.00022888123919955226 0.012641227142120343 0 -0.00029021127058860834 0.013141504298026629 0 -0.00026271573721631323 0.013226765515614324 0 -0.00017398862171027089 0.013203912012268594 0 -0.00026271573721631323 0.013226765515614324 0 -0.00030882034118166361 0.013292488980863696 0 -0.00022139816996078428 0.013377713048116923 0 -0.0003540918139025317 0.013191814041174643 0 -0.00026271573721631323 0.013226765515614324 0 -0.00030882034118166361 0.013292488980863696 0 -0.00030882034118166361 0.013292488980863696 0 -0.00032065766863912309 0.013410896416481985 0 -0.00022139816996078428 0.013377713048116923 0 -0.00030403986939924415 0.014176681338219931 0 0.00014084328918669242 0.012613334836486103 0 -0.00030403986939924415 0.014176681338219931 0 0.00038439198506267866 0.012501079531035282 0 -0.00013630799792229068 0.013173012129930578 0 0.00023584972999942145 0.013068228397410847 0 0.00015707847058433062 0.013315915834343399 0 0.00038439198506267866 0.012501079531035282 0 0.00014084328918669242 0.012613334836486103 0 -0.00064681305511029435 0.015878543280979436 0 -0.00089610229837713503 0.015773351404637669 0 -0.00088570268529536173 0.01595553539117572 0 -0.0003924720280870779 0.013269571714297183 0 -0.00032065766863912309 0.013410896416481985 0 -0.0004423186513236977 0.013359579097934787 0 -0.0003924720280870779 0.013269571714297183 0 -0.00030882034118166361 0.013292488980863696 0 -0.00032065766863912309 0.013410896416481985 0 -0.00030403986939924415 0.014176681338219931 0 -0.00070207369184501606 0.014515144411187767 0 -0.00030403986939924415 0.014176681338219931 0 -0.00033011957704104708 0.015008380774682292 0 -1.0077244055797704e-05 0.014096271730671435 0 -8.3789618594346028e-05 0.014066126986249164 0 1.687208663622857e-05 0.014009458450470871 0 -0.00010193010866742458 0.014122942948088536 0 -1.0077244055797704e-05 0.014096271730671435 0 -8.3789618594346028e-05 0.014066126986249164 0 0.00014084328918669242 0.012613334836486103 0 -0.00018657990234079974 0.012863882696480611 0 -0.00014586829496016906 0.011154751593384856 0 -0.00024489910546139106 0.011747830077083235 0 -2.1702180845632086e-05 0.011426848100783217 0 -8.3789618594346028e-05 0.014066126986249164 0 -0.00015349283782659871 0.014090798009782505 0 -0.00014923653373010047 0.013990860335476226 0 -0.00010193010866742458 0.014122942948088536 0 -8.3789618594346028e-05 0.014066126986249164 0 -0.00015349283782659871 0.014090798009782505 0 -8.3789618594346028e-05 0.014066126986249164 0 -0.00014923653373010047 0.013990860335476226 0 1.687208663622857e-05 0.014009458450470871 0 -0.00014923653373010047 0.013990860335476226 0 1.687208663622857e-05 0.014009458450470871 0 0.00011051379067609891 0.01394537722647721 0 -7.4058025906372792e-08 0.013352793489567753 0 0.00011051379067609891 0.01394537722647721 0 5.1669415631738554e-08 0.014617578643839918 0 -0.00014923653373010047 0.013990860335476226 0 -7.4058025906372792e-08 0.013352793489567753 0 0.00011051379067609891 0.01394537722647721 0 -0.00018657990234079974 0.012863882696480611 0 -5.9601189200455147e-08 0.013349570758346956 0 -0.00024489910546139106 0.011747830077083235 0 -1.4371276210121529e-06 0.013347602701901806 0 5.738854085343028e-07 0.012341841787657949 0 -2.2870690112480811e-06 0.014623028593116753 0 -0.00078477862004116899 0.016539726675951529 0 -0.00022884960683771562 0.016654334684139141 0 -2.2870690112480811e-06 0.014623028593116753 0 -0.00022884960683771562 0.016654334684139141 0 2.5242447266258602e-07 0.015966343491491532 0 -2.0691368581426822e-07 0.014621018159890045 0 -0.00031242122653807656 0.01511191782257678 0 0.00011051379067609891 0.01394537722647721 0 5.1669415631738554e-08 0.014617578643839918 0 -2.4670659509931448e-05 0.013972417155533596 0 1.687208663622857e-05 0.014009458450470871 0 -2.4670659509931448e-05 0.013972417155533596 0 2.8873494873151636e-05 0.014061554474307531 0 -0.00031242122653807656 0.01511191782257678 0 -0.0012195131595987734 0.016663633777309582 0 1.687208663622857e-05 0.014009458450470871 0 0.00011051379067609891 0.01394537722647721 0 -2.4670659509931448e-05 0.013972417155533596 0 -0.00078477862004116899 0.016539726675951529 0 -0.00022884960683771562 0.016654334684139141 0 -0.00039418537056560882 0.017272233641344323 0 -0.0014106635773545723 0.017812539980809929 0 -0.0012195131595987734 0.016663633777309582 0 -0.00078477862004116899 0.016539726675951529 0 -0.00039418537056560882 0.017272233641344323 0 -0.00086801000297893438 0.017341209651490851 0 -0.0021151447024149051 0.018242628924002507 0 -0.0032056503613071053 0.018584234569255648 0 -0.0025430665803219564 0.019208138749107474 0 -1.0077244055797704e-05 0.014096271730671435 0 1.687208663622857e-05 0.014009458450470871 0 2.8873494873151636e-05 0.014061554474307531 0 -0.00033011957704104708 0.015008380774682292 0 -0.0012195131595987734 0.016663633777309582 0 -0.0019919637026348065 0.017543160250749909 0 -0.00070207369184501606 0.014515144411187767 0 -0.00089610229837713503 0.015773351404637669 0 -0.00088570268529536173 0.01595553539117572 0 -0.0011206499901211886 0.016025849306378018 0 -0.001139311162300089 0.015668007403956113 0 -0.00089610229837713503 0.015773351404637669 0 -0.0011206499901211886 0.016025849306378018 0 -0.0019919637026348065 0.017543160250749909 0 -0.0012195131595987734 0.016663633777309582 0 -0.0030849248049673863 0.020244491611932144 0 -0.0025430665803219564 0.019208138749107474 0 -0.0017296336055813071 0.019718541528756135 0 -0.0021151447024149051 0.018242628924002507 0 -0.0025430665803219564 0.019208138749107474 0 -0.0017296336055813071 0.019718541528756135 0 -0.0030849248049673863 0.020244491611932144 0 -0.0032056503613071053 0.018584234569255648 0 -0.0025430665803219564 0.019208138749107474 0 -0.0017296336055813071 0.019718541528756135 0 -0.00061899910854422717 0.019861394839417724 0 -0.0011043025435085517 0.020713674405096593 0 -0.0017296336055813071 0.019718541528756135 0 -0.00061899910854422717 0.019861394839417724 0 -0.0010547423572721205 0.018967185885840017 0 -0.00061899910854422717 0.019861394839417724 0 -0.00044564579384512467 0.018840810588447686 0 -0.0010547423572721205 0.018967185885840017 0 -0.00061899910854422717 0.019861394839417724 0 -0.00044564579384512467 0.018840810588447686 0 -0.00013596215793786637 0.019263630529782565 0 -0.00044564579384512467 0.018840810588447686 0 -0.00056365678403209191 0.017714993346685821 0 -5.0467179483048686e-05 0.018453180165012073 0 -0.00044564579384512467 0.018840810588447686 0 -5.0467179483048686e-05 0.018453180165012073 0 -0.00013596215793786637 0.019263630529782565 0 -0.00044564579384512467 0.018840810588447686 0 -0.0010547423572721205 0.018967185885840017 0 -0.00056365678403209191 0.017714993346685821 0 -0.0014106635773545723 0.017812539980809929 0 -0.00055415736719528058 0.017663178954628943 0 -0.0021151447024149051 0.018242628924002507 0 -0.0010547423572721205 0.018967185885840017 0 -0.00056365678403209191 0.017714993346685821 0 -0.0021151447024149051 0.018242628924002507 0 -0.0017296336055813071 0.019718541528756135 0 -0.0010547423572721205 0.018967185885840017 0 -0.00022884960683771562 0.016654334684139141 0 -0.00056365678403209191 0.017714993346685821 0 -0.00013899314552727956 0.017099753905461021 0 -0.00022884960683771562 0.016654334684139141 0 -0.00039418537056560882 0.017272233641344323 0 -0.00056365678403209191 0.017714993346685821 0 -0.00056365678403209191 0.017714993346685821 0 -0.00013899314552727956 0.017099753905461021 0 4.3912567463630219e-05 0.017774898513491962 0 -0.00056365678403209191 0.017714993346685821 0 4.3912567463630219e-05 0.017774898513491962 0 -5.0467179483048686e-05 0.018453180165012073 0 -0.00013899314552727956 0.017099753905461021 0 2.5242447266258602e-07 0.015966343491491532 0 6.9698694281126552e-08 0.017311629197009154 0 -0.00013899314552727956 0.017099753905461021 0 6.9698694281126552e-08 0.017311629197009154 0 4.3912567463630219e-05 0.017774898513491962 0 -0.00022884960683771562 0.016654334684139141 0 -0.00013899314552727956 0.017099753905461021 0 2.5242447266258602e-07 0.015966343491491532 0 0.00029384157901577107 0.018134388654509472 0 9.0111682541330727e-07 0.018657534095524727 0 6.9698694281126552e-08 0.017311629197009154 0 0.00029384157901577107 0.018134388654509472 0 9.0111682541330727e-07 0.018657534095524727 0 0.00015106368666860517 0.018715994751169758 0 0.00029384157901577107 0.018134388654509472 0 6.9698694281126552e-08 0.017311629197009154 0 4.3912567463630219e-05 0.017774898513491962 0 4.3912567463630219e-05 0.017774898513491962 0 0.0004263661230186999 0.018509238096592755 0 -5.0467179483048686e-05 0.018453180165012073 0 0.00029384157901577107 0.018134388654509472 0 4.3912567463630219e-05 0.017774898513491962 0 0.0004263661230186999 0.018509238096592755 0 0.00040707332648806389 0.018240267469755867 0 0.00060736920703667434 0.018418564901195304 0 0.00029384157901577107 0.018134388654509472 0 0.00081492315979370112 0.018526852374970898 0 0.001140331488970034 0.018190719031035276 0 0.00029384157901577107 0.018134388654509472 0 0.00081492315979370112 0.018526852374970898 0 0.0004263661230186999 0.018509238096592755 0 0.0004263661230186999 0.018509238096592755 0 0.00062516520830836601 0.019211304334786038 0 0.00097156216530463059 0.019043536715688904 0 0.00081492315979370112 0.018526852374970898 0 0.0004263661230186999 0.018509238096592755 0 0.00097156216530463059 0.019043536715688904 0 0.00062516520830836601 0.019211304334786038 0 0.00023410319689916352 0.018938644161730543 0 0.00028418609283547094 0.019549551300319105 0 0.0004263661230186999 0.018509238096592755 0 0.00062516520830836601 0.019211304334786038 0 0.00023410319689916352 0.018938644161730543 0 0.00062516520830836601 0.019211304334786038 0 0.0010184659823600244 0.019453702152981051 0 0.00097156216530463059 0.019043536715688904 0 0.0004263661230186999 0.018509238096592755 0 -5.0467179483048686e-05 0.018453180165012073 0 0.00023410319689916352 0.018938644161730543 0 -5.0467179483048686e-05 0.018453180165012073 0 0.00023410319689916352 0.018938644161730543 0 -0.00013596215793786637 0.019263630529782565 0 -0.00013596215793786637 0.019263630529782565 0 0.00028418609283547094 0.019549551300319105 0 -0.00011157429866356916 0.01989056332150399 0 0.00023410319689916352 0.018938644161730543 0 -0.00013596215793786637 0.019263630529782565 0 0.00028418609283547094 0.019549551300319105 0 0.00028418609283547094 0.019549551300319105 0 -0.00011157429866356916 0.01989056332150399 0 0.00031591930164308134 0.020256593119485921 0 -0.00011157429866356916 0.01989056332150399 0 0.00031591930164308134 0.020256593119485921 0 -0.00029897177720516175 0.020557433083817973 0 -0.00061899910854422717 0.019861394839417724 0 -0.00013596215793786637 0.019263630529782565 0 -0.00011157429866356916 0.01989056332150399 0 -0.00061899910854422717 0.019861394839417724 0 -0.00011157429866356916 0.01989056332150399 0 -0.00029897177720516175 0.020557433083817973 0 0.00062516520830836601 0.019211304334786038 0 0.00081749093152375498 0.019814496914178095 0 0.0010184659823600244 0.019453702152981051 0 0.00062516520830836601 0.019211304334786038 0 0.00028418609283547094 0.019549551300319105 0 0.00081749093152375498 0.019814496914178095 0 0.00028418609283547094 0.019549551300319105 0 0.00081749093152375498 0.019814496914178095 0 0.00031591930164308134 0.020256593119485921 0 0.00031591930164308134 0.020256593119485921 0 -8.3935345023579953e-05 0.021149840344112127 0 0.0013426340931127795 0.020475632300804812 0 -2.2423546337310301e-05 0.022412224976928612 0 -8.3935345023579953e-05 0.021149840344112127 0 0.00018572967527578528 0.022589308837992223 0 0.00081749093152375498 0.019814496914178095 0 0.00031591930164308134 0.020256593119485921 0 0.0013426340931127795 0.020475632300804812 0 -0.00013846528681975327 0.021236773220124176 0 0.00065524213916445112 0.021509292530898668 0 -2.2423546337310301e-05 0.022412224976928612 0 -0.00033727714969762423 0.021557924525532495 0 -0.00049791239043549642 0.023072999453532677 0 -2.2423546337310301e-05 0.022412224976928612 0 -0.00033727714969762423 0.021557924525532495 0 -8.3935345023579953e-05 0.021149840344112127 0 -2.2423546337310301e-05 0.022412224976928612 0 -0.00010997970479829912 0.023162225952856188 0 -0.00049791239043549642 0.023072999453532677 0 -2.2423546337310301e-05 0.022412224976928612 0 -0.00010997970479829912 0.023162225952856188 0 0.00012112655718385497 0.02308928774171241 0 -0.00033727714969762423 0.021557924525532495 0 -0.00049529036601245636 0.021441769975766169 0 -0.00037412916469321339 0.021645465745337166 0 -0.00039526151567559017 0.021716409008371327 0 -0.00040532186230678781 0.022311130607667214 0 -0.00049529036601245636 0.021441769975766169 0 -0.000661913212820183 0.021504710502632481 0 -0.00054753567012103227 0.021636228051182402 0 -0.00049529036601245636 0.021441769975766169 0 -0.00037412916469321339 0.021645465745337166 0 -0.00054753567012103227 0.021636228051182402 0 -0.00033727714969762423 0.021557924525532495 0 -0.00049529036601245636 0.021441769975766169 0 -0.00037638427027449853 0.021137215175888922 0 -0.00049529036601245636 0.021441769975766169 0 -0.00037638427027449853 0.021137215175888922 0 -0.00062240486446615731 0.020894016548622833 0 -0.00037638427027449853 0.021137215175888922 0 -0.00029897177720516175 0.020557433083817973 0 -0.00062240486446615731 0.020894016548622833 0 -0.00037638427027449853 0.021137215175888922 0 -8.3935345023579953e-05 0.021149840344112127 0 -0.00029897177720516175 0.020557433083817973 0 -0.00033727714969762423 0.021557924525532495 0 -0.00037638427027449853 0.021137215175888922 0 -8.3935345023579953e-05 0.021149840344112127 0 0.00031591930164308134 0.020256593119485921 0 -8.3935345023579953e-05 0.021149840344112127 0 -0.00029897177720516175 0.020557433083817973 0 -0.00061899910854422717 0.019861394839417724 0 -0.00029897177720516175 0.020557433083817973 0 -0.00062240486446615731 0.020894016548622833 0 -0.00061899910854422717 0.019861394839417724 0 -0.0011043025435085517 0.020713674405096593 0 -0.00062240486446615731 0.020894016548622833 0 -0.0011043025435085517 0.020713674405096593 0 -0.00062240486446615731 0.020894016548622833 0 -0.00083289945453680805 0.021305723204635838 0 -0.0017296336055813071 0.019718541528756135 0 -0.0011043025435085517 0.020713674405096593 0 -0.0017213240516206979 0.020878511860293117 0 -0.0017213240516206979 0.020878511860293117 0 -0.0012091270033328222 0.021456033010692443 0 -0.0016438435477576991 0.021725586840000033 0 -0.0011043025435085517 0.020713674405096593 0 -0.0017213240516206979 0.020878511860293117 0 -0.0012091270033328222 0.021456033010692443 0 -0.0011043025435085517 0.020713674405096593 0 -0.0012091270033328222 0.021456033010692443 0 -0.00083289945453680805 0.021305723204635838 0 -0.00049529036601245636 0.021441769975766169 0 -0.00062240486446615731 0.020894016548622833 0 -0.00083289945453680805 0.021305723204635838 0 -0.0012091270033328222 0.021456033010692443 0 -0.00083289945453680805 0.021305723204635838 0 -0.00079184238310254335 0.021611142694435963 0 -0.00083289945453680805 0.021305723204635838 0 -0.000661913212820183 0.021504710502632481 0 -0.00079184238310254335 0.021611142694435963 0 -0.00049529036601245636 0.021441769975766169 0 -0.00083289945453680805 0.021305723204635838 0 -0.000661913212820183 0.021504710502632481 0 -0.000661913212820183 0.021504710502632481 0 -0.00079184238310254335 0.021611142694435963 0 -0.00054753567012103227 0.021636228051182402 0 -0.0012091270033328222 0.021456033010692443 0 -0.00079184238310254335 0.021611142694435963 0 -0.00080350871076107454 0.021905186592393322 0 -0.00079184238310254335 0.021611142694435963 0 -0.00068356822458356926 0.021739770534045959 0 -0.00080350871076107454 0.021905186592393322 0 -0.00079184238310254335 0.021611142694435963 0 -0.00068356822458356926 0.021739770534045959 0 -0.00054753567012103227 0.021636228051182402 0 -0.00075546849263938905 0.021423824290013688 0 -0.00069998796045242994 0.021382644951316775 0 -0.000773836971335619 0.021464273216687431 0 -0.00068356822458356926 0.021739770534045959 0 -0.00080350871076107454 0.021905186592393322 0 -0.00057274064276010292 0.021756492635844383 0 -0.00075546849263938905 0.021423824290013688 0 -0.00067827647910908152 0.021405542139381672 0 -0.00069998796045242994 0.021382644951316775 0 -0.00083269255655389499 0.021620603107407571 0 -0.0010600985531806751 0.021888788099677304 0 -0.0012091270033328222 0.021456033010692443 0 -0.00080350871076107454 0.021905186592393322 0 -0.0016438435477576991 0.021725586840000033 0 -0.0006589664505615826 0.021236446747028407 0 -0.00069998796045242994 0.021382644951316775 0 -0.00073422321271902468 0.021317115917848441 0 -0.00069998796045242994 0.021382644951316775 0 -0.00073422321271902468 0.021317115917848441 0 -0.000773836971335619 0.021464273216687431 0 -0.00075546849263938905 0.021423824290013688 0 -0.0006241512650227933 0.021679379968000966 0 -0.0004408348222882333 0.021742541172451543 0 -0.00048901704130488671 0.021876839103162505 0 -0.00073550257653854376 0.021837978555650246 0 -0.0006241512650227933 0.021679379968000966 0 -0.00075546849263938905 0.021423824290013688 0 -0.000773836971335619 0.021464273216687431 0 -0.0006241512650227933 0.021679379968000966 0 -0.00083733209364558509 0.021250164959800047 0 -0.00073422321271902468 0.021317115917848441 0 -0.000773836971335619 0.021464273216687431 0 -0.00075376970407166029 0.021613474777505581 0 -0.0007835123403249479 0.02145299908561751 0 -0.00073550257653854376 0.021837978555650246 0 -0.000773836971335619 0.021464273216687431 0 -0.0006241512650227933 0.021679379968000966 0 -0.00083269255655389499 0.021620603107407571 0 -0.00048296251440899216 0.021744989870804421 0 -0.00048901704130488671 0.021876839103162505 0 -0.0006241512650227933 0.021679379968000966 0 -0.0004408348222882333 0.021742541172451543 0 -0.0004408348222882333 0.021742541172451543 0 -0.00034749449304517679 0.021757343399053414 0 -0.00044776216959040806 0.021719934604211531 0 -0.00048901704130488671 0.021876839103162505 0 -0.0004408348222882333 0.021742541172451543 0 -0.00034749449304517679 0.021757343399053414 0 -7.1228569034777079e-05 0.024027014850838291 0 -0.00035079367929067109 0.023767760788384863 0 -0.00012843682520761708 0.023753022039200412 0 -0.00035079367929067109 0.023767760788384863 0 -0.00031012848694623812 0.023596845053491078 0 -0.00012843682520761708 0.023753022039200412 0 -0.00031012848694623812 0.023596845053491078 0 -9.3897652897531394e-06 0.023504086755826444 0 -0.00012843682520761708 0.023753022039200412 0 -0.00030372964151410289 0.022935042486879498 0 -0.00037169423669177533 0.023421105484159512 0 -0.00037693757894485439 0.023823588092950883 0 -0.00031012848694623812 0.023596845053491078 0 -0.00049791239043549642 0.023072999453532677 0 -0.00034749449304517679 0.021757343399053414 0 -0.00037412916469321339 0.021645465745337166 0 -0.00044776216959040806 0.021719934604211531 0 -0.00030372964151410289 0.022935042486879498 0 -0.00040532186230678781 0.022311130607667214 0 -0.00031012848694623812 0.023596845053491078 0 -0.00010997970479829912 0.023162225952856188 0 -9.3897652897531394e-06 0.023504086755826444 0 -0.00031012848694623812 0.023596845053491078 0 -0.00010997970479829912 0.023162225952856188 0 -0.00049791239043549642 0.023072999453532677 0 -0.00080350871076107454 0.021905186592393322 0 -0.0004408348222882333 0.021742541172451543 0 -0.00057274064276010292 0.021756492635844383 0 -0.00037412916469321339 0.021645465745337166 0 -0.00054753567012103227 0.021636228051182402 0 -0.00044776216959040806 0.021719934604211531 0 -0.00068356822458356926 0.021739770534045959 0 -0.00054753567012103227 0.021636228051182402 0 -0.00057274064276010292 0.021756492635844383 0 -0.00054753567012103227 0.021636228051182402 0 -0.00057274064276010292 0.021756492635844383 0 -0.00044776216959040806 0.021719934604211531 0 -0.0004408348222882333 0.021742541172451543 0 -0.00057274064276010292 0.021756492635844383 0 -0.00044776216959040806 0.021719934604211531 0 0.00023232972522504742 0.023814295317144706 0 0.00015366603968587904 0.023517545015516398 0 5.2752748964351461e-05 0.023824533349394616 0 0.00023232972522504742 0.023814295317144706 0 0.00015366603968587904 0.023517545015516398 0 0.00025454872942865127 0.023374176266755711 0 0.00015366603968587904 0.023517545015516398 0 0.00025454872942865127 0.023374176266755711 0 0.00012112655718385497 0.02308928774171241 0 -9.3897652897531394e-06 0.023504086755826444 0 0.00015366603968587904 0.023517545015516398 0 0.00012112655718385497 0.02308928774171241 0 -0.00010997970479829912 0.023162225952856188 0 -9.3897652897531394e-06 0.023504086755826444 0 0.00012112655718385497 0.02308928774171241 0 -9.3897652897531394e-06 0.023504086755826444 0 0.00015366603968587904 0.023517545015516398 0 5.2752748964351461e-05 0.023824533349394616 0 -9.3897652897531394e-06 0.023504086755826444 0 5.2752748964351461e-05 0.023824533349394616 0 -0.00012843682520761708 0.023753022039200412 0 -7.1228569034777079e-05 0.024027014850838291 0 5.2752748964351461e-05 0.023824533349394616 0 -0.00012843682520761708 0.023753022039200412 0 -7.1228569034777079e-05 0.024027014850838291 0 5.2752748964351461e-05 0.023824533349394616 0 9.8607612948918916e-05 0.024064014383558232 0 0.0001971234596192188 0.024196509616907377 0 0.00023232972522504742 0.023814295317144706 0 9.8607612948918916e-05 0.024064014383558232 0 0.00023232972522504742 0.023814295317144706 0 5.2752748964351461e-05 0.023824533349394616 0 9.8607612948918916e-05 0.024064014383558232 0 0.0001971234596192188 0.024196509616907377 0 0.00023232972522504742 0.023814295317144706 0 0.00027951989695821429 0.024119898452949231 0 0.00026151906706869667 0.024412779358862442 0 0.00027951989695821429 0.024119898452949231 0 0.00029682104023989975 0.024340167023958297 0 0.00027951989695821429 0.024119898452949231 0 0.0003017621699489584 0.024147931530024876 0 0.00029682104023989975 0.024340167023958297 0 0.00027951989695821429 0.024119898452949231 0 0.0003017621699489584 0.024147931530024876 0 0.00030190516942545835 0.023774213954441559 0 0.0003017621699489584 0.024147931530024876 0 0.00030190516942545835 0.023774213954441559 0 0.00029367470677293841 0.024060924614968039 0 0.00023232972522504742 0.023814295317144706 0 0.00030190516942545835 0.023774213954441559 0 0.00025454872942865127 0.023374176266755711 0 0.00023232972522504742 0.023814295317144706 0 0.00027951989695821429 0.024119898452949231 0 0.00030190516942545835 0.023774213954441559 0 0.00030190516942545835 0.023774213954441559 0 0.00029373325121554897 0.023326559145924967 0 0.00025454872942865127 0.023374176266755711 0 0.00030190516942545835 0.023774213954441559 0 0.00030242367102878914 0.023781128035952694 0 0.00029367470677293841 0.024060924614968039 0 0.00030190516942545835 0.023774213954441559 0 0.00030242367102878914 0.023781128035952694 0 0.00029373325121554897 0.023326559145924967 0 0.0012674770354719526 0.021914415109244724 0 0.0011052171414795615 0.021744595624439787 0 0.0023394883957105375 0.020020332391905381 0 0.0019785961673547442 0.020172723909671814 0 0.002233003439945713 0.019876766532870009 0 0.0019785961673547442 0.020172723909671814 0 0.0013426340931127795 0.020475632300804812 0 0.0017921344318156754 0.019776672323220591 0 0.0011052171414795615 0.021744595624439787 0 0.00065524213916445112 0.021509292530898668 0 0.00029373325121554897 0.023326559145924967 0 0.00025454872942865127 0.023374176266755711 0 0.00018572967527578528 0.022589308837992223 0 -2.2423546337310301e-05 0.022412224976928612 0 0.00012112655718385497 0.02308928774171241 0 0.00018572967527578528 0.022589308837992223 0 0.00025454872942865127 0.023374176266755711 0 0.00012112655718385497 0.02308928774171241 0 0.00018572967527578528 0.022589308837992223 0 0.0013426340931127795 0.020475632300804812 0 0.0013010276391697397 0.019778784899389872 0 0.0017921344318156754 0.019776672323220591 0 0.00081749093152375498 0.019814496914178095 0 0.0013426340931127795 0.020475632300804812 0 0.0013010276391697397 0.019778784899389872 0 0.0013010276391697397 0.019778784899389872 0 0.0017921344318156754 0.019776672323220591 0 0.0014291849356910212 0.019366425854892635 0 0.00081749093152375498 0.019814496914178095 0 0.0013010276391697397 0.019778784899389872 0 0.0010184659823600244 0.019453702152981051 0 0.0013010276391697397 0.019778784899389872 0 0.0010184659823600244 0.019453702152981051 0 0.0014291849356910212 0.019366425854892635 0 0.0019785961673547442 0.020172723909671814 0 0.0017921344318156754 0.019776672323220591 0 0.0020560261305689639 0.019587456128511177 0 0.0017921344318156754 0.019776672323220591 0 0.0018610462863536846 0.019360608531153099 0 0.0014291849356910212 0.019366425854892635 0 0.0017921344318156754 0.019776672323220591 0 0.0018610462863536846 0.019360608531153099 0 0.0020560261305689639 0.019587456128511177 0 0.0018610462863536846 0.019360608531153099 0 0.0013867705687762404 0.018826411530367505 0 0.0019571500374207383 0.018423703179934636 0 0.0018610462863536846 0.019360608531153099 0 0.0018624542321509854 0.019207476224173129 0 0.0020560261305689639 0.019587456128511177 0 0.0018749312711911945 0.019037367659092249 0 0.0008730361690635044 0.019542535831514222 0 0.0010184659823600244 0.019453702152981051 0 0.00097156216530463059 0.019043536715688904 0 0.0014291849356910212 0.019366425854892635 0 0.0018610462863536846 0.019360608531153099 0 0.0014291849356910212 0.019366425854892635 0 0.0013867705687762404 0.018826411530367505 0 0.00097156216530463059 0.019043536715688904 0 0.0014291849356910212 0.019366425854892635 0 0.0013867705687762404 0.018826411530367505 0 0.00081492315979370112 0.018526852374970898 0 0.00097156216530463059 0.019043536715688904 0 0.0013867705687762404 0.018826411530367505 0 0.00060736920703667434 0.018418564901195304 0 0.0008730361690635044 0.019542535831514222 0 0.0013867705687762404 0.018826411530367505 0 0.001140331488970034 0.018190719031035276 0 0.0019571500374207383 0.018423703179934636 0 0.00081492315979370112 0.018526852374970898 0 0.0013867705687762404 0.018826411530367505 0 0.001140331488970034 0.018190719031035276 0 0.00015106368666860517 0.018715994751169758 0 -0.00033211342365834775 0.018698635787788812 0 -1.1082929013622822e-06 0.020000521445903429 0 -0.00025465127284953615 0.021196292158138549 0 -1.1230033505169319e-06 0.020004452764808434 0 8.2177023505103838e-05 0.020959130178792276 0 0.0008730361690635044 0.019542535831514222 0 -5.9087394985067612e-07 0.020003293857472699 0 9.0111682541330727e-07 0.018657534095524727 0 0.00015106368666860517 0.018715994751169758 0 -1.1082929013622822e-06 0.020000521445903429 0 1.0533367434087473e-06 0.021179512220999716 0 0.00021354411472000918 0.021333208803314654 0 4.6492552562336674e-05 0.021633504282586966 0 1.0533367434087473e-06 0.021179512220999716 0 8.2177023505103838e-05 0.020959130178792276 0 0.00021354411472000918 0.021333208803314654 0 -1.1230033505169319e-06 0.020004452764808434 0 1.0533367434087473e-06 0.021179512220999716 0 8.2177023505103838e-05 0.020959130178792276 0 -0.00025465127284953615 0.021196292158138549 0 8.2177023505103838e-05 0.020959130178792276 0 0.00021354411472000918 0.021333208803314654 0 0.0008730361690635044 0.019542535831514222 0 0.001162504321746958 0.020538138484443157 0 0.0021609022311012915 0.019462718777086604 0 0.0020560261305689639 0.019587456128511177 0 0.0021606836238111569 0.019548212038189836 0 0.0018624542321509854 0.019207476224173129 0 0.0021609022311012915 0.019462718777086604 0 0.0020560261305689639 0.019587456128511177 0 0.0019785961673547442 0.020172723909671814 0 0.002233003439945713 0.019876766532870009 0 0.0020560261305689639 0.019587456128511177 0 0.002233003439945713 0.019876766532870009 0 0.0020560261305689639 0.019587456128511177 0 0.0023924692581345644 0.019860848396983301 0 0.0020686462678965903 0.019604218169821511 0 0.0022234929990849178 0.019715126347480547 0 0.0023394883957105375 0.020020332391905381 0 0.002233003439945713 0.019876766532870009 0 0.0023924692581345644 0.019860848396983301 0 0.0023924692581345644 0.019860848396983301 0 0.0024376589271756948 0.019973847729685995 0 0.0024372496340987031 0.020001226636156402 0 0.0022234929990849178 0.019715126347480547 0 0.0024297917866132604 0.019543270827640218 0 0.0021606836238111569 0.019548212038189836 0 0.0020990030061581151 0.019544642650586867 0 0.0021122378294186439 0.019590579354584234 0 0.0020990030061581151 0.019544642650586867 0 0.0021122378294186439 0.019590579354584234 0 0.0019371216731558813 0.019625028034730256 0 0.0021609022311012915 0.019462718777086604 0 0.0021606836238111569 0.019548212038189836 0 0.0021122378294186439 0.019590579354584234 0 0.001162504321746958 0.020538138484443157 0 0.0009848637994765879 0.020059880611605949 0 0.00021354411472000918 0.021333208803314654 0 -0.00022402281345794669 0.021223103780089823 0 4.6492552562336674e-05 0.021633504282586966 0 -0.00022402281345794669 0.021223103780089823 0 -0.00054374170531006148 0.021728943251208947 0 -0.00063830257853418702 0.021375247413557195 0 -0.00022402281345794669 0.021223103780089823 0 4.6492552562336674e-05 0.021633504282586966 0 -0.00054374170531006148 0.021728943251208947 0 4.6492552562336674e-05 0.021633504282586966 0 -8.8524052314719733e-07 0.022353339194618127 0 -0.00054374170531006148 0.021728943251208947 0 2.0456469154217472e-07 0.022356123242502225 0 -0.00025110317185376724 0.022806195722452335 0 1.0533367434087473e-06 0.021179512220999716 0 4.6492552562336674e-05 0.021633504282586966 0 -8.8524052314719733e-07 0.022353339194618127 0 -7.2049753527457248e-07 0.022358369113695965 0 4.4574343704099596e-07 0.02499864114666871 0 -1.8969226840954804e-05 0.024039102527367958 0 4.4574343704099596e-07 0.02499864114666871 0 5.2449985292965291e-06 0.024872457080917662 0 -1.9010724783447427e-07 0.024999959792515691 0 4.4574343704099596e-07 0.02499864114666871 0 -1.8969226840954804e-05 0.024039102527367958 0 5.2449985292965291e-06 0.024872457080917662 0 -0.00025110317185376724 0.022806195722452335 0 -0.00038692885684001569 0.023776959092075747 0 -0.00054374170531006148 0.021728943251208947 0 -0.00092831654510002924 0.021429260252158817 0 -0.00063830257853418702 0.021375247413557195 0 -4.1141416115258398e-05 0.024952594467355954 0 5.2449985292965291e-06 0.024872457080917662 0 -1.9010724783447427e-07 0.024999959792515691 0 -1.8969226840954804e-05 0.024039102527367958 0 -6.7058350181179722e-06 0.024850913299613506 0 5.2449985292965291e-06 0.024872457080917662 0 -0.00038692885684001569 0.023776959092075747 0 -0.00020864274254953446 0.025038344856378451 0 -0.00038692885684001569 0.023776959092075747 0 0.00013490641665786922 0.022605944182785394 0 -0.00038692885684001569 0.023776959092075747 0 4.5967579255917233e-07 0.024999819954350425 0 -5.8476680959520226e-06 0.024985345229342298 0 -3.4226556919286807e-09 0.024999957131870931 0 -4.6884953447373626e-06 0.024988305000352748 0 -3.4226556919286807e-09 0.024999957131870931 0 -9.6365477736320719e-10 0.025000008488613241 0 -4.6884953447373626e-06 0.024988305000352748 0 0.0009848637994765879 0.020059880611605949 0 0.00013490641665786922 0.022605944182785394 0 -0.00022402281345794669 0.021223103780089823 0 -0.00063830257853418702 0.021375247413557195 0 -0.00083850498411949207 0.021106978786043479 0 -0.00092831654510002924 0.021429260252158817 0 -0.00063830257853418702 0.021375247413557195 0 -0.00083850498411949207 0.021106978786043479 0 0.0020990030061581151 0.019544642650586867 0 0.0019562799360783542 0.019563574334353625 0 0.0019371216731558813 0.019625028034730256 0 0.0024376589271756948 0.019973847729685995 0 0.0024055636123549461 0.020027302759523358 0 0.0024117560491148547 0.020020595017225289 0 0.0024297917866132604 0.019543270827640218 0 0.0012370068255221046 0.022163649832556909 0 0.0012370068255221046 0.022163649832556909 0 0.00013490641665786922 0.022605944182785394 0 2.6864732301687361e-08 0.025000023623335699 0 1.2820180329990103e-05 0.024991814821778154 0 4.4522278019885345e-09 0.024999906989453723 0 4.2283098027944304e-07 0.024999636725154834 0 0.00013490641665786922 0.022605944182785394 0 2.6864732301687361e-08 0.025000023623335699 0 1.9661081844460398e-05 0.02498488879119835 0 1.2820180329990103e-05 0.024991814821778154 0 2.5278431380161397e-05 0.024975453083838729 0 1.9661081844460398e-05 0.02498488879119835 0 1.2820180329990103e-05 0.024991814821778154 0 0.0012370068255221046 0.022163649832556909 0 2.8247779252038364e-05 0.023995280034082182 0 4.9874703821733612e-05 0.024984021731412922 0 1.2820180329990103e-05 0.024991814821778154 0 5.8341973469301773e-05 0.024951939710163729 0 3.652421214246912e-08 0.025000260237300835 0 8.1331721464544991e-05 0.024957585810210105 0 0.0002135026952452374 0.025101569147577198 0 1.2820180329990103e-05 0.024991814821778154 0 4.4522278019885345e-09 0.024999906989453723 0 5.8341973469301773e-05 0.024951939710163729 0 -9.4516913976548214e-07 0.025000355751256417 0 0.0009793519312062105 0.02362376628498003 0 3.652421214246912e-08 0.025000260237300835 0 8.1331721464544991e-05 0.024957585810210105 0 5.0827869479897638e-08 0.024999672410830499 0 8.1331721464544991e-05 0.024957585810210105 0 5.0827869479897638e-08 0.024999672410830499 0 0.00034312791641303702 0.024583912290234378 0 0.0009793519312062105 0.02362376628498003 0 0.00014956875081143057 0.024995671952234608 0 0.00063169314908530813 0.023989037362154755 0 0.00030835064240964288 0.024238409921623148 0 0.00034312791641303702 0.024583912290234378 0 8.1331721464544991e-05 0.024957585810210105 0 0.0002135026952452374 0.025101569147577198 0 0.00034312791641303702 0.024583912290234378 0 0.0012370068255221046 0.022163649832556909 0 0.0009793519312062105 0.02362376628498003 0 0.0009793519312062105 0.02362376628498003 0 0.00149215841755442 0.02182987314767558 0 0.00063169314908530813 0.023989037362154755 0 0.00030388590460975543 0.024006307672963106 0 0.00030835064240964288 0.024238409921623148 0 0.0024376589271756948 0.019973847729685995 0 0.0024117560491148547 0.020020595017225289 0 0.0024372496340987031 0.020001226636156402 0 0.0012674770354719526 0.021914415109244724 0 0.00149215841755442 0.02182987314767558 0 0.0023394883957105375 0.020020332391905381 0 0.0023924692581345644 0.019860848396983301 0 0.0024372496340987031 0.020001226636156402 0 0.00030242367102878914 0.023781128035952694 0 0.00030388590460975543 0.024006307672963106 0 0.00029367470677293841 0.024060924614968039 0 0.00029367470677293841 0.024060924614968039 0 0.00030835064240964288 0.024238409921623148 0 0.00031226080959185403 0.024437418740844555 0 0.00030388590460975543 0.024006307672963106 0 0.00029367470677293841 0.024060924614968039 0 0.00030835064240964288 0.024238409921623148 0 0.00031226080959185403 0.024437418740844555 0 0.00019922431617964089 0.024764523319020664 0 0.00034312791641303702 0.024583912290234378 0 0.00030835064240964288 0.024238409921623148 0 0.00031226080959185403 0.024437418740844555 0 0.00034312791641303702 0.024583912290234378 0 0.0003017621699489584 0.024147931530024876 0 0.00029367470677293841 0.024060924614968039 0 0.00031226080959185403 0.024437418740844555 0 0.00027143469407489698 0.024581526609052499 0 0.00031226080959185403 0.024437418740844555 0 0.00029682104023989975 0.024340167023958297 0 0.0003017621699489584 0.024147931530024876 0 0.00031226080959185403 0.024437418740844555 0 0.00029682104023989975 0.024340167023958297 0 0.00027143469407489698 0.024581526609052499 0 0.00031226080959185403 0.024437418740844555 0 0.00019922431617964089 0.024764523319020664 0 0.00019922431617964089 0.024764523319020664 0 1.7436618100625702e-07 0.024999686479787765 0 5.0827869479897638e-08 0.024999672410830499 0 0.00015975226627951857 0.024819393310882787 0 0.00019922431617964089 0.024764523319020664 0 1.7436618100625702e-07 0.024999686479787765 0 0.00019922431617964089 0.024764523319020664 0 5.0827869479897638e-08 0.024999672410830499 0 0.00034312791641303702 0.024583912290234378 0 -0.0023583698327500329 0.0034050455350407879 0 -0.0027695844190536402 0.0033737259975847658 0 -0.0023696610716574073 0.0029654100397972843 0 -0.0023583698327500329 0.0034050455350407879 0 -0.0027695844190536402 0.0033737259975847658 0 -0.0026875208287806792 0.0036197066916787554 0 -0.0023611466871971583 0.0027454758900522349 0 -0.0023473501927488258 0.0024361615155676125 0 -0.0027695844190536402 0.0033737259975847658 0 -0.0028965927526115381 0.0037556509604269894 0 -0.003148309467871748 0.0037471139965002012 0 -0.0027695844190536402 0.0033737259975847658 0 -0.0026875208287806792 0.0036197066916787554 0 -0.0028965927526115381 0.0037556509604269894 0 -0.0028965927526115381 0.0037556509604269894 0 -0.003148309467871748 0.0037471139965002012 0 -0.0028908632187567098 0.0039726265482794504 0 -0.0028965927526115381 0.0037556509604269894 0 -0.0027011210314920684 0.003885158466584257 0 -0.0028908632187567098 0.0039726265482794504 0 -0.0026875208287806792 0.0036197066916787554 0 -0.0028965927526115381 0.0037556509604269894 0 -0.0027011210314920684 0.003885158466584257 0 -0.0026875208287806792 0.0036197066916787554 0 -0.0027011210314920684 0.003885158466584257 0 -0.0024769372226459449 0.0037593381292565582 0 -0.0023583698327500329 0.0034050455350407879 0 -0.0026875208287806792 0.0036197066916787554 0 -0.0024769372226459449 0.0037593381292565582 0 -0.0024769372226459449 0.0037593381292565582 0 -0.0022155189704574558 0.0037975627845221378 0 -0.0024192226201504062 0.0040818369828380611 0 -0.0022155189704574558 0.0037975627845221378 0 -0.0018724580277789658 0.0037525325362042271 0 -0.0020963314734535063 0.0040906170215411547 0 -0.0023583698327500329 0.0034050455350407879 0 -0.0024769372226459449 0.0037593381292565582 0 -0.0022155189704574558 0.0037975627845221378 0 -0.0018724580277789658 0.0037525325362042271 0 -0.0017630637540735213 0.0041177139100899308 0 -0.0015750561612122929 0.0036725557445421277 0 -0.0022155189704574558 0.0037975627845221378 0 -0.0018724580277789658 0.0037525325362042271 0 -0.0018852034125958457 0.003382009827751649 0 -0.0018724580277789658 0.0037525325362042271 0 -0.0018852034125958457 0.003382009827751649 0 -0.0015750561612122929 0.0036725557445421277 0 -0.0023583698327500329 0.0034050455350407879 0 -0.0022155189704574558 0.0037975627845221378 0 -0.0018852034125958457 0.003382009827751649 0 -0.0023583698327500329 0.0034050455350407879 0 -0.0018852034125958457 0.003382009827751649 0 -0.0019170841620527632 0.0029687249762795792 0 -0.0023583698327500329 0.0034050455350407879 0 -0.0019170841620527632 0.0029687249762795792 0 -0.0023696610716574073 0.0029654100397972843 0 -0.0018852034125958457 0.003382009827751649 0 -0.0019170841620527632 0.0029687249762795792 0 -0.0015410456175242613 0.0029976282438484866 0 -0.0019170841620527632 0.0029687249762795792 0 -0.00186925674339216 0.0025108147755853565 0 -0.001538805719306347 0.0026339174024455144 0 -0.0019170841620527632 0.0029687249762795792 0 -0.0015410456175242613 0.0029976282438484866 0 -0.001538805719306347 0.0026339174024455144 0 -0.0018990775290444694 0.0025016461427611342 0 -0.0021403211509422467 0.0025857471852878586 0 -0.0019170841620527632 0.0029687249762795792 0 -0.00186925674339216 0.0025108147755853565 0 -0.0023696610716574073 0.0029654100397972843 0 -0.00186925674339216 0.0025108147755853565 0 -0.0019777086087744197 0.0022507621425169599 0 -0.0019611680145071374 0.0024028432328471001 0 -0.0016707459074843584 0.0017957949334543662 0 -0.0016387963670421431 0.0017484126803429757 0 -0.0016124092679968079 0.0017375876643755245 0 -0.0017711328695989141 0.0020040158066754947 0 -0.0017768230200131162 0.0020714981496492515 0 -0.0019777086087744197 0.0022507621425169599 0 -0.0018437084969863424 0.0022220378472664558 0 -0.0019611680145071374 0.0024028432328471001 0 -0.0023611466871971583 0.0027454758900522349 0 -0.0021403211509422467 0.0025857471852878586 0 -0.0018647092200790936 0.0019500906936287411 0 -0.0019777086087744197 0.0022507621425169599 0 -0.0018437084969863424 0.0022220378472664558 0 -0.0017711328695989141 0.0020040158066754947 0 -0.0018068358468625481 0.0019137806178725933 0 -0.0018647092200790936 0.0019500906936287411 0 -0.0018437084969863424 0.0022220378472664558 0 -0.0018190426767108793 0.0018884896843726748 0 -0.0016707459074843584 0.0017957949334543662 0 -0.0016387963670421431 0.0017484126803429757 0 -0.0017562416123050345 0.0017209961694501746 0 -0.0017791379143471105 0.0017858701869303481 0 -0.0018501605727189994 0.001797628369375022 0 -0.0017562416123050345 0.0017209961694501746 0 -0.0016707459074843584 0.0017957949334543662 0 -0.0017791379143471105 0.0017858701869303481 0 -0.0017562416123050345 0.0017209961694501746 0 -0.00099662499422737338 0.0010480574215052576 0 -0.0013504023409234597 0.0013393916931206625 0 -0.00013970737458686119 0.00029497994169303357 0 -0.00030678317872412923 0.0007996965999099941 0 -0.00098128420437565401 0.00092513469069572813 0 -0.0018527551333296683 0.0017902235138530969 0 -0.0018501605727189994 0.001797628369375022 0 -0.0017562416123050345 0.0017209961694501746 0 -0.0018501605727189994 0.001797628369375022 0 -0.0018817768893131237 0.0018272135863033497 0 -0.0018614346711831604 0.001716918163413637 0 -0.0018527551333296683 0.0017902235138530969 0 -0.0018501605727189994 0.001797628369375022 0 -0.0018614346711831604 0.001716918163413637 0 -0.0016707459074843584 0.0017957949334543662 0 -0.0017791379143471105 0.0017858701869303481 0 -0.0018050874918248924 0.0018188186133160694 0 -0.0018501605727189994 0.001797628369375022 0 -0.0018050874918248924 0.0018188186133160694 0 -0.0018817768893131237 0.0018272135863033497 0 -0.0018050874918248924 0.0018188186133160694 0 -0.0018190426767108793 0.0018884896843726748 0 -0.0018817768893131237 0.0018272135863033497 0 -0.0016707459074843584 0.0017957949334543662 0 -0.0018050874918248924 0.0018188186133160694 0 -0.0018190426767108793 0.0018884896843726748 0 -0.0017791379143471105 0.0017858701869303481 0 -0.0018501605727189994 0.001797628369375022 0 -0.0018050874918248924 0.0018188186133160694 0 0.00037641775085358865 0.0003705571986576025 0 0.00031247358257796012 0.00013407341319212663 0 0.00032057238602492809 0.00015870645060446479 0 -0.00013970737458686119 0.00029497994169303357 0 0.00037641775085358865 0.0003705571986576025 0 -0.00030678317872412923 0.0007996965999099941 0 -0.00013970737458686119 0.00029497994169303357 0 0.00037641775085358865 0.0003705571986576025 0 0.00031247358257796012 0.00013407341319212663 0 -0.00099662499422737338 0.0010480574215052576 0 -0.00072197839672763313 0.00093208720696291085 0 -0.0018527551333296683 0.0017902235138530969 0 -0.0017377629553800965 0.0017227424154220698 0 -0.0018614346711831604 0.001716918163413637 0 -0.0017377629553800965 0.0017227424154220698 0 -0.0018145551089266271 0.001587232112037075 0 -0.0017381154941296796 0.0014152886531225834 0 -0.0017377629553800965 0.0017227424154220698 0 -0.0018145551089266271 0.001587232112037075 0 -0.0018614346711831604 0.001716918163413637 0 -0.0018145551089266271 0.001587232112037075 0 -0.0018614346711831604 0.001716918163413637 0 -0.00186887615762947 0.0016015103383252409 0 -0.0018145551089266271 0.001587232112037075 0 -0.0018615719066460612 0.0015058663453481904 0 -0.00186887615762947 0.0016015103383252409 0 -0.0018615719066460612 0.0015058663453481904 0 -0.0018110724772400176 0.001438160701813891 0 -0.001873655370574703 0.0014077421638570146 0 -0.0018145551089266271 0.001587232112037075 0 -0.0018615719066460612 0.0015058663453481904 0 -0.0018110724772400176 0.001438160701813891 0 -0.0018145551089266271 0.001587232112037075 0 -0.0018110724772400176 0.001438160701813891 0 -0.0017381154941296796 0.0014152886531225834 0 -0.0018419705516547131 0.0015602598375068313 0 -0.0023473501927488258 0.0024361615155676125 0 -0.0018647092200790936 0.0019500906936287411 0 -0.0018190426767108793 0.0018884896843726748 0 -0.0018292294620885167 0.0019634072488886561 0 -0.0018817768893131237 0.0018272135863033497 0 -0.0019804500319145759 0.0015925385555232209 0 -0.0020850358972828572 0.0015272565818892033 0 -0.0018190426767108793 0.0018884896843726748 0 -0.0018817768893131237 0.0018272135863033497 0 -0.0018292294620885167 0.0019634072488886561 0 -0.0018817768893131237 0.0018272135863033497 0 -0.0019055401879402053 0.0016470852718081623 0 -0.0019804500319145759 0.0015925385555232209 0 -0.0018817768893131237 0.0018272135863033497 0 -0.0018614346711831604 0.001716918163413637 0 -0.0019055401879402053 0.0016470852718081623 0 -0.0018614346711831604 0.001716918163413637 0 -0.00186887615762947 0.0016015103383252409 0 -0.0019055401879402053 0.0016470852718081623 0 -0.0019055401879402053 0.0016470852718081623 0 -0.0019490903324505104 0.0015586804789942386 0 -0.0019090255498425961 0.0015474952246498825 0 -0.0019055401879402053 0.0016470852718081623 0 -0.0019490903324505104 0.0015586804789942386 0 -0.0019804500319145759 0.0015925385555232209 0 -0.00186887615762947 0.0016015103383252409 0 -0.0019055401879402053 0.0016470852718081623 0 -0.0019090255498425961 0.0015474952246498825 0 -0.0018615719066460612 0.0015058663453481904 0 -0.00186887615762947 0.0016015103383252409 0 -0.0019090255498425961 0.0015474952246498825 0 -0.0018615719066460612 0.0015058663453481904 0 -0.0019090255498425961 0.0015474952246498825 0 -0.0019118189678005977 0.0014641723263159663 0 -0.0018615719066460612 0.0015058663453481904 0 -0.0019118189678005977 0.0014641723263159663 0 -0.001873655370574703 0.0014077421638570146 0 -0.0019090255498425961 0.0015474952246498825 0 -0.0019118189678005977 0.0014641723263159663 0 -0.0019571673798554384 0.001496167669947313 0 -0.0019490903324505104 0.0015586804789942386 0 -0.0019571673798554384 0.001496167669947313 0 -0.0019979717945398578 0.0015157649886725713 0 -0.0019490903324505104 0.0015586804789942386 0 -0.0019090255498425961 0.0015474952246498825 0 -0.0019571673798554384 0.001496167669947313 0 -0.0019118189678005977 0.0014641723263159663 0 -0.0019571673798554384 0.001496167669947313 0 -0.0019615788693481515 0.0014452922554733755 0 -0.0020438599097687736 0.0015041278532794864 0 -0.0019979717945398578 0.0015157649886725713 0 -0.0020146981235630969 0.0014513731548201369 0 -0.0019571673798554384 0.001496167669947313 0 -0.0019979717945398578 0.0015157649886725713 0 -0.0020146981235630969 0.0014513731548201369 0 -0.002026546190882334 0.0015314863272616467 0 -0.0020438599097687736 0.0015041278532794864 0 -0.0019979717945398578 0.0015157649886725713 0 -0.002026546190882334 0.0015314863272616467 0 -0.0020438599097687736 0.0015041278532794864 0 -0.0020850358972828572 0.0015272565818892033 0 -0.0021821418112601236 0.0022158758741258906 0 -0.0023473501927488258 0.0024361615155676125 0 -0.002026546190882334 0.0015314863272616467 0 -0.0019979717945398578 0.0015157649886725713 0 -0.0019804500319145759 0.0015925385555232209 0 -0.0019490903324505104 0.0015586804789942386 0 -0.0019979717945398578 0.0015157649886725713 0 -0.0019804500319145759 0.0015925385555232209 0 -0.002026546190882334 0.0015314863272616467 0 -0.0019804500319145759 0.0015925385555232209 0 -0.0020850358972828572 0.0015272565818892033 0 -0.0020438599097687736 0.0015041278532794864 0 -0.002060824531556859 0.0015213835254974494 0 -0.0021161902210650274 0.0013270539280668798 0 -0.0020146981235630969 0.0014513731548201369 0 -0.0019929973695143937 0.0014113676004767249 0 -0.0021161902210650274 0.0013270539280668798 0 -0.0019929973695143937 0.0014113676004767249 0 -0.0019803267825784093 0.0013738770671673935 0 -0.0021161902210650274 0.0013270539280668798 0 -0.003148309467871748 0.0037471139965002012 0 -0.0029844812275584241 0.0043156770895629529 0 -0.0028908632187567098 0.0039726265482794504 0 -0.0020438599097687736 0.0015041278532794864 0 -0.0020146981235630969 0.0014513731548201369 0 -0.0021161902210650274 0.0013270539280668798 0 -0.0023473501927488258 0.0024361615155676125 0 -0.0024286957803992979 0.0028665196493531451 0 -0.0019571673798554384 0.001496167669947313 0 -0.0020146981235630969 0.0014513731548201369 0 -0.0019615788693481515 0.0014452922554733755 0 -0.0019118189678005977 0.0014641723263159663 0 -0.0019615788693481515 0.0014452922554733755 0 -0.0019370201996269233 0.001405179369971617 0 -0.0019615788693481515 0.0014452922554733755 0 -0.0019370201996269233 0.001405179369971617 0 -0.0019929973695143937 0.0014113676004767249 0 -0.0020146981235630969 0.0014513731548201369 0 -0.0019615788693481515 0.0014452922554733755 0 -0.0019929973695143937 0.0014113676004767249 0 -0.0019118189678005977 0.0014641723263159663 0 -0.0019370201996269233 0.001405179369971617 0 -0.001873655370574703 0.0014077421638570146 0 -0.0019370201996269233 0.001405179369971617 0 -0.001935059783110025 0.001340923846996793 0 -0.001873655370574703 0.0014077421638570146 0 -0.0019370201996269233 0.001405179369971617 0 -0.0019803267825784093 0.0013738770671673935 0 -0.001935059783110025 0.001340923846996793 0 -0.0019370201996269233 0.001405179369971617 0 -0.0019929973695143937 0.0014113676004767249 0 -0.0019803267825784093 0.0013738770671673935 0 -0.0034909307375351373 0.0011274817739616704 0 -0.0035573532871107975 0.0011750837792552067 0 -0.0033519325661595383 0.0014936879041190267 0 -0.0034909307375351373 0.0011274817739616704 0 -0.0033519325661595383 0.0014936879041190267 0 -0.0034286821772816574 0.0018436890113725261 0 -0.0033519325661595383 0.0014936879041190267 0 -0.0031436752147048904 0.0019904611996051109 0 -0.0024630953966864686 0.0011727333992411087 0 -0.0019803267825784093 0.0013738770671673935 0 -0.001935059783110025 0.001340923846996793 0 -0.0021161902210650274 0.0013270539280668798 0 -0.0035573532871107975 0.0011750837792552067 0 -0.0033519325661595383 0.0014936879041190267 0 -0.0024630953966864686 0.0011727333992411087 0 -0.0027078653293908395 0.0010814835145476292 0 -0.0024286957803992979 0.0028665196493531451 0 -0.0017381154941296796 0.0014152886531225834 0 -0.001792941402397603 0.0013120055988023491 0 -0.0016760189082134158 0.001144844032603548 0 -0.0022601341048207701 0.0012983623399157095 0 -0.0017255968458541981 0.0011866836507413213 0 -0.0018110724772400176 0.001438160701813891 0 -0.0017381154941296796 0.0014152886531225834 0 -0.001792941402397603 0.0013120055988023491 0 -0.0027078653293908395 0.0010814835145476292 0 -0.0022601341048207701 0.0012983623399157095 0 -0.001935059783110025 0.001340923846996793 0 -0.001792941402397603 0.0013120055988023491 0 -0.001873655370574703 0.0014077421638570146 0 -0.0018110724772400176 0.001438160701813891 0 -0.001792941402397603 0.0013120055988023491 0 -0.001873655370574703 0.0014077421638570146 0 -0.0034909307375351373 0.0011274817739616704 0 -0.0027414362118614402 0.0012973681149138826 0 -0.0027367254088824632 0.00052890626687412175 0 -0.0034909307375351373 0.0011274817739616704 0 -0.0035573532871107975 0.0011750837792552067 0 -0.0027414362118614402 0.0012973681149138826 0 -0.0027414362118614402 0.0012973681149138826 0 -0.0027367254088824632 0.00052890626687412175 0 -0.002048614701552758 0.00067731767154067678 0 -0.0027367254088824632 0.00052890626687412175 0 -0.0017638911384695569 0.00010462595164964023 0 -0.002048614701552758 0.00067731767154067678 0 -0.0027367254088824632 0.00052890626687412175 0 -0.0025383950573741312 -0.00028964776662169812 0 -0.0017638911384695569 0.00010462595164964023 0 -0.0027367254088824632 0.00052890626687412175 0 -0.0029403968235144603 6.3995147108734102e-05 0 -0.0025383950573741312 -0.00028964776662169812 0 -0.0034909307375351373 0.0011274817739616704 0 -0.0027367254088824632 0.00052890626687412175 0 -0.0034230067356342472 0.00011033112298154019 0 -0.0027367254088824632 0.00052890626687412175 0 -0.0029403968235144603 6.3995147108734102e-05 0 -0.0034230067356342472 0.00011033112298154019 0 -0.0033740308312742392 0.00093554007918061996 0 -0.0035842657705908204 0.001133915026250998 0 -0.0033511896635025486 -0.00071398316780106716 0 -0.0034230067356342472 0.00011033112298154019 0 -0.0030631182126249984 -0.00021694069825043156 0 -0.0033740308312742392 0.00093554007918061996 0 -0.0024479148676202485 -0.00054762436444352421 0 -0.0033511896635025486 -0.00071398316780106716 0 -0.0030631182126249984 -0.00021694069825043156 0 -0.0025383950573741312 -0.00028964776662169812 0 -0.0029403968235144603 6.3995147108734102e-05 0 -0.0034230067356342472 0.00011033112298154019 0 -0.0030631182126249984 -0.00021694069825043156 0 -0.0029403968235144603 6.3995147108734102e-05 0 -0.0030631182126249984 -0.00021694069825043156 0 -0.0025383950573741312 -0.00028964776662169812 0 -0.0022998707119286422 -0.00045579526249569304 0 -0.0019156438648951452 -0.00056444796233436772 0 -0.0020557044703429931 -0.0009046586112186546 0 -0.0031436752147048904 0.0019904611996051109 0 -0.0029960662356704223 0.0029935774577834165 0 -0.0019891451002261172 0.0026881636833244243 0 -0.0031436752147048904 0.0019904611996051109 0 -0.0019891451002261172 0.0026881636833244243 0 -0.0024630953966864686 0.0011727333992411087 0 -0.0031436752147048904 0.0019904611996051109 0 -0.0037709971164049056 0.0030733725974045867 0 -0.0029960662356704223 0.0029935774577834165 0 -0.0033519325661595383 0.0014936879041190267 0 -0.0031436752147048904 0.0019904611996051109 0 -0.0034286821772816574 0.0018436890113725261 0 -0.0034909307375351373 0.0011274817739616704 0 -0.0037539672745376812 0.0021105761307374563 0 -0.0034286821772816574 0.0018436890113725261 0 -0.0035168034857850279 0.0011331599365548559 0 -0.0035842657705908204 0.001133915026250998 0 -0.0037539672745376812 0.0021105761307374563 0 -0.0034286821772816574 0.0018436890113725261 0 -0.0033957333919705478 0.0023648586521531345 0 -0.0031744564880912514 0.0020255315474632064 0 -0.0036514456160404306 0.0028556858204783391 0 -0.0031436752147048904 0.0019904611996051109 0 -0.0034286821772816574 0.0018436890113725261 0 -0.0033957333919705478 0.0023648586521531345 0 -0.0037708407365485415 0.002761900655735095 0 -0.0037539672745376812 0.0021105761307374563 0 -0.0033957333919705478 0.0023648586521531345 0 -0.0035443476914789017 0.0024699525472661886 0 -0.0036514456160404306 0.0028556858204783391 0 -0.003660975321098318 0.0028204447475232825 0 -0.0037708407365485415 0.002761900655735095 0 -0.0033957333919705478 0.0023648586521531345 0 -0.0042393632816203047 0.0039998635191667662 0 -0.0037709971164049056 0.0030733725974045867 0 -0.0033718165929492888 0.003723313304531308 0 -0.0037709971164049056 0.0030733725974045867 0 -0.0033718165929492888 0.003723313304531308 0 -0.0029960662356704223 0.0029935774577834165 0 -0.0029960662356704223 0.0029935774577834165 0 -0.0026999844717391346 0.0037137910855200226 0 -0.0019891451002261172 0.0026881636833244243 0 -0.0033718165929492888 0.003723313304531308 0 -0.0029960662356704223 0.0029935774577834165 0 -0.0026999844717391346 0.0037137910855200226 0 -0.0018949471185633882 0.0045163616110458294 0 -0.0026999844717391346 0.0037137910855200226 0 -0.0019891451002261172 0.0026881636833244243 0 -0.0018948148686054964 0.0044214575935097727 0 -0.0019480644935800275 0.0037787569632722132 0 -0.0018949471185633882 0.0045163616110458294 0 -0.0019316900032164549 0.0047940048887342894 0 -0.0020315913982752679 0.0048333816562594178 0 -0.0020331343277819511 0.0048079144868841597 0 -0.0019316900032164549 0.0047940048887342894 0 -0.0020034496746667639 0.0048237360677853454 0 -0.0020331343277819511 0.0048079144868841597 0 -0.0019316900032164549 0.0047940048887342894 0 -0.0020315913982752679 0.0048333816562594178 0 -0.0019480644935800275 0.0037787569632722132 0 -0.0024286957803992979 0.0028665196493531451 0 -0.0024286957803992979 0.0028665196493531451 0 -0.0022513639740584113 0.0047218710758385593 0 -0.0019316900032164549 0.0047940048887342894 0 -0.001957659704738597 0.0048143420520029307 0 -0.0020034496746667639 0.0048237360677853454 0 -0.0029844812275584241 0.0043156770895629529 0 -0.0025492830654985687 0.0043984777232131756 0 -0.0027056232216050276 0.0041422872457930427 0 -0.0025492830654985687 0.0043984777232131756 0 -0.0024192226201504062 0.0040818369828380611 0 -0.0021225410651504145 0.004486287875280286 0 -0.0025492830654985687 0.0043984777232131756 0 -0.0024192226201504062 0.0040818369828380611 0 -0.0027056232216050276 0.0041422872457930427 0 -0.0027011210314920684 0.003885158466584257 0 -0.0024192226201504062 0.0040818369828380611 0 -0.0027056232216050276 0.0041422872457930427 0 -0.0027011210314920684 0.003885158466584257 0 -0.0024769372226459449 0.0037593381292565582 0 -0.0024192226201504062 0.0040818369828380611 0 -0.0029844812275584241 0.0043156770895629529 0 -0.0028908632187567098 0.0039726265482794504 0 -0.0027056232216050276 0.0041422872457930427 0 -0.0027011210314920684 0.003885158466584257 0 -0.0028908632187567098 0.0039726265482794504 0 -0.0027056232216050276 0.0041422872457930427 0 -0.0017630637540735213 0.0041177139100899308 0 -0.0020963314734535063 0.0040906170215411547 0 -0.0021225410651504145 0.004486287875280286 0 -0.0018724580277789658 0.0037525325362042271 0 -0.0017630637540735213 0.0041177139100899308 0 -0.0020963314734535063 0.0040906170215411547 0 -0.0024192226201504062 0.0040818369828380611 0 -0.0020963314734535063 0.0040906170215411547 0 -0.0021225410651504145 0.004486287875280286 0 -0.0022155189704574558 0.0037975627845221378 0 -0.0024192226201504062 0.0040818369828380611 0 -0.0020963314734535063 0.0040906170215411547 0 -0.0022513639740584113 0.0047218710758385593 0 -0.0020690209267585922 0.0046019639013720193 0 -0.0020331343277819511 0.0048079144868841597 0 -0.0020034496746667639 0.0048237360677853454 0 -0.0020493985391856293 0.0047427291313181779 0 -0.0020690209267585922 0.0046019639013720193 0 -0.001733659642213262 0.0046092771189529189 0 -0.0017630637540735213 0.0041177139100899308 0 -0.0021225410651504145 0.004486287875280286 0 -0.0017172746608854546 0.0045902204894510369 0 -0.0020493985391856293 0.0047427291313181779 0 -0.0020212289806634592 0.0048608581194767029 0 -0.0017172746608854546 0.0045902204894510369 0 -0.0020331343277819511 0.0048079144868841597 0 -0.0020493985391856293 0.0047427291313181779 0 -0.0020212289806634592 0.0048608581194767029 0 -0.0020331343277819511 0.0048079144868841597 0 -0.0020212289806634592 0.0048608581194767029 0 -0.0020315913982752679 0.0048333816562594178 0 -0.0019807306767159294 0.0047766215035101372 0 -0.0020315913982752679 0.0048333816562594178 0 -0.0020978303010305769 0.0051041847164552089 0 -0.0020212289806634592 0.0048608581194767029 0 -0.0020315913982752679 0.0048333816562594178 0 -0.0020978303010305769 0.0051041847164552089 0 -0.0020212289806634592 0.0048608581194767029 0 -0.0020978303010305769 0.0051041847164552089 0 -0.0016730574571837487 0.0051437026976226497 0 -0.0016730574571837487 0.0051437026976226497 0 -0.0015194515560575618 0.0048510519171354651 0 -0.0011650275792292563 0.0053595176133538255 0 -0.0017303628278207137 0.0058087350801875855 0 -0.0020978303010305769 0.0051041847164552089 0 -0.0016730574571837487 0.0051437026976226497 0 -0.0017303628278207137 0.0058087350801875855 0 -0.0016730574571837487 0.0051437026976226497 0 -0.0011650275792292563 0.0053595176133538255 0 -0.0020212289806634592 0.0048608581194767029 0 -0.0015194515560575618 0.0048510519171354651 0 -0.0017172746608854546 0.0045902204894510369 0 -0.0020212289806634592 0.0048608581194767029 0 -0.0016730574571837487 0.0051437026976226497 0 -0.0015194515560575618 0.0048510519171354651 0 -0.0015194515560575618 0.0048510519171354651 0 -0.0017172746608854546 0.0045902204894510369 0 -0.0013766132512551385 0.0045828989144717919 0 -0.0015194515560575618 0.0048510519171354651 0 -0.0010691624722112215 0.0047550078699074008 0 -0.0013766132512551385 0.0045828989144717919 0 -0.0011051366762019654 0.0053088020308690621 0 -0.0012941241709516836 0.0059101224397917632 0 -0.0010832932561056113 0.0064349477146109025 0 -0.0011387753893597706 0.0058738582246390383 0 -0.001385503596928903 0.0063856960066320323 0 -0.0015194515560575618 0.0048510519171354651 0 -0.0010691624722112215 0.0047550078699074008 0 -0.0011650275792292563 0.0053595176133538255 0 -0.0010989458979942478 0.0071396549338916 0 -0.00094281445971658656 0.0070746602442398696 0 -0.00092744621245098721 0.0070010976070718749 0 -0.0010989458979942478 0.0071396549338916 0 -0.00092744621245098721 0.0070010976070718749 0 -0.00093375754911041058 0.0068990625506909053 0 -0.00097516895588460487 0.0071583892615112157 0 -0.0010989458979942478 0.0071396549338916 0 -0.00094281445971658656 0.0070746602442398696 0 -0.0011045563979187665 0.006793139786381467 0 -0.00086046087296619105 0.0063804043823654658 0 -0.0010832932561056113 0.0064349477146109025 0 -0.0011387753893597706 0.0058738582246390383 0 -0.00083687752131734626 0.0058110268516259672 0 -0.00094281445971658656 0.0070746602442398696 0 -0.00084700480513249794 0.0070867097359480873 0 -0.00086155734295452263 0.0070218084092019883 0 -0.00097516895588460487 0.0071583892615112157 0 -0.00094281445971658656 0.0070746602442398696 0 -0.00084700480513249794 0.0070867097359480873 0 -0.00094281445971658656 0.0070746602442398696 0 -0.00092744621245098721 0.0070010976070718749 0 -0.00086155734295452263 0.0070218084092019883 0 -0.00092744621245098721 0.0070010976070718749 0 -0.00086155734295452263 0.0070218084092019883 0 -0.00083268643790363112 0.0069533435695394398 0 -0.00064112046881457268 0.0071824570675730198 0 -0.00080724348962352632 0.0071772702625351259 0 -0.00072694843314328127 0.0070846514113337275 0 -0.00080724348962352632 0.0071772702625351259 0 -0.00097516895588460487 0.0071583892615112157 0 -0.00084700480513249794 0.0070867097359480873 0 -0.00080724348962352632 0.0071772702625351259 0 -0.00072694843314328127 0.0070846514113337275 0 -0.00084700480513249794 0.0070867097359480873 0 -0.00084700480513249794 0.0070867097359480873 0 -0.00086155734295452263 0.0070218084092019883 0 -0.00076837226393440582 0.0070036753249396871 0 -0.00072694843314328127 0.0070846514113337275 0 -0.00084700480513249794 0.0070867097359480873 0 -0.00076837226393440582 0.0070036753249396871 0 -0.00086155734295452263 0.0070218084092019883 0 -0.00076837226393440582 0.0070036753249396871 0 -0.00083268643790363112 0.0069533435695394398 0 -0.00072694843314328127 0.0070846514113337275 0 -0.00076837226393440582 0.0070036753249396871 0 -0.00068187755052847177 0.0070074125191852132 0 -0.00076837226393440582 0.0070036753249396871 0 -0.00068187755052847177 0.0070074125191852132 0 -0.00069524480690550089 0.006934709219073229 0 -0.00076837226393440582 0.0070036753249396871 0 -0.00069524480690550089 0.006934709219073229 0 -0.00075913645843699138 0.0069278799741255247 0 -0.00069524480690550089 0.006934709219073229 0 -0.00075913645843699138 0.0069278799741255247 0 -0.00070095867107036714 0.0068717733215774264 0 -0.00075913645843699138 0.0069278799741255247 0 -0.00080217365685200138 0.0069060669243913107 0 -0.00075467177610463526 0.0068655046012100754 0 -0.00076837226393440582 0.0070036753249396871 0 -0.00075913645843699138 0.0069278799741255247 0 -0.00083268643790363112 0.0069533435695394398 0 -0.00080217365685200138 0.0069060669243913107 0 -0.00081522160429748746 0.0068761158447848258 0 -0.0008673335352103104 0.006918535658287114 0 -0.00083268643790363112 0.0069533435695394398 0 -0.00080217365685200138 0.0069060669243913107 0 -0.0008673335352103104 0.006918535658287114 0 -0.00075913645843699138 0.0069278799741255247 0 -0.00083268643790363112 0.0069533435695394398 0 -0.00080217365685200138 0.0069060669243913107 0 -0.00080217365685200138 0.0069060669243913107 0 -0.00081522160429748746 0.0068761158447848258 0 -0.00075467177610463526 0.0068655046012100754 0 -0.00081522160429748746 0.0068761158447848258 0 -0.0007713170546005168 0.0068244851111360985 0 -0.00083009700200226274 0.006855200404803796 0 -0.00081522160429748746 0.0068761158447848258 0 -0.0007713170546005168 0.0068244851111360985 0 -0.00075467177610463526 0.0068655046012100754 0 -0.0007713170546005168 0.0068244851111360985 0 -0.00075467177610463526 0.0068655046012100754 0 -0.00071086453247766381 0.0068171770214550684 0 -0.00075913645843699138 0.0069278799741255247 0 -0.00075467177610463526 0.0068655046012100754 0 -0.00070095867107036714 0.0068717733215774264 0 -0.00075467177610463526 0.0068655046012100754 0 -0.00070095867107036714 0.0068717733215774264 0 -0.00071086453247766381 0.0068171770214550684 0 -0.00070095867107036714 0.0068717733215774264 0 -0.00066426906496273408 0.0068233620885557464 0 -0.00071086453247766381 0.0068171770214550684 0 -0.00070095867107036714 0.0068717733215774264 0 -0.00066426906496273408 0.0068233620885557464 0 -0.00063290660917426911 0.006871168310623922 0 -0.00069524480690550089 0.006934709219073229 0 -0.00070095867107036714 0.0068717733215774264 0 -0.00063290660917426911 0.006871168310623922 0 -0.00092744621245098721 0.0070010976070718749 0 -0.0008673335352103104 0.006918535658287114 0 -0.00093375754911041058 0.0068990625506909053 0 -0.00092744621245098721 0.0070010976070718749 0 -0.00083268643790363112 0.0069533435695394398 0 -0.0008673335352103104 0.006918535658287114 0 -0.00093375754911041058 0.0068990625506909053 0 -0.00083009700200226274 0.006855200404803796 0 -0.00076340084630722982 0.0067575169914720623 0 -0.00081522160429748746 0.0068761158447848258 0 -0.0008673335352103104 0.006918535658287114 0 -0.00083009700200226274 0.006855200404803796 0 -0.0008673335352103104 0.006918535658287114 0 -0.00093375754911041058 0.0068990625506909053 0 -0.00083009700200226274 0.006855200404803796 0 -0.0011387753893597706 0.0058738582246390383 0 -0.00083687752131734626 0.0058110268516259672 0 -0.00079967605638993724 0.0059059673161830631 0 -0.00086046087296619105 0.0063804043823654658 0 -0.0007200214574761886 0.0065709709408449017 0 -0.00083687752131734626 0.0058110268516259672 0 -0.00079967605638993724 0.0059059673161830631 0 -0.00067798977475719985 0.0066286704573060417 0 -0.0011387753893597706 0.0058738582246390383 0 -0.00079967605638993724 0.0059059673161830631 0 -0.00094663963890484243 0.0050463003345639608 0 -0.00077407920889368772 0.0059338051621640924 0 -0.00062117176008019421 0.0057682136180569376 0 -0.00079967605638993724 0.0059059673161830631 0 -0.00067798977475719985 0.0066286704573060417 0 -0.00058629594156472313 0.0067430896547748921 0 -0.00093375754911041058 0.0068990625506909053 0 -0.00076340084630722982 0.0067575169914720623 0 -0.00067798977475719985 0.0066286704573060417 0 -0.0011051366762019654 0.0053088020308690621 0 -0.00091456231272929954 0.0046468420463693936 0 -0.00079967605638993724 0.0059059673161830631 0 -0.00094663963890484243 0.0050463003345639608 0 -0.00059907019529713745 0.0047566462204959225 0 -0.00066426906496273408 0.0068233620885557464 0 -0.00066866160966179184 0.0067666906721481459 0 -0.00062188509668484305 0.0067971924327698578 0 -0.00071086453247766381 0.0068171770214550684 0 -0.00066866160966179184 0.0067666906721481459 0 -0.00071865790418930951 0.0067673891971230292 0 -0.00066426906496273408 0.0068233620885557464 0 -0.00071086453247766381 0.0068171770214550684 0 -0.00066866160966179184 0.0067666906721481459 0 -0.00066866160966179184 0.0067666906721481459 0 -0.00071865790418930951 0.0067673891971230292 0 -0.00068827248652529919 0.0067229811084034922 0 -0.0007713170546005168 0.0068244851111360985 0 -0.00083009700200226274 0.006855200404803796 0 -0.00076340084630722982 0.0067575169914720623 0 -0.00071865790418930951 0.0067673891971230292 0 -0.00068827248652529919 0.0067229811084034922 0 -0.00071704439780987436 0.0067319187900299875 0 -0.0007713170546005168 0.0068244851111360985 0 -0.00071086453247766381 0.0068171770214550684 0 -0.00071865790418930951 0.0067673891971230292 0 -0.0007713170546005168 0.0068244851111360985 0 -0.00071865790418930951 0.0067673891971230292 0 -0.00076340084630722982 0.0067575169914720623 0 -0.00071865790418930951 0.0067673891971230292 0 -0.00076340084630722982 0.0067575169914720623 0 -0.00071704439780987436 0.0067319187900299875 0 -0.00076340084630722982 0.0067575169914720623 0 -0.00069961896532079709 0.0066961737316413531 0 -0.00067798977475719985 0.0066286704573060417 0 -0.00076340084630722982 0.0067575169914720623 0 -0.00069961896532079709 0.0066961737316413531 0 -0.00071704439780987436 0.0067319187900299875 0 -0.00069961896532079709 0.0066961737316413531 0 -0.00066420656976045266 0.0066904675109299263 0 -0.00068827248652529919 0.0067229811084034922 0 -0.00069961896532079709 0.0066961737316413531 0 -0.00066420656976045266 0.0066904675109299263 0 -0.00067798977475719985 0.0066286704573060417 0 -0.00069961896532079709 0.0066961737316413531 0 -0.00068827248652529919 0.0067229811084034922 0 -0.00071704439780987436 0.0067319187900299875 0 -0.00066866160966179184 0.0067666906721481459 0 -0.00068827248652529919 0.0067229811084034922 0 -0.00066016601039049067 0.0067280565179589184 0 -0.00066420656976045266 0.0066904675109299263 0 -0.00066016601039049067 0.0067280565179589184 0 -0.00064748432566505735 0.0067276763069527411 0 -0.00066420656976045266 0.0066904675109299263 0 -0.00068827248652529919 0.0067229811084034922 0 -0.00066016601039049067 0.0067280565179589184 0 -0.00066016601039049067 0.0067280565179589184 0 -0.00064220935519178444 0.0067498461371701323 0 -0.00064748432566505735 0.0067276763069527411 0 -0.00064220935519178444 0.0067498461371701323 0 -0.00064748432566505735 0.0067276763069527411 0 -0.00063511071982389194 0.0067507763321718655 0 -0.00066866160966179184 0.0067666906721481459 0 -0.00066016601039049067 0.0067280565179589184 0 -0.00064220935519178444 0.0067498461371701323 0 -0.00058629594156472313 0.0067430896547748921 0 -0.00059426581290162174 0.0068154115510999516 0 -0.00049979795194534749 0.0070093688208604805 0 -0.00062852968602213045 0.0067685065089830784 0 -0.00064748432566505735 0.0067276763069527411 0 -0.00063511071982389194 0.0067507763321718655 0 -0.00066420656976045266 0.0066904675109299263 0 -0.00064748432566505735 0.0067276763069527411 0 -0.00064513016472444128 0.0067209004136124413 0 -0.00062852968602213045 0.0067685065089830784 0 -0.00064748432566505735 0.0067276763069527411 0 -0.00064513016472444128 0.0067209004136124413 0 -0.00064513016472444128 0.0067209004136124413 0 -0.00058629594156472313 0.0067430896547748921 0 -0.00059426581290162174 0.0068154115510999516 0 -0.00066420656976045266 0.0066904675109299263 0 -0.00064513016472444128 0.0067209004136124413 0 -0.00067798977475719985 0.0066286704573060417 0 -0.00064513016472444128 0.0067209004136124413 0 -0.00067798977475719985 0.0066286704573060417 0 -0.00058629594156472313 0.0067430896547748921 0 -0.00062852968602213045 0.0067685065089830784 0 -0.00059426581290162174 0.0068154115510999516 0 -0.00060066550857167892 0.0068447839080102721 0 -0.00062852968602213045 0.0067685065089830784 0 -0.00062545908734418937 0.0068050233768483983 0 -0.00060066550857167892 0.0068447839080102721 0 -0.00062852968602213045 0.0067685065089830784 0 -0.00064513016472444128 0.0067209004136124413 0 -0.00059426581290162174 0.0068154115510999516 0 -0.00090666629205866619 0.0042881982597342671 0 -0.00093964069188118293 0.0040316667383368688 0 -0.00068303267533921172 0.0039596594685245394 0 -0.00091456231272929954 0.0046468420463693936 0 -0.00068158373724524514 0.0039967600906058009 0 -0.00094663963890484243 0.0050463003345639608 0 -0.00059907019529713745 0.0047566462204959225 0 -0.00068303267533921172 0.0039596594685245394 0 -0.00090666629205866619 0.0042881982597342671 0 -0.00093964069188118293 0.0040316667383368688 0 -0.0011191840833286583 0.0041539419299516855 0 -0.00093964069188118293 0.0040316667383368688 0 -0.0011191840833286583 0.0041539419299516855 0 -0.0011114995944906019 0.0038828309567037959 0 -0.0011191840833286583 0.0041539419299516855 0 -0.0013725732019685625 0.003957933207441271 0 -0.0014126375458058075 0.0043094753585792454 0 -0.0011191840833286583 0.0041539419299516855 0 -0.0013725732019685625 0.003957933207441271 0 -0.0011114995944906019 0.0038828309567037959 0 -0.0017630637540735213 0.0041177139100899308 0 -0.0013725732019685625 0.003957933207441271 0 -0.0014126375458058075 0.0043094753585792454 0 -0.0017630637540735213 0.0041177139100899308 0 -0.0014126375458058075 0.0043094753585792454 0 -0.0017172746608854546 0.0045902204894510369 0 -0.0014126375458058075 0.0043094753585792454 0 -0.0017172746608854546 0.0045902204894510369 0 -0.0013766132512551385 0.0045828989144717919 0 -0.0010691624722112215 0.0047550078699074008 0 -0.0013766132512551385 0.0045828989144717919 0 -0.0011646875615186154 0.004418598506785402 0 -0.0010691624722112215 0.0047550078699074008 0 -0.00090666629205866619 0.0042881982597342671 0 -0.0011646875615186154 0.004418598506785402 0 -0.0014126375458058075 0.0043094753585792454 0 -0.0013766132512551385 0.0045828989144717919 0 -0.0011646875615186154 0.004418598506785402 0 -0.00090666629205866619 0.0042881982597342671 0 -0.0011191840833286583 0.0041539419299516855 0 -0.0011646875615186154 0.004418598506785402 0 -0.0011191840833286583 0.0041539419299516855 0 -0.0014126375458058075 0.0043094753585792454 0 -0.0011646875615186154 0.004418598506785402 0 0.0014741715185876392 0.011069588805594065 0 0.00033222433441635566 0.011981767363098823 0 0.00070477184214863108 0.012314415453815808 0 0.0010400513168004567 0.012612700001225155 0 0.00068771577986706501 0.011398729363215973 0 0.0011901921015483137 0.012358332811109521 0 0.0014741715185876392 0.011069588805594065 0 0.00070477184214863108 0.012314415453815808 0 0.00033222433441635566 0.011981767363098823 0 0.00070477184214863108 0.012314415453815808 0 0.00025153963388188812 0.012528302261378826 0 0.00084760963728267805 0.01425080818250031 0 0.0010208075982370271 0.014022657558065558 0 0.00092801763154459944 0.014205638815844926 0 0.00061301257128200653 0.013299283830971377 0 0.00027379744525583794 0.013700385904387326 0 0.00089640603056165757 0.013729939660914662 0 0.00070477184214863108 0.012314415453815808 0 0.00025153963388188812 0.012528302261378826 0 0.00084760963728267805 0.01425080818250031 0 0.00052610227590557418 0.013230007367985424 0 0.00089640603056165757 0.013729939660914662 0 0.0011901921015483137 0.012358332811109521 0 0.00070477184214863108 0.012314415453815808 0 -0.00016215248577152754 0.0071573168589052511 0 -0.00033109794797437655 0.0070287042079720851 0 -0.00032274203490754966 0.0071696732784287702 0 0.00033222433441635566 0.011981767363098823 0 -0.00038430685228484562 0.011297111219791271 0 0.00032908455386155481 0.011011054974030191 0 0.00033222433441635566 0.011981767363098823 0 0.00025153963388188812 0.012528302261378826 0 -0.00038430685228484562 0.011297111219791271 0 0.00061301257128200653 0.013299283830971377 0 0.00027379744525583794 0.013700385904387326 0 9.9582362468920225e-06 0.012200825303715902 0 -0.00016215248577152754 0.0071573168589052511 0 -0.00033109794797437655 0.0070287042079720851 0 -0.00033987449230041522 0.0068635586884529705 0 7.0536436313120077e-05 0.010393045871725431 0 -0.00025820924071949232 0.0096377985753872391 0 0.00052610227590557418 0.013230007367985424 0 -0.00025820924071949232 0.0096377985753872391 0 -0.0004251976882939219 0.0069327207157047098 0 -0.00033109794797437655 0.0070287042079720851 0 -0.00033987449230041522 0.0068635586884529705 0 -0.0004251976882939219 0.0069327207157047098 0 -0.00050785921241115392 0.0068325645676212913 0 -0.00033987449230041522 0.0068635586884529705 0 -0.00050158614407621498 0.0069197382144107642 0 -0.00057116662051981534 0.0068534510575533987 0 -0.00050785921241115392 0.0068325645676212913 0 -0.0004251976882939219 0.0069327207157047098 0 -0.00050158614407621498 0.0069197382144107642 0 -0.00050785921241115392 0.0068325645676212913 0 -0.00050158614407621498 0.0069197382144107642 0 -0.00044734311870422858 0.0070424032646679482 0 -0.00058619676490013779 0.0069655954097443719 0 -0.0004251976882939219 0.0069327207157047098 0 -0.00050158614407621498 0.0069197382144107642 0 -0.00044734311870422858 0.0070424032646679482 0 -0.0004251976882939219 0.0069327207157047098 0 -0.00033109794797437655 0.0070287042079720851 0 -0.00044734311870422858 0.0070424032646679482 0 -0.00033109794797437655 0.0070287042079720851 0 -0.00032274203490754966 0.0071696732784287702 0 -0.00044734311870422858 0.0070424032646679482 0 -0.00032274203490754966 0.0071696732784287702 0 -0.00048289166343645936 0.0071807614715882302 0 -0.00044734311870422858 0.0070424032646679482 0 -0.00048289166343645936 0.0071807614715882302 0 -0.00044734311870422858 0.0070424032646679482 0 -0.00053394417687770059 0.0070846365677266808 0 -0.00053394417687770059 0.0070846365677266808 0 -0.00062548689034318402 0.0070610702789070676 0 -0.00058619676490013779 0.0069655954097443719 0 -0.00044734311870422858 0.0070424032646679482 0 -0.00053394417687770059 0.0070846365677266808 0 -0.00058619676490013779 0.0069655954097443719 0 -0.00064112046881457268 0.0071824570675730198 0 -0.00048289166343645936 0.0071807614715882302 0 -0.00053394417687770059 0.0070846365677266808 0 -0.00064112046881457268 0.0071824570675730198 0 -0.00053394417687770059 0.0070846365677266808 0 -0.00062548689034318402 0.0070610702789070676 0 -0.00064112046881457268 0.0071824570675730198 0 -0.00072694843314328127 0.0070846514113337275 0 -0.00062548689034318402 0.0070610702789070676 0 -0.00068187755052847177 0.0070074125191852132 0 -0.00062548689034318402 0.0070610702789070676 0 -0.00058619676490013779 0.0069655954097443719 0 -0.00072694843314328127 0.0070846514113337275 0 -0.00068187755052847177 0.0070074125191852132 0 -0.00062548689034318402 0.0070610702789070676 0 -0.00068187755052847177 0.0070074125191852132 0 -0.00069524480690550089 0.006934709219073229 0 -0.00058619676490013779 0.0069655954097443719 0 -0.00069524480690550089 0.006934709219073229 0 -0.00058619676490013779 0.0069655954097443719 0 -0.00063290660917426911 0.006871168310623922 0 -0.00058619676490013779 0.0069655954097443719 0 -0.00057116662051981534 0.0068534510575533987 0 -0.00063290660917426911 0.006871168310623922 0 -0.00050158614407621498 0.0069197382144107642 0 -0.00058619676490013779 0.0069655954097443719 0 -0.00057116662051981534 0.0068534510575533987 0 -0.00057116662051981534 0.0068534510575533987 0 -0.00063290660917426911 0.006871168310623922 0 -0.00062188509668484305 0.0067971924327698578 0 -0.00066866160966179184 0.0067666906721481459 0 -0.00064220935519178444 0.0067498461371701323 0 -0.00062188509668484305 0.0067971924327698578 0 -0.00066426906496273408 0.0068233620885557464 0 -0.00063290660917426911 0.006871168310623922 0 -0.00062188509668484305 0.0067971924327698578 0 -0.00057116662051981534 0.0068534510575533987 0 -0.00062188509668484305 0.0067971924327698578 0 -0.00059023329009607998 0.0067889720701785365 0 -0.00057116662051981534 0.0068534510575533987 0 -0.00059023329009607998 0.0067889720701785365 0 -0.00050785921241115392 0.0068325645676212913 0 -0.00059023329009607998 0.0067889720701785365 0 -0.00061950997209567768 0.0067638580960865877 0 -0.00061251723843048112 0.0067703699355976749 0 -0.00062188509668484305 0.0067971924327698578 0 -0.00059023329009607998 0.0067889720701785365 0 -0.00061950997209567768 0.0067638580960865877 0 -0.00059023329009607998 0.0067889720701785365 0 -0.00061251723843048112 0.0067703699355976749 0 -0.00057649985523295949 0.0067782339968434782 0 -0.00064220935519178444 0.0067498461371701323 0 -0.00062188509668484305 0.0067971924327698578 0 -0.00061950997209567768 0.0067638580960865877 0 -0.00064220935519178444 0.0067498461371701323 0 -0.00061950997209567768 0.0067638580960865877 0 -0.00063511071982389194 0.0067507763321718655 0 -0.00061950997209567768 0.0067638580960865877 0 -0.00063511071982389194 0.0067507763321718655 0 -0.00063048607465185933 0.0067695866610186567 0 -0.00062852968602213045 0.0067685065089830784 0 -0.00063511071982389194 0.0067507763321718655 0 -0.00063048607465185933 0.0067695866610186567 0 -0.00062852968602213045 0.0067685065089830784 0 -0.00063048607465185933 0.0067695866610186567 0 -0.00062545908734418937 0.0068050233768483983 0 -0.00062545908734418937 0.0068050233768483983 0 -0.00064044730786801249 0.0067948266272434207 0 -0.00062445780323616403 0.006880092129638104 0 -0.00063048607465185933 0.0067695866610186567 0 -0.00062545908734418937 0.0068050233768483983 0 -0.00064044730786801249 0.0067948266272434207 0 -0.00064044730786801249 0.0067948266272434207 0 -0.00061711532503620694 0.0067790787805934883 0 -0.00071684305654231228 0.0068707070055546186 0 -0.00063048607465185933 0.0067695866610186567 0 -0.00064044730786801249 0.0067948266272434207 0 -0.00061251723843048112 0.0067703699355976749 0 -0.00061251723843048112 0.0067703699355976749 0 -0.00061711532503620694 0.0067790787805934883 0 -0.00057649985523295949 0.0067782339968434782 0 -0.00064044730786801249 0.0067948266272434207 0 -0.00061251723843048112 0.0067703699355976749 0 -0.00061711532503620694 0.0067790787805934883 0 -0.00061950997209567768 0.0067638580960865877 0 -0.00063048607465185933 0.0067695866610186567 0 -0.00061251723843048112 0.0067703699355976749 0 -0.00061711532503620694 0.0067790787805934883 0 -0.00054907520988852431 0.0067508862899502342 0 -0.00071684305654231228 0.0068707070055546186 0 -0.00055365885897642976 0.0077607797847588532 0 -0.00043417722801560417 0.0076846102166578407 0 -0.00065420311752486875 0.0074728204818667208 0 -0.00061711532503620694 0.0067790787805934883 0 -0.00054907520988852431 0.0067508862899502342 0 -0.00057649985523295949 0.0067782339968434782 0 -0.00067564544418047658 0.0069052607407936711 0 -0.00063094375456013976 0.0072600284795980036 0 -0.00054907520988852431 0.0067508862899502342 0 -0.00050785921241115392 0.0068325645676212913 0 -0.00033987449230041522 0.0068635586884529705 0 -0.00054907520988852431 0.0067508862899502342 0 -0.00057649985523295949 0.0067782339968434782 0 -0.00050785921241115392 0.0068325645676212913 0 -0.00059023329009607998 0.0067889720701785365 0 -0.00057649985523295949 0.0067782339968434782 0 -0.00050785921241115392 0.0068325645676212913 0 -0.00038430685228484562 0.011297111219791271 0 0.00013810414828792825 0.010422975659940799 0 -0.00049433624935988729 0.0099319037669179638 0 -0.00055365885897642976 0.0077607797847588532 0 -0.00035467915060678236 0.0081475157050920795 0 -0.00043417722801560417 0.0076846102166578407 0 -0.00025820924071949232 0.0096377985753872391 0 -0.00047225877406286456 0.0088347491347920432 0 -0.00067564544418047658 0.0069052607407936711 0 -0.00025820924071949232 0.0096377985753872391 0 -0.00038430685228484562 0.011297111219791271 0 0.00013810414828792825 0.010422975659940799 0 0.00032908455386155481 0.011011054974030191 0 -0.00049433624935988729 0.0099319037669179638 0 0.00020458094870320583 0.0098136269843803626 0 9.1512545659331657e-05 0.0092221376251327737 0 0.00013810414828792825 0.010422975659940799 0 -0.00049433624935988729 0.0099319037669179638 0 0.00020458094870320583 0.0098136269843803626 0 0.00013810414828792825 0.010422975659940799 0 0.00069844762313550439 0.0099959702123413284 0 0.00061942526032664539 0.010509719748042915 0 0.00013810414828792825 0.010422975659940799 0 0.00020458094870320583 0.0098136269843803626 0 0.00069844762313550439 0.0099959702123413284 0 0.00020458094870320583 0.0098136269843803626 0 0.00069844762313550439 0.0099959702123413284 0 0.00056675860263727471 0.0094509629150491877 0 0.00069844762313550439 0.0099959702123413284 0 0.0010213598001461057 0.0093233524966790399 0 0.00056675860263727471 0.0094509629150491877 0 0.0012423396995950996 0.0098862492737911735 0 0.00069844762313550439 0.0099959702123413284 0 0.0010213598001461057 0.0093233524966790399 0 0.00069844762313550439 0.0099959702123413284 0 0.0010060603275721201 0.010446359821121697 0 0.00061942526032664539 0.010509719748042915 0 0.0012423396995950996 0.0098862492737911735 0 0.00069844762313550439 0.0099959702123413284 0 0.0010060603275721201 0.010446359821121697 0 0.0014759131281485798 0.010950388489342471 0 0.0010060603275721201 0.010446359821121697 0 0.00075332671924632007 0.010973441053725492 0 0.00033222433441635566 0.011981767363098823 0 0.00032908455386155481 0.011011054974030191 0 0.00075332671924632007 0.010973441053725492 0 0.0014759131281485798 0.010950388489342471 0 0.00033222433441635566 0.011981767363098823 0 0.00075332671924632007 0.010973441053725492 0 0.0010060603275721201 0.010446359821121697 0 0.00061942526032664539 0.010509719748042915 0 0.00075332671924632007 0.010973441053725492 0 0.00013810414828792825 0.010422975659940799 0 0.00061942526032664539 0.010509719748042915 0 0.00032908455386155481 0.011011054974030191 0 0.00061942526032664539 0.010509719748042915 0 0.00032908455386155481 0.011011054974030191 0 0.00075332671924632007 0.010973441053725492 0 0.00073998523074969038 0.0086436199944734515 0 6.8613873436540733e-05 0.0079962964161875306 0 0.00060116894876529529 0.0076978483680796546 0 0.0011326048412486792 0.0079189629859919321 0 0.00073998523074969038 0.0086436199944734515 0 0.00060116894876529529 0.0076978483680796546 0 0.00073998523074969038 0.0086436199944734515 0 8.0619270140342314e-05 0.008628349816368109 0 6.8613873436540733e-05 0.0079962964161875306 0 0.0013813637527932288 0.0091667441347067138 0 0.00073998523074969038 0.0086436199944734515 0 0.0010213598001461057 0.0093233524966790399 0 0.00073998523074969038 0.0086436199944734515 0 0.0010213598001461057 0.0093233524966790399 0 0.00056675860263727471 0.0094509629150491877 0 0.00073998523074969038 0.0086436199944734515 0 0.00056675860263727471 0.0094509629150491877 0 9.1512545659331657e-05 0.0092221376251327737 0 0.00020458094870320583 0.0098136269843803626 0 0.00056675860263727471 0.0094509629150491877 0 9.1512545659331657e-05 0.0092221376251327737 0 0.00073998523074969038 0.0086436199944734515 0 9.1512545659331657e-05 0.0092221376251327737 0 8.0619270140342314e-05 0.008628349816368109 0 -0.00047225877406286456 0.0088347491347920432 0 -0.00053064340637226453 0.0080128112156739057 0 -0.00049433624935988729 0.0099319037669179638 0 9.1512545659331657e-05 0.0092221376251327737 0 -0.00056309421597861508 0.0086372506809805488 0 9.1512545659331657e-05 0.0092221376251327737 0 8.0619270140342314e-05 0.008628349816368109 0 -0.00056309421597861508 0.0086372506809805488 0 8.0619270140342314e-05 0.008628349816368109 0 6.8613873436540733e-05 0.0079962964161875306 0 -0.00056309421597861508 0.0086372506809805488 0 6.8613873436540733e-05 0.0079962964161875306 0 -0.00056309421597861508 0.0086372506809805488 0 -0.00052613242782465928 0.0074094264390678257 0 -0.00059485589453612663 0.0073389994561867851 0 -0.00051902505593883744 0.0073837266602002228 0 -0.00052613242782465928 0.0074094264390678257 0 -0.00053064340637226453 0.0080128112156739057 0 -0.00054037909913796391 0.0074629773434893463 0 -0.00059485589453612663 0.0073389994561867851 0 -0.00051902505593883744 0.0073837266602002228 0 -0.00065420311752486875 0.0074728204818667208 0 -0.00043417722801560417 0.0076846102166578407 0 -0.00051902505593883744 0.0073837266602002228 0 -0.00065420311752486875 0.0074728204818667208 0 -0.00071684305654231228 0.0068707070055546186 0 -0.00062694230443985724 0.0069946029421817189 0 -0.00065334438624300387 0.007232529922364667 0 -0.00071684305654231228 0.0068707070055546186 0 -0.00062445780323616403 0.006880092129638104 0 -0.00062694230443985724 0.0069946029421817189 0 -0.00064044730786801249 0.0067948266272434207 0 -0.00071684305654231228 0.0068707070055546186 0 -0.00062445780323616403 0.006880092129638104 0 -0.00062545908734418937 0.0068050233768483983 0 -0.00062445780323616403 0.006880092129638104 0 -0.00060066550857167892 0.0068447839080102721 0 -0.00062445780323616403 0.006880092129638104 0 -0.00062694230443985724 0.0069946029421817189 0 -0.00049979795194534749 0.0070093688208604805 0 -0.00063094375456013976 0.0072600284795980036 0 -0.00066643630496234733 0.0072096271773863171 0 -0.00059485589453612663 0.0073389994561867851 0 -0.00065420311752486875 0.0074728204818667208 0 -0.00065334438624300387 0.007232529922364667 0 -0.00062694230443985724 0.0069946029421817189 0 -0.00065334438624300387 0.007232529922364667 0 -0.00049979795194534749 0.0070093688208604805 0 -0.00059485589453612663 0.0073389994561867851 0 -0.00065334438624300387 0.007232529922364667 0 -0.00063875213062965415 0.007325540616246207 0 -0.00065334438624300387 0.007232529922364667 0 -0.00062363185248059483 0.007328925216713752 0 -0.00063875213062965415 0.007325540616246207 0 -0.00062363185248059483 0.007328925216713752 0 -0.00064475421284213496 0.0073131131710932763 0 -0.00063875213062965415 0.007325540616246207 0 -0.00062363185248059483 0.007328925216713752 0 -0.00064475421284213496 0.0073131131710932763 0 -0.00064764208576089223 0.0073116751713896491 0 -0.00064475421284213496 0.0073131131710932763 0 -0.00064764208576089223 0.0073116751713896491 0 -0.00067788060253539588 0.0072951800374967462 0 -0.0006144180207530754 0.0053701802840073615 0 -0.00050193223538161282 0.0043859228318963318 0 -0.00053984953396191571 0.0031316587770099298 0 -0.0006686797722123721 0.0028990554649704942 0 -0.00057770565403752875 0.0027657738670063183 0 -0.00062363185248059483 0.007328925216713752 0 -0.00064764208576089223 0.0073116751713896491 0 -0.00065101996416829205 0.0073000681541033332 0 -0.0006686797722123721 0.0028990554649704942 0 -0.00068674372343644743 0.0027649439491559723 0 -0.00057770565403752875 0.0027657738670063183 0 -0.00064764208576089223 0.0073116751713896491 0 -0.00065052211344137018 0.0073172853922859951 0 -0.00065101996416829205 0.0073000681541033332 0 -0.00064764208576089223 0.0073116751713896491 0 -0.00065052211344137018 0.0073172853922859951 0 -0.00067788060253539588 0.0072951800374967462 0 -0.00065052211344137018 0.0073172853922859951 0 -0.00067788060253539588 0.0072951800374967462 0 -0.00063755901586965585 0.007332532362895345 0 -0.00064475421284213496 0.0073131131710932763 0 -0.00067788060253539588 0.0072951800374967462 0 -0.00063875213062965415 0.007325540616246207 0 -0.00067788060253539588 0.0072951800374967462 0 -0.00063875213062965415 0.007325540616246207 0 -0.00052613242782465928 0.0074094264390678257 0 -0.00059485589453612663 0.0073389994561867851 0 -0.00063875213062965415 0.007325540616246207 0 -0.00052613242782465928 0.0074094264390678257 0 -0.00067326054745235934 0.0073487267051981246 0 -0.00011609843553146171 0.0070093412380969689 0 6.8613873436540733e-05 0.0079962964161875306 0 -0.00052613242782465928 0.0074094264390678257 0 0.00016563712382998408 0.0071478505985256907 0 -0.00067788060253539588 0.0072951800374967462 0 -0.00052613242782465928 0.0074094264390678257 0 0.00016563712382998408 0.0071478505985256907 0 -0.00067788060253539588 0.0072951800374967462 0 -0.00058546665377350992 0.007403359213874053 0 -0.00063755901586965585 0.007332532362895345 0 -0.00058546665377350992 0.007403359213874053 0 -0.00063755901586965585 0.007332532362895345 0 -0.00061580851973480405 0.0073344243239232311 0 -0.00065052211344137018 0.0073172853922859951 0 -0.00063755901586965585 0.007332532362895345 0 -0.00061580851973480405 0.0073344243239232311 0 -0.00058546665377350992 0.007403359213874053 0 -0.00061580851973480405 0.0073344243239232311 0 -0.00054640984063646005 0.0073369964347380009 0 -0.00040987169602614478 0.0074540975968304651 0 -0.00058546665377350992 0.007403359213874053 0 -0.00054640984063646005 0.0073369964347380009 0 0.00018082325117270675 0.0097663145757392166 0 -0.00079162288182445001 0.010380676915015168 0 6.8613873436540733e-05 0.0079962964161875306 0 0.00016563712382998408 0.0071478505985256907 0 0.00060116894876529529 0.0076978483680796546 0 0.0014999804045772733 0.007148401521523717 0 0.00016563712382998408 0.0071478505985256907 0 0.00060116894876529529 0.0076978483680796546 0 0.00018082325117270675 0.0097663145757392166 0 -0.00011609843553146171 0.0070093412380969689 0 -0.0010814317684156502 0.0033812960041339967 0 -0.0014492485407666558 0.0033570581724346733 0 -0.0012720082444217973 0.0036187254392369287 0 -0.0010814317684156502 0.0033812960041339967 0 -0.0014492485407666558 0.0033570581724346733 0 -0.0012524660484604677 0.0031336156398098476 0 -0.0010814317684156502 0.0033812960041339967 0 -0.0012720082444217973 0.0036187254392369287 0 -0.0010589499713857813 0.0036285091561562332 0 -0.0018852034125958457 0.003382009827751649 0 -0.0014492485407666558 0.0033570581724346733 0 -0.0015750561612122929 0.0036725557445421277 0 -0.0014492485407666558 0.0033570581724346733 0 -0.0015750561612122929 0.0036725557445421277 0 -0.0012720082444217973 0.0036187254392369287 0 -0.0017630637540735213 0.0041177139100899308 0 -0.0013725732019685625 0.003957933207441271 0 -0.0015750561612122929 0.0036725557445421277 0 -0.0013725732019685625 0.003957933207441271 0 -0.0015750561612122929 0.0036725557445421277 0 -0.0012720082444217973 0.0036187254392369287 0 -0.0013725732019685625 0.003957933207441271 0 -0.0012720082444217973 0.0036187254392369287 0 -0.0011114995944906019 0.0038828309567037959 0 -0.0012720082444217973 0.0036187254392369287 0 -0.0011114995944906019 0.0038828309567037959 0 -0.0010589499713857813 0.0036285091561562332 0 -0.00093964069188118293 0.0040316667383368688 0 -0.0011114995944906019 0.0038828309567037959 0 -0.00093527833400535191 0.0038221537922439319 0 -0.00093964069188118293 0.0040316667383368688 0 -0.00093527833400535191 0.0038221537922439319 0 -0.00068303267533921172 0.0039596594685245394 0 -0.00093527833400535191 0.0038221537922439319 0 -0.00068303267533921172 0.0039596594685245394 0 -0.00085084413933049204 0.0035806599211214156 0 -0.00093527833400535191 0.0038221537922439319 0 -0.0010589499713857813 0.0036285091561562332 0 -0.00085084413933049204 0.0035806599211214156 0 -0.0011114995944906019 0.0038828309567037959 0 -0.00093527833400535191 0.0038221537922439319 0 -0.0010589499713857813 0.0036285091561562332 0 -0.00059907019529713745 0.0047566462204959225 0 -0.00068303267533921172 0.0039596594685245394 0 -0.00051577353359166605 0.0036052503287164234 0 -0.00059426581290162174 0.0068154115510999516 0 -0.00060066550857167892 0.0068447839080102721 0 -0.00049979795194534749 0.0070093688208604805 0 -0.00062117176008019421 0.0057682136180569376 0 -0.00050863430664365664 0.0053009441135408045 0 -0.00062445780323616403 0.006880092129638104 0 -0.00060066550857167892 0.0068447839080102721 0 -0.00049979795194534749 0.0070093688208604805 0 -0.00068303267533921172 0.0039596594685245394 0 -0.00051577353359166605 0.0036052503287164234 0 -0.00085084413933049204 0.0035806599211214156 0 -0.0006144180207530754 0.0053701802840073615 0 -0.00050863430664365664 0.0053009441135408045 0 -0.00053984953396191571 0.0031316587770099298 0 -0.00051577353359166605 0.0036052503287164234 0 -0.00078398645050307362 0.003283552309098704 0 -0.00051577353359166605 0.0036052503287164234 0 -0.00085084413933049204 0.0035806599211214156 0 -0.00078398645050307362 0.003283552309098704 0 -0.00065334438624300387 0.007232529922364667 0 -0.00062363185248059483 0.007328925216713752 0 -0.00049979795194534749 0.0070093688208604805 0 -0.0010814317684156502 0.0033812960041339967 0 -0.0010589499713857813 0.0036285091561562332 0 -0.00085084413933049204 0.0035806599211214156 0 -0.0010814317684156502 0.0033812960041339967 0 -0.00085084413933049204 0.0035806599211214156 0 -0.00078398645050307362 0.003283552309098704 0 -0.0010814317684156502 0.0033812960041339967 0 -0.00078398645050307362 0.003283552309098704 0 -0.00097560943545747911 0.0030489061277905352 0 -0.00078398645050307362 0.003283552309098704 0 -0.00097560943545747911 0.0030489061277905352 0 -0.00075424344291087641 0.0030393356956744891 0 -0.00053984953396191571 0.0031316587770099298 0 -0.00078398645050307362 0.003283552309098704 0 -0.00075424344291087641 0.0030393356956744891 0 -0.00053984953396191571 0.0031316587770099298 0 -0.00075424344291087641 0.0030393356956744891 0 -0.0006686797722123721 0.0028990554649704942 0 -0.00075424344291087641 0.0030393356956744891 0 -0.0006686797722123721 0.0028990554649704942 0 -0.0008245105013591265 0.002838521257133506 0 -0.0006686797722123721 0.0028990554649704942 0 -0.0008245105013591265 0.002838521257133506 0 -0.00068674372343644743 0.0027649439491559723 0 -0.00097560943545747911 0.0030489061277905352 0 -0.0008245105013591265 0.002838521257133506 0 -0.0012019531188319414 0.0026554475603815983 0 -0.00097560943545747911 0.0030489061277905352 0 -0.00075424344291087641 0.0030393356956744891 0 -0.0008245105013591265 0.002838521257133506 0 -0.0012524660484604677 0.0031336156398098476 0 -0.0015410456175242613 0.0029976282438484866 0 -0.0012019531188319414 0.0026554475603815983 0 -0.00097560943545747911 0.0030489061277905352 0 -0.0012524660484604677 0.0031336156398098476 0 -0.0012019531188319414 0.0026554475603815983 0 -0.0010814317684156502 0.0033812960041339967 0 -0.00097560943545747911 0.0030489061277905352 0 -0.0012524660484604677 0.0031336156398098476 0 -0.0014492485407666558 0.0033570581724346733 0 -0.0012524660484604677 0.0031336156398098476 0 -0.0015410456175242613 0.0029976282438484866 0 -0.0018852034125958457 0.003382009827751649 0 -0.0014492485407666558 0.0033570581724346733 0 -0.0015410456175242613 0.0029976282438484866 0 -0.0015410456175242613 0.0029976282438484866 0 -0.001538805719306347 0.0026339174024455144 0 -0.0012019531188319414 0.0026554475603815983 0 -0.001538805719306347 0.0026339174024455144 0 -0.0015516246456548496 0.0022679651426991652 0 -0.0012019531188319414 0.0026554475603815983 0 -0.0015516246456548496 0.0022679651426991652 0 -0.0012019531188319414 0.0026554475603815983 0 -0.0013493605576859345 0.0022723066787854887 0 -0.0012302089988962916 0.0028830054670826322 0 -0.0011816674240806668 0.0018742717537199088 0 -0.0012019531188319414 0.0026554475603815983 0 -0.00082582409749461651 0.0026585664591928754 0 -0.0009814691577668727 0.0025042859226773006 0 -0.0008245105013591265 0.002838521257133506 0 -0.0012019531188319414 0.0026554475603815983 0 -0.00082582409749461651 0.0026585664591928754 0 -0.00082582409749461651 0.0026585664591928754 0 -0.00068674372343644743 0.0027649439491559723 0 -0.00062223773209072104 0.0027213080653460445 0 -0.0008245105013591265 0.002838521257133506 0 -0.00082582409749461651 0.0026585664591928754 0 -0.00068674372343644743 0.0027649439491559723 0 -0.00082582409749461651 0.0026585664591928754 0 -0.00077600494767340953 0.0025518515088452289 0 -0.00062223773209072104 0.0027213080653460445 0 -0.00082582409749461651 0.0026585664591928754 0 -0.00077600494767340953 0.0025518515088452289 0 -0.0009814691577668727 0.0025042859226773006 0 -0.0009814691577668727 0.0025042859226773006 0 -0.00076358666607549328 0.0024049679236691763 0 -0.00088688910244548609 0.0023283801721162593 0 -0.0011816674240806668 0.0018742717537199088 0 -0.0006343986442594586 0.0046428652862005185 0 -0.00077600494767340953 0.0025518515088452289 0 -0.00076358666607549328 0.0024049679236691763 0 -0.00059562464641061872 0.0025128130653972944 0 -0.00077600494767340953 0.0025518515088452289 0 -0.0009814691577668727 0.0025042859226773006 0 -0.00076358666607549328 0.0024049679236691763 0 -0.00047307550136896234 0.0071207470944473746 0 -0.0004551638855892743 0.0074079833982041102 0 -0.00086229700217449749 0.0073323498277385706 0 -0.00047307550136896234 0.0071207470944473746 0 -0.0004551638855892743 0.0074079833982041102 0 -0.00017845794383530798 0.0073424987126294618 0 -0.00069834858307937363 0.0046628719966481207 0 -0.0006343986442594586 0.0046428652862005185 0 -0.0014390885766630613 0.0022172855219954953 0 -0.0015295149584592575 0.0022029584038410761 0 -0.0015751056045289326 0.0022425418597893793 0 -0.0015295149584592575 0.0022029584038410761 0 -0.0015829006222696812 0.0022481359166399762 0 -0.0016119242000077441 0.0021747198038413115 0 -0.0015516246456548496 0.0022679651426991652 0 -0.0015295149584592575 0.0022029584038410761 0 -0.0016119242000077441 0.0021747198038413115 0 -0.0015516246456548496 0.0022679651426991652 0 -0.0013493605576859345 0.0022723066787854887 0 -0.0015295149584592575 0.0022029584038410761 0 -0.0013493605576859345 0.0022723066787854887 0 -0.0014390885766630613 0.0022172855219954953 0 -0.0015295149584592575 0.0022029584038410761 0 -0.00076802094431122135 0.013103783485860328 0 -0.00086224021244797502 0.012862539701334774 0 -0.00072470898582900601 0.012923576587432593 0 -0.00076802094431122135 0.013103783485860328 0 -0.0010153563888602136 0.01292686635095355 0 -0.00086224021244797502 0.012862539701334774 0 -0.00063245107434238557 0.013363573405787508 0 -0.00084069946217493199 0.013386569814472697 0 -0.00076802094431122135 0.013103783485860328 0 -0.00084069946217493199 0.013386569814472697 0 -0.00076802094431122135 0.013103783485860328 0 -0.0011362277697645412 0.01318818985533976 0 -0.00079162288182445001 0.010380676915015168 0 -0.00080010601373253862 0.010487901062269735 0 -0.00065052211344137018 0.0073172853922859951 0 -0.00061580851973480405 0.0073344243239232311 0 -0.00063148138516119442 0.0073077318724384683 0 -0.00061580851973480405 0.0073344243239232311 0 -0.00054640984063646005 0.0073369964347380009 0 -0.00063148138516119442 0.0073077318724384683 0 -0.00076802094431122135 0.013103783485860328 0 -0.0011362277697645412 0.01318818985533976 0 -0.0010153563888602136 0.01292686635095355 0 -0.0011362277697645412 0.01318818985533976 0 -0.0010153563888602136 0.01292686635095355 0 -0.0012363783974714126 0.012865250945448284 0 -0.0011362277697645412 0.01318818985533976 0 -0.0012363783974714126 0.012865250945448284 0 -0.0014720217461482654 0.012928314497368561 0 -0.00080010601373253862 0.010487901062269735 0 -0.00079608722329301018 0.008150751917682832 0 -0.00063148138516119442 0.0073077318724384683 0 -0.00065078033554644696 0.0073073208776115572 0 -0.00064830205384400891 0.0073077279578715607 0 -0.00065052211344137018 0.0073172853922859951 0 -0.00063148138516119442 0.0073077318724384683 0 -0.00064830205384400891 0.0073077279578715607 0 -0.00065052211344137018 0.0073172853922859951 0 -0.00064830205384400891 0.0073077279578715607 0 -0.00065101996416829205 0.0073000681541033332 0 -0.00079608722329301018 0.008150751917682832 0 -0.00050193223538161282 0.0043859228318963318 0 -0.00065078033554644696 0.0073073208776115572 0 -0.00064830205384400891 0.0073077279578715607 0 -0.00065101996416829205 0.0073000681541033332 0 -0.00065222589011197304 0.0027831974839337748 0 -0.00057770565403752875 0.0027657738670063183 0 -0.00062223773209072104 0.0027213080653460445 0 -0.00068674372343644743 0.0027649439491559723 0 -0.00057770565403752875 0.0027657738670063183 0 -0.00062223773209072104 0.0027213080653460445 0 -0.0003954137619812652 0.0014912415051947067 0 -0.00068007886628678805 0.0061902052347177806 0 -0.00065222589011197304 0.0027831974839337748 0 -0.00062223773209072104 0.0027213080653460445 0 -0.0006186053500352814 0.0028256978437350361 0 -0.00077600494767340953 0.0025518515088452289 0 -0.00062223773209072104 0.0027213080653460445 0 -0.00059562464641061872 0.0025128130653972944 0 -0.00079608722329301018 0.008150751917682832 0 -0.00068007886628678805 0.0061902052347177806 0 -0.00068007886628678805 0.0061902052347177806 0 -0.00099977092973750886 0.010285277219364536 0 -0.0010112959874859794 0.011009462179206231 0 -0.00066086832154816874 0.011293013980966958 0 -0.0012032105070048022 0.011734266885858245 0 -0.00066086832154816874 0.011293013980966958 0 -0.00092032623018295664 0.012178205758188461 0 -0.0012032105070048022 0.011734266885858245 0 -0.00047307550136896234 0.0071207470944473746 0 -0.00077245702494873323 0.0068919804904687227 0 -0.00086229700217449749 0.0073323498277385706 0 -0.00069834858307937363 0.0046628719966481207 0 -0.00068007886628678805 0.0061902052347177806 0 -0.0004551638855892743 0.0074079833982041102 0 -0.00086229700217449749 0.0073323498277385706 0 -0.00061015343730371125 0.0076502245760575235 0 -0.0012012296561292911 0.012101046068805202 0 -0.0014789646700605051 0.012789180968321674 0 -0.00092032623018295664 0.012178205758188461 0 -0.0012312888910718991 0.012319486510355793 0 -0.0011320528113092317 0.012473543881222801 0 -0.0012312888910718991 0.012319486510355793 0 -0.0012103216015838148 0.012614741580427295 0 -0.0013939042873047148 0.012658745699701861 0 -0.00092032623018295664 0.012178205758188461 0 -0.0012312888910718991 0.012319486510355793 0 -0.0012032105070048022 0.011734266885858245 0 -0.0012312888910718991 0.012319486510355793 0 -0.0012103216015838148 0.012614741580427295 0 -0.0011591490308470705 0.012463954454302088 0 -0.0012363783974714126 0.012865250945448284 0 -0.0014720217461482654 0.012928314497368561 0 -0.0013939042873047148 0.012658745699701861 0 -0.00079608722329301018 0.008150751917682832 0 -0.0014789646700605051 0.012789180968321674 0 -0.0012363783974714126 0.012865250945448284 0 -0.0012103216015838148 0.012614741580427295 0 -0.0013939042873047148 0.012658745699701861 0 -0.0012363783974714126 0.012865250945448284 0 -0.0012103216015838148 0.012614741580427295 0 -0.0011194875663803065 0.012752427517013618 0 -0.0010153563888602136 0.01292686635095355 0 -0.0012363783974714126 0.012865250945448284 0 -0.0011194875663803065 0.012752427517013618 0 -0.0010153563888602136 0.01292686635095355 0 -0.00099135646560566436 0.012742186809958551 0 -0.00086224021244797502 0.012862539701334774 0 -0.0010153563888602136 0.01292686635095355 0 -0.0011194875663803065 0.012752427517013618 0 -0.00099135646560566436 0.012742186809958551 0 -0.00099135646560566436 0.012742186809958551 0 -0.0011066919844210455 0.012609860982619171 0 -0.0010127112771582819 0.01255685209339937 0 -0.0011194875663803065 0.012752427517013618 0 -0.00099135646560566436 0.012742186809958551 0 -0.0011066919844210455 0.012609860982619171 0 -0.0012103216015838148 0.012614741580427295 0 -0.0011194875663803065 0.012752427517013618 0 -0.0011066919844210455 0.012609860982619171 0 -0.0012103216015838148 0.012614741580427295 0 -0.0011066919844210455 0.012609860982619171 0 -0.0011591490308470705 0.012463954454302088 0 -0.0011066919844210455 0.012609860982619171 0 -0.0011591490308470705 0.012463954454302088 0 -0.0010127112771582819 0.01255685209339937 0 -0.0011591490308470705 0.012463954454302088 0 -0.0011800409036132995 0.012318102626276108 0 -0.0010127112771582819 0.01255685209339937 0 -0.0011800409036132995 0.012318102626276108 0 -0.0010127112771582819 0.01255685209339937 0 -0.00077358728185879992 0.01255444997596071 0 -0.00040064253755270671 0.012339818232787349 0 -0.00022888123919955226 0.012641227142120343 0 -0.0012312888910718991 0.012319486510355793 0 -0.0011591490308470705 0.012463954454302088 0 -0.0011800409036132995 0.012318102626276108 0 0.00038439198506267866 0.012501079531035282 0 -0.00022888123919955226 0.012641227142120343 0 0.00018762810393753166 0.011960964952305957 0 0.0004193504117323563 0.011942429457485918 0 0.00051472320883063488 0.012163411362220806 0 0.00063228910609621229 0.01179024918566054 0 0.0004193504117323563 0.011942429457485918 0 0.00051472320883063488 0.012163411362220806 0 -0.00026271573721631323 0.013226765515614324 0 -0.00022139816996078428 0.013377713048116923 0 -0.00017398862171027089 0.013203912012268594 0 -0.00059158578572603864 0.012829166827721113 0 -0.00082488329866449287 0.012708888573983345 0 -0.00072470898582900601 0.012923576587432593 0 -0.00059158578572603864 0.012829166827721113 0 -0.00079398576691118558 0.012617522973579272 0 -0.00082488329866449287 0.012708888573983345 0 -0.00099135646560566436 0.012742186809958551 0 -0.0010127112771582819 0.01255685209339937 0 -0.00082488329866449287 0.012708888573983345 0 -0.00022888123919955226 0.012641227142120343 0 -0.00045705313296057882 0.01274052179609551 0 -0.0010127112771582819 0.01255685209339937 0 -0.00077358728185879992 0.01255444997596071 0 -0.00082488329866449287 0.012708888573983345 0 -0.00099135646560566436 0.012742186809958551 0 -0.00082488329866449287 0.012708888573983345 0 -0.00086224021244797502 0.012862539701334774 0 -0.00082488329866449287 0.012708888573983345 0 -0.00086224021244797502 0.012862539701334774 0 -0.00072470898582900601 0.012923576587432593 0 -0.00014586829496016906 0.011154751593384856 0 0.00011040767658885833 0.011292582282305966 0 -2.1702180845632086e-05 0.011426848100783217 0 0.00095079510176424519 0.011475251972673534 0 0.00051524942708636027 0.011241953176098315 0 0.00073414026944703021 0.011528575613962658 0 0.00014084328918669242 0.012613334836486103 0 0.00026883880355232768 0.011183949206456862 0 0.00051524942708636027 0.011241953176098315 0 0.00073414026944703021 0.011528575613962658 0 0.00053156263755923269 0.011592462387958422 0 0.0008817646825874855 0.011705223331961993 0 0.00053156263755923269 0.011592462387958422 0 0.00024788587665854842 0.011871946556393728 0 0.00063228910609621229 0.01179024918566054 0 0.0004193504117323563 0.011942429457485918 0 0.00024788587665854842 0.011871946556393728 0 0.00038439198506267866 0.012501079531035282 0 0.00046559082925558693 0.011688404247625519 0 0.0008817646825874855 0.011705223331961993 0 0.00095079510176424519 0.011475251972673534 0 0.00073414026944703021 0.011528575613962658 0 0.0008817646825874855 0.011705223331961993 0 0.00073414026944703021 0.011528575613962658 0 0.00053156263755923269 0.011592462387958422 0 0.00053156263755923269 0.011592462387958422 0 0.00027481894912591141 0.011557363223456223 0 0.00024788587665854842 0.011871946556393728 0 0.00018762810393753166 0.011960964952305957 0 0.0004193504117323563 0.011942429457485918 0 0.00024788587665854842 0.011871946556393728 0 0.00018762810393753166 0.011960964952305957 0 0.00024788587665854842 0.011871946556393728 0 7.8627369350914455e-05 0.01170810843297169 0 0.00027481894912591141 0.011557363223456223 0 7.8627369350914455e-05 0.01170810843297169 0 7.4992632675377636e-06 0.011499710975586731 0 0.00027481894912591141 0.011557363223456223 0 0.00024788587665854842 0.011871946556393728 0 7.8627369350914455e-05 0.01170810843297169 0 0.00051524942708636027 0.011241953176098315 0 0.00016624551401998346 0.011293226634741872 0 0.00010251532344857895 0.010992811083654018 0 0.00026883880355232768 0.011183949206456862 0 0.00015066223798525073 0.011070730021804193 0 0.00027481894912591141 0.011557363223456223 0 0.00016624551401998346 0.011293226634741872 0 7.4992632675377636e-06 0.011499710975586731 0 0.00051524942708636027 0.011241953176098315 0 0.00053156263755923269 0.011592462387958422 0 0.00027481894912591141 0.011557363223456223 0 0.00051524942708636027 0.011241953176098315 0 0.00027481894912591141 0.011557363223456223 0 0.00016624551401998346 0.011293226634741872 0 -3.8694140690419044e-05 0.0096783883270789815 0 6.477123242074394e-05 0.0095298191230063414 0 0.00015094273164838591 0.0096927620666933789 0 0.00016624551401998346 0.011293226634741872 0 -0.00024895162496674168 0.011231903333102677 0 0.00010251532344857895 0.010992811083654018 0 -3.8694140690419044e-05 0.0096783883270789815 0 0.00015094273164838591 0.0096927620666933789 0 0.00010969387084275116 0.010022222574026206 0 -0.00015772438062564082 0.010519850555786237 0 -0.00064217870217992388 0.010139675647715124 0 -0.00024895162496674168 0.011231903333102677 0 7.4992632675377636e-06 0.011499710975586731 0 -0.00033118112512223007 0.01164112873303764 0 0.00016624551401998346 0.011293226634741872 0 -0.00024895162496674168 0.011231903333102677 0 7.4992632675377636e-06 0.011499710975586731 0 7.8627369350914455e-05 0.01170810843297169 0 7.4992632675377636e-06 0.011499710975586731 0 -0.00033118112512223007 0.01164112873303764 0 -0.0012312888910718991 0.012319486510355793 0 -0.0011800409036132995 0.012318102626276108 0 -0.0011320528113092317 0.012473543881222801 0 0.00018762810393753166 0.011960964952305957 0 7.8627369350914455e-05 0.01170810843297169 0 -0.00033118112512223007 0.01164112873303764 0 -0.00040064253755270671 0.012339818232787349 0 -0.00064217870217992388 0.010139675647715124 0 -0.0009388086593777158 0.0077506991477311257 0 -0.00061015343730371125 0.0076502245760575235 0 -0.00051501007617660343 0.007987005632478783 0 -0.00086229700217449749 0.0073323498277385706 0 -0.0009388086593777158 0.0077506991477311257 0 -0.00061015343730371125 0.0076502245760575235 0 -0.00099977092973750886 0.010285277219364536 0 -0.00064217870217992388 0.010139675647715124 0 6.477123242074394e-05 0.0095298191230063414 0 0.00015094273164838591 0.0096927620666933789 0 0.00022935531034188545 0.0095722982324070414 0 -0.00064217870217992388 0.010139675647715124 0 -0.00014981300499057837 0.0085255927847867445 0 0.00015094273164838591 0.0096927620666933789 0 0.00022029216045606697 0.0098110319578733479 0 0.00022935531034188545 0.0095722982324070414 0 0.00022029216045606697 0.0098110319578733479 0 0.00013741779691831444 0.010561951281552196 0 0.00015457024014056971 0.0090926957361002463 0 0.00015094273164838591 0.0096927620666933789 0 0.00022029216045606697 0.0098110319578733479 0 0.00010969387084275116 0.010022222574026206 0 0.00022029216045606697 0.0098110319578733479 0 6.4188964854295611e-05 0.010367176813148336 0 0.00010969387084275116 0.010022222574026206 0 0.00022029216045606697 0.0098110319578733479 0 0.00013741779691831444 0.010561951281552196 0 6.4188964854295611e-05 0.010367176813148336 0 6.1231203333274016e-05 0.0094366516519975765 0 -2.2352014608134413e-05 0.0098658401495883129 0 0.00015457024014056971 0.0090926957361002463 0 6.8153766896010071e-05 0.010188817055825444 0 0.0001437427620916935 0.0093113178906339394 0 6.1231203333274016e-05 0.0094366516519975765 0 1.0054911264570763e-07 0.010094698977011223 0 2.6724717522949557e-07 0.0088564780736489716 0 6.1231203333274016e-05 0.0094366516519975765 0 1.0054911264570763e-07 0.010094698977011223 0 -2.2352014608134413e-05 0.0098658401495883129 0 0.00013741779691831444 0.010561951281552196 0 2.4112079134053997e-05 0.010763112386838233 0 6.0891913576154672e-08 0.011334037323554503 0 0.00013741779691831444 0.010561951281552196 0 2.4112079134053997e-05 0.010763112386838233 0 6.4188964854295611e-05 0.010367176813148336 0 6.8153766896010071e-05 0.010188817055825444 0 8.4569671260049445e-08 0.01133315122012658 0 1.0054911264570763e-07 0.010094698977011223 0 -2.2352014608134413e-05 0.0098658401495883129 0 -2.7404410252336238e-07 0.011333105655991504 0 2.4112079134053997e-05 0.010763112386838233 0 -7.5076369049025712e-05 0.010566983660851573 0 5.4378717747243428e-05 0.011033777595019298 0 -7.5076369049025712e-05 0.010566983660851573 0 0.00010251532344857895 0.010992811083654018 0 5.4378717747243428e-05 0.011033777595019298 0 2.4112079134053997e-05 0.010763112386838233 0 -7.5076369049025712e-05 0.010566983660851573 0 6.4188964854295611e-05 0.010367176813148336 0 -7.5076369049025712e-05 0.010566983660851573 0 6.4188964854295611e-05 0.010367176813148336 0 0.00010969387084275116 0.010022222574026206 0 -0.00015772438062564082 0.010519850555786237 0 -9.9411722177050651e-05 0.010514271279745383 0 -3.8694140690419044e-05 0.0096783883270789815 0 -7.5076369049025712e-05 0.010566983660851573 0 0.00010969387084275116 0.010022222574026206 0 -0.00024895162496674168 0.011231903333102677 0 -7.5076369049025712e-05 0.010566983660851573 0 0.00010251532344857895 0.010992811083654018 0 0.00010251532344857895 0.010992811083654018 0 5.4378717747243428e-05 0.011033777595019298 0 0.00010607342686689747 0.011438098965999004 0 0.00011040767658885833 0.011292582282305966 0 0.00010251532344857895 0.010992811083654018 0 0.00010607342686689747 0.011438098965999004 0 5.4378717747243428e-05 0.011033777595019298 0 6.0891913576154672e-08 0.011334037323554503 0 0.00010607342686689747 0.011438098965999004 0 2.4112079134053997e-05 0.010763112386838233 0 5.4378717747243428e-05 0.011033777595019298 0 6.0891913576154672e-08 0.011334037323554503 0 -0.00024489910546139106 0.011747830077083235 0 5.738854085343028e-07 0.012341841787657949 0 0.00010607342686689747 0.011438098965999004 0 6.0891913576154672e-08 0.011334037323554503 0 5.738854085343028e-07 0.012341841787657949 0 0.00010607342686689747 0.011438098965999004 0 -0.00024489910546139106 0.011747830077083235 0 0.00010607342686689747 0.011438098965999004 0 -2.1702180845632086e-05 0.011426848100783217 0 0.00011040767658885833 0.011292582282305966 0 0.00010607342686689747 0.011438098965999004 0 -2.1702180845632086e-05 0.011426848100783217 0 -3.3059582520139279e-05 0.007887686635931028 0 2.2478265805279494e-05 0.0078446296810693889 0 4.3141542373630795e-05 0.0077566470994245599 0 -3.3059582520139279e-05 0.007887686635931028 0 4.3141542373630795e-05 0.0077566470994245599 0 -0.00015285649168034373 0.0078811970762695267 0 -3.3059582520139279e-05 0.007887686635931028 0 -0.00015117073693008879 0.008087480701867095 0 4.7967433962254442e-06 0.0079036043811035617 0 -3.3059582520139279e-05 0.007887686635931028 0 2.2478265805279494e-05 0.0078446296810693889 0 4.7967433962254442e-06 0.0079036043811035617 0 2.2478265805279494e-05 0.0078446296810693889 0 2.4569433928487314e-05 0.0078245802786742098 0 -3.1185191809611468e-05 0.0078556211191428953 0 -0.00079874432506290367 0.0050222598925226455 0 -0.00084487653341117021 0.0052444947761718288 0 2.2478265805279494e-05 0.0078446296810693889 0 4.7967433962254442e-06 0.0079036043811035617 0 2.4569433928487314e-05 0.0078245802786742098 0 2.2478265805279494e-05 0.0078446296810693889 0 4.3141542373630795e-05 0.0077566470994245599 0 -3.1185191809611468e-05 0.0078556211191428953 0 -0.0015751056045289326 0.0022425418597893793 0 -0.0016490545864639831 0.0024911643484284811 0 -0.0015829006222696812 0.0022481359166399762 0 -0.0015295149584592575 0.0022029584038410761 0 -0.0015751056045289326 0.0022425418597893793 0 -0.0015829006222696812 0.0022481359166399762 0 -0.0006343986442594586 0.0046428652862005185 0 -0.00079874432506290367 0.0050222598925226455 0 -0.0006343986442594586 0.0046428652862005185 0 -0.00040729203440705741 0.0087325805408509996 0 -0.00023009242525764693 0.0074842889286513073 0 4.3141542373630795e-05 0.0077566470994245599 0 -0.00029207398259915786 0.0077673413653569449 0 4.3141542373630795e-05 0.0077566470994245599 0 -0.00029207398259915786 0.0077673413653569449 0 -0.00015285649168034373 0.0078811970762695267 0 -0.0004551638855892743 0.0074079833982041102 0 -0.00017845794383530798 0.0073424987126294618 0 -0.00029207398259915786 0.0077673413653569449 0 -0.0004551638855892743 0.0074079833982041102 0 -0.00061015343730371125 0.0076502245760575235 0 -0.00029207398259915786 0.0077673413653569449 0 -0.00061015343730371125 0.0076502245760575235 0 -0.00029207398259915786 0.0077673413653569449 0 -0.00051501007617660343 0.007987005632478783 0 -0.00029207398259915786 0.0077673413653569449 0 -0.00051501007617660343 0.007987005632478783 0 -0.00015285649168034373 0.0078811970762695267 0 -0.00051501007617660343 0.007987005632478783 0 -0.00015285649168034373 0.0078811970762695267 0 -0.00015117073693008879 0.008087480701867095 0 -3.3059582520139279e-05 0.007887686635931028 0 -0.00015285649168034373 0.0078811970762695267 0 -0.00015117073693008879 0.008087480701867095 0 -0.00014981300499057837 0.0085255927847867445 0 5.1264218798555888e-06 0.0084996681505041874 0 -3.6115906532666285e-05 0.0083207641259318843 0 0.00015457024014056971 0.0090926957361002463 0 2.7209280139048497e-05 0.008372455471065134 0 -0.00015117073693008879 0.008087480701867095 0 -3.6115906532666285e-05 0.0083207641259318843 0 0.00013880602137733705 0.00783904490325181 0 -0.00051501007617660343 0.007987005632478783 0 -0.00015117073693008879 0.008087480701867095 0 -3.6115906532666285e-05 0.0083207641259318843 0 -3.6115906532666285e-05 0.0083207641259318843 0 2.7209280139048497e-05 0.008372455471065134 0 4.5696450206904814e-05 0.0078847927764002426 0 0.00022029216045606697 0.0098110319578733479 0 0.00022935531034188545 0.0095722982324070414 0 0.00015457024014056971 0.0090926957361002463 0 0.00022935531034188545 0.0095722982324070414 0 -3.6115906532666285e-05 0.0083207641259318843 0 0.00015457024014056971 0.0090926957361002463 0 6.1231203333274016e-05 0.0094366516519975765 0 0.00015457024014056971 0.0090926957361002463 0 2.6724717522949557e-07 0.0088564780736489716 0 0.00015457024014056971 0.0090926957361002463 0 2.6724717522949557e-07 0.0088564780736489716 0 2.7209280139048497e-05 0.008372455471065134 0 2.6724717522949557e-07 0.0088564780736489716 0 2.7209280139048497e-05 0.008372455471065134 0 7.7529795248572675e-08 0.007618142539520539 0 7.7529795248572675e-08 0.007618142539520539 0 4.5696450206904814e-05 0.0078847927764002426 0 6.2479405181828121e-05 0.0072833728899870083 0 2.7209280139048497e-05 0.008372455471065134 0 7.7529795248572675e-08 0.007618142539520539 0 4.5696450206904814e-05 0.0078847927764002426 0 -3.6115906532666285e-05 0.0083207641259318843 0 4.5696450206904814e-05 0.0078847927764002426 0 0.00013880602137733705 0.00783904490325181 0 -0.0001241968261706675 0.0080207157818299128 0 8.4831257536964819e-05 0.0079141170231713971 0 4.5696450206904814e-05 0.0078847927764002426 0 0.00013880602137733705 0.00783904490325181 0 6.2479405181828121e-05 0.0072833728899870083 0 4.7967433962254442e-06 0.0079036043811035617 0 2.4569433928487314e-05 0.0078245802786742098 0 3.313576310502821e-05 0.007810743221767176 0 8.4831257536964819e-05 0.0079141170231713971 0 1.1958623937233469e-05 0.0067626851819126369 0 0.00013880602137733705 0.00783904490325181 0 6.2479405181828121e-05 0.0072833728899870083 0 -0.00012202411263869788 0.0072745288650267114 0 2.4569433928487314e-05 0.0078245802786742098 0 -3.1262801632160342e-06 0.0077070305510209425 0 -3.1185191809611468e-05 0.0078556211191428953 0 0.00027359473691676773 0.0075652320520246414 0 1.1958623937233469e-05 0.0067626851819126369 0 -6.3329198893659209e-05 0.0068580537314691607 0 6.2479405181828121e-05 0.0072833728899870083 0 -0.00012202411263869788 0.0072745288650267114 0 7.7529795248572675e-08 0.007618142539520539 0 6.2479405181828121e-05 0.0072833728899870083 0 2.4454476515313399e-07 0.0063795877342375544 0 -6.3329198893659209e-05 0.0068580537314691607 0 6.2479405181828121e-05 0.0072833728899870083 0 2.4454476515313399e-07 0.0063795877342375544 0 2.4454476515313399e-07 0.0063795877342375544 0 -0.00018501192045038381 0.006466197989555068 0 -1.0159895394791851e-06 0.0051420884860334855 0 -6.3329198893659209e-05 0.0068580537314691607 0 2.4454476515313399e-07 0.0063795877342375544 0 -0.00018501192045038381 0.006466197989555068 0 -0.00024931555352024245 0.0046553834108142671 0 1.7767936645268051e-05 0.0045546935758995662 0 -2.8066879476740897e-05 0.0045599619997868119 0 -0.00024931555352024245 0.0046553834108142671 0 -6.7119282622976885e-07 0.00513913796031346 0 1.7767936645268051e-05 0.0045546935758995662 0 -0.00022760068148694606 0.0055103929938030462 0 5.5389390633432327e-08 0.0051411465991960921 0 -0.00037648556381898382 0.0075714523115828101 0 -3.1262801632160342e-06 0.0077070305510209425 0 -3.1185191809611468e-05 0.0078556211191428953 0 -0.00049395284021149552 0.0048880730259372668 0 -0.00084487653341117021 0.0052444947761718288 0 -0.00049395284021149552 0.0048880730259372668 0 1.1958623937233469e-05 0.0067626851819126369 0 -0.00024931555352024245 0.0046553834108142671 0 -2.8066879476740897e-05 0.0045599619997868119 0 -0.00039924500555297312 0.0045086410891679984 0 -6.3329198893659209e-05 0.0068580537314691607 0 -0.00018501192045038381 0.006466197989555068 0 -0.00012202411263869788 0.0072745288650267114 0 -0.00022760068148694606 0.0055103929938030462 0 1.1958623937233469e-05 0.0067626851819126369 0 1.0409043133429069e-05 0.003547370407015321 0 3.3394232097579771e-07 0.0039485552245612362 0 8.6828656321766184e-05 0.0032351004717700114 0 3.3394232097579771e-07 0.0039485552245612362 0 -2.3662173258207828e-07 0.002758881353728977 0 8.6828656321766184e-05 0.0032351004717700114 0 1.7767936645268051e-05 0.0045546935758995662 0 -2.9842390147170467e-05 0.0040637515354484399 0 3.3394232097579771e-07 0.0039485552245612362 0 -6.7119282622976885e-07 0.00513913796031346 0 1.7767936645268051e-05 0.0045546935758995662 0 3.3394232097579771e-07 0.0039485552245612362 0 -0.00021695546465984672 0.0040626874924101757 0 1.0409043133429069e-05 0.003547370407015321 0 -2.9842390147170467e-05 0.0040637515354484399 0 1.0409043133429069e-05 0.003547370407015321 0 -2.9842390147170467e-05 0.0040637515354484399 0 3.3394232097579771e-07 0.0039485552245612362 0 -0.00049395284021149552 0.0048880730259372668 0 -4.0147186415852373e-05 0.0040962979328792518 0 1.7767936645268051e-05 0.0045546935758995662 0 -2.8066879476740897e-05 0.0045599619997868119 0 -2.9842390147170467e-05 0.0040637515354484399 0 -0.0011162726565271451 0.0031921040376570696 0 -0.00042607857096549709 0.0031622980522223211 0 -0.00090588225080766673 0.0026259698615899111 0 -0.00049395284021149552 0.0048880730259372668 0 -9.5558389625075837e-05 0.0032476244027322462 0 -0.0011162726565271451 0.0031921040376570696 0 1.0409043133429069e-05 0.003547370407015321 0 -0.00042607857096549709 0.0031622980522223211 0 -0.00038596828615515555 0.0031026141884392534 0 2.540323761887531e-06 0.003042174350741739 0 1.0409043133429069e-05 0.003547370407015321 0 -0.00042607857096549709 0.0031622980522223211 0 5.7453344516548245e-05 0.0033068928977954023 0 -0.00042607857096549709 0.0031622980522223211 0 5.7453344516548245e-05 0.0033068928977954023 0 5.0455834163180069e-05 0.0031920343025576671 0 1.0409043133429069e-05 0.003547370407015321 0 5.7453344516548245e-05 0.0033068928977954023 0 8.6828656321766184e-05 0.0032351004717700114 0 -0.00042607857096549709 0.0031622980522223211 0 -0.00038358778647643775 0.0025041849879580374 0 9.1231585780960015e-05 0.0024812653248976312 0 -0.00038358778647643775 0.0025041849879580374 0 -0.00030047285397498652 0.0019962728517687826 0 9.1231585780960015e-05 0.0024812653248976312 0 -0.00038358778647643775 0.0025041849879580374 0 -0.00090588225080766673 0.0026259698615899111 0 -0.00076166187661287459 0.0017669208409019333 0 -0.00042607857096549709 0.0031622980522223211 0 -0.00038358778647643775 0.0025041849879580374 0 -0.00090588225080766673 0.0026259698615899111 0 -0.00038358778647643775 0.0025041849879580374 0 -0.00076166187661287459 0.0017669208409019333 0 -0.00030047285397498652 0.0019962728517687826 0 -0.00030047285397498652 0.0019962728517687826 0 9.8477123884039568e-05 0.0018114100335594968 0 9.1231585780960015e-05 0.0024812653248976312 0 -0.0016490545864639831 0.0024911643484284811 0 -0.0014266206343140147 0.0023392454891062128 0 -0.0015829006222696812 0.0022481359166399762 0 -0.0011162726565271451 0.0031921040376570696 0 -0.0016490545864639831 0.0024911643484284811 0 -0.0014266206343140147 0.0023392454891062128 0 -0.0011162726565271451 0.0031921040376570696 0 -0.00090588225080766673 0.0026259698615899111 0 -0.0014266206343140147 0.0023392454891062128 0 -0.00090588225080766673 0.0026259698615899111 0 -0.00076166187661287459 0.0017669208409019333 0 -0.0014266206343140147 0.0023392454891062128 0 -0.0011272171547257526 0.002028190722195386 0 -0.0014192233779537656 0.0023167079495046913 0 -0.0014962072188393174 0.0022699717568992498 0 -0.0014266206343140147 0.0023392454891062128 0 -0.0015287156736056963 0.002245159207120134 0 -0.0014266206343140147 0.0023392454891062128 0 -0.0015287156736056963 0.002245159207120134 0 -0.0015829006222696812 0.0022481359166399762 0 -0.0015287156736056963 0.002245159207120134 0 -0.0015829006222696812 0.0022481359166399762 0 -0.0016119242000077441 0.0021747198038413115 0 -0.0016119242000077441 0.0021747198038413115 0 -0.0015826598090156409 0.0021251539002802556 0 -0.0017381993965369289 0.0021267574144542109 0 -0.0015287156736056963 0.002245159207120134 0 -0.0016119242000077441 0.0021747198038413115 0 -0.0015826598090156409 0.0021251539002802556 0 -0.0014962072188393174 0.0022699717568992498 0 -0.0015287156736056963 0.002245159207120134 0 -0.0015826598090156409 0.0021251539002802556 0 -0.0011272171547257526 0.002028190722195386 0 -0.00074169936167340321 0.0017216353241641532 0 -0.0014962072188393174 0.0022699717568992498 0 -0.0013023714240530172 0.0022124588272324419 0 -0.0015826598090156409 0.0021251539002802556 0 -0.00076166187661287459 0.0017669208409019333 0 -0.00030047285397498652 0.0019962728517687826 0 -0.00020328814648420767 0.001251153080623411 0 -0.00030047285397498652 0.0019962728517687826 0 -0.00020328814648420767 0.001251153080623411 0 9.8477123884039568e-05 0.0018114100335594968 0 -0.0013023714240530172 0.0022124588272324419 0 -0.0013223444089410198 0.0019268523119073651 0 -0.0015826598090156409 0.0021251539002802556 0 -0.0013023714240530172 0.0022124588272324419 0 -0.0013223444089410198 0.0019268523119073651 0 -0.00074830324249133449 0.0018920851947813399 0 -0.0013223444089410198 0.0019268523119073651 0 -0.0015826598090156409 0.0021251539002802556 0 -0.0015556903310676546 0.0017560272036940782 0 -0.0015826598090156409 0.0021251539002802556 0 -0.0015556903310676546 0.0017560272036940782 0 -0.0017381993965369289 0.0021267574144542109 0 -0.0015556903310676546 0.0017560272036940782 0 -0.0016124092679968079 0.0017375876643755245 0 -0.0017381993965369289 0.0021267574144542109 0 -0.0013223444089410198 0.0019268523119073651 0 -0.0015556903310676546 0.0017560272036940782 0 -0.0011277445737547314 0.0015944318923436164 0 -0.0015556903310676546 0.0017560272036940782 0 -0.00098128420437565401 0.00092513469069572813 0 -0.0011277445737547314 0.0015944318923436164 0 -0.0015556903310676546 0.0017560272036940782 0 -0.0016387963670421431 0.0017484126803429757 0 -0.0017562416123050345 0.0017209961694501746 0 -0.0015552994543230237 0.0016990953412650673 0 -0.0013504023409234597 0.0013393916931206625 0 -0.0015556903310676546 0.0017560272036940782 0 -0.0016387963670421431 0.0017484126803429757 0 -0.0016124092679968079 0.0017375876643755245 0 -0.00186925674339216 0.0025108147755853565 0 -0.0019611680145071374 0.0024028432328471001 0 -0.0017381993965369289 0.0021267574144542109 0 -0.0017768230200131162 0.0020714981496492515 0 -0.001742526134135846 0.0021087022462482467 0 -0.00186925674339216 0.0025108147755853565 0 -0.001538805719306347 0.0026339174024455144 0 -0.0015516246456548496 0.0022679651426991652 0 -0.00186925674339216 0.0025108147755853565 0 -0.0015516246456548496 0.0022679651426991652 0 -0.0017381993965369289 0.0021267574144542109 0 -0.0015516246456548496 0.0022679651426991652 0 -0.0016119242000077441 0.0021747198038413115 0 -0.0017381993965369289 0.0021267574144542109 0 0.00059333676403246509 0.00033205005779891682 0 0.00069914885351360302 0.00035838937669810947 0 0.00060860684178317369 0.00023527844313780898 0 0.00065723095644799607 0.00063480022490364056 0 0.00078829302864444274 0.0010704041771236622 0 0.00060860684178317369 0.00023527844313780898 0 0.00045246688057616288 9.4543804306071254e-05 0 0.00046775264641241892 -3.6318670372898265e-05 0 0.00060860684178317369 0.00023527844313780898 0 0.0006353195027649568 0.00025847630681984795 0 0.00062891932090180461 0.0004370316225289507 0 0.00060860684178317369 0.00023527844313780898 0 0.00062891932090180461 0.0004370316225289507 0 0.00065723095644799607 0.00063480022490364056 0 0.00060860684178317369 0.00023527844313780898 0 0.00045246688057616288 9.4543804306071254e-05 0 0.00036315216845719741 0.00015229126502992746 0 0.00045246688057616288 9.4543804306071254e-05 0 0.00036315216845719741 0.00015229126502992746 0 0.00038577684757231111 1.0585419601246187e-05 0 0.00037641775085358865 0.0003705571986576025 0 0.00060860684178317369 0.00023527844313780898 0 0.00036315216845719741 0.00015229126502992746 0 0.00037641775085358865 0.0003705571986576025 0 0.00036315216845719741 0.00015229126502992746 0 0.00029793187706197462 0.00016263298987547763 0 0.00037641775085358865 0.0003705571986576025 0 0.00060860684178317369 0.00023527844313780898 0 0.0006353195027649568 0.00025847630681984795 0 0.00038198856009170673 0.00042271904018119355 0 0.00025995652731004338 0.00073388726014038581 0 0.00037641775085358865 0.0003705571986576025 0 -7.2841234396446713e-05 0.0012076924024266428 0 -0.00030678317872412923 0.0007996965999099941 0 -7.2841234396446713e-05 0.0012076924024266428 0 -0.00030678317872412923 0.0007996965999099941 0 -0.00066057334355251827 0.0012905997571376541 0 -0.00030678317872412923 0.0007996965999099941 0 -0.00066057334355251827 0.0012905997571376541 0 -0.00098128420437565401 0.00092513469069572813 0 -0.00066057334355251827 0.0012905997571376541 0 -0.00098128420437565401 0.00092513469069572813 0 -0.0011277445737547314 0.0015944318923436164 0 -0.0013223444089410198 0.0019268523119073651 0 -0.0011277445737547314 0.0015944318923436164 0 -0.00074830324249133449 0.0018920851947813399 0 -0.00066057334355251827 0.0012905997571376541 0 -0.0011277445737547314 0.0015944318923436164 0 -0.00074830324249133449 0.0018920851947813399 0 0.00062891932090180461 0.0004370316225289507 0 0.00065723095644799607 0.00063480022490364056 0 0.00028825222541342384 0.00072930448066099197 0 0.00025995652731004338 0.00073388726014038581 0 -0.00022807475105948041 0.0012955059877119688 0 0.0006353195027649568 0.00025847630681984795 0 0.00062891932090180461 0.0004370316225289507 0 0.00028825222541342384 0.00072930448066099197 0 -7.2841234396446713e-05 0.0012076924024266428 0 -0.00066057334355251827 0.0012905997571376541 0 -0.00074830324249133449 0.0018920851947813399 0 0.00054480480265399576 0.00087481793487980655 0 0.00028825222541342384 0.00072930448066099197 0 0.00050152319380183106 0.0011958426231156768 0 0.00065723095644799607 0.00063480022490364056 0 0.00054480480265399576 0.00087481793487980655 0 0.00078829302864444274 0.0010704041771236622 0 0.00065723095644799607 0.00063480022490364056 0 0.00054480480265399576 0.00087481793487980655 0 0.00028825222541342384 0.00072930448066099197 0 0.00054480480265399576 0.00087481793487980655 0 0.00078829302864444274 0.0010704041771236622 0 0.00050152319380183106 0.0011958426231156768 0 -0.00020328814648420767 0.001251153080623411 0 0.00028825222541342384 0.00072930448066099197 0 0.00027173965955121118 0.0013933715100188212 0 -0.00074169936167340321 0.0017216353241641532 0 -0.00022807475105948041 0.0012955059877119688 0 0.00028825222541342384 0.00072930448066099197 0 0.00027173965955121118 0.0013933715100188212 0 0.00050152319380183106 0.0011958426231156768 0 -0.00020328814648420767 0.001251153080623411 0 0.00027173965955121118 0.0013933715100188212 0 9.8477123884039568e-05 0.0018114100335594968 0 0.00027173965955121118 0.0013933715100188212 0 0.00050152319380183106 0.0011958426231156768 0 0.00064137587000994431 0.0019519763011045946 0 0.00069914885351360302 0.00035838937669810947 0 0.00026216811131552143 0.0012282163095276835 0 0.00050553255256705119 -0.00021515808556755263 0 0.00040514056834799666 -0.00035941740436822446 0 0.0005372477749508314 -0.00046467417034077284 0 0.00078829302864444274 0.0010704041771236622 0 0.00050152319380183106 0.0011958426231156768 0 0.00064137587000994431 0.0019519763011045946 0 0.00051586189573419759 -0.00013979508869056337 0 0.00050553255256705119 -0.00021515808556755263 0 0.0005372477749508314 -0.00046467417034077284 0 -4.4876253774469614e-05 -0.00013003795134032678 0 0.00020771785125220022 -0.00029730852221254196 0 0.00010937346466944336 -3.5832309337143342e-05 0 0.00027273926694561446 -0.00033552612293083516 0 0.00016684946487670977 -0.00025686886096225759 0 0.00040514056834799666 -0.00035941740436822446 0 0.00032672113706181657 -0.00027555785270921992 0 0.00020771785125220022 -0.00029730852221254196 0 0.00050553255256705119 -0.00021515808556755263 0 0.00040514056834799666 -0.00035941740436822446 0 0.00032672113706181657 -0.00027555785270921992 0 0.00050553255256705119 -0.00021515808556755263 0 0.00046775264641241892 -3.6318670372898265e-05 0 0.00038577684757231111 1.0585419601246187e-05 0 0.00051586189573419759 -0.00013979508869056337 0 0.00050553255256705119 -0.00021515808556755263 0 0.00046775264641241892 -3.6318670372898265e-05 0 0.00060860684178317369 0.00023527844313780898 0 0.00051586189573419759 -0.00013979508869056337 0 0.00046775264641241892 -3.6318670372898265e-05 0 0.00050553255256705119 -0.00021515808556755263 0 0.00032672113706181657 -0.00027555785270921992 0 0.00020443256201026677 -0.000304349717099607 0 0.00050598248328165762 -0.00022468791476391566 0 0.00031280099033370351 -0.00015322883233606334 0 0.00020443256201026677 -0.000304349717099607 0 0.00020771785125220022 -0.00029730852221254196 0 0.00026294687760641919 -0.000333503333960646 0 0.00045246688057616288 9.4543804306071254e-05 0 0.00046775264641241892 -3.6318670372898265e-05 0 0.00038577684757231111 1.0585419601246187e-05 0 0.00032672113706181657 -0.00027555785270921992 0 0.00020443256201026677 -0.000304349717099607 0 0.00020771785125220022 -0.00029730852221254196 0 0.00020771785125220022 -0.00029730852221254196 0 0.00022932343451018022 -0.00020513493095471527 0 0.00026294687760641919 -0.000333503333960646 0 0.00020771785125220022 -0.00029730852221254196 0 0.00022932343451018022 -0.00020513493095471527 0 0.00010937346466944336 -3.5832309337143342e-05 0 0.00018747787971508211 5.7114753127323183e-05 0 0.00010937346466944336 -3.5832309337143342e-05 0 6.807418129582125e-05 0.00031618579956931107 0 0.00022932343451018022 -0.00020513493095471527 0 0.00018747787971508211 5.7114753127323183e-05 0 0.00010937346466944336 -3.5832309337143342e-05 0 -4.4876253774469614e-05 -0.00013003795134032678 0 0.00010937346466944336 -3.5832309337143342e-05 0 -5.2215784231248247e-05 0.00011376367523789622 0 0.00010937346466944336 -3.5832309337143342e-05 0 -5.2215784231248247e-05 0.00011376367523789622 0 6.807418129582125e-05 0.00031618579956931107 0 -4.4876253774469614e-05 -0.00013003795134032678 0 -5.2215784231248247e-05 0.00011376367523789622 0 -0.00031034719472350939 5.2463406877520136e-05 0 -5.2215784231248247e-05 0.00011376367523789622 0 6.807418129582125e-05 0.00031618579956931107 0 -0.00014798811330255337 0.00039511905466235541 0 6.807418129582125e-05 0.00031618579956931107 0 -0.00014798811330255337 0.00039511905466235541 0 -3.6506787232933212e-05 0.00073778466084611601 0 0.00018747787971508211 5.7114753127323183e-05 0 6.807418129582125e-05 0.00031618579956931107 0 0.00017408079723276398 0.0003257071191602381 0 0.00027173965955121118 0.0013933715100188212 0 9.8477123884039568e-05 0.0018114100335594968 0 0.00064137587000994431 0.0019519763011045946 0 9.8477123884039568e-05 0.0018114100335594968 0 0.00064137587000994431 0.0019519763011045946 0 9.1231585780960015e-05 0.0024812653248976312 0 0.00027273926694561446 -0.00033552612293083516 0 0.00026216811131552143 0.0012282163095276835 0 -5.2215784231248247e-05 0.00011376367523789622 0 -0.00031034719472350939 5.2463406877520136e-05 0 -0.00014798811330255337 0.00039511905466235541 0 0.00026216811131552143 0.0012282163095276835 0 -0.00022588214518656454 0.0021032721864373766 0 -0.00031034719472350939 5.2463406877520136e-05 0 -0.00014798811330255337 0.00039511905466235541 0 -0.00048314692203679956 0.00078329122590364711 0 0.00015707288060653419 0.0030854192994733344 0 5.0455834163180069e-05 0.0031920343025576671 0 5.2569904529433746e-05 0.0033224645262217001 0 0.00026216811131552143 0.0012282163095276835 0 2.540323761887531e-06 0.003042174350741739 0 5.7453344516548245e-05 0.0033068928977954023 0 5.2569904529433746e-05 0.0033224645262217001 0 8.6828656321766184e-05 0.0032351004717700114 0 5.7453344516548245e-05 0.0033068928977954023 0 5.0455834163180069e-05 0.0031920343025576671 0 5.2569904529433746e-05 0.0033224645262217001 0 -0.00014798811330255337 0.00039511905466235541 0 -0.00048314692203679956 0.00078329122590364711 0 -3.6506787232933212e-05 0.00073778466084611601 0 -0.00048314692203679956 0.00078329122590364711 0 -3.6506787232933212e-05 0.00073778466084611601 0 -2.1054828467440242e-05 0.0014168479725768968 0 -0.00048314692203679956 0.00078329122590364711 0 -2.1054828467440242e-05 0.0014168479725768968 0 -1.587413743327532e-06 0.0027547985940038064 0 -2.1054828467440242e-05 0.0014168479725768968 0 -1.587413743327532e-06 0.0027547985940038064 0 7.0924421586200119e-07 0.0013279343078077559 0 5.2569904529433746e-05 0.0033224645262217001 0 -2.3662173258207828e-07 0.002758881353728977 0 8.6828656321766184e-05 0.0032351004717700114 0 -0.00022588214518656454 0.0021032721864373766 0 -3.6762705005864081e-09 0.0027564717587416974 0 0.00017408079723276398 0.0003257071191602381 0 0.00014659875170755231 0.00037788016603665359 0 0.00011316351978531849 0.0007207625849595462 0 6.807418129582125e-05 0.00031618579956931107 0 0.00017408079723276398 0.0003257071191602381 0 0.00011316351978531849 0.0007207625849595462 0 -3.6506787232933212e-05 0.00073778466084611601 0 -2.1054828467440242e-05 0.0014168479725768968 0 0.00011316351978531849 0.0007207625849595462 0 6.807418129582125e-05 0.00031618579956931107 0 -3.6506787232933212e-05 0.00073778466084611601 0 0.00011316351978531849 0.0007207625849595462 0 -2.1054828467440242e-05 0.0014168479725768968 0 0.00011316351978531849 0.0007207625849595462 0 7.0924421586200119e-07 0.0013279343078077559 0 0.00011316351978531849 0.0007207625849595462 0 7.0924421586200119e-07 0.0013279343078077559 0 0.00011475371926282934 0.00057805768987389899 0 0.00014659875170755231 0.00037788016603665359 0 0.00011316351978531849 0.0007207625849595462 0 0.00011475371926282934 0.00057805768987389899 0 7.0924421586200119e-07 0.0013279343078077559 0 0.00011475371926282934 0.00057805768987389899 0 1.6347597943680912e-07 -0.00010016900028964967 0 0.00014659875170755231 0.00037788016603665359 0 0.00011475371926282934 0.00057805768987389899 0 7.8596623127592024e-05 0.0001768300251580666 0 0.00011475371926282934 0.00057805768987389899 0 1.6347597943680912e-07 -0.00010016900028964967 0 7.8596623127592024e-05 0.0001768300251580666 0 1.6347597943680912e-07 -0.00010016900028964967 0 -7.7685480841748072e-07 -0.0002346870601388441 0 3.5754646416647723e-08 -0.0015309688695306 0 1.6347597943680912e-07 -0.00010016900028964967 0 -7.7685480841748072e-07 -0.0002346870601388441 0 7.8596623127592024e-05 0.0001768300251580666 0 -7.7685480841748072e-07 -0.0002346870601388441 0 4.3659887448474208e-05 8.6915641360964653e-05 0 6.0271284108710753e-05 0.00012038915551487335 0 -7.7685480841748072e-07 -0.0002346870601388441 0 3.7188579081654133e-05 2.3458243358373944e-05 0 7.8596623127592024e-05 0.0001768300251580666 0 -7.7685480841748072e-07 -0.0002346870601388441 0 3.7188579081654133e-05 2.3458243358373944e-05 0 4.3659887448474208e-05 8.6915641360964653e-05 0 6.3061241936382181e-05 0.00013098760196289533 0 0.00011630871958369313 0.00025095499337166765 0 8.3431511719667597e-05 0.00016990611051344933 0 3.7188579081654133e-05 2.3458243358373944e-05 0 4.3659887448474208e-05 8.6915641360964653e-05 0 6.3061241936382181e-05 0.00013098760196289533 0 4.3659887448474208e-05 8.6915641360964653e-05 0 6.3061241936382181e-05 0.00013098760196289533 0 8.3431511719667597e-05 0.00016990611051344933 0 0.00014659875170755231 0.00037788016603665359 0 7.8596623127592024e-05 0.0001768300251580666 0 0.00011630871958369313 0.00025095499337166765 0 6.3061241936382181e-05 0.00013098760196289533 0 7.8596623127592024e-05 0.0001768300251580666 0 0.00011630871958369313 0.00025095499337166765 0 3.7188579081654133e-05 2.3458243358373944e-05 0 6.3061241936382181e-05 0.00013098760196289533 0 7.8596623127592024e-05 0.0001768300251580666 0 0.00014659875170755231 0.00037788016603665359 0 0.00011630871958369313 0.00025095499337166765 0 0.00016221975715873874 0.00027461930262640124 0 0.00011630871958369313 0.00025095499337166765 0 0.00014732033963097064 0.00021441312043529365 0 8.3431511719667597e-05 0.00016990611051344933 0 0.00011630871958369313 0.00025095499337166765 0 0.00016221975715873874 0.00027461930262640124 0 0.00014732033963097064 0.00021441312043529365 0 0.00016221975715873874 0.00027461930262640124 0 0.00014732033963097064 0.00021441312043529365 0 0.00021667844761284738 0.00017340964450818726 0 0.00017408079723276398 0.0003257071191602381 0 0.00014659875170755231 0.00037788016603665359 0 0.00016221975715873874 0.00027461930262640124 0 0.00017854224471875179 0.00016451106673700372 0 0.00014732033963097064 0.00021441312043529365 0 0.0001136830305268087 0.00016576787498319659 0 0.00017854224471875179 0.00016451106673700372 0 0.00014732033963097064 0.00021441312043529365 0 0.00021667844761284738 0.00017340964450818726 0 0.00014732033963097064 0.00021441312043529365 0 0.0001136830305268087 0.00016576787498319659 0 8.3431511719667597e-05 0.00016990611051344933 0 0.00017854224471875179 0.00016451106673700372 0 0.0001136830305268087 0.00016576787498319659 0 0.00013101163837408707 0.00015202664911767325 0 0.0001136830305268087 0.00016576787498319659 0 9.157339924207271e-05 0.0001555214273190373 0 0.00013101163837408707 0.00015202664911767325 0 9.157339924207271e-05 0.0001555214273190373 0 6.0271284108710753e-05 0.00012038915551487335 0 9.014798283778894e-05 0.00020768440013811817 0 -7.7685480841748072e-07 -0.0002346870601388441 0 3.5754646416647723e-08 -0.0015309688695306 0 1.0851198097794289e-05 -0.0017444902473590152 0 9.4466256160620398e-05 -0.00037972736717287447 0 0.00010652321089033041 -0.00060465466831986564 0 -7.7685480841748072e-07 -0.0002346870601388441 0 6.0271284108710753e-05 0.00012038915551487335 0 9.014798283778894e-05 0.00020768440013811817 0 0.0001136830305268087 0.00016576787498319659 0 9.157339924207271e-05 0.0001555214273190373 0 7.5051544504438198e-05 0.00014158252444204631 0 9.157339924207271e-05 0.0001555214273190373 0 7.5051544504438198e-05 0.00014158252444204631 0 6.0271284108710753e-05 0.00012038915551487335 0 0.0001136830305268087 0.00016576787498319659 0 8.3431511719667597e-05 0.00016990611051344933 0 7.5051544504438198e-05 0.00014158252444204631 0 4.3659887448474208e-05 8.6915641360964653e-05 0 8.3431511719667597e-05 0.00016990611051344933 0 7.5051544504438198e-05 0.00014158252444204631 0 4.3659887448474208e-05 8.6915641360964653e-05 0 7.5051544504438198e-05 0.00014158252444204631 0 6.0271284108710753e-05 0.00012038915551487335 0 3.5754646416647723e-08 -0.0015309688695306 0 1.0851198097794289e-05 -0.0017444902473590152 0 -9.125848201942008e-08 -0.0029576805601701896 0 9.014798283778894e-05 0.00020768440013811817 0 0.00014240412148845311 0.00015739894641359902 0 0.00016856906228582773 0.0001515499792847799 0 9.014798283778894e-05 0.00020768440013811817 0 0.00014240412148845311 0.00015739894641359902 0 0.0001148580606759743 0.0001648318225513771 0 0.00014240412148845311 0.00015739894641359902 0 0.0001148580606759743 0.0001648318225513771 0 0.00013101163837408707 0.00015202664911767325 0 9.157339924207271e-05 0.0001555214273190373 0 0.0001148580606759743 0.0001648318225513771 0 0.00013101163837408707 0.00015202664911767325 0 9.157339924207271e-05 0.0001555214273190373 0 9.014798283778894e-05 0.00020768440013811817 0 0.0001148580606759743 0.0001648318225513771 0 0.00010652321089033041 -0.00060465466831986564 0 8.0060595757603856e-05 -0.002528019942106672 0 9.014798283778894e-05 0.00020768440013811817 0 0.00016856906228582773 0.0001515499792847799 0 0.0001944278566331259 0.00014178580934387017 0 1.0851198097794289e-05 -0.0017444902473590152 0 -9.125848201942008e-08 -0.0029576805601701896 0 -2.1381516131355182e-05 -0.0028692842535133433 0 1.2544707338401922e-07 -0.0029592553312201278 0 8.0060595757603856e-05 -0.002528019942106672 0 0.00019959283239122581 -0.0006925330956145361 0 0.00023809041756705262 -0.00061522922077746458 0 0.00020447430371303837 -0.00060806755384133077 0 0.00016856906228582773 0.0001515499792847799 0 0.0001944278566331259 0.00014178580934387017 0 0.00014761967811241381 0.00014693220605799882 0 0.00014240412148845311 0.00015739894641359902 0 0.00016856906228582773 0.0001515499792847799 0 0.00014761967811241381 0.00014693220605799882 0 8.0060595757603856e-05 -0.002528019942106672 0 0.00035189329033242475 0.00012574432610368961 0 0.00017854224471875179 0.00016451106673700372 0 0.00013101163837408707 0.00015202664911767325 0 0.00014761967811241381 0.00014693220605799882 0 0.00014240412148845311 0.00015739894641359902 0 0.00013101163837408707 0.00015202664911767325 0 0.00014761967811241381 0.00014693220605799882 0 0.00023809041756705262 -0.00061522922077746458 0 0.00021135444679479192 -0.00056131881434628821 0 0.00027057070723322612 -0.00053956263354960259 0 0.00017854224471875179 0.00016451106673700372 0 0.00014761967811241381 0.00014693220605799882 0 0.00026868970653088438 0.00011626929009567867 0 0.00035189329033242475 0.00012574432610368961 0 0.00020840661914396134 -0.00029159640352483516 0 0.00021135444679479192 -0.00056131881434628821 0 0.00020447430371303837 -0.00060806755384133077 0 0.00024779449873361931 -0.00060231039030895291 0 0.00023809041756705262 -0.00061522922077746458 0 0.00021135444679479192 -0.00056131881434628821 0 0.00020447430371303837 -0.00060806755384133077 0 0.00021135444679479192 -0.00056131881434628821 0 0.00024779449873361931 -0.00060231039030895291 0 0.00019341365806111818 -0.00068616298444870336 0 0.00021135444679479192 -0.00056131881434628821 0 0.00026062646966737164 -0.00043831023745894874 0 0.00023982563271029761 -0.00055269478046923043 0 0.00021135444679479192 -0.00056131881434628821 0 0.00026062646966737164 -0.00043831023745894874 0 0.00027057070723322612 -0.00053956263354960259 0 0.00029180775277421383 -0.0002274044131124134 0 0.00020840661914396134 -0.00029159640352483516 0 0.00029559662885700696 -0.00023824332360668592 0 0.00021667844761284738 0.00017340964450818726 0 0.00026868970653088438 0.00011626929009567867 0 0.00026062646966737164 -0.00043831023745894874 0 0.00029559662885700696 -0.00023824332360668592 0 0.00027057070723322612 -0.00053956263354960259 0 0.00018747787971508211 5.7114753127323183e-05 0 0.00029559662885700696 -0.00023824332360668592 0 0.00021667844761284738 0.00017340964450818726 0 0.00022932343451018022 -0.00020513493095471527 0 0.00018747787971508211 5.7114753127323183e-05 0 0.00029559662885700696 -0.00023824332360668592 0 0.00017408079723276398 0.0003257071191602381 0 0.00016221975715873874 0.00027461930262640124 0 0.00021667844761284738 0.00017340964450818726 0 0.00018747787971508211 5.7114753127323183e-05 0 0.00017408079723276398 0.0003257071191602381 0 0.00021667844761284738 0.00017340964450818726 0 0.00017854224471875179 0.00016451106673700372 0 0.00021667844761284738 0.00017340964450818726 0 0.00026868970653088438 0.00011626929009567867 0 8.6836323525079766e-05 -0.0060908424534832405 0 0.00021264539043218931 -0.0056062895363122112 0 0.00011851005323628492 -0.0060760808119496206 0 0.00021264539043218931 -0.0056062895363122112 0 0.00030449373116231079 -0.0055950427458671534 0 0.00011851005323628492 -0.0060760808119496206 0 8.6836323525079766e-05 -0.0060908424534832405 0 1.0467682842247592e-07 -0.0061419249069192402 0 0.00021264539043218931 -0.0056062895363122112 0 1.0467682842247592e-07 -0.0061419249069192402 0 9.8122543588706697e-07 -0.0048657640046628967 0 0.00021264539043218931 -0.0056062895363122112 0 9.8122543588706697e-07 -0.0048657640046628967 0 0.00021264539043218931 -0.0056062895363122112 0 0.00018102681726150962 -0.0049633326260933247 0 0.00021264539043218931 -0.0056062895363122112 0 0.00018102681726150962 -0.0049633326260933247 0 0.00034219469569349889 -0.005276854995882322 0 0.00021264539043218931 -0.0056062895363122112 0 0.00034219469569349889 -0.005276854995882322 0 0.00030449373116231079 -0.0055950427458671534 0 0.00025886299615541868 -0.0050041345832902593 0 0.00029031288044163906 -0.004810232509784928 0 0.00034219469569349889 -0.005276854995882322 0 0.00025886299615541868 -0.0050041345832902593 0 0.00018102681726150962 -0.0049633326260933247 0 0.00034219469569349889 -0.005276854995882322 0 0.00025886299615541868 -0.0050041345832902593 0 0.00018102681726150962 -0.0049633326260933247 0 0.00047937739496933904 -0.0051072524087562906 0 9.8122543588706697e-07 -0.0048657640046628967 0 0.00018102681726150962 -0.0049633326260933247 0 -1.367829434363059e-06 -0.0035916799513958631 0 0.00068159697729929794 -0.0053547367911212203 0 0.00018102681726150962 -0.0049633326260933247 0 0.00047937739496933904 -0.0051072524087562906 0 -0.00052328587795630419 -0.0041179453009562829 0 0.00018102681726150962 -0.0049633326260933247 0 -1.367829434363059e-06 -0.0035916799513958631 0 8.0060595757603856e-05 -0.002528019942106672 0 0.00032354618043400196 -0.0054167411076040664 0 8.0060595757603856e-05 -0.002528019942106672 0 -5.8111689868854919e-07 -0.0035898945056584432 0 5.5252895289925418e-09 -0.0029606988202789996 0 7.215858491623882e-07 -0.0030816302210329 0 -4.1065666502186983e-09 -0.0035881117359222474 0 0.00068159697729929794 -0.0053547367911212203 0 0.00047937739496933904 -0.0051072524087562906 0 0.00055879207734723995 -0.0049506727244267648 0 0.00068159697729929794 -0.0053547367911212203 0 0.00055879207734723995 -0.0049506727244267648 0 0.00093103443683114403 -0.0046747727350717732 0 8.0060595757603856e-05 -0.002528019942106672 0 0.00059872620739870688 -0.0027196799617477674 0 0.00025886299615541868 -0.0050041345832902593 0 0.00047937739496933904 -0.0051072524087562906 0 0.00055879207734723995 -0.0049506727244267648 0 0.00025886299615541868 -0.0050041345832902593 0 0.00055879207734723995 -0.0049506727244267648 0 0.00029031288044163906 -0.004810232509784928 0 0.00055879207734723995 -0.0049506727244267648 0 0.00093103443683114403 -0.0046747727350717732 0 0.00029031288044163906 -0.004810232509784928 0 0.00093103443683114403 -0.0046747727350717732 0 0.00029031288044163906 -0.004810232509784928 0 0.0008116166415463612 -0.0025916253462971994 0 0.00059872620739870688 -0.0027196799617477674 0 0.00048425167513087774 -0.0015880148078224797 0 0.0008116166415463612 -0.0025916253462971994 0 -0.00084794573636263646 -0.0026956915758174658 0 -0.00042948858610708675 -0.0016164063671294054 0 0.00029031288044163906 -0.004810232509784928 0 0.00048166199461041511 -0.0053846567978291047 0 0.00034219469569349889 -0.005276854995882322 0 0.00029031288044163906 -0.004810232509784928 0 0.0008116166415463612 -0.0025916253462971994 0 -0.00084794573636263646 -0.0026956915758174658 0 0.00029462689485776832 -0.004789940549094319 0 -0.00012743696367854815 -0.0040460997789990242 0 0.00034219469569349889 -0.005276854995882322 0 0.00030449373116231079 -0.0055950427458671534 0 0.00043226487009609876 -0.0054861592360074245 0 0.00048166199461041511 -0.0053846567978291047 0 0.00034219469569349889 -0.005276854995882322 0 0.00043226487009609876 -0.0054861592360074245 0 -0.00012743696367854815 -0.0040460997789990242 0 -0.00021276376366990011 -0.0031130867196400825 0 0.00048166199461041511 -0.0053846567978291047 0 0.00043226487009609876 -0.0054861592360074245 0 0.00067929439241718663 -0.0048419598343578656 0 0.00043226487009609876 -0.0054861592360074245 0 0.00015121973456826094 -0.0054166455241521604 0 0.00067929439241718663 -0.0048419598343578656 0 0.00043226487009609876 -0.0054861592360074245 0 0.00015121973456826094 -0.0054166455241521604 0 0.00022598556611534939 -0.0057242535953631523 0 0.00030449373116231079 -0.0055950427458671534 0 0.00022598556611534939 -0.0057242535953631523 0 0.00011851005323628492 -0.0060760808119496206 0 0.00030449373116231079 -0.0055950427458671534 0 0.00043226487009609876 -0.0054861592360074245 0 0.00022598556611534939 -0.0057242535953631523 0 -0.001078975848178869 -0.0013939947784007724 0 -0.00082295512370496142 -0.00080751491768588579 0 -0.001079582125924011 -0.00094952479357605598 0 0.00067929439241718663 -0.0048419598343578656 0 -1.1789952347944554e-06 -0.0042938770256116593 0 0.00025616332558983808 -0.0032155390975813804 0 -0.00021276376366990011 -0.0031130867196400825 0 -0.00047573938957581695 -0.002066447214040216 0 0.00015121973456826094 -0.0054166455241521604 0 0.00067929439241718663 -0.0048419598343578656 0 -4.77325848576221e-05 -0.0049367242169392218 0 0.00067929439241718663 -0.0048419598343578656 0 -4.77325848576221e-05 -0.0049367242169392218 0 -1.1789952347944554e-06 -0.0042938770256116593 0 -0.00084794573636263646 -0.0026956915758174658 0 -0.001078975848178869 -0.0013939947784007724 0 -0.00042948858610708675 -0.0016164063671294054 0 -0.001078975848178869 -0.0013939947784007724 0 -0.00050953911028400137 -0.00099097595313581989 0 -0.00042948858610708675 -0.0016164063671294054 0 -0.001078975848178869 -0.0013939947784007724 0 -0.00050953911028400137 -0.00099097595313581989 0 -0.00082295512370496142 -0.00080751491768588579 0 -0.00050953911028400137 -0.00099097595313581989 0 0.0002194590160203303 -0.00094819441882716508 0 -9.890993051812292e-05 -0.00072079505205514241 0 -0.00050953911028400137 -0.00099097595313581989 0 -0.00042948858610708675 -0.0016164063671294054 0 0.0002194590160203303 -0.00094819441882716508 0 0.0002194590160203303 -0.00094819441882716508 0 0.00019341365806111818 -0.00068616298444870336 0 0.00018981931637001621 -0.00070614836594412871 0 0.0008116166415463612 -0.0025916253462971994 0 -0.00042948858610708675 -0.0016164063671294054 0 0.0002194590160203303 -0.00094819441882716508 0 0.00024779449873361931 -0.00060231039030895291 0 0.0002194590160203303 -0.00094819441882716508 0 0.00019341365806111818 -0.00068616298444870336 0 0.00048425167513087774 -0.0015880148078224797 0 0.00028339855040442405 -0.0010111285518562311 0 0.0002194590160203303 -0.00094819441882716508 0 -9.890993051812292e-05 -0.00072079505205514241 0 0.00018981931637001621 -0.00070614836594412871 0 -9.890993051812292e-05 -0.00072079505205514241 0 4.7943241235563086e-05 -0.00051049149548374807 0 0.00018981931637001621 -0.00070614836594412871 0 -9.890993051812292e-05 -0.00072079505205514241 0 4.7943241235563086e-05 -0.00051049149548374807 0 -0.00020223301077960013 -0.00036213116246483669 0 4.7943241235563086e-05 -0.00051049149548374807 0 -0.00020223301077960013 -0.00036213116246483669 0 8.2888397346187322e-05 -0.00029179998654604958 0 -0.00020223301077960013 -0.00036213116246483669 0 8.2888397346187322e-05 -0.00029179998654604958 0 9.6319610629016491e-05 -8.0794668046799831e-05 0 -0.00020223301077960013 -0.00036213116246483669 0 -0.00048002572901320411 -0.00063678613208740414 0 -0.00066977605948271288 -0.00044412606543890227 0 -0.00050953911028400137 -0.00099097595313581989 0 -9.890993051812292e-05 -0.00072079505205514241 0 -0.00048002572901320411 -0.00063678613208740414 0 -9.890993051812292e-05 -0.00072079505205514241 0 -0.00020223301077960013 -0.00036213116246483669 0 -0.00048002572901320411 -0.00063678613208740414 0 -0.00048002572901320411 -0.00063678613208740414 0 -0.00082295512370496142 -0.00080751491768588579 0 -0.00066977605948271288 -0.00044412606543890227 0 -0.00050953911028400137 -0.00099097595313581989 0 -0.00048002572901320411 -0.00063678613208740414 0 -0.00082295512370496142 -0.00080751491768588579 0 -0.00082295512370496142 -0.00080751491768588579 0 -0.00066977605948271288 -0.00044412606543890227 0 -0.00093543949384488245 -0.00070777905643174834 0 -0.00066977605948271288 -0.00044412606543890227 0 -0.00086704926544753814 -0.00050469650614088702 0 -0.00086047579717983254 -0.00028319027139746706 0 -0.00066977605948271288 -0.00044412606543890227 0 -0.00086704926544753814 -0.00050469650614088702 0 -0.00093543949384488245 -0.00070777905643174834 0 -0.00086704926544753814 -0.00050469650614088702 0 -0.00093543949384488245 -0.00070777905643174834 0 -0.00099781601553141828 -0.00057591398395169405 0 -0.00082295512370496142 -0.00080751491768588579 0 -0.00093543949384488245 -0.00070777905643174834 0 -0.001079582125924011 -0.00094952479357605598 0 0.0002970408335351543 -0.00043924405733257194 0 0.00026294687760641919 -0.000333503333960646 0 0.00033595397458835858 -0.00041392556972939869 0 0.00020443256201026677 -0.000304349717099607 0 0.00026294687760641919 -0.000333503333960646 0 0.00033595397458835858 -0.00041392556972939869 0 0.00029559662885700696 -0.00023824332360668592 0 0.0002970408335351543 -0.00043924405733257194 0 0.00026294687760641919 -0.000333503333960646 0 0.00022932343451018022 -0.00020513493095471527 0 0.00029559662885700696 -0.00023824332360668592 0 0.00026294687760641919 -0.000333503333960646 0 0.00026062646966737164 -0.00043831023745894874 0 0.00029559662885700696 -0.00023824332360668592 0 0.0002970408335351543 -0.00043924405733257194 0 0.00026062646966737164 -0.00043831023745894874 0 0.0002970408335351543 -0.00043924405733257194 0 0.00023982563271029761 -0.00055269478046923043 0 0.00023982563271029761 -0.00055269478046923043 0 0.00019341365806111818 -0.00068616298444870336 0 0.00018981931637001621 -0.00070614836594412871 0 0.00021135444679479192 -0.00056131881434628821 0 0.00023982563271029761 -0.00055269478046923043 0 0.00019341365806111818 -0.00068616298444870336 0 0.00023982563271029761 -0.00055269478046923043 0 0.00018981931637001621 -0.00070614836594412871 0 0.00023218954949830726 -0.00047954407527361594 0 0.0002970408335351543 -0.00043924405733257194 0 0.00023982563271029761 -0.00055269478046923043 0 0.00023218954949830726 -0.00047954407527361594 0 0.00023218954949830726 -0.00047954407527361594 0 0.00021507907673412596 -0.0001777289036694359 0 0.00033595397458835858 -0.00041392556972939869 0 4.7943241235563086e-05 -0.00051049149548374807 0 0.00018981931637001621 -0.00070614836594412871 0 0.00023218954949830726 -0.00047954407527361594 0 4.7943241235563086e-05 -0.00051049149548374807 0 0.00023218954949830726 -0.00047954407527361594 0 8.2888397346187322e-05 -0.00029179998654604958 0 0.00023218954949830726 -0.00047954407527361594 0 8.2888397346187322e-05 -0.00029179998654604958 0 0.00021507907673412596 -0.0001777289036694359 0 8.2888397346187322e-05 -0.00029179998654604958 0 0.00021507907673412596 -0.0001777289036694359 0 9.6319610629016491e-05 -8.0794668046799831e-05 0 0.00026177640741662113 6.498199953114899e-05 0 0.00029793187706197462 0.00016263298987547763 0 0.00023377673211825729 2.7168683752340046e-06 0 0.00021507907673412596 -0.0001777289036694359 0 0.00026177640741662113 6.498199953114899e-05 0 0.00023377673211825729 2.7168683752340046e-06 0 0.00020675726515108169 -0.00016400841784994856 0 0.00028510484589429428 -0.00017022042982380383 0 0.0002970408335351543 -0.00043924405733257194 0 0.00023218954949830726 -0.00047954407527361594 0 0.00033595397458835858 -0.00041392556972939869 0 0.00036315216845719741 0.00015229126502992746 0 0.00038577684757231111 1.0585419601246187e-05 0 0.00026177640741662113 6.498199953114899e-05 0 0.00031280099033370351 -0.00015322883233606334 0 0.00028510484589429428 -0.00017022042982380383 0 0.00036315216845719741 0.00015229126502992746 0 0.00026177640741662113 6.498199953114899e-05 0 0.00029793187706197462 0.00016263298987547763 0 0.00037641775085358865 0.0003705571986576025 0 0.00029793187706197462 0.00016263298987547763 0 0.00032057238602492809 0.00015870645060446479 0 0.00024092560629392692 0.00015143793029067339 0 0.00032057238602492809 0.00015870645060446479 0 0.00023377673211825729 2.7168683752340046e-06 0 0.00029793187706197462 0.00016263298987547763 0 0.00032057238602492809 0.00015870645060446479 0 0.00023377673211825729 2.7168683752340046e-06 0 0.00024092560629392692 0.00015143793029067339 0 0.00032057238602492809 0.00015870645060446479 0 0.0002828807280475907 0.00024706950961290595 0 0.00031247358257796012 0.00013407341319212663 0 0.00032057238602492809 0.00015870645060446479 0 0.0002828807280475907 0.00024706950961290595 0 -0.00072197839672763313 0.00093208720696291085 0 -0.00061855479493861374 0.00091270325180628964 0 -0.0017377629553800965 0.0017227424154220698 0 -0.0017381154941296796 0.0014152886531225834 0 -0.0015195056708647288 0.0015791789977592187 0 0.00024092560629392692 0.00015143793029067339 0 0.0002828807280475907 0.00024706950961290595 0 9.0614260215911126e-05 0.00018050942086966689 0 -0.00061855479493861374 0.00091270325180628964 0 -0.00048856873734966688 0.00080358717304685888 0 -0.0015195056708647288 0.0015791789977592187 0 -0.0010256515518678744 0.0012567164489298533 0 -0.0016760189082134158 0.001144844032603548 0 -0.0017381154941296796 0.0014152886531225834 0 -0.0015195056708647288 0.0015791789977592187 0 -0.0016760189082134158 0.001144844032603548 0 6.2621717283396655e-05 0.00038669978821607965 0 -0.00019652699281756545 0.00033045179629914359 0 -0.00031340383015862107 0.00049085201580476522 0 6.2621717283396655e-05 0.00038669978821607965 0 -4.3220585081932924e-05 0.00025855873954304837 0 -0.00019652699281756545 0.00033045179629914359 0 6.2621717283396655e-05 0.00038669978821607965 0 -4.3220585081932924e-05 0.00025855873954304837 0 9.0614260215911126e-05 0.00018050942086966689 0 0.0002828807280475907 0.00024706950961290595 0 6.2621717283396655e-05 0.00038669978821607965 0 9.0614260215911126e-05 0.00018050942086966689 0 -4.3220585081932924e-05 0.00025855873954304837 0 9.0614260215911126e-05 0.00018050942086966689 0 -0.00013204189043079816 0.00017464528136272624 0 -4.3220585081932924e-05 0.00025855873954304837 0 -0.00013204189043079816 0.00017464528136272624 0 -0.00019652699281756545 0.00033045179629914359 0 9.0614260215911126e-05 0.00018050942086966689 0 -4.5159775757996312e-05 1.9382014833045163e-06 0 -0.00013204189043079816 0.00017464528136272624 0 0.00024092560629392692 0.00015143793029067339 0 9.0614260215911126e-05 0.00018050942086966689 0 0.00023377673211825729 2.7168683752340046e-06 0 0.00021507907673412596 -0.0001777289036694359 0 0.00023377673211825729 2.7168683752340046e-06 0 9.6319610629016491e-05 -8.0794668046799831e-05 0 9.0614260215911126e-05 0.00018050942086966689 0 0.00023377673211825729 2.7168683752340046e-06 0 -4.5159775757996312e-05 1.9382014833045163e-06 0 0.00022436427745508184 -9.9441920803541382e-06 0 2.9445689442675951e-05 -3.4579383942754748e-05 0 -0.00020223301077960013 -0.00036213116246483669 0 9.6319610629016491e-05 -8.0794668046799831e-05 0 -0.00025944196371368916 -9.5031747095577248e-05 0 2.9445689442675951e-05 -3.4579383942754748e-05 0 -0.00023934118970803589 -4.8597719811382004e-05 0 -0.00020223301077960013 -0.00036213116246483669 0 -0.00066977605948271288 -0.00044412606543890227 0 -0.00025944196371368916 -9.5031747095577248e-05 0 -0.00022249254836302851 1.1770953734007003e-05 0 -0.0002607921691681931 0.00013431764789136554 0 -0.00042503910163903133 -5.9201623558596669e-05 0 -0.00022249254836302851 1.1770953734007003e-05 0 -0.0002607921691681931 0.00013431764789136554 0 -0.00013204189043079816 0.00017464528136272624 0 -4.5159775757996312e-05 1.9382014833045163e-06 0 -0.00022249254836302851 1.1770953734007003e-05 0 -0.00013204189043079816 0.00017464528136272624 0 -0.00086047579717983254 -0.00028319027139746706 0 -0.00067656940353351077 -0.00014085767089154014 0 -0.00097764021678523722 -9.9067171931656743e-05 0 -0.00066977605948271288 -0.00044412606543890227 0 -0.00086047579717983254 -0.00028319027139746706 0 -0.00067656940353351077 -0.00014085767089154014 0 -0.00086704926544753814 -0.00050469650614088702 0 -0.00086047579717983254 -0.00028319027139746706 0 -0.00099781601553141828 -0.00057591398395169405 0 -0.00066977605948271288 -0.00044412606543890227 0 -0.00025944196371368916 -9.5031747095577248e-05 0 -0.00067656940353351077 -0.00014085767089154014 0 -0.00023934118970803589 -4.8597719811382004e-05 0 -0.00056217046336457899 -9.4648321629443828e-05 0 -0.0002607921691681931 0.00013431764789136554 0 -0.00042503910163903133 -5.9201623558596669e-05 0 -0.0003613451151755006 0.00024429870047828572 0 -0.00042503910163903133 -5.9201623558596669e-05 0 -0.00067767861400973262 0.00011953511230104314 0 -0.00097764021678523722 -9.9067171931656743e-05 0 -0.00042503910163903133 -5.9201623558596669e-05 0 -0.00067767861400973262 0.00011953511230104314 0 -0.0003613451151755006 0.00024429870047828572 0 -0.00056217046336457899 -9.4648321629443828e-05 0 -0.00095647901724042392 -9.2931815084109902e-05 0 -0.00067767861400973262 0.00011953511230104314 0 -0.00060063883588786686 0.00030696083536926514 0 -0.0003613451151755006 0.00024429870047828572 0 -0.0003613451151755006 0.00024429870047828572 0 -0.00025810489167093749 0.0003079030055006087 0 -0.00022019708272081584 0.0003327926822854065 0 -0.00025810489167093749 0.0003079030055006087 0 -0.00021871793329153523 0.00033033029772435498 0 -0.00022019708272081584 0.0003327926822854065 0 -0.0003613451151755006 0.00024429870047828572 0 -0.00025810489167093749 0.0003079030055006087 0 -0.00022729663080831497 0.00027408992162935561 0 -0.00060063883588786686 0.00030696083536926514 0 -0.0003613451151755006 0.00024429870047828572 0 -0.00022019708272081584 0.0003327926822854065 0 0.00028863281175434396 -0.0014289480952306502 0 0.00029242349152755665 -0.00057556020534212603 0 6.7222550258446895e-05 -0.00079637648489334011 0 -0.00019624827150962335 -0.00061304870812595776 0 5.7668082798963994e-06 -0.00016789750208058739 0 -0.00013204189043079816 0.00017464528136272624 0 -0.00022729663080831497 0.00027408992162935561 0 -0.00019652699281756545 0.00033045179629914359 0 -0.0002607921691681931 0.00013431764789136554 0 -0.00013204189043079816 0.00017464528136272624 0 -0.00022729663080831497 0.00027408992162935561 0 -0.0002607921691681931 0.00013431764789136554 0 -0.0003613451151755006 0.00024429870047828572 0 -0.00022729663080831497 0.00027408992162935561 0 -0.00025810489167093749 0.0003079030055006087 0 -0.00022729663080831497 0.00027408992162935561 0 -0.00021871793329153523 0.00033033029772435498 0 -0.00022729663080831497 0.00027408992162935561 0 -0.00019652699281756545 0.00033045179629914359 0 -0.00021871793329153523 0.00033033029772435498 0 -0.00019652699281756545 0.00033045179629914359 0 -0.00031340383015862107 0.00049085201580476522 0 -0.00021871793329153523 0.00033033029772435498 0 -0.00031340383015862107 0.00049085201580476522 0 -0.00021871793329153523 0.00033033029772435498 0 -0.00022933596781308596 0.00022641142978518445 0 -0.00021871793329153523 0.00033033029772435498 0 -0.00022933596781308596 0.00022641142978518445 0 1.4044075602543783e-05 -3.9550170001958012e-05 0 -0.00022933596781308596 0.00022641142978518445 0 -0.00027557311609878357 -2.7352041878728463e-05 0 -6.5418654845910939e-05 -0.00016196999016871894 0 -0.00022933596781308596 0.00022641142978518445 0 1.4044075602543783e-05 -3.9550170001958012e-05 0 -6.5418654845910939e-05 -0.00016196999016871894 0 -0.00045992660428853597 0.00010224432459792996 0 -0.00022933596781308596 0.00022641142978518445 0 -0.00027557311609878357 -2.7352041878728463e-05 0 -0.00031340383015862107 0.00049085201580476522 0 -0.00045992660428853597 0.00010224432459792996 0 -0.00022933596781308596 0.00022641142978518445 0 0.00029242349152755665 -0.00057556020534212603 0 0.0001158241655784593 -0.00030430691051498514 0 -1.6202614407346518e-05 -0.00051221744138228102 0 0.00029242349152755665 -0.00057556020534212603 0 -1.6202614407346518e-05 -0.00051221744138228102 0 6.7222550258446895e-05 -0.00079637648489334011 0 -0.00021871793329153523 0.00033033029772435498 0 -0.00022019708272081584 0.0003327926822854065 0 1.4044075602543783e-05 -3.9550170001958012e-05 0 5.7668082798963994e-06 -0.00016789750208058739 0 -6.4441895954495209e-06 -9.0247933540959059e-05 0 0.00029242349152755665 -0.00057556020534212603 0 1.4044075602543783e-05 -3.9550170001958012e-05 0 0.0001158241655784593 -0.00030430691051498514 0 1.4044075602543783e-05 -3.9550170001958012e-05 0 0.0001158241655784593 -0.00030430691051498514 0 0.00011460891222153636 -0.00034596798724363214 0 0.0001158241655784593 -0.00030430691051498514 0 0.00011460891222153636 -0.00034596798724363214 0 3.6689378703917794e-05 -0.00038497683333172067 0 0.0001158241655784593 -0.00030430691051498514 0 3.6689378703917794e-05 -0.00038497683333172067 0 -1.6202614407346518e-05 -0.00051221744138228102 0 0.00011460891222153636 -0.00034596798724363214 0 7.5577074335653015e-05 -0.00033122950249771179 0 0.00016520546093558443 -0.00043633050560587349 0 1.4044075602543783e-05 -3.9550170001958012e-05 0 7.5577074335653015e-05 -0.00033122950249771179 0 -6.5418654845910939e-05 -0.00016196999016871894 0 1.4044075602543783e-05 -3.9550170001958012e-05 0 0.00011460891222153636 -0.00034596798724363214 0 7.5577074335653015e-05 -0.00033122950249771179 0 7.5577074335653015e-05 -0.00033122950249771179 0 6.089920904985829e-05 -0.00047689160678509755 0 -6.3364525199041644e-05 -0.00039395415656288957 0 6.089920904985829e-05 -0.00047689160678509755 0 0.00016520546093558443 -0.00043633050560587349 0 9.9702473548937939e-05 -0.00067569178239810688 0 6.089920904985829e-05 -0.00047689160678509755 0 -4.6932903544692073e-05 -0.00061744770537515783 0 9.9702473548937939e-05 -0.00067569178239810688 0 7.5577074335653015e-05 -0.00033122950249771179 0 6.089920904985829e-05 -0.00047689160678509755 0 0.00016520546093558443 -0.00043633050560587349 0 0.00016520546093558443 -0.00043633050560587349 0 6.061058476390128e-05 -0.000381197355892016 0 0.00010880335847709482 -0.00037297942788849602 0 0.00011460891222153636 -0.00034596798724363214 0 0.00016520546093558443 -0.00043633050560587349 0 6.061058476390128e-05 -0.000381197355892016 0 -0.00026154611297522654 -0.00029239590699822813 0 -0.00048713033736022564 -0.00021991276163161444 0 -0.00027557311609878357 -2.7352041878728463e-05 0 -0.00045992660428853597 0.00010224432459792996 0 -0.00048713033736022564 -0.00021991276163161444 0 -0.00027557311609878357 -2.7352041878728463e-05 0 -0.00026154611297522654 -0.00029239590699822813 0 -0.00027557311609878357 -2.7352041878728463e-05 0 -6.5418654845910939e-05 -0.00016196999016871894 0 7.5577074335653015e-05 -0.00033122950249771179 0 -6.5418654845910939e-05 -0.00016196999016871894 0 -6.3364525199041644e-05 -0.00039395415656288957 0 -0.00026154611297522654 -0.00029239590699822813 0 -6.5418654845910939e-05 -0.00016196999016871894 0 -6.3364525199041644e-05 -0.00039395415656288957 0 -0.00026154611297522654 -0.00029239590699822813 0 -6.3364525199041644e-05 -0.00039395415656288957 0 -0.00024169428440805918 -0.00054077181855486593 0 6.089920904985829e-05 -0.00047689160678509755 0 -6.3364525199041644e-05 -0.00039395415656288957 0 -4.6932903544692073e-05 -0.00061744770537515783 0 -6.3364525199041644e-05 -0.00039395415656288957 0 -4.6932903544692073e-05 -0.00061744770537515783 0 -0.00024169428440805918 -0.00054077181855486593 0 -0.00024169428440805918 -0.00054077181855486593 0 -0.00045964523030930744 -0.00048050676513905748 0 -0.00043825241907968705 -0.00070976392276637132 0 -0.00026154611297522654 -0.00029239590699822813 0 -0.00024169428440805918 -0.00054077181855486593 0 -0.00045964523030930744 -0.00048050676513905748 0 -0.00026154611297522654 -0.00029239590699822813 0 -0.00048713033736022564 -0.00021991276163161444 0 -0.00045964523030930744 -0.00048050676513905748 0 -0.00045964523030930744 -0.00048050676513905748 0 -0.00074990981707967865 -0.000522665157736161 0 -0.00043825241907968705 -0.00070976392276637132 0 -0.00074990981707967865 -0.000522665157736161 0 -0.00080683377039137848 -0.00012601651725838663 0 -0.001087970943365165 -0.00034260728307600538 0 -0.00048713033736022564 -0.00021991276163161444 0 -0.00045964523030930744 -0.00048050676513905748 0 -0.00074990981707967865 -0.000522665157736161 0 -0.00048713033736022564 -0.00021991276163161444 0 -0.00074990981707967865 -0.000522665157736161 0 -0.00080683377039137848 -0.00012601651725838663 0 -0.00045992660428853597 0.00010224432459792996 0 -0.00048713033736022564 -0.00021991276163161444 0 -0.00080683377039137848 -0.00012601651725838663 0 -0.0012741494908758576 6.6837362079848902e-05 0 -0.001087970943365165 -0.00034260728307600538 0 -0.0014869667746622787 -0.00045110563247783159 0 -0.00080683377039137848 -0.00012601651725838663 0 -0.0012741494908758576 6.6837362079848902e-05 0 -0.001087970943365165 -0.00034260728307600538 0 -0.001087970943365165 -0.00034260728307600538 0 -0.0011406822374751748 -0.00065284434445102963 0 -0.0014869667746622787 -0.00045110563247783159 0 -0.00074990981707967865 -0.000522665157736161 0 -0.001087970943365165 -0.00034260728307600538 0 -0.0011406822374751748 -0.00065284434445102963 0 -0.00074990981707967865 -0.000522665157736161 0 -0.0011406822374751748 -0.00065284434445102963 0 -0.00090778071267565272 -0.0008035360139280706 0 -0.0011406822374751748 -0.00065284434445102963 0 -0.0014869667746622787 -0.00045110563247783159 0 -0.001388455848693672 -0.00091400378198381487 0 -0.0014869667746622787 -0.00045110563247783159 0 -0.0019156438648951452 -0.00056444796233436772 0 -0.0017917749143687063 -0.00019586074104380085 0 -0.0022998707119286422 -0.00045579526249569304 0 -0.0019156438648951452 -0.00056444796233436772 0 -0.0017917749143687063 -0.00019586074104380085 0 -0.0024479148676202485 -0.00054762436444352421 0 -0.0017666827208623567 -2.6667667365235144e-05 0 -0.0014869667746622787 -0.00045110563247783159 0 -0.0019156438648951452 -0.00056444796233436772 0 -0.0016995515478049948 -0.00078576082538507977 0 -0.0011602440539904089 0.00036449678737740282 0 -0.0017638911384695569 0.00010462595164964023 0 -0.002048614701552758 0.00067731767154067678 0 -0.0012741494908758576 6.6837362079848902e-05 0 -0.0014869667746622787 -0.00045110563247783159 0 -0.0017917749143687063 -0.00019586074104380085 0 -0.00120336615235017 0.00020633909465799568 0 -0.0017666827208623567 -2.6667667365235144e-05 0 -0.0011602440539904089 0.00036449678737740282 0 -0.0016760189082134158 0.001144844032603548 0 -0.0011244018234028398 0.00078521554400357192 0 -0.0027414362118614402 0.0012973681149138826 0 -0.002048614701552758 0.00067731767154067678 0 -0.0016760189082134158 0.001144844032603548 0 -0.0011602440539904089 0.00036449678737740282 0 -0.002048614701552758 0.00067731767154067678 0 -0.0016760189082134158 0.001144844032603548 0 -0.0010256515518678744 0.0012567164489298533 0 -0.0016760189082134158 0.001144844032603548 0 -0.0011244018234028398 0.00078521554400357192 0 -0.0010256515518678744 0.0012567164489298533 0 -0.0011244018234028398 0.00078521554400357192 0 -0.00067521995359406104 0.00035221319059189208 0 -0.0010256515518678744 0.0012567164489298533 0 -0.00031340383015862107 0.00049085201580476522 0 -0.00067521995359406104 0.00035221319059189208 0 -0.00048856873734966688 0.00080358717304685888 0 -0.00031646865337072968 0.00053394527417410321 0 -0.00031340383015862107 0.00049085201580476522 0 -0.00045992660428853597 0.00010224432459792996 0 -0.00067521995359406104 0.00035221319059189208 0 -0.00045992660428853597 0.00010224432459792996 0 -0.00080683377039137848 -0.00012601651725838663 0 -0.00067521995359406104 0.00035221319059189208 0 -0.00080683377039137848 -0.00012601651725838663 0 -0.0012741494908758576 6.6837362079848902e-05 0 -0.00067521995359406104 0.00035221319059189208 0 -0.00120336615235017 0.00020633909465799568 0 -0.00071010797703256008 0.00036973814873745322 0 -0.0011602440539904089 0.00036449678737740282 0 -0.0011244018234028398 0.00078521554400357192 0 -0.00067521995359406104 0.00035221319059189208 0 -0.0014810962714402907 -0.007583267679485685 0 -0.0022066549573339796 -0.0072748130536683048 0 -0.001733304607978797 -0.0085772371217014993 0 -0.0014810962714402907 -0.007583267679485685 0 -0.0007924820213759023 -0.0078982457733240974 0 -0.0012815609731287442 -0.0083521686791894669 0 -0.0015284631907858156 -0.0065596762699141357 0 -0.00085914117153231494 -0.0075132953923759916 0 -0.0014354967800111632 -0.0062371279224081432 0 -0.0017076925378329657 -0.005435968313203015 0 -0.00093004290593817231 -0.0056588979665160542 0 -0.0015284631907858156 -0.0065596762699141357 0 -0.0017327225364256408 -0.005239202957724968 0 -0.0015284631907858156 -0.0065596762699141357 0 -0.0011897068141060859 -0.0060193317186678814 0 -0.0014810962714402907 -0.007583267679485685 0 -0.00078394382685185472 -0.0070957615821548043 0 -0.0013609049047733834 -0.0062833660133265528 0 -0.0014810962714402907 -0.007583267679485685 0 -0.0022066549573339796 -0.0072748130536683048 0 -0.0013609049047733834 -0.0062833660133265528 0 -0.00078394382685185472 -0.0070957615821548043 0 -0.00014341016097358075 -0.0074106754498888304 0 -0.00031469481418605031 -0.0063955412846246314 0 -0.00078394382685185472 -0.0070957615821548043 0 -0.0013609049047733834 -0.0062833660133265528 0 -0.00031469481418605031 -0.0063955412846246314 0 -0.00014341016097358075 -0.0074106754498888304 0 -0.00031469481418605031 -0.0063955412846246314 0 0.00059934891896724018 -0.0068423315526961849 0 -0.00014341016097358075 -0.0074106754498888304 0 0.000412089048255576 -0.0080250675043210228 0 0.00059934891896724018 -0.0068423315526961849 0 -0.00014341016097358075 -0.0074106754498888304 0 0.000412089048255576 -0.0080250675043210228 0 -0.00037278553482052672 -0.0084388813669219638 0 -0.00078394382685185472 -0.0070957615821548043 0 -0.00014341016097358075 -0.0074106754498888304 0 -0.0007924820213759023 -0.0078982457733240974 0 -0.00014341016097358075 -0.0074106754498888304 0 -0.0007924820213759023 -0.0078982457733240974 0 -0.00037278553482052672 -0.0084388813669219638 0 -0.0014810962714402907 -0.007583267679485685 0 -0.00078394382685185472 -0.0070957615821548043 0 -0.0007924820213759023 -0.0078982457733240974 0 -0.0007924820213759023 -0.0078982457733240974 0 -0.00037278553482052672 -0.0084388813669219638 0 -0.00089838191834926292 -0.0085710121012829241 0 -0.00037278553482052672 -0.0084388813669219638 0 -0.00089838191834926292 -0.0085710121012829241 0 -0.00084262462955160501 -0.0092745395485154709 0 -0.0007924820213759023 -0.0078982457733240974 0 -0.00089838191834926292 -0.0085710121012829241 0 -0.0012815609731287442 -0.0083521686791894669 0 0.00015888391227255523 -0.010402234218212852 0 -0.00011552226864660603 -0.011419940639702152 0 0.000412089048255576 -0.0080250675043210228 0 -0.00037278553482052672 -0.0084388813669219638 0 0.000195267607678888 -0.0092565109726472136 0 -0.00065977620273254879 -0.012517578120279709 0 -0.00062177493641578179 -0.012346871513637206 0 -0.00041272495627014846 -0.012295609240371356 0 -0.00065571098149507347 -0.012584097843212076 0 -0.0007537414280733612 -0.012402424678489702 0 -0.00096174733677757208 -0.012439201605596419 0 -0.00065571098149507347 -0.012584097843212076 0 -0.00062177493641578179 -0.012346871513637206 0 -0.0007537414280733612 -0.012402424678489702 0 -0.00011552226864660603 -0.011419940639702152 0 -0.00040797350939617629 -0.012296677013953074 0 -0.00062177493641578179 -0.012346871513637206 0 -0.0007537414280733612 -0.012402424678489702 0 -0.00077759621903324106 -0.012248058986070676 0 -0.0007537414280733612 -0.012402424678489702 0 -0.00096174733677757208 -0.012439201605596419 0 -0.00077759621903324106 -0.012248058986070676 0 -0.00065977620273254879 -0.012517578120279709 0 -0.00041272495627014846 -0.012295609240371356 0 -0.00011457700571148554 -0.012425613704709485 0 -0.00037278553482052672 -0.0084388813669219638 0 0.000195267607678888 -0.0092565109726472136 0 -0.00091041539675887253 -0.0094273496631144173 0 -0.00011552226864660603 -0.011419940639702152 0 -0.00060711371543223857 -0.010183146567309684 0 -0.00036353555709778398 -0.008283216010478928 0 -0.00060711371543223857 -0.010183146567309684 0 -0.00089838191834926292 -0.0085710121012829241 0 -0.00084262462955160501 -0.0092745395485154709 0 -0.001204938456437451 -0.0088540364838657869 0 -0.00060711371543223857 -0.010183146567309684 0 0.00068016263127037993 -0.0088164987909242817 0 0.00030307468885885496 -0.0098982952515817152 0 0.00025417092596598272 -0.0099038569524890364 0 0.00027506064761582819 -0.0099623621579948522 0 0.00068016263127037993 -0.0088164987909242817 0 -0.00085914117153231494 -0.0075132953923759916 0 0.0001451820691619818 -0.0073782572603875883 0 0.00027687535167214279 -0.0077554589739344199 0 0.00043551326458758156 -0.0074828333869745717 0 -0.0014109070042685804 -0.0093558175517028126 0 -0.001204938456437451 -0.0088540364838657869 0 -0.001700905802471945 -0.0085732621209466554 0 -0.00084262462955160501 -0.0092745395485154709 0 -0.0014109070042685804 -0.0093558175517028126 0 -0.001204938456437451 -0.0088540364838657869 0 -0.0014810962714402907 -0.007583267679485685 0 -0.001733304607978797 -0.0085772371217014993 0 -0.0012815609731287442 -0.0083521686791894669 0 -0.001204938456437451 -0.0088540364838657869 0 -0.001700905802471945 -0.0085732621209466554 0 -0.0012815609731287442 -0.0083521686791894669 0 -0.00089838191834926292 -0.0085710121012829241 0 -0.001204938456437451 -0.0088540364838657869 0 -0.0012815609731287442 -0.0083521686791894669 0 -0.00085914117153231494 -0.0075132953923759916 0 -0.0016052358133929233 -0.0082743295828553078 0 -0.00084095858977591782 -0.0068941225694741041 0 -0.0012177262113987192 -0.0058345110711951302 0 -0.00013902112899559778 -0.0060831418142376983 0 -0.0012177262113987192 -0.0058345110711951302 0 -0.00057744879311372394 -0.0056192495610044501 0 -0.00013902112899559778 -0.0060831418142376983 0 0.00027687535167214279 -0.0077554589739344199 0 0.00043551326458758156 -0.0074828333869745717 0 0.00074748802211131585 -0.0075126750798430852 0 0.00068016263127037993 -0.0088164987909242817 0 0.0016363562718639871 -0.0079327599732785213 0 -0.0012177262113987192 -0.0058345110711951302 0 -0.00057744879311372394 -0.0056192495610044501 0 -0.00039899956488284946 -0.0054059567414915443 0 0.0001451820691619818 -0.0073782572603875883 0 0.00043551326458758156 -0.0074828333869745717 0 0.00068495112575333466 -0.0072856100583319058 0 -0.00085914117153231494 -0.0075132953923759916 0 0.00028345402394902938 -0.0063707764178396881 0 0.00043551326458758156 -0.0074828333869745717 0 0.00068495112575333466 -0.0072856100583319058 0 0.00074748802211131585 -0.0075126750798430852 0 0.00068495112575333466 -0.0072856100583319058 0 0.00074748802211131585 -0.0075126750798430852 0 0.0012166511703951186 -0.0072638359743613145 0 0.00028345402394902938 -0.0063707764178396881 0 0.00076243997075440249 -0.0060741221372184392 0 -0.00039899956488284946 -0.0054059567414915443 0 0.00041872827965268029 -0.0049871264863227379 0 0.00033433324682650159 -0.005528421135818193 0 0.00097255517056484475 -0.0039611249993908625 0 6.1014577413172833e-05 -0.0050466325071918776 0 0.00039122834155457708 -0.0049957959993034151 0 0.00032099725433881965 -0.0027636860719337263 0 0.00096379234697035966 -0.0050788264792936142 0 -0.00024474616415335606 -0.00038850653306716983 0 -0.00011486762906403061 -0.00037177672235533791 0 -9.0311816839615217e-05 -0.00032154422417266258 0 0.00086374263265925812 -0.0047499246740566759 0 0.00097255517056484475 -0.0039611249993908625 0 0.00039122834155457708 -0.0049957959993034151 0 0.00076243997075440249 -0.0060741221372184392 0 0.00032099725433881965 -0.0027636860719337263 0 -0.00024474616415335606 -0.00038850653306716983 0 -0.00017469127885051485 -0.00043923603182764845 0 -0.00013600953065157816 -0.00041057297270042693 0 -0.00024474616415335606 -0.00038850653306716983 0 -0.00011486762906403061 -0.00037177672235533791 0 -0.00013600953065157816 -0.00041057297270042693 0 6.6846768953828914e-06 -0.00032107181468790332 0 -0.00099547147121117224 -0.001089807748099582 0 -0.00024474616415335606 -0.00038850653306716983 0 -0.00017469127885051485 -0.00043923603182764845 0 -0.00036711098202917253 -0.00083201815104647851 0 -0.00017469127885051485 -0.00043923603182764845 0 -0.00017019037733907109 -0.00044730645206934302 0 -0.00023856211350945864 -0.00049589239290499213 0 0.00032099725433881965 -0.0027636860719337263 0 -0.0011277786444280828 -0.0033636937729327071 0 -0.00017469127885051485 -0.00043923603182764845 0 -0.00017019037733907109 -0.00044730645206934302 0 -0.00013600953065157816 -0.00041057297270042693 0 -0.00039899956488284946 -0.0054059567414915443 0 0.00033433324682650159 -0.005528421135818193 0 -0.00013364396647642604 -0.006066809096420646 0 -0.0007854877873332693 -0.0054808917372712778 0 -0.0011277786444280828 -0.0033636937729327071 0 -0.00057744879311372394 -0.0056192495610044501 0 -0.00039899956488284946 -0.0054059567414915443 0 -0.00013364396647642604 -0.006066809096420646 0 -0.00025970094602606702 -0.003252608635856474 0 -0.00081778694254185016 -0.003896741154460552 0 -0.00042431756287824321 -0.0043057223015641318 0 -0.00033982656708638593 -0.0058711376123389541 0 -0.0007854877873332693 -0.0054808917372712778 0 0.00032099725433881965 -0.0027636860719337263 0 -0.0007854877873332693 -0.0054808917372712778 0 6.061058476390128e-05 -0.000381197355892016 0 -2.3429134880014095e-05 -0.00035141620919738024 0 -5.9519624749077345e-05 -0.000381846984584959 0 6.061058476390128e-05 -0.000381197355892016 0 -5.9519624749077345e-05 -0.000381846984584959 0 7.2192641635235843e-06 -0.00037919429965980312 0 6.061058476390128e-05 -0.000381197355892016 0 -2.3429134880014095e-05 -0.00035141620919738024 0 4.3353582263409325e-05 -0.00033108069342566729 0 -5.9519624749077345e-05 -0.000381846984584959 0 -7.1193633803628728e-05 -0.00035628177936951707 0 -0.00011486762906403061 -0.00037177672235533791 0 -2.3429134880014095e-05 -0.00035141620919738024 0 -7.1193633803628728e-05 -0.00035628177936951707 0 -9.0311816839615217e-05 -0.00032154422417266258 0 -2.3429134880014095e-05 -0.00035141620919738024 0 -5.9519624749077345e-05 -0.000381846984584959 0 -7.1193633803628728e-05 -0.00035628177936951707 0 -7.1193633803628728e-05 -0.00035628177936951707 0 -0.00011486762906403061 -0.00037177672235533791 0 -9.0311816839615217e-05 -0.00032154422417266258 0 -5.9519624749077345e-05 -0.000381846984584959 0 -0.00011486762906403061 -0.00037177672235533791 0 -0.00013600953065157816 -0.00041057297270042693 0 -0.00017019037733907109 -0.00044730645206934302 0 -0.00013600953065157816 -0.00041057297270042693 0 -0.0001234055173781658 -0.000417791913018083 0 -5.9519624749077345e-05 -0.000381846984584959 0 -0.00013600953065157816 -0.00041057297270042693 0 -0.0001234055173781658 -0.000417791913018083 0 -0.00017019037733907109 -0.00044730645206934302 0 -0.0001234055173781658 -0.000417791913018083 0 -0.0001666575501360634 -0.00045573276142538453 0 -0.0001234055173781658 -0.000417791913018083 0 -8.2761695611534509e-05 -0.00041140374209080029 0 -0.0001666575501360634 -0.00045573276142538453 0 -5.9519624749077345e-05 -0.000381846984584959 0 -0.0001234055173781658 -0.000417791913018083 0 -8.2761695611534509e-05 -0.00041140374209080029 0 0.00011460891222153636 -0.00034596798724363214 0 6.061058476390128e-05 -0.000381197355892016 0 7.2192641635235843e-06 -0.00037919429965980312 0 -5.9519624749077345e-05 -0.000381846984584959 0 -8.2761695611534509e-05 -0.00041140374209080029 0 7.2192641635235843e-06 -0.00037919429965980312 0 -8.2761695611534509e-05 -0.00041140374209080029 0 7.2192641635235843e-06 -0.00037919429965980312 0 -1.165127151847079e-05 -0.00039321459748263571 0 0.00011460891222153636 -0.00034596798724363214 0 7.2192641635235843e-06 -0.00037919429965980312 0 -1.165127151847079e-05 -0.00039321459748263571 0 -8.2761695611534509e-05 -0.00041140374209080029 0 -1.165127151847079e-05 -0.00039321459748263571 0 -0.00014939661464657747 -0.00047847098502881556 0 -1.165127151847079e-05 -0.00039321459748263571 0 3.6689378703917794e-05 -0.00038497683333172067 0 -0.00014939661464657747 -0.00047847098502881556 0 3.6689378703917794e-05 -0.00038497683333172067 0 -0.00014939661464657747 -0.00047847098502881556 0 -1.6202614407346518e-05 -0.00051221744138228102 0 0.00011460891222153636 -0.00034596798724363214 0 -1.165127151847079e-05 -0.00039321459748263571 0 3.6689378703917794e-05 -0.00038497683333172067 0 -8.2761695611534509e-05 -0.00041140374209080029 0 -0.00014939661464657747 -0.00047847098502881556 0 -0.0001666575501360634 -0.00045573276142538453 0 -0.00014939661464657747 -0.00047847098502881556 0 -0.0001666575501360634 -0.00045573276142538453 0 -0.0002106406550531462 -0.00050108891218239072 0 -0.0001666575501360634 -0.00045573276142538453 0 -0.0002106406550531462 -0.00050108891218239072 0 -0.00023856211350945864 -0.00049589239290499213 0 -0.0002106406550531462 -0.00050108891218239072 0 -0.00027962084819208586 -0.00061895418302655703 0 -0.00023856211350945864 -0.00049589239290499213 0 -0.00080120585239604734 -0.00032768532426188343 0 -0.00099547147121117224 -0.001089807748099582 0 -0.00027962084819208586 -0.00061895418302655703 0 -0.00018330113174390951 -0.00066485094213839457 0 -0.00030101311141569529 -0.0010182571610063743 0 -0.00014939661464657747 -0.00047847098502881556 0 -0.00027962084819208586 -0.00061895418302655703 0 -0.00018330113174390951 -0.00066485094213839457 0 -0.00014939661464657747 -0.00047847098502881556 0 -0.0002106406550531462 -0.00050108891218239072 0 -0.00027962084819208586 -0.00061895418302655703 0 -0.00014939661464657747 -0.00047847098502881556 0 -0.00018330113174390951 -0.00066485094213839457 0 -1.6202614407346518e-05 -0.00051221744138228102 0 -0.00018330113174390951 -0.00066485094213839457 0 -1.6202614407346518e-05 -0.00051221744138228102 0 6.7222550258446895e-05 -0.00079637648489334011 0 -0.0016175436636015094 -0.0057871850271987114 0 -0.0018142525293589355 -0.005979029438814315 0 -0.0018011440564108007 -0.005776695656958381 0 -0.0015284631907858156 -0.0065596762699141357 0 -0.0007854877873332693 -0.0054808917372712778 0 -0.0018142525293589355 -0.005979029438814315 0 -0.0018011440564108007 -0.005776695656958381 0 -0.0018992132645900739 -0.0058865611364673758 0 -0.00017019037733907109 -0.00044730645206934302 0 -0.0001666575501360634 -0.00045573276142538453 0 -0.00023856211350945864 -0.00049589239290499213 0 -0.0018006586735297967 -0.003029867289233578 0 -0.0016666911711341345 -0.0031712943957411923 0 -0.0018638044250225299 -0.0034343024370531148 0 -0.00017469127885051485 -0.00043923603182764845 0 -0.00036711098202917253 -0.00083201815104647851 0 -0.00018154424829818058 -0.0010324348477658244 0 -0.0011277786444280828 -0.0033636937729327071 0 -0.00099547147121117224 -0.001089807748099582 0 -0.0011520746965027031 -0.00021255772457804512 0 -0.0019294667251175308 0.00057650577717674413 0 -0.0019562312995966137 -0.00071324085960914393 0 -0.0016666911711341345 -0.0031712943957411923 0 -0.0018638044250225299 -0.0034343024370531148 0 -0.0016835688806090615 -0.0034967967568389608 0 -0.00099547147121117224 -0.001089807748099582 0 -0.0018710477352736152 -0.0021481098413271703 0 -0.0018011440564108007 -0.005776695656958381 0 -0.0018992132645900739 -0.0058865611364673758 0 -0.0018941190143526227 -0.0056277117401899992 0 -0.0011277786444280828 -0.0033636937729327071 0 -0.0019794198744619747 -0.0047708757148355752 0 -0.0016175436636015094 -0.0057871850271987114 0 -0.0018941190143526227 -0.0056277117401899992 0 -0.0017076925378329657 -0.005435968313203015 0 -0.0016175436636015094 -0.0057871850271987114 0 -0.0018011440564108007 -0.005776695656958381 0 -0.0018941190143526227 -0.0056277117401899992 0 -0.0019794198744619747 -0.0047708757148355752 0 -0.0018841280251867573 -0.0043582589778428339 0 -0.0018941190143526227 -0.0056277117401899992 0 -0.0017076925378329657 -0.005435968313203015 0 -0.0019539986947822367 -0.0051147775336965193 0 -0.0018638044250225299 -0.0034343024370531148 0 -0.0017885316271274287 -0.003621092606135684 0 -0.0018792764999793726 -0.0037505734089458044 0 -0.0018638044250225299 -0.0034343024370531148 0 -0.0016835688806090615 -0.0034967967568389608 0 -0.0017885316271274287 -0.003621092606135684 0 -0.0018710477352736152 -0.0021481098413271703 0 -0.0018482175373651204 -0.0029519686833171413 0 -0.0019562312995966137 -0.00071324085960914393 0 -0.0020082559393826927 -0.0021207428372153579 0 -0.0012002592766397653 -0.0011443162476810511 0 -0.0016835688806090615 -0.0034967967568389608 0 -0.0017885316271274287 -0.003621092606135684 0 -0.0017214247147849142 -0.0037913725472881053 0 -0.0017214247147849142 -0.0037913725472881053 0 -0.0018792764999793726 -0.0037505734089458044 0 -0.0017786856802099412 -0.003863982796284185 0 -0.0017885316271274287 -0.003621092606135684 0 -0.0017214247147849142 -0.0037913725472881053 0 -0.0018792764999793726 -0.0037505734089458044 0 -0.0019539986947822367 -0.0051147775336965193 0 -0.0015729052705443802 -0.0047092406439132144 0 -0.0015993615013856497 -0.0051332093430483013 0 -0.0017076925378329657 -0.005435968313203015 0 -0.0019539986947822367 -0.0051147775336965193 0 -0.0015993615013856497 -0.0051332093430483013 0 0.00028863281175434396 -0.0014289480952306502 0 -0.00030101311141569529 -0.0010182571610063743 0 -0.00038455585885165567 -0.0018839625867956022 0 0.00028863281175434396 -0.0014289480952306502 0 6.7222550258446895e-05 -0.00079637648489334011 0 -0.00030101311141569529 -0.0010182571610063743 0 -0.00018330113174390951 -0.00066485094213839457 0 6.7222550258446895e-05 -0.00079637648489334011 0 -0.00030101311141569529 -0.0010182571610063743 0 -0.00030101311141569529 -0.0010182571610063743 0 -0.0012002592766397653 -0.0011443162476810511 0 -0.00098428798610051106 -0.001890751285411701 0 -0.0011520746965027031 -0.00021255772457804512 0 -0.00030101311141569529 -0.0010182571610063743 0 -0.0012002592766397653 -0.0011443162476810511 0 -0.00080120585239604734 -0.00032768532426188343 0 -0.00027372398141199911 -0.00099306916992886684 0 -0.0011520746965027031 -0.00021255772457804512 0 -0.0019562312995966137 -0.00071324085960914393 0 -0.0012002592766397653 -0.0011443162476810511 0 -0.0020082559393826927 -0.0021207428372153579 0 -0.0012002592766397653 -0.0011443162476810511 0 -0.00098428798610051106 -0.001890751285411701 0 -0.0020082559393826927 -0.0021207428372153579 0 -0.0014287443981690579 -0.0025559624919589611 0 -0.00098428798610051106 -0.001890751285411701 0 -0.0014287443981690579 -0.0025559624919589611 0 -0.00088091160899846088 -0.002449045448848068 0 -0.00098428798610051106 -0.001890751285411701 0 -0.00088091160899846088 -0.002449045448848068 0 -0.00098428798610051106 -0.001890751285411701 0 -0.00038455585885165567 -0.0018839625867956022 0 -0.00067767861400973262 0.00011953511230104314 0 -0.00060063883588786686 0.00030696083536926514 0 -0.0010496137858541576 7.8335812939563703e-05 0 0.00028863281175434396 -0.0014289480952306502 0 -0.00038455585885165567 -0.0018839625867956022 0 -0.00036215807924960038 -0.0028914803704598131 0 -0.00019624827150962335 -0.00061304870812595776 0 -0.00071870049356565716 -0.0013484386585269682 0 -0.00030101311141569529 -0.0010182571610063743 0 -0.00098428798610051106 -0.001890751285411701 0 -0.00038455585885165567 -0.0018839625867956022 0 -0.00088091160899846088 -0.002449045448848068 0 -0.00038455585885165567 -0.0018839625867956022 0 -0.00036215807924960038 -0.0028914803704598131 0 -0.00067767861400973262 0.00011953511230104314 0 -0.0010496137858541576 7.8335812939563703e-05 0 -0.00097764021678523722 -9.9067171931656743e-05 0 -0.0010496137858541576 7.8335812939563703e-05 0 -0.00097764021678523722 -9.9067171931656743e-05 0 -0.0011504178998806259 -0.00020020177256975137 0 -0.0010496137858541576 7.8335812939563703e-05 0 -0.001293819120269568 -0.00018012416412356829 0 -0.0011504178998806259 -0.00020020177256975137 0 -0.00036215807924960038 -0.0028914803704598131 0 -0.0013824001915440703 -0.0039149091045572624 0 -0.0013773649389067851 -0.0041367117645944688 0 -0.00071870049356565716 -0.0013484386585269682 0 -0.0014101515235608951 -0.002543629342592512 0 -0.0010496137858541576 7.8335812939563703e-05 0 -0.0015329771366088328 -0.00020694578979264452 0 -0.001293819120269568 -0.00018012416412356829 0 -0.00036215807924960038 -0.0028914803704598131 0 -0.0012388099256701402 -0.0031153656011970393 0 -0.0013824001915440703 -0.0039149091045572624 0 -0.00088091160899846088 -0.002449045448848068 0 -0.00036215807924960038 -0.0028914803704598131 0 -0.0012388099256701402 -0.0031153656011970393 0 -0.0014287443981690579 -0.0025559624919589611 0 -0.00088091160899846088 -0.002449045448848068 0 -0.0012388099256701402 -0.0031153656011970393 0 -0.0014287443981690579 -0.0025559624919589611 0 -0.0012388099256701402 -0.0031153656011970393 0 -0.0018101970308673232 -0.0037750527337613781 0 -0.0012388099256701402 -0.0031153656011970393 0 -0.0014768989767721397 -0.0035698673995415071 0 -0.0018101970308673232 -0.0037750527337613781 0 -0.0012388099256701402 -0.0031153656011970393 0 -0.0014768989767721397 -0.0035698673995415071 0 -0.0013824001915440703 -0.0039149091045572624 0 -0.0014768989767721397 -0.0035698673995415071 0 -0.0013824001915440703 -0.0039149091045572624 0 -0.0015759373577916582 -0.0039489895907198385 0 -0.0013934878988650231 -0.003011402668050825 0 -0.0014101515235608951 -0.002543629342592512 0 -0.0013824001915440703 -0.0039149091045572624 0 -0.0014734021650505001 -0.0039725800334805446 0 -0.0015759373577916582 -0.0039489895907198385 0 -0.0014734021650505001 -0.0039725800334805446 0 -0.0015759373577916582 -0.0039489895907198385 0 -0.0016540680768452351 -0.0039826556442661429 0 -0.0016621215788479352 -0.0039977153699067691 0 -0.0016540680768452351 -0.0039826556442661429 0 -0.0017128105631259562 -0.0039298893331047632 0 -0.0014101515235608951 -0.002543629342592512 0 -0.0017612968969844603 -0.00328985868143914 0 -0.0015329771366088328 -0.00020694578979264452 0 -0.0013960937731339143 -0.00028522805111740236 0 -0.0014563757273216356 -0.00047313093392589923 0 -0.0013960937731339143 -0.00028522805111740236 0 -0.0014563757273216356 -0.00047313093392589923 0 -0.0012931692356378641 -0.00034373303727160592 0 -0.0014563757273216356 -0.00047313093392589923 0 -0.0012623350939019316 -0.00050586801668694732 0 -0.0012931692356378641 -0.00034373303727160592 0 -0.0012931692356378641 -0.00034373303727160592 0 -0.001293819120269568 -0.00018012416412356829 0 -0.0011504178998806259 -0.00020020177256975137 0 -0.0015329771366088328 -0.00020694578979264452 0 -0.0013960937731339143 -0.00028522805111740236 0 -0.001293819120269568 -0.00018012416412356829 0 -0.0013960937731339143 -0.00028522805111740236 0 -0.0012931692356378641 -0.00034373303727160592 0 -0.001293819120269568 -0.00018012416412356829 0 -0.00097764021678523722 -9.9067171931656743e-05 0 -0.0011504178998806259 -0.00020020177256975137 0 -0.0010307530920239134 -0.00025910828291730316 0 -0.0011504178998806259 -0.00020020177256975137 0 -0.0011187955571796979 -0.00045081885039433933 0 -0.0010307530920239134 -0.00025910828291730316 0 -0.0012931692356378641 -0.00034373303727160592 0 -0.0011504178998806259 -0.00020020177256975137 0 -0.0011187955571796979 -0.00045081885039433933 0 -0.0012623350939019316 -0.00050586801668694732 0 -0.0012931692356378641 -0.00034373303727160592 0 -0.0011187955571796979 -0.00045081885039433933 0 -0.00086047579717983254 -0.00028319027139746706 0 -0.0011187955571796979 -0.00045081885039433933 0 -0.00099781601553141828 -0.00057591398395169405 0 -0.00086047579717983254 -0.00028319027139746706 0 -0.0011187955571796979 -0.00045081885039433933 0 -0.0010307530920239134 -0.00025910828291730316 0 -0.00086047579717983254 -0.00028319027139746706 0 -0.00097764021678523722 -9.9067171931656743e-05 0 -0.0010307530920239134 -0.00025910828291730316 0 -0.0018792764999793726 -0.0037505734089458044 0 -0.0017786856802099412 -0.003863982796284185 0 -0.0017903674546338008 -0.0041099025316501106 0 -0.0019539986947822367 -0.0051147775336965193 0 -0.0017903674546338008 -0.0041099025316501106 0 -0.0015729052705443802 -0.0047092406439132144 0 -0.0018841280251867573 -0.0043582589778428339 0 -0.0018158510491898653 -0.0041493426281440727 0 -0.0018482175373651204 -0.0029519686833171413 0 -0.0018259265475562938 -0.0036886317831949871 0 -0.0020082559393826927 -0.0021207428372153579 0 -0.0014287443981690579 -0.0025559624919589611 0 -0.0018101970308673232 -0.0037750527337613781 0 -0.0017214247147849142 -0.0037913725472881053 0 -0.0017786856802099412 -0.003863982796284185 0 -0.0018101970308673232 -0.0037750527337613781 0 -0.0017786856802099412 -0.003863982796284185 0 -0.0018101970308673232 -0.0037750527337613781 0 -0.0017903674546338008 -0.0041099025316501106 0 -0.0014768989767721397 -0.0035698673995415071 0 -0.0018101970308673232 -0.0037750527337613781 0 -0.0017129619254005063 -0.0039087402580886077 0 -0.0018101970308673232 -0.0037750527337613781 0 -0.0017727820292402236 -0.003970545102772006 0 -0.0017903674546338008 -0.0041099025316501106 0 -0.0014768989767721397 -0.0035698673995415071 0 -0.0015759373577916582 -0.0039489895907198385 0 -0.0017129619254005063 -0.0039087402580886077 0 -0.0018101970308673232 -0.0037750527337613781 0 -0.0017129619254005063 -0.0039087402580886077 0 -0.0017727820292402236 -0.003970545102772006 0 -0.0015759373577916582 -0.0039489895907198385 0 -0.0017129619254005063 -0.0039087402580886077 0 -0.001710872155284656 -0.0039693013152865518 0 -0.0017129619254005063 -0.0039087402580886077 0 -0.001710872155284656 -0.0039693013152865518 0 -0.0017727820292402236 -0.003970545102772006 0 -0.0015759373577916582 -0.0039489895907198385 0 -0.0016540680768452351 -0.0039826556442661429 0 -0.001710872155284656 -0.0039693013152865518 0 -0.001710872155284656 -0.0039693013152865518 0 -0.0017727820292402236 -0.003970545102772006 0 -0.0017167682839765394 -0.0039592440016664194 0 -0.0016540680768452351 -0.0039826556442661429 0 -0.001710872155284656 -0.0039693013152865518 0 -0.0017167682839765394 -0.0039592440016664194 0 -0.0017903674546338008 -0.0041099025316501106 0 -0.0015661829934004363 -0.0038089391192306695 0 -0.0017058771457253981 -0.0039022710538497278 0 -0.0017727820292402236 -0.003970545102772006 0 -0.0017903674546338008 -0.0041099025316501106 0 -0.0017058771457253981 -0.0039022710538497278 0 -0.0017903674546338008 -0.0041099025316501106 0 -0.0013606227790233377 -0.0042947672116508831 0 -0.0015661829934004363 -0.0038089391192306695 0 -0.0009806720367300098 -0.0040842744960636647 0 -0.0013606227790233377 -0.0042947672116508831 0 -0.0015661829934004363 -0.0038089391192306695 0 -0.00085983967326096374 -0.0047749434561432415 0 -0.0013606227790233377 -0.0042947672116508831 0 -0.0012428164761824779 -0.0049234918543265265 0 -0.0009806720367300098 -0.0040842744960636647 0 -0.00085983967326096374 -0.0047749434561432415 0 -0.0013606227790233377 -0.0042947672116508831 0 -0.0017903674546338008 -0.0041099025316501106 0 -0.0013606227790233377 -0.0042947672116508831 0 -0.0015729052705443802 -0.0047092406439132144 0 -0.0013606227790233377 -0.0042947672116508831 0 -0.0015729052705443802 -0.0047092406439132144 0 -0.0012428164761824779 -0.0049234918543265265 0 -0.0015729052705443802 -0.0047092406439132144 0 -0.0015993615013856497 -0.0051332093430483013 0 -0.0012428164761824779 -0.0049234918543265265 0 -0.0017076925378329657 -0.005435968313203015 0 -0.0015993615013856497 -0.0051332093430483013 0 -0.0012840344277040311 -0.0052753676182881442 0 -0.0015993615013856497 -0.0051332093430483013 0 -0.0012840344277040311 -0.0052753676182881442 0 -0.0012428164761824779 -0.0049234918543265265 0 -0.00085983967326096374 -0.0047749434561432415 0 -0.0012428164761824779 -0.0049234918543265265 0 -0.00095063279814112088 -0.0051977348949494026 0 -0.00095063279814112088 -0.0051977348949494026 0 -0.00093004290593817231 -0.0056588979665160542 0 -0.00043845006636193684 -0.0052688915436085526 0 -0.0012840344277040311 -0.0052753676182881442 0 -0.0012428164761824779 -0.0049234918543265265 0 -0.00095063279814112088 -0.0051977348949494026 0 -0.0012840344277040311 -0.0052753676182881442 0 -0.00095063279814112088 -0.0051977348949494026 0 -0.00093004290593817231 -0.0056588979665160542 0 -0.0017076925378329657 -0.005435968313203015 0 -0.0012840344277040311 -0.0052753676182881442 0 -0.00093004290593817231 -0.0056588979665160542 0 5.3261399088422171e-05 -0.005758230745898249 0 -0.00031469481418605031 -0.0063955412846246314 0 -0.00043845006636193684 -0.0052688915436085526 0 5.3261399088422171e-05 -0.005758230745898249 0 -0.00031469481418605031 -0.0063955412846246314 0 0.00059934891896724018 -0.0068423315526961849 0 -0.0011897068141060859 -0.0060193317186678814 0 -0.00046118045764202296 -0.005274605996682143 0 -0.0013609049047733834 -0.0062833660133265528 0 -0.00031469481418605031 -0.0063955412846246314 0 -0.00043845006636193684 -0.0052688915436085526 0 -0.00085983967326096374 -0.0047749434561432415 0 -0.00095063279814112088 -0.0051977348949494026 0 -0.00043845006636193684 -0.0052688915436085526 0 5.3261399088422171e-05 -0.005758230745898249 0 0.00019970490772201421 -0.0051805205872587842 0 0.000704056118406947 -0.0057145771833760342 0 5.3261399088422171e-05 -0.005758230745898249 0 -0.00043845006636193684 -0.0052688915436085526 0 0.00019970490772201421 -0.0051805205872587842 0 -0.00043845006636193684 -0.0052688915436085526 0 0.00019970490772201421 -0.0051805205872587842 0 -0.00022502114194315599 -0.0047460947174853534 0 0.00019970490772201421 -0.0051805205872587842 0 -0.00022502114194315599 -0.0047460947174853534 0 1.3220897925557614e-05 -0.0043934602477841353 0 -0.0009806720367300098 -0.0040842744960636647 0 -0.00085983967326096374 -0.0047749434561432415 0 -0.00022502114194315599 -0.0047460947174853534 0 -0.00085983967326096374 -0.0047749434561432415 0 -0.00043845006636193684 -0.0052688915436085526 0 -0.00022502114194315599 -0.0047460947174853534 0 -0.0006890806701593319 -0.0042883635837792488 0 -0.00024443834031683025 -0.0047064872147916425 0 -0.00041818156661343553 -0.0044407271896940142 0 -0.00025801990958873117 -0.0044614387816346978 0 -0.00034733862599892814 -0.00435205843234666 0 -0.00041818156661343553 -0.0044407271896940142 0 -0.00022502114194315599 -0.0047460947174853534 0 -0.00025801990958873117 -0.0044614387816346978 0 -0.00025801990958873117 -0.0044614387816346978 0 1.3220897925557614e-05 -0.0043934602477841353 0 -0.00034733862599892814 -0.00435205843234666 0 -0.00022502114194315599 -0.0047460947174853534 0 -0.00025801990958873117 -0.0044614387816346978 0 1.3220897925557614e-05 -0.0043934602477841353 0 -0.00017007803001432227 -0.0082841084938176414 0 -0.00015893579403692231 -0.0081122062659394097 0 -0.00027435568104672173 -0.0080889858975791724 0 -0.00015893579403692231 -0.0081122062659394097 0 -9.4223154741576576e-05 -0.0079978606737404357 0 -0.00024562475533784393 -0.0079333418627916281 0 -0.00031575753959618632 -0.0054249794641499658 0 -0.00020397716489090571 -0.0063853107056027437 0 -0.00015893579403692231 -0.0081122062659394097 0 -0.00024562475533784393 -0.0079333418627916281 0 -0.00027435568104672173 -0.0080889858975791724 0 -0.00041818156661343553 -0.0044407271896940142 0 -0.00040816927609713176 -0.0043951131780002274 0 -0.00040178250803638048 -0.0043889482134766272 0 -0.00041818156661343553 -0.0044407271896940142 0 -0.00034733862599892814 -0.00435205843234666 0 -0.00040816927609713176 -0.0043951131780002274 0 -0.00034733862599892814 -0.00435205843234666 0 -0.00040816927609713176 -0.0043951131780002274 0 -0.00042989691349480631 -0.0044378373027327746 0 -0.00040816927609713176 -0.0043951131780002274 0 -0.00040178250803638048 -0.0043889482134766272 0 -0.00042989691349480631 -0.0044378373027327746 0 -0.0006890806701593319 -0.0042883635837792488 0 -0.00097898884140056692 -0.0041039004073780529 0 -0.00040178250803638048 -0.0043889482134766272 0 -0.00037766917852967251 -0.0044611712924311903 0 -0.00042989691349480631 -0.0044378373027327746 0 -0.00020397716489090571 -0.0063853107056027437 0 -0.00042546304011741444 -0.0061280914606758859 0 -0.00024562475533784393 -0.0079333418627916281 0 -0.00027435568104672173 -0.0080889858975791724 0 -0.00039510405372560981 -0.0078707948455786301 0 -0.00039510405372560981 -0.0078707948455786301 0 -0.00037881842017501967 -0.007626945286244388 0 -0.00026088118569962329 -0.0077685506593794581 0 -0.00024562475533784393 -0.0079333418627916281 0 -0.00039510405372560981 -0.0078707948455786301 0 -0.00026088118569962329 -0.0077685506593794581 0 -0.00037766917852967251 -0.0044611712924311903 0 -0.00042989691349480631 -0.0044378373027327746 0 -0.00037670558819249874 -0.0045757639913011454 0 -0.00039510405372560981 -0.0078707948455786301 0 -0.00037881842017501967 -0.007626945286244388 0 -0.00049159868629513974 -0.0075729388760080504 0 -0.00042546304011741444 -0.0061280914606758859 0 -0.00041543776057992863 -0.0060841230765016152 0 -0.00043713617407419817 -0.007401527822877999 0 -0.00037881842017501967 -0.007626945286244388 0 -0.00049159868629513974 -0.0075729388760080504 0 -0.00043713617407419817 -0.007401527822877999 0 -0.00037881842017501967 -0.007626945286244388 0 -0.00038733468196696058 -0.0074492145079393772 0 -0.00037881842017501967 -0.007626945286244388 0 -0.00026221980121272329 -0.0076040080735645379 0 -0.00026088118569962329 -0.0077685506593794581 0 -0.00037881842017501967 -0.007626945286244388 0 -0.00026221980121272329 -0.0076040080735645379 0 -0.00038733468196696058 -0.0074492145079393772 0 -0.00026221980121272329 -0.0076040080735645379 0 -0.00012515698379372939 -0.0078761584954108437 0 -0.00026088118569962329 -0.0077685506593794581 0 -0.00026221980121272329 -0.0076040080735645379 0 -1.1293378262945513e-05 -0.0078923363419888919 0 -0.00012515698379372939 -0.0078761584954108437 0 -9.4223154741576576e-05 -0.0079978606737404357 0 -0.00024562475533784393 -0.0079333418627916281 0 -0.00012515698379372939 -0.0078761584954108437 0 -1.1293378262945513e-05 -0.0078923363419888919 0 -0.00012515698379372939 -0.0078761584954108437 0 -6.7159129064471362e-05 -0.0079461814586769906 0 -9.4223154741576576e-05 -0.0079978606737404357 0 -0.00012515698379372939 -0.0078761584954108437 0 -6.7159129064471362e-05 -0.0079461814586769906 0 -0.00024562475533784393 -0.0079333418627916281 0 -0.00012515698379372939 -0.0078761584954108437 0 -0.00026088118569962329 -0.0077685506593794581 0 -0.0012332319550715086 -0.0010234458333966037 0 -0.00047573938957581695 -0.002066447214040216 0 -0.0010961087253511586 -0.00082015335894618073 0 -0.0012714141766558336 -0.00097305442050199238 0 -0.001079582125924011 -0.00094952479357605598 0 -0.00093543949384488245 -0.00070777905643174834 0 -0.0010961087253511586 -0.00082015335894618073 0 -0.001079582125924011 -0.00094952479357605598 0 -0.00089941466732518845 -0.0024585219117091929 0 -0.0012714141766558336 -0.00097305442050199238 0 0.00025616332558983808 -0.0032155390975813804 0 -0.00093543949384488245 -0.00070777905643174834 0 -0.0010961087253511586 -0.00082015335894618073 0 -0.00099781601553141828 -0.00057591398395169405 0 -0.0011187955571796979 -0.00045081885039433933 0 -0.00099781601553141828 -0.00057591398395169405 0 -0.0012031128648763542 -0.00070064727479542956 0 -0.0012623350939019316 -0.00050586801668694732 0 -0.0011187955571796979 -0.00045081885039433933 0 -0.0012031128648763542 -0.00070064727479542956 0 -0.0010961087253511586 -0.00082015335894618073 0 -0.0012031128648763542 -0.00070064727479542956 0 -0.0012714141766558336 -0.00097305442050199238 0 -0.0010961087253511586 -0.00082015335894618073 0 -0.00099781601553141828 -0.00057591398395169405 0 -0.0012031128648763542 -0.00070064727479542956 0 -0.0015329771366088328 -0.00020694578979264452 0 -0.0014563757273216356 -0.00047313093392589923 0 -0.0018135632838792621 -0.0013177543773399004 0 -0.0014101515235608951 -0.002543629342592512 0 -0.0018577829333461548 -0.0024683639736881881 0 -0.0013718198311164962 -0.00088659671286872154 0 -0.001412911788596776 -0.00065136415398229326 0 -0.0018135632838792621 -0.0013177543773399004 0 -0.0016621215788479352 -0.0039977153699067691 0 -0.0017128105631259562 -0.0039298893331047632 0 -0.0017554994700289012 -0.0038815124875152505 0 -0.0014563757273216356 -0.00047313093392589923 0 -0.001412911788596776 -0.00065136415398229326 0 -0.0018135632838792621 -0.0013177543773399004 0 -0.0012714141766558336 -0.00097305442050199238 0 -0.0013718198311164962 -0.00088659671286872154 0 -0.0018135632838792621 -0.0013177543773399004 0 -0.0012031128648763542 -0.00070064727479542956 0 -0.0012714141766558336 -0.00097305442050199238 0 -0.0013718198311164962 -0.00088659671286872154 0 -0.0012031128648763542 -0.00070064727479542956 0 -0.0013718198311164962 -0.00088659671286872154 0 -0.001412911788596776 -0.00065136415398229326 0 -0.0014563757273216356 -0.00047313093392589923 0 -0.0012623350939019316 -0.00050586801668694732 0 -0.001412911788596776 -0.00065136415398229326 0 -0.0012623350939019316 -0.00050586801668694732 0 -0.0012031128648763542 -0.00070064727479542956 0 -0.001412911788596776 -0.00065136415398229326 0 -0.0017128105631259562 -0.0039298893331047632 0 -0.0017554994700289012 -0.0038815124875152505 0 -0.0017268921425683023 -0.0038748835408330459 0 -0.0017554994700289012 -0.0038815124875152505 0 -0.0017268921425683023 -0.0038748835408330459 0 -0.0017501098623089746 -0.0038189969487930821 0 -0.00089941466732518845 -0.0024585219117091929 0 -0.0012923452883467376 -0.001857274446351047 0 -0.0017321367389661318 -0.0039518664538556797 0 -0.0018577829333461548 -0.0024683639736881881 0 -0.0011131049628385653 -0.0042038395214351329 0 -0.0018135632838792621 -0.0013177543773399004 0 -0.0012923452883467376 -0.001857274446351047 0 -0.0017321367389661318 -0.0039518664538556797 0 -0.00089941466732518845 -0.0024585219117091929 0 -0.0012714141766558336 -0.00097305442050199238 0 -0.0012923452883467376 -0.001857274446351047 0 -0.0012714141766558336 -0.00097305442050199238 0 -0.0018135632838792621 -0.0013177543773399004 0 -0.0012923452883467376 -0.001857274446351047 0 -0.0017083693186833874 -0.0038480037073230712 0 -0.0017268921425683023 -0.0038748835408330459 0 -0.0017217056113662883 -0.0039104077293541841 0 -0.0017083693186833874 -0.0038480037073230712 0 -0.0017268921425683023 -0.0038748835408330459 0 -0.0017501098623089746 -0.0038189969487930821 0 -0.0017128105631259562 -0.0039298893331047632 0 -0.0017268921425683023 -0.0038748835408330459 0 -0.0017217056113662883 -0.0039104077293541841 0 -0.0017083693186833874 -0.0038480037073230712 0 -0.0017217056113662883 -0.0039104077293541841 0 -0.0017058771457253981 -0.0039022710538497278 0 -0.0016540680768452351 -0.0039826556442661429 0 -0.0017128105631259562 -0.0039298893331047632 0 -0.0017167682839765394 -0.0039592440016664194 0 -0.0017128105631259562 -0.0039298893331047632 0 -0.0017167682839765394 -0.0039592440016664194 0 -0.0017217056113662883 -0.0039104077293541841 0 -0.0017727820292402236 -0.003970545102772006 0 -0.0017217056113662883 -0.0039104077293541841 0 -0.0017058771457253981 -0.0039022710538497278 0 -0.0017727820292402236 -0.003970545102772006 0 -0.0017167682839765394 -0.0039592440016664194 0 -0.0017217056113662883 -0.0039104077293541841 0 -0.0015661829934004363 -0.0038089391192306695 0 -0.0017083693186833874 -0.0038480037073230712 0 -0.0017058771457253981 -0.0039022710538497278 0 -0.00040178250803638048 -0.0043889482134766272 0 -0.00037766917852967251 -0.0044611712924311903 0 -0.00027839357569524239 -0.0044580695162604097 0 -0.00097898884140056692 -0.0041039004073780529 0 -0.00095352004872193232 -0.0041604509677798151 0 -0.00037766917852967251 -0.0044611712924311903 0 -0.00027839357569524239 -0.0044580695162604097 0 -0.00037670558819249874 -0.0045757639913011454 0 -0.00027839357569524239 -0.0044580695162604097 0 -0.00037670558819249874 -0.0045757639913011454 0 -0.00023983574582855694 -0.0045940502643205929 0 -0.00043713617407419817 -0.007401527822877999 0 -0.00049159868629513974 -0.0075729388760080504 0 -0.0004593761051444828 -0.0072683241033668815 0 -0.00041543776057992863 -0.0060841230765016152 0 -0.00033818535829966822 -0.0060253823221206376 0 -0.00037670558819249874 -0.0045757639913011454 0 -0.00025132701639700786 -0.0047392606260292097 0 -0.00023983574582855694 -0.0045940502643205929 0 -0.00016933277339527326 -0.0046635042794156154 0 -0.00025132701639700786 -0.0047392606260292097 0 -8.2585207228250642e-05 -0.0047428290850573167 0 -0.00016933277339527326 -0.0046635042794156154 0 -0.00025132701639700786 -0.0047392606260292097 0 -0.00023983574582855694 -0.0045940502643205929 0 -0.00095352004872193232 -0.0041604509677798151 0 -0.0011131049628385653 -0.0042038395214351329 0 -0.00027839357569524239 -0.0044580695162604097 0 -0.00023983574582855694 -0.0045940502643205929 0 -0.00010194979214002305 -0.0045837277893508348 0 -0.00016933277339527326 -0.0046635042794156154 0 -0.00023983574582855694 -0.0045940502643205929 0 -0.00010194979214002305 -0.0045837277893508348 0 -0.00089941466732518845 -0.0024585219117091929 0 -0.0017321367389661318 -0.0039518664538556797 0 -0.0005453820681563437 -0.003732838900964965 0 -0.0011131049628385653 -0.0042038395214351329 0 -0.00083382716828190651 -0.0044478154952971539 0 -0.0017321367389661318 -0.0039518664538556797 0 -0.00063459635169787066 -0.0045705281732379985 0 -0.0005453820681563437 -0.003732838900964965 0 -0.00016933277339527326 -0.0046635042794156154 0 -0.00010194979214002305 -0.0045837277893508348 0 -8.2585207228250642e-05 -0.0047428290850573167 0 -0.0011131049628385653 -0.0042038395214351329 0 -0.00050159863919853895 -0.0048031238173771792 0 -0.0009972614194966832 -0.0042919105470678341 0 -0.00092359708672998947 -0.0049455751385910369 0 -0.00063459635169787066 -0.0045705281732379985 0 -0.00092359708672998947 -0.0049455751385910369 0 -0.00063459635169787066 -0.0045705281732379985 0 -0.00049372576051049917 -0.004929893046724994 0 -0.00092359708672998947 -0.0049455751385910369 0 -0.00049372576051049917 -0.004929893046724994 0 -0.00033961236417429195 -0.0052647183490386572 0 -0.00063459635169787066 -0.0045705281732379985 0 -0.00049372576051049917 -0.004929893046724994 0 -4.77325848576221e-05 -0.0049367242169392218 0 -0.00049372576051049917 -0.004929893046724994 0 -4.77325848576221e-05 -0.0049367242169392218 0 -0.00033961236417429195 -0.0052647183490386572 0 -0.00063459635169787066 -0.0045705281732379985 0 -4.77325848576221e-05 -0.0049367242169392218 0 -1.1789952347944554e-06 -0.0042938770256116593 0 -1.1789952347944554e-06 -0.0042938770256116593 0 -0.0005453820681563437 -0.003732838900964965 0 0.00025616332558983808 -0.0032155390975813804 0 -0.00063459635169787066 -0.0045705281732379985 0 -1.1789952347944554e-06 -0.0042938770256116593 0 -0.0005453820681563437 -0.003732838900964965 0 -0.00089941466732518845 -0.0024585219117091929 0 -0.0005453820681563437 -0.003732838900964965 0 0.00025616332558983808 -0.0032155390975813804 0 -0.00016657644175851035 -0.0063541926289005452 0 -5.781050368332138e-05 -0.0059288852184145998 0 0.00011851005323628492 -0.0060760808119496206 0 0.00022598556611534939 -0.0057242535953631523 0 -5.781050368332138e-05 -0.0059288852184145998 0 0.00011851005323628492 -0.0060760808119496206 0 -5.781050368332138e-05 -0.0059288852184145998 0 -0.00027505523480719069 -0.0058822663315816525 0 -0.00035720400266480904 -0.0061515079395633018 0 -0.00016657644175851035 -0.0063541926289005452 0 -5.781050368332138e-05 -0.0059288852184145998 0 -0.00035720400266480904 -0.0061515079395633018 0 0.00015121973456826094 -0.0054166455241521604 0 -5.781050368332138e-05 -0.0059288852184145998 0 -0.0002317006527454848 -0.0056513281984166153 0 0.00015121973456826094 -0.0054166455241521604 0 0.00022598556611534939 -0.0057242535953631523 0 -5.781050368332138e-05 -0.0059288852184145998 0 0.00015121973456826094 -0.0054166455241521604 0 -0.00033961236417429195 -0.0052647183490386572 0 -0.0002317006527454848 -0.0056513281984166153 0 0.00015121973456826094 -0.0054166455241521604 0 -4.77325848576221e-05 -0.0049367242169392218 0 -0.00033961236417429195 -0.0052647183490386572 0 -0.00033961236417429195 -0.0052647183490386572 0 -0.0002317006527454848 -0.0056513281984166153 0 -0.00052557179619660947 -0.0055782437728348396 0 -5.781050368332138e-05 -0.0059288852184145998 0 -0.0002317006527454848 -0.0056513281984166153 0 -0.00027505523480719069 -0.0058822663315816525 0 -0.0002317006527454848 -0.0056513281984166153 0 -0.00043727111559266991 -0.0057897889864062246 0 -0.00052557179619660947 -0.0055782437728348396 0 -0.0002317006527454848 -0.0056513281984166153 0 -0.00027505523480719069 -0.0058822663315816525 0 -0.00043727111559266991 -0.0057897889864062246 0 -0.00050159863919853895 -0.0048031238173771792 0 -0.0003154639624676133 -0.0058454153732316449 0 -0.00043727111559266991 -0.0057897889864062246 0 -0.0006173622028730197 -0.0058729295461395726 0 -0.00052557179619660947 -0.0055782437728348396 0 -0.00043727111559266991 -0.0057897889864062246 0 -0.0006173622028730197 -0.0058729295461395726 0 -0.00035720400266480904 -0.0061515079395633018 0 -0.00025132701639700786 -0.0047392606260292097 0 -8.2585207228250642e-05 -0.0047428290850573167 0 -7.5984804008753546e-05 -0.004918957126612767 0 -0.00092359708672998947 -0.0049455751385910369 0 -0.00072919150804583079 -0.0057894348565682395 0 -0.00052557179619660947 -0.0055782437728348396 0 -0.0006173622028730197 -0.0058729295461395726 0 -0.00072919150804583079 -0.0057894348565682395 0 -0.00052557179619660947 -0.0055782437728348396 0 -0.00035169928580430863 -0.0058262040499453263 0 -0.0003154639624676133 -0.0058454153732316449 0 -0.00092359708672998947 -0.0049455751385910369 0 -0.00033961236417429195 -0.0052647183490386572 0 -0.00052557179619660947 -0.0055782437728348396 0 -0.00051416593246227701 -0.0069166163798792769 0 -0.00038367697277205161 -0.006837755578790264 0 -0.00041884349396006628 -0.0070236002687321126 0 -0.00051416593246227701 -0.0069166163798792769 0 -0.00038367697277205161 -0.006837755578790264 0 -0.00046833810216077051 -0.0064866737310506125 0 -0.00038367697277205161 -0.006837755578790264 0 -0.00037433742785647478 -0.0066837768849542572 0 -0.0003474181963944144 -0.0068465347323640197 0 -0.00038367697277205161 -0.006837755578790264 0 -0.00046833810216077051 -0.0064866737310506125 0 -0.00037433742785647478 -0.0066837768849542572 0 -0.0003154639624676133 -0.0058454153732316449 0 -0.00040892176536906183 -0.0064014946568186426 0 -0.00016657644175851035 -0.0063541926289005452 0 -0.00035720400266480904 -0.0061515079395633018 0 -0.00046833810216077051 -0.0064866737310506125 0 -0.0006173622028730197 -0.0058729295461395726 0 -0.00077571778122928947 -0.0057599773626781378 0 -0.00046833810216077051 -0.0064866737310506125 0 -0.0006173622028730197 -0.0058729295461395726 0 -0.00035720400266480904 -0.0061515079395633018 0 -0.00046833810216077051 -0.0064866737310506125 0 -0.00027505523480719069 -0.0058822663315816525 0 -0.00043727111559266991 -0.0057897889864062246 0 -0.00035720400266480904 -0.0061515079395633018 0 -0.00016657644175851035 -0.0063541926289005452 0 -0.00031543981580302636 -0.0066345398621988688 0 -0.00014903404147534934 -0.0067209555524860402 0 -0.00016657644175851035 -0.0063541926289005452 0 -0.00046833810216077051 -0.0064866737310506125 0 -0.00031543981580302636 -0.0066345398621988688 0 -0.00031543981580302636 -0.0066345398621988688 0 -0.00031487463372654252 -0.0068068851771978809 0 -0.00023768326674756494 -0.0068267059746080893 0 -0.00031543981580302636 -0.0066345398621988688 0 -0.00037433742785647478 -0.0066837768849542572 0 -0.00031487463372654252 -0.0068068851771978809 0 -0.00037433742785647478 -0.0066837768849542572 0 -0.00031487463372654252 -0.0068068851771978809 0 -0.0003474181963944144 -0.0068465347323640197 0 -0.00046833810216077051 -0.0064866737310506125 0 -0.00031543981580302636 -0.0066345398621988688 0 -0.00037433742785647478 -0.0066837768849542572 0 -0.00031487463372654252 -0.0068068851771978809 0 -0.00033888154569910295 -0.0069621474719069234 0 -0.0002780964194579795 -0.0069536970832061668 0 -0.00031487463372654252 -0.0068068851771978809 0 -0.00033888154569910295 -0.0069621474719069234 0 -0.0003474181963944144 -0.0068465347323640197 0 -0.00033888154569910295 -0.0069621474719069234 0 -0.00031956227367315571 -0.0070441983580679267 0 -0.0002780964194579795 -0.0069536970832061668 0 -0.00033888154569910295 -0.0069621474719069234 0 -0.00039552871332191962 -0.0071206898679652937 0 -0.00031956227367315571 -0.0070441983580679267 0 -0.00033888154569910295 -0.0069621474719069234 0 -0.00037363340485612183 -0.0069690306469970464 0 -0.00039240774394917028 -0.0070954712900915219 0 -0.00038367697277205161 -0.006837755578790264 0 -0.00037363340485612183 -0.0069690306469970464 0 -0.0003474181963944144 -0.0068465347323640197 0 -0.00033888154569910295 -0.0069621474719069234 0 -0.00037363340485612183 -0.0069690306469970464 0 -0.0003474181963944144 -0.0068465347323640197 0 -0.00033818535829966822 -0.0060253823221206376 0 -0.0003154639624676133 -0.0058454153732316449 0 -0.00037363340485612183 -0.0069690306469970464 0 -0.00041884349396006628 -0.0070236002687321126 0 -0.00040813599137178968 -0.0071101342695144149 0 -0.00038367697277205161 -0.006837755578790264 0 -0.00037363340485612183 -0.0069690306469970464 0 -0.00041884349396006628 -0.0070236002687321126 0 -0.0004593761051444828 -0.0072683241033668815 0 -0.00051416593246227701 -0.0069166163798792769 0 -0.00041884349396006628 -0.0070236002687321126 0 -0.0004593761051444828 -0.0072683241033668815 0 -0.00041884349396006628 -0.0070236002687321126 0 -0.00040813599137178968 -0.0071101342695144149 0 -0.0004593761051444828 -0.0072683241033668815 0 -0.00040813599137178968 -0.0071101342695144149 0 -0.00041677673667837742 -0.0072193687127244423 0 -0.00037363340485612183 -0.0069690306469970464 0 -0.00040813599137178968 -0.0071101342695144149 0 -0.00039240774394917028 -0.0070954712900915219 0 -0.00040813599137178968 -0.0071101342695144149 0 -0.00041677673667837742 -0.0072193687127244423 0 -0.00039240774394917028 -0.0070954712900915219 0 -0.00041677673667837742 -0.0072193687127244423 0 -0.00039240774394917028 -0.0070954712900915219 0 -0.00044124447378170243 -0.0072423320975021641 0 -0.00043713617407419817 -0.007401527822877999 0 -0.0004593761051444828 -0.0072683241033668815 0 -0.00041677673667837742 -0.0072193687127244423 0 -0.00043713617407419817 -0.007401527822877999 0 -0.00041677673667837742 -0.0072193687127244423 0 -0.00042744017907327949 -0.0073196986855027443 0 -0.00039240774394917028 -0.0070954712900915219 0 -0.00039552871332191962 -0.0071206898679652937 0 -0.00044124447378170243 -0.0072423320975021641 0 -0.00033888154569910295 -0.0069621474719069234 0 -0.00039240774394917028 -0.0070954712900915219 0 -0.00039552871332191962 -0.0071206898679652937 0 -0.00039552871332191962 -0.0071206898679652937 0 -0.00044124447378170243 -0.0072423320975021641 0 -0.00046400905575081817 -0.0072354298689144472 0 -0.00039552871332191962 -0.0071206898679652937 0 -0.00042671190395837086 -0.0072429337051860684 0 -0.00046400905575081817 -0.0072354298689144472 0 -0.00042671190395837086 -0.0072429337051860684 0 -0.00046400905575081817 -0.0072354298689144472 0 -0.00049709122447836934 -0.007296429577465938 0 -0.00039552871332191962 -0.0071206898679652937 0 -0.00035143528302526976 -0.0071652835938615664 0 -0.00031956227367315571 -0.0070441983580679267 0 -0.00039552871332191962 -0.0071206898679652937 0 -0.00042671190395837086 -0.0072429337051860684 0 -0.00035143528302526976 -0.0071652835938615664 0 -0.00042671190395837086 -0.0072429337051860684 0 -0.00035143528302526976 -0.0071652835938615664 0 -0.00033773903316580125 -0.0073235882254471703 0 -0.00033773903316580125 -0.0073235882254471703 0 -0.0004639575240618224 -0.0074584256833348378 0 -0.00025691103681086406 -0.0075745734229182111 0 -0.00042671190395837086 -0.0072429337051860684 0 -0.00033773903316580125 -0.0073235882254471703 0 -0.0004639575240618224 -0.0074584256833348378 0 -0.00042671190395837086 -0.0072429337051860684 0 -0.0004639575240618224 -0.0074584256833348378 0 -0.00049709122447836934 -0.007296429577465938 0 -6.742359013443543e-07 -0.0086930911853686371 0 -8.2986401041578061e-05 -0.0081677134569487584 0 1.4966290919270832e-06 -0.0096902580028431582 0 3.5028795429067974e-05 -0.0082862964154614763 0 -0.00023778060123470061 -0.0085315913000447129 0 -0.0004639575240618224 -0.0074584256833348378 0 -8.2986401041578061e-05 -0.0081677134569487584 0 -0.00060599345854886835 -0.0074430727453831573 0 -0.0004639575240618224 -0.0074584256833348378 0 -0.00025691103681086406 -0.0075745734229182111 0 -8.2986401041578061e-05 -0.0081677134569487584 0 -0.00025691103681086406 -0.0075745734229182111 0 -0.00013854724804456773 -0.0074257060663165944 0 -8.2986401041578061e-05 -0.0081677134569487584 0 -0.00013854724804456773 -0.0074257060663165944 0 -8.2986401041578061e-05 -0.0081677134569487584 0 -2.6144273825732697e-05 -0.0076992020883775523 0 -6.742359013443543e-07 -0.0086930911853686371 0 -2.6144273825732697e-05 -0.0076992020883775523 0 1.7061209485169096e-07 -0.0074174508910766499 0 -6.742359013443543e-07 -0.0086930911853686371 0 -8.2986401041578061e-05 -0.0081677134569487584 0 -2.6144273825732697e-05 -0.0076992020883775523 0 -0.00013854724804456773 -0.0074257060663165944 0 -2.6144273825732697e-05 -0.0076992020883775523 0 -0.00011133404292333908 -0.0072245045839477214 0 -0.00013854724804456773 -0.0074257060663165944 0 -0.00011133404292333908 -0.0072245045839477214 0 -0.00019813178843192366 -0.0070570372194113992 0 -0.00013854724804456773 -0.0074257060663165944 0 -0.00019813178843192366 -0.0070570372194113992 0 -0.0002576134634895084 -0.007166875758476291 0 -0.00011133404292333908 -0.0072245045839477214 0 -0.00019813178843192366 -0.0070570372194113992 0 -0.00015113216270225101 -0.0069738222030547659 0 -0.00033773903316580125 -0.0073235882254471703 0 -0.00013854724804456773 -0.0074257060663165944 0 -0.0002576134634895084 -0.007166875758476291 0 -0.00033773903316580125 -0.0073235882254471703 0 -0.00025691103681086406 -0.0075745734229182111 0 -0.00013854724804456773 -0.0074257060663165944 0 -0.00035143528302526976 -0.0071652835938615664 0 -0.00033773903316580125 -0.0073235882254471703 0 -0.0002576134634895084 -0.007166875758476291 0 -0.00035143528302526976 -0.0071652835938615664 0 -0.0002576134634895084 -0.007166875758476291 0 -0.00031956227367315571 -0.0070441983580679267 0 -0.0002576134634895084 -0.007166875758476291 0 -0.00031956227367315571 -0.0070441983580679267 0 -0.0002780964194579795 -0.0069536970832061668 0 -0.00031487463372654252 -0.0068068851771978809 0 -0.0002780964194579795 -0.0069536970832061668 0 -0.00023768326674756494 -0.0068267059746080893 0 -0.00019813178843192366 -0.0070570372194113992 0 -0.0002780964194579795 -0.0069536970832061668 0 -0.00023768326674756494 -0.0068267059746080893 0 -0.00019813178843192366 -0.0070570372194113992 0 -0.0002576134634895084 -0.007166875758476291 0 -0.0002780964194579795 -0.0069536970832061668 0 -0.00016657644175851035 -0.0063541926289005452 0 -0.00014903404147534934 -0.0067209555524860402 0 2.4387300748473555e-05 -0.0065709330961197009 0 -0.00031543981580302636 -0.0066345398621988688 0 -0.00023768326674756494 -0.0068267059746080893 0 -0.00014903404147534934 -0.0067209555524860402 0 -0.00023768326674756494 -0.0068267059746080893 0 -0.00014903404147534934 -0.0067209555524860402 0 -0.00015113216270225101 -0.0069738222030547659 0 -0.00019813178843192366 -0.0070570372194113992 0 -0.00023768326674756494 -0.0068267059746080893 0 -0.00015113216270225101 -0.0069738222030547659 0 -0.00014903404147534934 -0.0067209555524860402 0 -6.2424773328549713e-05 -0.0070529035933338665 0 2.4387300748473555e-05 -0.0065709330961197009 0 -0.00014903404147534934 -0.0067209555524860402 0 -0.00015113216270225101 -0.0069738222030547659 0 -6.2424773328549713e-05 -0.0070529035933338665 0 -0.00011133404292333908 -0.0072245045839477214 0 -0.00015113216270225101 -0.0069738222030547659 0 -6.2424773328549713e-05 -0.0070529035933338665 0 -2.6144273825732697e-05 -0.0076992020883775523 0 -0.00011133404292333908 -0.0072245045839477214 0 -6.2424773328549713e-05 -0.0070529035933338665 0 -6.2424773328549713e-05 -0.0070529035933338665 0 1.7061209485169096e-07 -0.0074174508910766499 0 2.4387300748473555e-05 -0.0065709330961197009 0 -2.6144273825732697e-05 -0.0076992020883775523 0 -6.2424773328549713e-05 -0.0070529035933338665 0 1.7061209485169096e-07 -0.0074174508910766499 0 1.0467682842247592e-07 -0.0061419249069192402 0 1.7061209485169096e-07 -0.0074174508910766499 0 2.4387300748473555e-05 -0.0065709330961197009 0 8.6836323525079766e-05 -0.0060908424534832405 0 1.0467682842247592e-07 -0.0061419249069192402 0 2.4387300748473555e-05 -0.0065709330961197009 0 8.6836323525079766e-05 -0.0060908424534832405 0 2.4387300748473555e-05 -0.0065709330961197009 0 0.00011851005323628492 -0.0060760808119496206 0 -0.00016657644175851035 -0.0063541926289005452 0 2.4387300748473555e-05 -0.0065709330961197009 0 0.00011851005323628492 -0.0060760808119496206 0 5.3697255141672673e-05 -0.0079090698508995118 0 1.1353168953337282e-05 -0.0077902394562724296 0 -0.0002877278355585156 -0.0073975551961545215 0 -0.00013732740247707307 -0.0074610704768744585 0 -0.00032764667158930572 -0.0072997499166277367 0 0.00021155310358602554 -0.0085790251841549158 0 0.00023892706148212213 -0.0082684833829712208 0 0.0004199030772771807 -0.0086165236813262221 0 -0.0002877278355585156 -0.0073975551961545215 0 -0.00039421196063559695 -0.007332483340088152 0 -0.00032764667158930572 -0.0072997499166277367 0 0.00021155310358602554 -0.0085790251841549158 0 0.00011363598733206939 -0.0084093884308932536 0 0.00023892706148212213 -0.0082684833829712208 0 0.00021155310358602554 -0.0085790251841549158 0 9.9511388085257496e-05 -0.0086051401039693477 0 0.00011363598733206939 -0.0084093884308932536 0 0.00023969542099172065 -0.0088498144232727321 0 0.00027747173603929852 -0.0089928287150490942 0 0.00027747173603929852 -0.0089928287150490942 0 7.4952211041733539e-06 -0.0084003881057756764 0 9.9511388085257496e-05 -0.0086051401039693477 0 0.00011363598733206939 -0.0084093884308932536 0 -2.6312061045228905e-05 -0.0083664720940423275 0 0.00011363598733206939 -0.0084093884308932536 0 3.3053353351293534e-05 -0.0082324031100207053 0 -2.6312061045228905e-05 -0.0083664720940423275 0 -4.7872404974855315e-06 -0.0078661311521831846 0 5.3697255141672673e-05 -0.0079090698508995118 0 -0.00026221980121272329 -0.0076040080735645379 0 -1.1293378262945513e-05 -0.0078923363419888919 0 -0.00013732740247707307 -0.0074610704768744585 0 -1.1293378262945513e-05 -0.0078923363419888919 0 0.00023892706148212213 -0.0082684833829712208 0 3.3053353351293534e-05 -0.0082324031100207053 0 0.00011363598733206939 -0.0084093884308932536 0 0.00023892706148212213 -0.0082684833829712208 0 3.3053353351293534e-05 -0.0082324031100207053 0 -0.00026221980121272329 -0.0076040080735645379 0 -0.0002877278355585156 -0.0073975551961545215 0 -0.00035690827091535457 -0.0074137766323296066 0 -0.00026221980121272329 -0.0076040080735645379 0 -0.0002877278355585156 -0.0073975551961545215 0 -0.00013732740247707307 -0.0074610704768744585 0 -0.00026221980121272329 -0.0076040080735645379 0 -0.00038733468196696058 -0.0074492145079393772 0 -0.00035690827091535457 -0.0074137766323296066 0 -0.00038733468196696058 -0.0074492145079393772 0 -0.00035690827091535457 -0.0074137766323296066 0 -0.00042001253944467658 -0.0073265943838432398 0 -0.00043713617407419817 -0.007401527822877999 0 -0.00038733468196696058 -0.0074492145079393772 0 -0.00042744017907327949 -0.0073196986855027443 0 -0.00042744017907327949 -0.0073196986855027443 0 -0.00044124447378170243 -0.0072423320975021641 0 -0.00042001253944467658 -0.0073265943838432398 0 -0.00038733468196696058 -0.0074492145079393772 0 -0.00042744017907327949 -0.0073196986855027443 0 -0.00042001253944467658 -0.0073265943838432398 0 -0.00041677673667837742 -0.0072193687127244423 0 -0.00042744017907327949 -0.0073196986855027443 0 -0.00044124447378170243 -0.0072423320975021641 0 -0.00044124447378170243 -0.0072423320975021641 0 -0.00042001253944467658 -0.0073265943838432398 0 -0.00047777489315553828 -0.0072853936802556481 0 -0.00044124447378170243 -0.0072423320975021641 0 -0.00046400905575081817 -0.0072354298689144472 0 -0.00047777489315553828 -0.0072853936802556481 0 -0.00042001253944467658 -0.0073265943838432398 0 -0.00039421196063559695 -0.007332483340088152 0 -0.00047777489315553828 -0.0072853936802556481 0 -0.0002877278355585156 -0.0073975551961545215 0 -0.00035690827091535457 -0.0074137766323296066 0 -0.00039421196063559695 -0.007332483340088152 0 -0.00035690827091535457 -0.0074137766323296066 0 -0.00042001253944467658 -0.0073265943838432398 0 -0.00039421196063559695 -0.007332483340088152 0 -0.00039421196063559695 -0.007332483340088152 0 -0.00044256533400639612 -0.0073083141784190155 0 -0.00047777489315553828 -0.0072853936802556481 0 -0.00039421196063559695 -0.007332483340088152 0 -0.00044256533400639612 -0.0073083141784190155 0 -0.00032764667158930572 -0.0072997499166277367 0 -0.00044256533400639612 -0.0073083141784190155 0 -0.00045168893214042746 -0.0072853934154792355 0 -0.00032764667158930572 -0.0072997499166277367 0 -0.00044256533400639612 -0.0073083141784190155 0 -0.00047777489315553828 -0.0072853936802556481 0 -0.00051514964364551895 -0.0073402279489176141 0 -0.00044256533400639612 -0.0073083141784190155 0 -0.00051514964364551895 -0.0073402279489176141 0 -0.00045168893214042746 -0.0072853934154792355 0 -0.00046400905575081817 -0.0072354298689144472 0 -0.00049709122447836934 -0.007296429577465938 0 -0.00047777489315553828 -0.0072853936802556481 0 -0.00049709122447836934 -0.007296429577465938 0 -0.00047777489315553828 -0.0072853936802556481 0 -0.00054577148293843969 -0.0073652510244193786 0 -0.00047777489315553828 -0.0072853936802556481 0 -0.00051514964364551895 -0.0073402279489176141 0 -0.00054577148293843969 -0.0073652510244193786 0 -0.0004639575240618224 -0.0074584256833348378 0 -0.00049709122447836934 -0.007296429577465938 0 -0.00054577148293843969 -0.0073652510244193786 0 3.2002850732624011e-07 -0.0099706810693410575 0 1.4966290919270832e-06 -0.0096902580028431582 0 5.9680144371319186e-06 -0.010473101821068873 0 -6.742359013443543e-07 -0.0086930911853686371 0 3.2002850732624011e-07 -0.0099706810693410575 0 1.4966290919270832e-06 -0.0096902580028431582 0 -0.00051514964364551895 -0.0073402279489176141 0 -0.00060599345854886835 -0.0074430727453831573 0 -0.00045168893214042746 -0.0072853934154792355 0 -0.0004639575240618224 -0.0074584256833348378 0 -0.00054577148293843969 -0.0073652510244193786 0 -0.00060599345854886835 -0.0074430727453831573 0 -0.00051514964364551895 -0.0073402279489176141 0 -0.00054577148293843969 -0.0073652510244193786 0 -0.00060599345854886835 -0.0074430727453831573 0 -0.00023778060123470061 -0.0085315913000447129 0 -4.9820676494051763e-05 -0.0091485528942277811 0 3.2002850732624011e-07 -0.0099706810693410575 0 5.9680144371319186e-06 -0.010473101821068873 0 -3.434881342426055e-07 -0.011244592163135839 0 1.4966290919270832e-06 -0.0096902580028431582 0 -2.0179426014540676e-05 -0.010457432328871488 0 5.9680144371319186e-06 -0.010473101821068873 0 0.00011793777911452294 -0.010732224610613553 0 5.9680144371319186e-06 -0.010473101821068873 0 -3.434881342426055e-07 -0.011244592163135839 0 -4.9820676494051763e-05 -0.0091485528942277811 0 0.00028116426753005435 -0.010395500413709713 0 -4.9820676494051763e-05 -0.0091485528942277811 0 0.0001003180500538577 -0.010752636734964254 0 0.00011793777911452294 -0.010732224610613553 0 -3.434881342426055e-07 -0.011244592163135839 0 -0.00028596364699320746 -0.010802170156356703 0 1.7653963068408072e-07 -0.01124646024456055 0 0.0001003180500538577 -0.010752636734964254 0 0.00060720756059231683 -0.008980654864830552 0 0.0002975555598872658 -0.0087490575704604473 0 0.0004199030772771807 -0.0086165236813262221 0 0.00060720756059231683 -0.008980654864830552 0 0.00028343440618598941 -0.0089410425619095429 0 0.0002975555598872658 -0.0087490575704604473 0 -4.9820676494051763e-05 -0.0091485528942277811 0 1.1353168953337282e-05 -0.0077902394562724296 0 0.00021155310358602554 -0.0085790251841549158 0 0.0002975555598872658 -0.0087490575704604473 0 0.0004199030772771807 -0.0086165236813262221 0 1.4666748706803044e-05 -0.010883842060604084 0 0.00018483654638521639 -0.011164644008369919 0 -0.00027593384657431452 -0.011121998055146199 0 0.00027747173603929852 -0.0089928287150490942 0 0.0001003180500538577 -0.010752636734964254 0 9.2693855816271395e-05 -0.0086115168892929445 0 0.00028343440618598941 -0.0089410425619095429 0 0.0002975555598872658 -0.0087490575704604473 0 0.00021155310358602554 -0.0085790251841549158 0 9.2693855816271395e-05 -0.0086115168892929445 0 0.0002975555598872658 -0.0087490575704604473 0 0.0001003180500538577 -0.010752636734964254 0 -0.00019698206567182305 -0.01264234249429143 0 -2.2536134731589506e-09 -0.011248578299922042 0 0.00011697928687307885 -0.011922180391070658 0 2.0705847965382888e-09 -0.01241781901767927 0 0.00011697928687307885 -0.011922180391070658 0 2.0705847965382888e-09 -0.01241781901767927 0 -0.00028541804071203824 -0.012083184988628421 0 -6.941587460050422e-07 -0.012421923714487472 0 3.8642508443551243e-07 -0.013874290292294618 0 -5.8270757239200641e-05 -0.013703524221919483 0 1.6362014936983962e-07 -0.012420834806523241 0 -0.00019698206567182305 -0.01264234249429143 0 3.8642508443551243e-07 -0.013874290292294618 0 -5.8270757239200641e-05 -0.013703524221919483 0 7.8676412484462714e-05 -0.014451118673976105 0 -0.00019698206567182305 -0.01264234249429143 0 -0.00038600969434382683 -0.014681235192094995 0 -0.0006240948089872504 -0.012302842149863269 0 -0.00038600969434382683 -0.014681235192094995 0 -0.00045415861631903695 -0.013377303808451337 0 -0.00046679940214893416 -0.013357868417397157 0 -0.000416837563735614 -0.013381980817044751 0 -0.0006240948089872504 -0.012302842149863269 0 -0.00019698206567182305 -0.01264234249429143 0 1.4666748706803044e-05 -0.010883842060604084 0 -0.00038224550440729785 -0.011000073294856897 0 -0.00027593384657431452 -0.011121998055146199 0 0.00027747173603929852 -0.0089928287150490942 0 -0.0006240948089872504 -0.012302842149863269 0 0.00024267362094067545 -0.0087788111248684481 0 0.0001006133582145577 -0.0085193177422801178 0 -0.00010877307468510501 -0.0086251129200199984 0 0.00024267362094067545 -0.0087788111248684481 0 -0.00025482109060062175 -0.0088725629267168322 0 -0.00010877307468510501 -0.0086251129200199984 0 -0.00010877307468510501 -0.0086251129200199984 0 -0.00023590667789887376 -0.0084265924776056825 0 -9.234544464249265e-05 -0.0084451111538811352 0 0.0001006133582145577 -0.0085193177422801178 0 -0.00010877307468510501 -0.0086251129200199984 0 -9.234544464249265e-05 -0.0084451111538811352 0 -0.0006240948089872504 -0.012302842149863269 0 -0.0008088761388650561 -0.011559244179702407 0 -0.00025482109060062175 -0.0088725629267168322 0 -0.00010877307468510501 -0.0086251129200199984 0 -0.00031317469710876226 -0.0086026073092086448 0 -0.00025482109060062175 -0.0088725629267168322 0 -0.00031317469710876226 -0.0086026073092086448 0 -0.00037187298772321028 -0.0085603259073194944 0 -0.00031317469710876226 -0.0086026073092086448 0 -0.00043028106410634683 -0.0086071985718588952 0 -0.00037187298772321028 -0.0085603259073194944 0 -0.00031317469710876226 -0.0086026073092086448 0 -0.00032462148216867801 -0.0084528924949033909 0 -0.00043028106410634683 -0.0086071985718588952 0 -0.00010877307468510501 -0.0086251129200199984 0 -0.00031317469710876226 -0.0086026073092086448 0 -0.00023590667789887376 -0.0084265924776056825 0 -0.0011434136358535541 -0.012690665254141103 0 -0.00021154607860964292 -0.007459957423027885 0 -0.00023590667789887376 -0.0084265924776056825 0 -0.00028998424496634709 -0.0083082283162095611 0 -0.00020027191778181509 -0.0082257841438901514 0 -0.00032462148216867801 -0.0084528924949033909 0 -0.00037486227067178946 -0.0081997968238279942 0 -0.00043028106410634683 -0.0086071985718588952 0 -0.00031317469710876226 -0.0086026073092086448 0 -0.00023590667789887376 -0.0084265924776056825 0 -0.00032462148216867801 -0.0084528924949033909 0 -0.00023590667789887376 -0.0084265924776056825 0 -0.00032462148216867801 -0.0084528924949033909 0 -0.00028998424496634709 -0.0083082283162095611 0 -0.00032462148216867801 -0.0084528924949033909 0 -0.00028998424496634709 -0.0083082283162095611 0 -0.00037486227067178946 -0.0081997968238279942 0 -0.00028998424496634709 -0.0083082283162095611 0 -0.00032916641302437353 -0.0081972083573171473 0 -0.00020027191778181509 -0.0082257841438901514 0 -0.00028998424496634709 -0.0083082283162095611 0 -0.00032916641302437353 -0.0081972083573171473 0 -0.00037486227067178946 -0.0081997968238279942 0 -0.0010905892096426235 -0.012582945264889088 0 -0.0011434136358535541 -0.012690665254141103 0 -0.00023590667789887376 -0.0084265924776056825 0 -0.00020027191778181509 -0.0082257841438901514 0 -9.3411178168490395e-05 -0.0082015001765991351 0 -1.1293378262945513e-05 -0.0078923363419888919 0 3.3053353351293534e-05 -0.0082324031100207053 0 -9.3411178168490395e-05 -0.0082015001765991351 0 3.3053353351293534e-05 -0.0082324031100207053 0 -2.6312061045228905e-05 -0.0083664720940423275 0 -9.3411178168490395e-05 -0.0082015001765991351 0 7.4952211041733539e-06 -0.0084003881057756764 0 -6.9167265588335365e-05 -0.0082523238787320426 0 0.0001006133582145577 -0.0085193177422801178 0 -9.3411178168490395e-05 -0.0082015001765991351 0 -9.234544464249265e-05 -0.0084451111538811352 0 -0.00023590667789887376 -0.0084265924776056825 0 -9.3411178168490395e-05 -0.0082015001765991351 0 -9.234544464249265e-05 -0.0084451111538811352 0 -0.00061600140998403199 -0.015607118090211701 0 -0.00071252946217375006 -0.015747128172780234 0 -0.00073138726490922239 -0.015501565218570023 0 -0.00061600140998403199 -0.015607118090211701 0 -0.00060100985931323646 -0.015490638169016017 0 -0.00047728589220215079 -0.015574307317285402 0 -0.00061600140998403199 -0.015607118090211701 0 -0.00071252946217375006 -0.015747128172780234 0 -0.000528550638473478 -0.015767461294024631 0 -0.0011434136358535541 -0.012690665254141103 0 -5.1896201571653963e-06 -0.015429162962103607 0 -0.00071252946217375006 -0.015747128172780234 0 -0.00093838966051024804 -0.015463774341186062 0 -0.00073138726490922239 -0.015501565218570023 0 -5.1896201571653963e-06 -0.015429162962103607 0 -0.0008088761388650561 -0.011559244179702407 0 -0.00068507454946146009 -0.0096063916968734189 0 -0.00043028106410634683 -0.0086071985718588952 0 -0.00037187298772321028 -0.0085603259073194944 0 -0.00068507454946146009 -0.0096063916968734189 0 0.00064204696805020191 -0.0097730764009556752 0 -0.00037187298772321028 -0.0085603259073194944 0 -0.00093838966051024804 -0.015463774341186062 0 -0.00073138726490922239 -0.015501565218570023 0 -0.00071824909021245417 -0.015297518112411073 0 -0.00093838966051024804 -0.015463774341186062 0 -0.00071824909021245417 -0.015297518112411073 0 -0.0008857029594338899 -0.015137927331316964 0 -0.00073138726490922239 -0.015501565218570023 0 -0.00060100985931323646 -0.015490638169016017 0 -0.00071824909021245417 -0.015297518112411073 0 -0.00061600140998403199 -0.015607118090211701 0 -0.00073138726490922239 -0.015501565218570023 0 -0.00060100985931323646 -0.015490638169016017 0 -0.00060100985931323646 -0.015490638169016017 0 -0.00071824909021245417 -0.015297518112411073 0 -0.00051267020441446984 -0.015380460869793089 0 -0.00038600969434382683 -0.014681235192094995 0 -0.00038800125958096232 -0.015352129137322573 0 -0.00038600969434382683 -0.014681235192094995 0 0.00011322215705210501 -0.01522738680993038 0 -0.00071824909021245417 -0.015297518112411073 0 -0.00052244875380202407 -0.015229503283932111 0 -0.00051267020441446984 -0.015380460869793089 0 -0.00020162277278200407 -0.01532843339081346 0 -0.00019191011575703874 -0.015338470952046773 0 -0.00019227465477342722 -0.015340533336955803 0 -0.00071824909021245417 -0.015297518112411073 0 -0.0008857029594338899 -0.015137927331316964 0 -0.00052244875380202407 -0.015229503283932111 0 -0.0011582584393891515 -0.01517863095181222 0 -0.00093838966051024804 -0.015463774341186062 0 -0.0008857029594338899 -0.015137927331316964 0 3.8642508443551243e-07 -0.013874290292294618 0 7.8676412484462714e-05 -0.014451118673976105 0 1.5776784775371979e-07 -0.015328179423040043 0 7.8676412484462714e-05 -0.014451118673976105 0 1.5776784775371979e-07 -0.015328179423040043 0 1.0701903618433937e-05 -0.015341368698448909 0 0.00011322215705210501 -0.01522738680993038 0 -0.00041639955857858629 -0.016949496807737829 0 1.5776784775371979e-07 -0.015328179423040043 0 1.0701903618433937e-05 -0.015341368698448909 0 -1.8676934065793701e-05 -0.016575907676326662 0 1.5776784775371979e-07 -0.015328179423040043 0 -2.3663729594089499e-07 -0.01678197735098582 0 -1.8676934065793701e-05 -0.016575907676326662 0 1.0701903618433937e-05 -0.015341368698448909 0 -1.8676934065793701e-05 -0.016575907676326662 0 -0.00010475704861532612 -0.016396618376757689 0 -0.00019191011575703874 -0.015338470952046773 0 -0.00019738418138028172 -0.015351201717964769 0 -0.00019384871921667126 -0.015342297180530538 0 -2.3663729594089499e-07 -0.01678197735098582 0 -1.8676934065793701e-05 -0.016575907676326662 0 -4.2334062038529763e-06 -0.016740999590243145 0 -0.00031986921076227577 -0.016755702733059211 0 -0.00041639955857858629 -0.016949496807737829 0 -0.0012327931783833728 -0.018522136114261258 0 -0.0007699589617872429 -0.019197267580418207 0 -0.0007195875300165512 -0.018795017738548261 0 -0.00019738418138028172 -0.015351201717964769 0 -0.00019603454890652124 -0.015337820813342623 0 -0.00019384871921667126 -0.015342297180530538 0 -0.00019689372034155454 -0.015315132185359535 0 -0.00038800125958096232 -0.015352129137322573 0 -0.00019738418138028172 -0.015351201717964769 0 -0.00019603454890652124 -0.015337820813342623 0 -0.00018533276716441359 -0.015334065061225031 0 -0.00019603454890652124 -0.015337820813342623 0 -0.00039167468164967811 -0.015344052235379022 0 -0.00030364122845859791 -0.015386878364079582 0 -0.00041639955857858629 -0.016949496807737829 0 -0.00055436719131013749 -0.017115547990356656 0 -0.00019603454890652124 -0.015337820813342623 0 -0.00018533276716441359 -0.015334065061225031 0 -0.0002321436756417083 -0.015443005993471436 0 -0.00019603454890652124 -0.015337820813342623 0 -0.00019227465477342722 -0.015340533336955803 0 -0.00019384871921667126 -0.015342297180530538 0 -0.00019603454890652124 -0.015337820813342623 0 -0.00039167468164967811 -0.015344052235379022 0 -0.00052244875380202407 -0.015229503283932111 0 -0.00039167468164967811 -0.015344052235379022 0 -0.00052244875380202407 -0.015229503283932111 0 -0.00051267020441446984 -0.015380460869793089 0 -0.00019191011575703874 -0.015338470952046773 0 -0.00019227465477342722 -0.015340533336955803 0 -0.00019384871921667126 -0.015342297180530538 0 2.2273082975614669e-05 -0.018996887732601626 0 6.2198462841949557e-05 -0.018772732596793396 0 0.00010239075541736741 -0.019186952665527352 0 2.2273082975614669e-05 -0.018996887732601626 0 6.2198462841949557e-05 -0.018772732596793396 0 -0.00011317947628180389 -0.018751690477390802 0 6.2198462841949557e-05 -0.018772732596793396 0 -3.3997802688681189e-05 -0.018095633756628093 0 -0.00011317947628180389 -0.018751690477390802 0 6.2198462841949557e-05 -0.018772732596793396 0 -3.1177769857904249e-07 -0.018237153076619765 0 -3.3997802688681189e-05 -0.018095633756628093 0 -2.3663729594089499e-07 -0.01678197735098582 0 -4.2334062038529763e-06 -0.016740999590243145 0 -3.3997802688681189e-05 -0.018095633756628093 0 -2.3663729594089499e-07 -0.01678197735098582 0 -3.1177769857904249e-07 -0.018237153076619765 0 -3.3997802688681189e-05 -0.018095633756628093 0 -0.0012327931783833728 -0.018522136114261258 0 -3.3997802688681189e-05 -0.018095633756628093 0 -0.00045666047042610574 -0.018547618246570061 0 -0.00041639955857858629 -0.016949496807737829 0 -0.00010263070003388405 -0.018141080819168133 0 -0.0012327931783833728 -0.018522136114261258 0 -0.00045666047042610574 -0.018547618246570061 0 -0.0007195875300165512 -0.018795017738548261 0 -3.3997802688681189e-05 -0.018095633756628093 0 -0.00011317947628180389 -0.018751690477390802 0 -0.00045666047042610574 -0.018547618246570061 0 -0.00011317947628180389 -0.018751690477390802 0 -0.00045666047042610574 -0.018547618246570061 0 -0.00041892966795829616 -0.018875486161056519 0 -0.00045666047042610574 -0.018547618246570061 0 -0.0007195875300165512 -0.018795017738548261 0 -0.00041892966795829616 -0.018875486161056519 0 -0.0007699589617872429 -0.019197267580418207 0 -0.00017231480843636409 -0.019141013896627 0 -0.00046738619904494993 -0.019674361187931137 0 -0.0007699589617872429 -0.019197267580418207 0 -0.00041892966795829616 -0.018875486161056519 0 -0.00017231480843636409 -0.019141013896627 0 -0.0007699589617872429 -0.019197267580418207 0 -0.0007195875300165512 -0.018795017738548261 0 -0.00041892966795829616 -0.018875486161056519 0 -0.00011317947628180389 -0.018751690477390802 0 -0.00041892966795829616 -0.018875486161056519 0 -0.00017231480843636409 -0.019141013896627 0 2.2273082975614669e-05 -0.018996887732601626 0 -0.00011317947628180389 -0.018751690477390802 0 -0.00017231480843636409 -0.019141013896627 0 -0.00017231480843636409 -0.019141013896627 0 0.00010116523164000593 -0.019277773378389162 0 8.0659623274848387e-05 -0.019210045327012804 0 2.2273082975614669e-05 -0.018996887732601626 0 -0.00017231480843636409 -0.019141013896627 0 8.0659623274848387e-05 -0.019210045327012804 0 -0.00013990988023454836 -0.019793372273440087 0 -0.0001707017635014189 -0.019921338057166244 0 -0.00044271547395731571 -0.019947437326940376 0 -0.00014532095048163114 -0.019776412346676119 0 -0.00016320529989280886 -0.018374532555517731 0 -0.0001707017635014189 -0.019921338057166244 0 -0.00044271547395731571 -0.019947437326940376 0 -0.00026400089191616871 -0.020064312240097179 0 -0.00017231480843636409 -0.019141013896627 0 0.00010116523164000593 -0.019277773378389162 0 -0.00046738619904494993 -0.019674361187931137 0 -0.00055436719131013749 -0.017115547990356656 0 -0.00016320529989280886 -0.018374532555517731 0 -0.00018533276716441359 -0.015334065061225031 0 -8.4581986405179104e-05 -0.015534056195576545 0 -0.0002321436756417083 -0.015443005993471436 0 0.00010998479178897063 -0.018632988719323174 0 2.4659275412913777e-05 -0.01882384849533918 0 0.00027742097375840319 -0.019009648969764873 0 0.00010998479178897063 -0.018632988719323174 0 2.4659275412913777e-05 -0.01882384849533918 0 -0.00017084574161564011 -0.018785647787122398 0 -0.00016320529989280886 -0.018374532555517731 0 -4.3658150342267608e-05 -0.020266087247551731 0 2.4659275412913777e-05 -0.01882384849533918 0 -8.9797472921422639e-05 -0.018969431156932125 0 0.00027742097375840319 -0.019009648969764873 0 -0.00044271547395731571 -0.019947437326940376 0 -0.00026400089191616871 -0.020064312240097179 0 -0.00030021729864357984 -0.020267035553295835 0 -0.00026400089191616871 -0.020064312240097179 0 -0.00014212399092708845 -0.02012091383988858 0 -0.00030021729864357984 -0.020267035553295835 0 -0.0001707017635014189 -0.019921338057166244 0 -0.00026400089191616871 -0.020064312240097179 0 -0.00014212399092708845 -0.02012091383988858 0 -0.00051267020441446984 -0.015380460869793089 0 -0.00036703924458129976 -0.015455738736315415 0 -0.00047728589220215079 -0.015574307317285402 0 -0.00060100985931323646 -0.015490638169016017 0 -0.00051267020441446984 -0.015380460869793089 0 -0.00047728589220215079 -0.015574307317285402 0 -0.00039167468164967811 -0.015344052235379022 0 -0.00051267020441446984 -0.015380460869793089 0 -0.00036703924458129976 -0.015455738736315415 0 -0.00036703924458129976 -0.015455738736315415 0 -0.00030364122845859791 -0.015386878364079582 0 -0.0002321436756417083 -0.015443005993471436 0 -0.00039167468164967811 -0.015344052235379022 0 -0.00036703924458129976 -0.015455738736315415 0 -0.00030364122845859791 -0.015386878364079582 0 -8.4581986405179104e-05 -0.015534056195576545 0 -0.0002321436756417083 -0.015443005993471436 0 -0.00029521732910372319 -0.015640832040914085 0 -0.00036703924458129976 -0.015455738736315415 0 -0.0002321436756417083 -0.015443005993471436 0 -0.00029521732910372319 -0.015640832040914085 0 -0.00019603454890652124 -0.015337820813342623 0 -0.00030364122845859791 -0.015386878364079582 0 -0.0002321436756417083 -0.015443005993471436 0 -0.00017084574161564011 -0.018785647787122398 0 -0.00044562870553268566 -0.018929615702732026 0 -8.9797472921422639e-05 -0.018969431156932125 0 -0.00016320529989280886 -0.018374532555517731 0 -9.8408830796647498e-05 -0.017010475932215725 0 2.4659275412913777e-05 -0.01882384849533918 0 -0.00017084574161564011 -0.018785647787122398 0 -8.9797472921422639e-05 -0.018969431156932125 0 -9.8408830796647498e-05 -0.017010475932215725 0 -0.00036910773892282167 -0.018319996763338616 0 -0.00029521732910372319 -0.015640832040914085 0 -0.00047728589220215079 -0.015574307317285402 0 -0.000528550638473478 -0.015767461294024631 0 -0.00036703924458129976 -0.015455738736315415 0 -0.00029521732910372319 -0.015640832040914085 0 -0.00047728589220215079 -0.015574307317285402 0 -0.00061600140998403199 -0.015607118090211701 0 -0.00047728589220215079 -0.015574307317285402 0 -0.000528550638473478 -0.015767461294024631 0 -0.00040545796163065891 -0.020920936423613756 0 -0.00036659691405948496 -0.020971591911036883 0 -0.00028465154287848893 -0.020925531264791974 0 -0.00040545796163065891 -0.020920936423613756 0 -0.00036659691405948496 -0.020971591911036883 0 -0.00041025149368212701 -0.020989025140376077 0 -0.00036910773892282167 -0.018319996763338616 0 -0.00016238486907373595 -0.020071325575467244 0 -0.00036659691405948496 -0.020971591911036883 0 -0.00038124743694502311 -0.021021302689478698 0 -0.00041025149368212701 -0.020989025140376077 0 -0.00036659691405948496 -0.020971591911036883 0 -0.00033733329919643552 -0.020994869667461294 0 -0.00038124743694502311 -0.021021302689478698 0 -0.00028465154287848893 -0.020925531264791974 0 -0.00033733329919643552 -0.020994869667461294 0 -0.00028147720269565928 -0.021024889148158806 0 -0.00028465154287848893 -0.020925531264791974 0 -0.00028147720269565928 -0.021024889148158806 0 -0.00022609939513998495 -0.02100960446343492 0 -0.00036659691405948496 -0.020971591911036883 0 -0.00028465154287848893 -0.020925531264791974 0 -0.00033733329919643552 -0.020994869667461294 0 -0.00034076718017412314 -0.021042093494429506 0 -0.00028147720269565928 -0.021024889148158806 0 -0.00031068707954717942 -0.021087598779122335 0 -0.00033733329919643552 -0.020994869667461294 0 -0.00034076718017412314 -0.021042093494429506 0 -0.00028147720269565928 -0.021024889148158806 0 -0.00028147720269565928 -0.021024889148158806 0 -0.0002633508762619124 -0.021079851445077305 0 -0.00022597452900528171 -0.021061697643954665 0 -0.00028147720269565928 -0.021024889148158806 0 -0.00031068707954717942 -0.021087598779122335 0 -0.0002633508762619124 -0.021079851445077305 0 -0.00031068707954717942 -0.021087598779122335 0 -0.0002633508762619124 -0.021079851445077305 0 -0.00023787003815826631 -0.021133460034824147 0 -0.00031068707954717942 -0.021087598779122335 0 -0.00038546652451947294 -0.021087080377069356 0 -0.0003642186265799042 -0.021146824468637599 0 -0.00034076718017412314 -0.021042093494429506 0 -0.00031068707954717942 -0.021087598779122335 0 -0.00038546652451947294 -0.021087080377069356 0 -0.00038546652451947294 -0.021087080377069356 0 -0.00041566844426022437 -0.021057634248150197 0 -0.00038124743694502311 -0.021021302689478698 0 -0.00038546652451947294 -0.021087080377069356 0 -0.00041566844426022437 -0.021057634248150197 0 -0.00042836809961420506 -0.021149279416817452 0 -0.00041566844426022437 -0.021057634248150197 0 -0.00038124743694502311 -0.021021302689478698 0 -0.00041025149368212701 -0.020989025140376077 0 -0.00034076718017412314 -0.021042093494429506 0 -0.00038546652451947294 -0.021087080377069356 0 -0.00038124743694502311 -0.021021302689478698 0 -0.00033733329919643552 -0.020994869667461294 0 -0.00034076718017412314 -0.021042093494429506 0 -0.00038124743694502311 -0.021021302689478698 0 -0.00054341304721274356 -0.022095139108599844 0 -0.00047919549270263105 -0.022039995787756349 0 -0.00047494963127230977 -0.02212850785666938 0 -0.00030027037107691328 -0.021469955748682587 0 -0.00026126900025343167 -0.021211663654798169 0 -0.00014212399092708845 -0.02012091383988858 0 -0.00030021729864357984 -0.020267035553295835 0 -0.00012293301507117129 -0.020282254878255523 0 -4.3658150342267608e-05 -0.020266087247551731 0 -0.00026126900025343167 -0.021211663654798169 0 -0.00020243613573195016 -0.020932541100896047 0 -0.00018986953652931003 -0.020963108724998507 0 -0.00016133267474834401 -0.020938019684806894 0 -0.00013012595549344866 -0.020934438009382529 0 -0.00010322390527148817 -0.020997189423372583 0 -0.00015403453565399211 -0.021006399868377601 0 -4.3658150342267608e-05 -0.020266087247551731 0 -0.00030027037107691328 -0.021469955748682587 0 -0.00016238486907373595 -0.020071325575467244 0 -4.3658150342267608e-05 -0.020266087247551731 0 -0.00028465154287848893 -0.020925531264791974 0 -0.00013012595549344866 -0.020934438009382529 0 -0.00018964685155499313 -0.020981111861565881 0 -0.00018964685155499313 -0.020981111861565881 0 -0.00022609939513998495 -0.02100960446343492 0 -0.00017818089026344923 -0.021038245069557378 0 -0.00018964685155499313 -0.020981111861565881 0 -0.00015403453565399211 -0.021006399868377601 0 -0.00017818089026344923 -0.021038245069557378 0 -0.00013012595549344866 -0.020934438009382529 0 -0.00018964685155499313 -0.020981111861565881 0 -0.00015403453565399211 -0.021006399868377601 0 -0.00028465154287848893 -0.020925531264791974 0 -0.00018964685155499313 -0.020981111861565881 0 -0.00022609939513998495 -0.02100960446343492 0 -0.00028147720269565928 -0.021024889148158806 0 -0.00022609939513998495 -0.02100960446343492 0 -0.00022597452900528171 -0.021061697643954665 0 -0.00022609939513998495 -0.02100960446343492 0 -0.00022597452900528171 -0.021061697643954665 0 -0.00017818089026344923 -0.021038245069557378 0 -0.00046206132956121745 -0.021471924719992774 0 -0.0004078201356203558 -0.021408256418158772 0 -0.00065260428567153329 -0.021747976693259029 0 -0.00077645548899231431 -0.021962583669821734 0 -0.00053411013225520719 -0.021681803923189111 0 -0.00022597452900528171 -0.021061697643954665 0 -0.00015999424015762453 -0.021046188713662733 0 -0.00023787003815826631 -0.021133460034824147 0 -0.0002633508762619124 -0.021079851445077305 0 -0.00022597452900528171 -0.021061697643954665 0 -0.00023787003815826631 -0.021133460034824147 0 -0.00065260428567153329 -0.021747976693259029 0 -0.00077645548899231431 -0.021962583669821734 0 -0.00080892394725958373 -0.021908599508955372 0 -0.00022597452900528171 -0.021061697643954665 0 -0.00015999424015762453 -0.021046188713662733 0 -0.00017818089026344923 -0.021038245069557378 0 -0.00046206132956121745 -0.021471924719992774 0 -0.00041615102524876599 -0.021439000281364584 0 -0.00015403453565399211 -0.021006399868377601 0 -0.00016039941161629282 -0.02104707010734385 0 -0.00017818089026344923 -0.021038245069557378 0 -0.00030027037107691328 -0.021469955748682587 0 -0.00046206132956121745 -0.021471924719992774 0 -0.00045866788690368825 -0.021599032098416605 0 -0.00052079044839115074 -0.021652683023872316 0 -0.0004124289201664708 -0.021703462613955091 0 -0.00010322390527148817 -0.020997189423372583 0 -0.00015403453565399211 -0.021006399868377601 0 -0.00016039941161629282 -0.02104707010734385 0 -0.00077645548899231431 -0.021962583669821734 0 -0.00083367344942638158 -0.021940213553430746 0 -0.00080892394725958373 -0.021908599508955372 0 -0.00046206132956121745 -0.021471924719992774 0 -0.00061493982612503741 -0.021973452277792602 0 -0.00054341304721274356 -0.022095139108599844 0 -0.000497395623201627 -0.022198946340722545 0 -0.00047494963127230977 -0.02212850785666938 0 -0.00030027037107691328 -0.021469955748682587 0 -0.00061493982612503741 -0.021973452277792602 0 -0.00065260428567153329 -0.021747976693259029 0 -0.00080892394725958373 -0.021908599508955372 0 -0.00090336520859284747 -0.02207622926823959 0 -0.00083985502708832033 -0.021987391851712564 0 -0.00090336520859284747 -0.02207622926823959 0 -0.0008089527445155094 -0.022055237623518544 0 -0.00083367344942638158 -0.021940213553430746 0 -0.00083985502708832033 -0.021987391851712564 0 -0.0008089527445155094 -0.022055237623518544 0 -0.00083367344942638158 -0.021940213553430746 0 -0.00083985502708832033 -0.021987391851712564 0 -0.00080892394725958373 -0.021908599508955372 0 -0.00083985502708832033 -0.021987391851712564 0 -0.00080892394725958373 -0.021908599508955372 0 -0.00090336520859284747 -0.02207622926823959 0 -0.00064247949616689061 -0.021781689571780297 0 -0.0007428617716301692 -0.021777892501260603 0 -0.00065260428567153329 -0.021747976693259029 0 -0.00059363817644284835 -0.021526097518413494 0 -0.00062841403043789666 -0.021433724728074255 0 -0.00059363817644284835 -0.021526097518413494 0 -0.00056940062684060619 -0.021416244113073954 0 -0.00062841403043789666 -0.021433724728074255 0 -0.00065260428567153329 -0.021747976693259029 0 -0.00053411013225520719 -0.021681803923189111 0 -0.00059363817644284835 -0.021526097518413494 0 -0.00053411013225520719 -0.021681803923189111 0 -0.00059363817644284835 -0.021526097518413494 0 -0.00050807282814567555 -0.021406958754074931 0 -0.00059363817644284835 -0.021526097518413494 0 -0.00056940062684060619 -0.021416244113073954 0 -0.00050807282814567555 -0.021406958754074931 0 -0.00056940062684060619 -0.021416244113073954 0 -0.00062841403043789666 -0.021433724728074255 0 -0.00057499335387103782 -0.021422372094418277 0 -0.00056940062684060619 -0.021416244113073954 0 -0.000480504575888084 -0.02131282353880674 0 -0.00057499335387103782 -0.021422372094418277 0 -0.00056940062684060619 -0.021416244113073954 0 -0.00050807282814567555 -0.021406958754074931 0 -0.000480504575888084 -0.02131282353880674 0 -0.00062841403043789666 -0.021433724728074255 0 -0.00055945285658636206 -0.021509368477569586 0 -0.00057499335387103782 -0.021422372094418277 0 -0.00042836809961420506 -0.021149279416817452 0 -0.00046358522226184193 -0.021171904246406744 0 -0.0004321415766001965 -0.021090745088465066 0 -0.00042836809961420506 -0.021149279416817452 0 -0.00040295876834167438 -0.021281143446041671 0 -0.00046358522226184193 -0.021171904246406744 0 -0.00042836809961420506 -0.021149279416817452 0 -0.0003642186265799042 -0.021146824468637599 0 -0.00040295876834167438 -0.021281143446041671 0 -0.00038546652451947294 -0.021087080377069356 0 -0.00042836809961420506 -0.021149279416817452 0 -0.0003642186265799042 -0.021146824468637599 0 -0.00023787003815826631 -0.021133460034824147 0 -0.0003642186265799042 -0.021146824468637599 0 -0.00040295876834167438 -0.021281143446041671 0 -0.00031068707954717942 -0.021087598779122335 0 -0.00023787003815826631 -0.021133460034824147 0 -0.0003642186265799042 -0.021146824468637599 0 -0.0004078201356203558 -0.021408256418158772 0 -0.00039721084360322899 -0.021320723811737666 0 -0.00053411013225520719 -0.021681803923189111 0 -0.00050807282814567555 -0.021406958754074931 0 -0.00040295876834167438 -0.021281143446041671 0 -0.00050807282814567555 -0.021406958754074931 0 -0.00040295876834167438 -0.021281143446041671 0 -0.000480504575888084 -0.02131282353880674 0 -0.000480504575888084 -0.02131282353880674 0 -0.00046358522226184193 -0.021171904246406744 0 -0.00047807456305287526 -0.02121668094333282 0 -0.00040295876834167438 -0.021281143446041671 0 -0.000480504575888084 -0.02131282353880674 0 -0.00046358522226184193 -0.021171904246406744 0 -0.00046358522226184193 -0.021171904246406744 0 -0.0004321415766001965 -0.021090745088465066 0 -0.00041251853151138803 -0.021068498501172324 0 -0.00046358522226184193 -0.021171904246406744 0 -0.00041251853151138803 -0.021068498501172324 0 -0.00050891939340009173 -0.020945648827775654 0 -0.00041566844426022437 -0.021057634248150197 0 -0.00042836809961420506 -0.021149279416817452 0 -0.0004321415766001965 -0.021090745088465066 0 -0.0004321415766001965 -0.021090745088465066 0 -0.00041251853151138803 -0.021068498501172324 0 -0.00042176395640687814 -0.02102319793169764 0 -0.00041251853151138803 -0.021068498501172324 0 -0.00042224749695754797 -0.021018415706047979 0 -0.00042176395640687814 -0.02102319793169764 0 -0.00017007803001432227 -0.0082841084938176414 0 -0.00015893579403692231 -0.0081122062659394097 0 2.0047563325179367e-05 -0.0081977143688967483 0 -0.00015893579403692231 -0.0081122062659394097 0 -9.4223154741576576e-05 -0.0079978606737404357 0 2.0047563325179367e-05 -0.0081977143688967483 0 -9.4223154741576576e-05 -0.0079978606737404357 0 2.0047563325179367e-05 -0.0081977143688967483 0 -7.5597848750410789e-05 -0.00799037948092296 0 -7.7804927111720703e-05 -0.014844880520318867 0 -0.00016461407670426308 -0.014828032354434351 0 -0.00041251853151138803 -0.021068498501172324 0 -0.00015923793401829978 -0.020942390550753143 0 -0.00042224749695754797 -0.021018415706047979 0 -0.00050161347305827423 -0.020806269087802441 0 -0.00042224749695754797 -0.021018415706047979 0 -0.00042176395640687814 -0.02102319793169764 0 -7.5597848750410789e-05 -0.00799037948092296 0 -6.7159129064471362e-05 -0.0079461814586769906 0 -0.00013652129199405409 -0.0080420363311802974 0 -9.4223154741576576e-05 -0.0079978606737404357 0 -7.5597848750410789e-05 -0.00799037948092296 0 -6.7159129064471362e-05 -0.0079461814586769906 0 -1.1293378262945513e-05 -0.0078923363419888919 0 -6.7159129064471362e-05 -0.0079461814586769906 0 -0.00013652129199405409 -0.0080420363311802974 0 -1.1293378262945513e-05 -0.0078923363419888919 0 -9.3411178168490395e-05 -0.0082015001765991351 0 -0.00013652129199405409 -0.0080420363311802974 0 -0.00020027191778181509 -0.0082257841438901514 0 -9.3411178168490395e-05 -0.0082015001765991351 0 -0.00013652129199405409 -0.0080420363311802974 0 -0.00034660596865120199 -0.0081933527552293748 0 -7.5597848750410789e-05 -0.00799037948092296 0 -0.00013652129199405409 -0.0080420363311802974 0 -0.0011434136358535541 -0.012690665254141103 0 -0.00016461407670426308 -0.014828032354434351 0 -0.00032916641302437353 -0.0081972083573171473 0 -0.00020027191778181509 -0.0082257841438901514 0 -0.00013652129199405409 -0.0080420363311802974 0 -0.00032916641302437353 -0.0081972083573171473 0 -0.00034660596865120199 -0.0081933527552293748 0 -0.00013652129199405409 -0.0080420363311802974 0 -0.00050161347305827423 -0.020806269087802441 0 -0.00036176681900947191 -0.020826195374954819 0 -0.00040556604139773002 -0.020942739626087146 0 -0.00050161347305827423 -0.020806269087802441 0 -0.00040556604139773002 -0.020942739626087146 0 -0.00042176395640687814 -0.02102319793169764 0 -0.00036176681900947191 -0.020826195374954819 0 -0.00040556604139773002 -0.020942739626087146 0 -0.00031436375655124544 -0.020881486977827657 0 -5.1896201571653963e-06 -0.015429162962103607 0 -0.00014261082023170132 -0.01987954707797291 0 -0.00036910773892282167 -0.018319996763338616 0 -0.00014261082023170132 -0.01987954707797291 0 -0.00040545796163065891 -0.020920936423613756 0 -0.00044587250947862963 -0.020944687944891922 0 -0.00041025149368212701 -0.020989025140376077 0 2.586005389100166e-05 -0.017511831675678144 0 -0.0002387738721022321 -0.017503136237086082 0 -6.8770387761196627e-05 -0.017408255104961589 0 -5.1896201571653963e-06 -0.015429162962103607 0 -0.00036910773892282167 -0.018319996763338616 0 -0.00040574764927106554 -0.020958425005369451 0 -0.00041025149368212701 -0.020989025140376077 0 -0.00041246886402552456 -0.021007927687022906 0 -0.00014261082023170132 -0.01987954707797291 0 -8.5803296939896301e-05 -0.02074199270807155 0 -0.00040556604139773002 -0.020942739626087146 0 -0.00040574764927106554 -0.020958425005369451 0 -0.00041246886402552456 -0.021007927687022906 0 -0.000612818637279697 -0.020754478048053672 0 -0.00014261082023170132 -0.01987954707797291 0 -0.0004321415766001965 -0.021090745088465066 0 -0.00041246886402552456 -0.021007927687022906 0 -0.00042176395640687814 -0.02102319793169764 0 -0.00041566844426022437 -0.021057634248150197 0 -0.0004321415766001965 -0.021090745088465066 0 -0.00041246886402552456 -0.021007927687022906 0 -0.00041566844426022437 -0.021057634248150197 0 -0.00041025149368212701 -0.020989025140376077 0 -0.00041246886402552456 -0.021007927687022906 0 -0.00040556604139773002 -0.020942739626087146 0 -0.00041246886402552456 -0.021007927687022906 0 -0.00042176395640687814 -0.02102319793169764 0 7.9492597613322371e-05 -0.024767734839160692 0 1.9381025020589406e-07 -0.024998327108669446 0 2.1745599289891852e-07 -0.024999167365469113 0 7.9492597613322371e-05 -0.024767734839160692 0 1.9871011572853835e-06 -0.024696561452820683 0 1.5107833464454907e-05 -0.024814240245411113 0 7.9492597613322371e-05 -0.024767734839160692 0 0.00010261229407945965 -0.024508677472074879 0 1.9871011572853835e-06 -0.024696561452820683 0 7.9492597613322371e-05 -0.024767734839160692 0 0.00010261229407945965 -0.024508677472074879 0 1.9381025020589406e-07 -0.024998327108669446 0 1.9381025020589406e-07 -0.024998327108669446 0 9.0140500600015868e-05 -0.023816422802982674 0 7.7175083527606543e-07 -0.022771973683007745 0 0.00010261229407945965 -0.024508677472074879 0 1.9381025020589406e-07 -0.024998327108669446 0 9.0140500600015868e-05 -0.023816422802982674 0 9.0140500600015868e-05 -0.023816422802982674 0 3.7910423728376979e-05 -0.023457108167436628 0 6.7099571188504456e-05 -0.023803520530100923 0 9.0140500600015868e-05 -0.023816422802982674 0 2.278193346318096e-05 -0.022953932104953816 0 3.7910423728376979e-05 -0.023457108167436628 0 7.7175083527606543e-07 -0.022771973683007745 0 2.278193346318096e-05 -0.022953932104953816 0 -2.0336029357989732e-06 -0.021146763437847937 0 0.00010261229407945965 -0.024508677472074879 0 9.0140500600015868e-05 -0.023816422802982674 0 6.7099571188504456e-05 -0.023803520530100923 0 9.0140500600015868e-05 -0.023816422802982674 0 7.7175083527606543e-07 -0.022771973683007745 0 2.278193346318096e-05 -0.022953932104953816 0 2.278193346318096e-05 -0.022953932104953816 0 -7.0662636851987265e-05 -0.023213051129132196 0 -0.00021514404884774772 -0.022883605663992241 0 2.278193346318096e-05 -0.022953932104953816 0 3.7910423728376979e-05 -0.023457108167436628 0 -7.0662636851987265e-05 -0.023213051129132196 0 3.7910423728376979e-05 -0.023457108167436628 0 -7.0662636851987265e-05 -0.023213051129132196 0 -0.00014331629864105922 -0.023451736435271629 0 -5.3428139179405635e-05 -0.024558505494095367 0 -7.4531129053801305e-05 -0.024489958896840126 0 -7.4567053556279277e-05 -0.02447830637238765 0 -5.3428139179405635e-05 -0.024558505494095367 0 -9.072816494320737e-05 -0.02464231553159562 0 -0.00015271727569179412 -0.024609045647875999 0 -4.224714012128864e-05 -0.024552091995266426 0 -0.00020607725763029989 -0.024243794703606793 0 3.7910423728376979e-05 -0.023457108167436628 0 6.7099571188504456e-05 -0.023803520530100923 0 -0.00014331629864105922 -0.023451736435271629 0 5.0021624583708159e-05 -0.024194007542116962 0 -0.00013729799075670333 -0.024108858605998706 0 -5.3428139179405635e-05 -0.024558505494095367 0 -3.7913141379118069e-05 -0.024547052781175707 0 -8.2511304424816366e-05 -0.0244976199870015 0 -5.3428139179405635e-05 -0.024558505494095367 0 -8.2511304424816366e-05 -0.0244976199870015 0 -7.4567053556279277e-05 -0.02447830637238765 0 -5.3428139179405635e-05 -0.024558505494095367 0 -4.2664457218883139e-05 -0.024642605639881025 0 -9.072816494320737e-05 -0.02464231553159562 0 0.00010261229407945965 -0.024508677472074879 0 -3.7913141379118069e-05 -0.024547052781175707 0 -2.09505926860459e-05 -0.02460673479451489 0 0.00014991064934174471 -0.024426390227615117 0 5.0021624583708159e-05 -0.024194007542116962 0 0.00010261229407945965 -0.024508677472074879 0 -2.09505926860459e-05 -0.02460673479451489 0 1.9871011572853835e-06 -0.024696561452820683 0 -5.3428139179405635e-05 -0.024558505494095367 0 -2.09505926860459e-05 -0.02460673479451489 0 -4.2664457218883139e-05 -0.024642605639881025 0 -5.3428139179405635e-05 -0.024558505494095367 0 -3.7913141379118069e-05 -0.024547052781175707 0 -2.09505926860459e-05 -0.02460673479451489 0 -2.09505926860459e-05 -0.02460673479451489 0 -4.2664457218883139e-05 -0.024642605639881025 0 1.9871011572853835e-06 -0.024696561452820683 0 -4.2664457218883139e-05 -0.024642605639881025 0 1.9871011572853835e-06 -0.024696561452820683 0 -5.1950122565349941e-05 -0.02470312125852351 0 1.9871011572853835e-06 -0.024696561452820683 0 -5.1950122565349941e-05 -0.02470312125852351 0 -1.3597593536148075e-05 -0.024756376096657883 0 -9.072816494320737e-05 -0.02464231553159562 0 -0.00015271727569179412 -0.024609045647875999 0 -0.00010379065665338968 -0.024743723919006876 0 -5.1950122565349941e-05 -0.02470312125852351 0 -9.072816494320737e-05 -0.02464231553159562 0 -0.00010379065665338968 -0.024743723919006876 0 -4.2664457218883139e-05 -0.024642605639881025 0 -5.1950122565349941e-05 -0.02470312125852351 0 -9.072816494320737e-05 -0.02464231553159562 0 -0.00020607725763029989 -0.024243794703606793 0 -5.8440593978561089e-05 -0.024021615299570653 0 -4.7946614989303961e-06 -0.023278773393921533 0 -4.4262900146797301e-05 -0.023325824759094619 0 -4.6174789411678924e-05 -0.023269169274789534 0 -4.7946614989303961e-06 -0.023278773393921533 0 1.5138245699395569e-05 -0.023303465390198775 0 2.3467963139360445e-05 -0.023258045513911588 0 0.00028827702521460946 -0.022383868890548834 0 6.9021509595913511e-05 -0.022293398869577385 0 -4.7946614989303961e-06 -0.023278773393921533 0 1.5138245699395569e-05 -0.023303465390198775 0 -4.4262900146797301e-05 -0.023325824759094619 0 0.00028827702521460946 -0.022383868890548834 0 -0.00018864980769456462 -0.021803067125246673 0 0.0002994875131304848 -0.020038075172795902 0 0.00034527241603955435 -0.01984512394628634 0 0.00017939531679516394 -0.019932695311579804 0 0.00012105177015683001 -0.024346330567811644 0 8.1473172327926774e-05 -0.024496222424408399 0 -7.6939653458052104e-05 -0.024425685403114863 0 8.1473172327926774e-05 -0.024496222424408399 0 -7.6939653458052104e-05 -0.024425685403114863 0 -7.4567053556279277e-05 -0.02447830637238765 0 -0.00018864980769456462 -0.021803067125246673 0 -0.00013729799075670333 -0.024108858605998706 0 0.00028827702521460946 -0.022383868890548834 0 -0.00020607725763029989 -0.024243794703606793 0 8.1473172327926774e-05 -0.024496222424408399 0 -8.2511304424816366e-05 -0.0244976199870015 0 -7.4567053556279277e-05 -0.02447830637238765 0 -0.00020607725763029989 -0.024243794703606793 0 -0.00016846625957881432 -0.024393721500570925 0 -0.00014331629864105922 -0.023451736435271629 0 -0.00051397322453475042 -0.023083549819498079 0 -0.00021514404884774772 -0.022883605663992241 0 -0.0009611417682207819 -0.023363285631991297 0 -0.00014331629864105922 -0.023451736435271629 0 -0.00051397322453475042 -0.023083549819498079 0 -7.0662636851987265e-05 -0.023213051129132196 0 -0.00014331629864105922 -0.023451736435271629 0 -0.00021514404884774772 -0.022883605663992241 0 -0.00051397322453475042 -0.023083549819498079 0 -0.00021514404884774772 -0.022883605663992241 0 -0.00080800843329253361 -0.022548914699961224 0 -0.00021514404884774772 -0.022883605663992241 0 -2.0336029357989732e-06 -0.021146763437847937 0 -0.00080800843329253361 -0.022548914699961224 0 2.278193346318096e-05 -0.022953932104953816 0 -0.00021514404884774772 -0.022883605663992241 0 -2.0336029357989732e-06 -0.021146763437847937 0 -1.0473943423118652e-06 -0.021142756175598517 0 -0.00019825664538889573 -0.01999793104434654 0 8.1842851813004172e-05 -0.019952800751849107 0 -1.0473943423118652e-06 -0.021142756175598517 0 8.1842851813004172e-05 -0.019952800751849107 0 8.6172790375460772e-07 -0.019690703895937803 0 -2.9233723618450105e-07 -0.021144635410207852 0 -0.00039845467711881595 -0.021259627503137816 0 -0.00018864980769456462 -0.021803067125246673 0 -0.00039845467711881595 -0.021259627503137816 0 -0.00018864980769456462 -0.021803067125246673 0 0.00012242639471482056 -0.019813214731478745 0 -9.043495032349242e-05 -0.019623780046003288 0 3.5225764223669545e-05 -0.019758417281275472 0 0.00010820638228387726 -0.019703039081864951 0 -0.0009611417682207819 -0.023363285631991297 0 -0.00051397322453475042 -0.023083549819498079 0 -0.00080800843329253361 -0.022548914699961224 0 3.5225764223669545e-05 -0.019758417281275472 0 -0.00019825664538889573 -0.01999793104434654 0 8.1842851813004172e-05 -0.019952800751849107 0 -9.043495032349242e-05 -0.019623780046003288 0 3.5225764223669545e-05 -0.019758417281275472 0 -0.00019825664538889573 -0.01999793104434654 0 0.00010820638228387726 -0.019703039081864951 0 0.00011001443534530026 -0.019636054270774601 0 -4.1293741174865466e-05 -0.019757616742276326 0 3.5225764223669545e-05 -0.019758417281275472 0 0.00010820638228387726 -0.019703039081864951 0 0.00011001443534530026 -0.019636054270774601 0 0.00012242639471482056 -0.019813214731478745 0 -2.7238518359149409e-05 -0.019755171652655258 0 3.5225764223669545e-05 -0.019758417281275472 0 0.00011001443534530026 -0.019636054270774601 0 8.1842851813004172e-05 -0.019952800751849107 0 0.00011001443534530026 -0.019636054270774601 0 8.1842851813004172e-05 -0.019952800751849107 0 8.2196804567018583e-05 -0.019527530827739989 0 8.1842851813004172e-05 -0.019952800751849107 0 8.2196804567018583e-05 -0.019527530827739989 0 8.6172790375460772e-07 -0.019690703895937803 0 6.2198462841949557e-05 -0.018772732596793396 0 -3.1177769857904249e-07 -0.018237153076619765 0 8.6172790375460772e-07 -0.019690703895937803 0 6.2198462841949557e-05 -0.018772732596793396 0 8.6172790375460772e-07 -0.019690703895937803 0 0.00010239075541736741 -0.019186952665527352 0 8.2196804567018583e-05 -0.019527530827739989 0 0.00010239075541736741 -0.019186952665527352 0 0.00010662771450295654 -0.019343395256338318 0 8.2196804567018583e-05 -0.019527530827739989 0 8.6172790375460772e-07 -0.019690703895937803 0 0.00010239075541736741 -0.019186952665527352 0 0.00010116523164000593 -0.019277773378389162 0 0.00011001443534530026 -0.019636054270774601 0 0.00010662771450295654 -0.019343395256338318 0 8.0659623274848387e-05 -0.019210045327012804 0 0.00010239075541736741 -0.019186952665527352 0 0.00010662771450295654 -0.019343395256338318 0 2.2273082975614669e-05 -0.018996887732601626 0 8.0659623274848387e-05 -0.019210045327012804 0 0.00010239075541736741 -0.019186952665527352 0 -0.00014532095048163114 -0.019776412346676119 0 0.00018136444741769891 -0.019527120183484747 0 -0.00013990988023454836 -0.019793372273440087 0 0.00011001443534530026 -0.019636054270774601 0 -4.1293741174865466e-05 -0.019757616742276326 0 0.00011001443534530026 -0.019636054270774601 0 8.2196804567018583e-05 -0.019527530827739989 0 0.00010662771450295654 -0.019343395256338318 0 0.00010116523164000593 -0.019277773378389162 0 8.0659623274848387e-05 -0.019210045327012804 0 0.00010662771450295654 -0.019343395256338318 0 -0.00019349308225431714 -0.019863032538484496 0 -1.6088957257878836e-05 -0.020513689702976956 0 -0.0001707017635014189 -0.019921338057166244 0 -5.3822878037610969e-05 -0.019891725889910131 0 3.0691515793799329e-05 -0.020082243795987331 0 -0.00013990988023454836 -0.019793372273440087 0 -4.1293741174865466e-05 -0.019757616742276326 0 -5.3822878037610969e-05 -0.019891725889910131 0 -0.00013990988023454836 -0.019793372273440087 0 -0.0001707017635014189 -0.019921338057166244 0 -5.3822878037610969e-05 -0.019891725889910131 0 -5.3822878037610969e-05 -0.019891725889910131 0 5.5678679343841528e-05 -0.019897248488004376 0 3.0691515793799329e-05 -0.020082243795987331 0 -4.1293741174865466e-05 -0.019757616742276326 0 -5.3822878037610969e-05 -0.019891725889910131 0 5.5678679343841528e-05 -0.019897248488004376 0 0.00034527241603955435 -0.01984512394628634 0 0.00015844488797241057 -0.019807597142290315 0 0.00017939531679516394 -0.019932695311579804 0 0.00015844488797241057 -0.019807597142290315 0 5.5678679343841528e-05 -0.019897248488004376 0 0.00017939531679516394 -0.019932695311579804 0 0.0002994875131304848 -0.020038075172795902 0 0.00017939531679516394 -0.019932695311579804 0 3.0691515793799329e-05 -0.020082243795987331 0 0.00015844488797241057 -0.019807597142290315 0 -4.1293741174865466e-05 -0.019757616742276326 0 5.5678679343841528e-05 -0.019897248488004376 0 5.5678679343841528e-05 -0.019897248488004376 0 0.00017939531679516394 -0.019932695311579804 0 3.0691515793799329e-05 -0.020082243795987331 0 0.00028827702521460946 -0.022383868890548834 0 -1.6088957257878836e-05 -0.020513689702976956 0 0.00022838568654338142 -0.02158441718381662 0 4.1131768427955723e-05 -0.021625627201918914 0 -1.8571193463211694e-05 -0.021626454030695907 0 0.00022838568654338142 -0.02158441718381662 0 4.1131768427955723e-05 -0.021625627201918914 0 0.00018050898142721352 -0.021777201794312515 0 1.2141125867984063e-05 -0.021648172203929589 0 4.1131768427955723e-05 -0.021625627201918914 0 -1.8571193463211694e-05 -0.021626454030695907 0 3.1002026331625579e-05 -0.020882619498026774 0 -6.2186756766893688e-05 -0.021046403869726955 0 3.1002026331625579e-05 -0.020882619498026774 0 6.9021509595913511e-05 -0.022293398869577385 0 1.1571895227447765e-05 -0.021650591407843273 0 4.1131768427955723e-05 -0.021625627201918914 0 0.00018050898142721352 -0.021777201794312515 0 7.2319895190647572e-05 -0.02011485144379092 0 3.7872229538643951e-05 -0.020089296264921033 0 -0.00012293301507117129 -0.020282254878255523 0 -0.0001707017635014189 -0.019921338057166244 0 -0.00014212399092708845 -0.02012091383988858 0 5.0738868173338871e-05 -0.020082174575762616 0 3.1002026331625579e-05 -0.020882619498026774 0 -0.00026126900025343167 -0.021211663654798169 0 -0.00014212399092708845 -0.02012091383988858 0 3.7872229538643951e-05 -0.020089296264921033 0 -0.00012293301507117129 -0.020282254878255523 0 -6.4318100291604506e-05 -0.020155335622203664 0 -1.6088957257878836e-05 -0.020513689702976956 0 3.1002026331625579e-05 -0.020882619498026774 0 -1.6088957257878836e-05 -0.020513689702976956 0 -0.00047919549270263105 -0.022039995787756349 0 -0.0002773630080128285 -0.022059854385301426 0 -0.00040140039681482042 -0.022127105635139178 0 -0.00047919549270263105 -0.022039995787756349 0 -0.00040140039681482042 -0.022127105635139178 0 -0.00047494963127230977 -0.02212850785666938 0 -0.00026126900025343167 -0.021211663654798169 0 -9.8411832802441541e-05 -0.022124538009310257 0 -0.0002773630080128285 -0.022059854385301426 0 -0.000346398519475309 -0.022148946407958083 0 -0.00040140039681482042 -0.022127105635139178 0 -6.5639746372125548e-05 -0.021440955767236838 0 -0.00024293797138278932 -0.021592043670006455 0 9.210267936364987e-05 -0.02162422853928693 0 -6.5639746372125548e-05 -0.021440955767236838 0 9.210267936364987e-05 -0.02162422853928693 0 0.00010632437933121136 -0.02156778132912289 0 -9.8411832802441541e-05 -0.022124538009310257 0 6.9021509595913511e-05 -0.022293398869577385 0 -0.0002773630080128285 -0.022059854385301426 0 -0.000346398519475309 -0.022148946407958083 0 -0.00032233088589663753 -0.022210129864200578 0 -9.8411832802441541e-05 -0.022124538009310257 0 -0.00034421603736416948 -0.022205116958428257 0 -0.000346398519475309 -0.022148946407958083 0 -0.00037415258876954044 -0.022185961291323331 0 -0.00040140039681482042 -0.022127105635139178 0 -0.00029709630202693705 -0.022143285016577828 0 -0.00032233088589663753 -0.022210129864200578 0 -0.00028035563641849812 -0.022187417076378359 0 -0.00032233088589663753 -0.022210129864200578 0 -0.00037415258876954044 -0.022185961291323331 0 -0.00036220828567377921 -0.022255254695141457 0 -0.000346398519475309 -0.022148946407958083 0 -0.00032233088589663753 -0.022210129864200578 0 -0.00037415258876954044 -0.022185961291323331 0 -0.00037415258876954044 -0.022185961291323331 0 -0.00042164766816559911 -0.022180352761245546 0 -0.00036220828567377921 -0.022255254695141457 0 -0.000497395623201627 -0.022198946340722545 0 -0.00042164766816559911 -0.022180352761245546 0 -0.00036220828567377921 -0.022255254695141457 0 -0.00037415258876954044 -0.022185961291323331 0 -0.00042164766816559911 -0.022180352761245546 0 -0.00040140039681482042 -0.022127105635139178 0 -0.00042164766816559911 -0.022180352761245546 0 -0.00040140039681482042 -0.022127105635139178 0 -0.00047494963127230977 -0.02212850785666938 0 -0.000497395623201627 -0.022198946340722545 0 -0.00042164766816559911 -0.022180352761245546 0 -0.00047494963127230977 -0.02212850785666938 0 -0.00061493982612503741 -0.021973452277792602 0 -0.00054192847061357026 -0.022177107629995259 0 -0.00061493982612503741 -0.021973452277792602 0 -0.0007756821802189592 -0.021989838935174654 0 -0.00090336520859284747 -0.02207622926823959 0 -0.0008089527445155094 -0.022055237623518544 0 -0.00075898642354943686 -0.022208339983742019 0 -0.00084425593344458522 -0.0219691776101687 0 -0.0008089527445155094 -0.022055237623518544 0 -0.00070031457822039328 -0.022086431164677938 0 -0.0008089527445155094 -0.022055237623518544 0 -0.00075898642354943686 -0.022208339983742019 0 -0.00070031457822039328 -0.022086431164677938 0 -0.0007428617716301692 -0.021777892501260603 0 -0.00068119107710774536 -0.021979514714694462 0 -0.00090336520859284747 -0.02207622926823959 0 -0.00075898642354943686 -0.022208339983742019 0 -0.00081625564113337317 -0.022438314326972787 0 -0.00075898642354943686 -0.022208339983742019 0 -0.0006201290413522881 -0.022406254598561517 0 -0.00081625564113337317 -0.022438314326972787 0 -0.00075898642354943686 -0.022208339983742019 0 -0.0006201290413522881 -0.022406254598561517 0 -0.00064936960873691071 -0.022234700493792489 0 -0.0006201290413522881 -0.022406254598561517 0 -0.00064936960873691071 -0.022234700493792489 0 -0.00051428582157477562 -0.022247057251805608 0 -0.00064936960873691071 -0.022234700493792489 0 -0.00070031457822039328 -0.022086431164677938 0 -0.00051428582157477562 -0.022247057251805608 0 -0.00032233088589663753 -0.022210129864200578 0 -0.00036220828567377921 -0.022255254695141457 0 -0.00028725161021274392 -0.022236534661807396 0 -0.00036220828567377921 -0.022255254695141457 0 -0.00028725161021274392 -0.022236534661807396 0 -0.00028004699014964662 -0.022291064982660168 0 -0.00054192847061357026 -0.022177107629995259 0 -0.00039072873749093146 -0.022268224954573781 0 -0.00075898642354943686 -0.022208339983742019 0 -0.00064936960873691071 -0.022234700493792489 0 -0.00070031457822039328 -0.022086431164677938 0 -0.00028725161021274392 -0.022236534661807396 0 -0.00024809796120609515 -0.022247884747395318 0 -0.00028004699014964662 -0.022291064982660168 0 -0.00028725161021274392 -0.022236534661807396 0 -0.00024809796120609515 -0.022247884747395318 0 -0.00025579437337592051 -0.022212632769654444 0 -0.00024809796120609515 -0.022247884747395318 0 -0.00028004699014964662 -0.022291064982660168 0 -0.00022213113671771344 -0.022284943422246517 0 -0.00051428582157477562 -0.022247057251805608 0 -0.00020275822816921896 -0.022368488424718884 0 -0.00052196100263411443 -0.02256870486474908 0 -0.0006201290413522881 -0.022406254598561517 0 -0.00051428582157477562 -0.022247057251805608 0 -0.00052196100263411443 -0.02256870486474908 0 -0.00020275822816921896 -0.022368488424718884 0 -0.00015538728036045983 -0.022280930182077843 0 4.0569299381606932e-05 -0.022578273137271142 0 -0.00039072873749093146 -0.022268224954573781 0 -0.00021454848930695401 -0.022360699608153619 0 -0.00028004699014964662 -0.022291064982660168 0 -0.00020275822816921896 -0.022368488424718884 0 -0.00022213113671771344 -0.022284943422246517 0 -0.00020275822816921896 -0.022368488424718884 0 -0.00022213113671771344 -0.022284943422246517 0 -0.00015538728036045983 -0.022280930182077843 0 -0.00022213113671771344 -0.022284943422246517 0 -0.00020602149103106631 -0.022248016058811632 0 -0.00015538728036045983 -0.022280930182077843 0 -0.00020602149103106631 -0.022248016058811632 0 -0.00017931392090721641 -0.022210820229815971 0 -0.00015538728036045983 -0.022280930182077843 0 -0.00024809796120609515 -0.022247884747395318 0 -0.00022213113671771344 -0.022284943422246517 0 -0.00020602149103106631 -0.022248016058811632 0 -0.00024809796120609515 -0.022247884747395318 0 -0.00020602149103106631 -0.022248016058811632 0 -0.00022352291247470837 -0.022217905903146325 0 -0.00017931392090721641 -0.022210820229815971 0 -0.00024040096982196171 -0.022194685663219145 0 -0.00026467899897341307 -0.022145484796828353 0 -0.00020602149103106631 -0.022248016058811632 0 -0.00017931392090721641 -0.022210820229815971 0 -0.00022352291247470837 -0.022217905903146325 0 -0.00013436986561508256 -0.023649446175962891 0 -0.00012168690027919097 -0.022392716454833084 0 -0.00017931392090721641 -0.022210820229815971 0 -0.00022352291247470837 -0.022217905903146325 0 -0.00024040096982196171 -0.022194685663219145 0 -0.00022352291247470837 -0.022217905903146325 0 -0.00025579437337592051 -0.022212632769654444 0 -0.00024040096982196171 -0.022194685663219145 0 -0.00024809796120609515 -0.022247884747395318 0 -0.00022352291247470837 -0.022217905903146325 0 -0.00025579437337592051 -0.022212632769654444 0 -0.00032233088589663753 -0.022210129864200578 0 -0.00028725161021274392 -0.022236534661807396 0 -0.00028035563641849812 -0.022187417076378359 0 -0.00028725161021274392 -0.022236534661807396 0 -0.00025579437337592051 -0.022212632769654444 0 -0.00028035563641849812 -0.022187417076378359 0 -0.00025579437337592051 -0.022212632769654444 0 -0.00028035563641849812 -0.022187417076378359 0 -0.00024040096982196171 -0.022194685663219145 0 -0.00028035563641849812 -0.022187417076378359 0 -0.00024040096982196171 -0.022194685663219145 0 -0.00026467899897341307 -0.022145484796828353 0 -0.00029709630202693705 -0.022143285016577828 0 -0.00028035563641849812 -0.022187417076378359 0 -0.00026467899897341307 -0.022145484796828353 0 -0.00012168690027919097 -0.022392716454833084 0 6.9021509595913511e-05 -0.022293398869577385 0 -4.7946614989303961e-06 -0.023278773393921533 0 2.3467963139360445e-05 -0.023258045513911588 0 1.9275953138025914e-07 -0.023259072417078766 0 -5.9101714347165807e-05 -0.022262354430360509 0 -6.2065713293824881e-05 -0.022262592739846196 0 -5.9338621182970195e-05 -0.022264010859556715 0 2.3949542026579723e-06 -0.023248300706112682 0 2.3467963139360445e-05 -0.023258045513911588 0 1.9275953138025914e-07 -0.023259072417078766 0 -9.8411832802441541e-05 -0.022124538009310257 0 -0.00012168690027919097 -0.022392716454833084 0 2.3949542026579723e-06 -0.023248300706112682 0 1.9275953138025914e-07 -0.023259072417078766 0 -2.078721956452944e-05 -0.023262303740187919 0 -4.7946614989303961e-06 -0.023278773393921533 0 1.9275953138025914e-07 -0.023259072417078766 0 -2.078721956452944e-05 -0.023262303740187919 0 -4.9008193783362121e-05 -0.023221973357619326 0 -4.6174789411678924e-05 -0.023269169274789534 0 -2.078721956452944e-05 -0.023262303740187919 0 -4.7946614989303961e-06 -0.023278773393921533 0 -4.6174789411678924e-05 -0.023269169274789534 0 -2.078721956452944e-05 -0.023262303740187919 0 -4.9008193783362121e-05 -0.023221973357619326 0 2.3949542026579723e-06 -0.023248300706112682 0 -2.078721956452944e-05 -0.023262303740187919 0 -0.00013436986561508256 -0.023649446175962891 0 -5.8440593978561089e-05 -0.024021615299570653 0 -5.1950122565349941e-05 -0.02470312125852351 0 -0.00010379065665338968 -0.024743723919006876 0 -1.2610325050603183e-05 -0.024798653849938929 0 -2.757484554738941e-05 -0.024821896077763337 0 -0.00010379065665338968 -0.024743723919006876 0 -1.2610325050603183e-05 -0.024798653849938929 0 -5.1950122565349941e-05 -0.02470312125852351 0 -1.2610325050603183e-05 -0.024798653849938929 0 -1.3597593536148075e-05 -0.024756376096657883 0 1.9871011572853835e-06 -0.024696561452820683 0 -1.3597593536148075e-05 -0.024756376096657883 0 1.5107833464454907e-05 -0.024814240245411113 0 -1.2610325050603183e-05 -0.024798653849938929 0 -1.3597593536148075e-05 -0.024756376096657883 0 1.5107833464454907e-05 -0.024814240245411113 0 -1.2610325050603183e-05 -0.024798653849938929 0 1.5107833464454907e-05 -0.024814240245411113 0 1.8423535964846739e-05 -0.024827812838382448 0 1.5107833464454907e-05 -0.024814240245411113 0 1.8423535964846739e-05 -0.024827812838382448 0 2.9199248398951323e-05 -0.024846133006958673 0 1.8423535964846739e-05 -0.024827812838382448 0 2.9199248398951323e-05 -0.024846133006958673 0 3.5526536175923117e-05 -0.02483080249628479 0 -1.2610325050603183e-05 -0.024798653849938929 0 1.8423535964846739e-05 -0.024827812838382448 0 2.923217852399504e-05 -0.024835283680879432 0 1.8423535964846739e-05 -0.024827812838382448 0 3.5526536175923117e-05 -0.02483080249628479 0 2.923217852399504e-05 -0.024835283680879432 0 -2.757484554738941e-05 -0.024821896077763337 0 -1.2610325050603183e-05 -0.024798653849938929 0 2.923217852399504e-05 -0.024835283680879432 0 -0.00013436986561508256 -0.023649446175962891 0 0.00027589278501223883 -0.024497473108113451 0 2.923217852399504e-05 -0.024835283680879432 0 6.0444324400617669e-05 -0.024811315568841988 0 0.00011376487235881041 -0.024786428124386188 0 4.5674072389291017e-05 -0.024846185426237188 0 2.923217852399504e-05 -0.024835283680879432 0 0.00011376487235881041 -0.024786428124386188 0 -0.00013436986561508256 -0.023649446175962891 0 -3.619561312020299e-06 -0.023507370382912965 0 3.5526536175923117e-05 -0.02483080249628479 0 2.923217852399504e-05 -0.024835283680879432 0 6.0444324400617669e-05 -0.024811315568841988 0 6.0444324400617669e-05 -0.024811315568841988 0 8.122479064029551e-05 -0.024785988863444821 0 5.2510558615370151e-05 -0.024806103959703608 0 6.0444324400617669e-05 -0.024811315568841988 0 8.122479064029551e-05 -0.024785988863444821 0 0.00011376487235881041 -0.024786428124386188 0 -3.619561312020299e-06 -0.023507370382912965 0 0.00011371985878973136 -0.023653881311569931 0 0.00011376487235881041 -0.024786428124386188 0 9.509269528900186e-05 -0.024745851518065569 0 0.00022243505450456793 -0.024671206198488813 0 8.122479064029551e-05 -0.024785988863444821 0 9.509269528900186e-05 -0.024745851518065569 0 5.2510558615370151e-05 -0.024806103959703608 0 8.122479064029551e-05 -0.024785988863444821 0 0.00011376487235881041 -0.024786428124386188 0 9.509269528900186e-05 -0.024745851518065569 0 9.509269528900186e-05 -0.024745851518065569 0 -1.4178819938373039e-07 -0.024753978851410306 0 9.079912417859122e-05 -0.024670605156714601 0 9.509269528900186e-05 -0.024745851518065569 0 5.2510558615370151e-05 -0.024806103959703608 0 -1.4178819938373039e-07 -0.024753978851410306 0 5.2510558615370151e-05 -0.024806103959703608 0 1.8275278799534827e-05 -0.0248126268442261 0 -1.4178819938373039e-07 -0.024753978851410306 0 2.9199248398951323e-05 -0.024846133006958673 0 3.5526536175923117e-05 -0.02483080249628479 0 5.2510558615370151e-05 -0.024806103959703608 0 3.5526536175923117e-05 -0.02483080249628479 0 6.0444324400617669e-05 -0.024811315568841988 0 5.2510558615370151e-05 -0.024806103959703608 0 2.9199248398951323e-05 -0.024846133006958673 0 5.2510558615370151e-05 -0.024806103959703608 0 1.8275278799534827e-05 -0.0248126268442261 0 1.8409500902330467e-05 -0.02484013317142857 0 9.0406872687576664e-06 -0.024917196000344227 0 1.8275278799534827e-05 -0.0248126268442261 0 -1.4178819938373039e-07 -0.024753978851410306 0 -3.6797621350688255e-06 -0.02483735806370433 0 2.9199248398951323e-05 -0.024846133006958673 0 1.8275278799534827e-05 -0.0248126268442261 0 -3.6797621350688255e-06 -0.02483735806370433 0 4.1859625013612968e-05 -0.024939040248420041 0 6.320207712087906e-09 -0.024999984874456663 0 2.4760515323543156e-09 -0.024999920226022425 0 4.1859625013612968e-05 -0.024939040248420041 0 6.320207712087906e-09 -0.024999984874456663 0 1.4837013524412186e-05 -0.025001793556592499 0 9.0406872687576664e-06 -0.024917196000344227 0 4.9665236005175647e-09 -0.024999961746839695 0 6.320207712087906e-09 -0.024999984874456663 0 1.4837013524412186e-05 -0.025001793556592499 0 3.4898891778537173e-09 -0.025000019873775873 0 -3.6797621350688255e-06 -0.02483735806370433 0 2.9462043285220931e-05 -0.024886564246288323 0 2.1745599289891852e-07 -0.024999167365469113 0 2.9199248398951323e-05 -0.024846133006958673 0 -3.6797621350688255e-06 -0.02483735806370433 0 2.9462043285220931e-05 -0.024886564246288323 0 1.5107833464454907e-05 -0.024814240245411113 0 2.9199248398951323e-05 -0.024846133006958673 0 2.9462043285220931e-05 -0.024886564246288323 0 7.9492597613322371e-05 -0.024767734839160692 0 1.5107833464454907e-05 -0.024814240245411113 0 2.9462043285220931e-05 -0.024886564246288323 0 7.9492597613322371e-05 -0.024767734839160692 0 2.9462043285220931e-05 -0.024886564246288323 0 2.1745599289891852e-07 -0.024999167365469113 0 -2.1597603107284492e-07 -0.024999508192717134 0 2.7204758142290004e-09 -0.025000005215785114 0 -6.0903905468433546e-09 -0.024999986600581506 0 -2.1597603107284492e-07 -0.024999508192717134 0 -1.9536909662482015e-06 -0.024993250281417845 0 -6.0903905468433546e-09 -0.024999986600581506 0 -2.1246901223937318e-05 -0.024919624675785769 0 -0.00047377059943511048 -0.024174840246432589 0 1.2660411160342827e-05 -0.024726624593153754 0 7.3534828047853461e-05 -0.024654811823667466 0 3.9336149569949949e-05 -0.024614649970008701 0 1.2660411160342827e-05 -0.024726624593153754 0 7.3534828047853461e-05 -0.024654811823667466 0 8.9554896066947114e-05 -0.024683147842589147 0 1.2660411160342827e-05 -0.024726624593153754 0 8.9554896066947114e-05 -0.024683147842589147 0 7.8552561289579285e-05 -0.024780848729251195 0 8.9554896066947114e-05 -0.024683147842589147 0 0.00011675847119278864 -0.024680778200057873 0 0.00013669137519936543 -0.024649453943346882 0 7.3534828047853461e-05 -0.024654811823667466 0 0.00013669137519936543 -0.024649453943346882 0 6.0240963198949269e-05 -0.024607823426659285 0 7.3534828047853461e-05 -0.024654811823667466 0 8.9554896066947114e-05 -0.024683147842589147 0 0.00013669137519936543 -0.024649453943346882 0 0.00011675847119278864 -0.024680778200057873 0 7.8552561289579285e-05 -0.024780848729251195 0 0.00011474073811248593 -0.024595150448629362 0 8.9554896066947114e-05 -0.024683147842589147 0 0.00011675847119278864 -0.024680778200057873 0 7.8552561289579285e-05 -0.024780848729251195 0 7.8552561289579285e-05 -0.024780848729251195 0 -8.4030123756624861e-08 -0.024999189912580089 0 3.9658733715993424e-05 -0.024821230633898999 0 1.2660411160342827e-05 -0.024726624593153754 0 7.8552561289579285e-05 -0.024780848729251195 0 -8.4030123756624861e-08 -0.024999189912580089 0 -2.1246901223937318e-05 -0.024919624675785769 0 1.6335937983553864e-08 -0.024999885203210975 0 -8.4030123756624861e-08 -0.024999189912580089 0 2.4760515323543156e-09 -0.024999920226022425 0 3.9658733715993424e-05 -0.024821230633898999 0 4.1859625013612968e-05 -0.024939040248420041 0 2.4760515323543156e-09 -0.024999920226022425 0 3.9658733715993424e-05 -0.024821230633898999 0 4.1859625013612968e-05 -0.024939040248420041 0 3.9658733715993424e-05 -0.024821230633898999 0 7.3598104920257821e-05 -0.024636188497851624 0 7.8552561289579285e-05 -0.024780848729251195 0 3.9658733715993424e-05 -0.024821230633898999 0 0.00011474073811248593 -0.024595150448629362 0 3.9658733715993424e-05 -0.024821230633898999 0 7.3598104920257821e-05 -0.024636188497851624 0 0.00011474073811248593 -0.024595150448629362 0 7.3598104920257821e-05 -0.024636188497851624 0 8.6453424630281533e-05 -0.024439805424853685 0 0.00011474073811248593 -0.024595150448629362 0 8.6453424630281533e-05 -0.024439805424853685 0 0.0001518691019702527 -0.024468404720005114 0 0.00011474073811248593 -0.024595150448629362 0 1.8409500902330467e-05 -0.02484013317142857 0 7.335509788081957e-05 -0.02466256789784484 0 -1.4178819938373039e-07 -0.024753978851410306 0 7.3598104920257821e-05 -0.024636188497851624 0 9.079912417859122e-05 -0.024670605156714601 0 7.3598104920257821e-05 -0.024636188497851624 0 9.079912417859122e-05 -0.024670605156714601 0 8.6453424630281533e-05 -0.024439805424853685 0 9.509269528900186e-05 -0.024745851518065569 0 0.00022243505450456793 -0.024671206198488813 0 9.079912417859122e-05 -0.024670605156714601 0 0.00022243505450456793 -0.024671206198488813 0 9.079912417859122e-05 -0.024670605156714601 0 8.6453424630281533e-05 -0.024439805424853685 0 0.00022243505450456793 -0.024671206198488813 0 8.6453424630281533e-05 -0.024439805424853685 0 0.00015115781598176741 -0.024059595232879181 0 0.00011371985878973136 -0.023653881311569931 0 0.00015392180067696411 -0.024021268192586334 0 4.0569299381606932e-05 -0.022578273137271142 0 0.00015115781598176741 -0.024059595232879181 0 -0.00021868678842905718 -0.02316355797903576 0 8.6453424630281533e-05 -0.024439805424853685 0 0.00015115781598176741 -0.024059595232879181 0 0.0001518691019702527 -0.024468404720005114 0 0.00015115781598176741 -0.024059595232879181 0 9.0821752330839313e-05 -0.024503978702677807 0 0.0001518691019702527 -0.024468404720005114 0 9.0821752330839313e-05 -0.024503978702677807 0 0.0001518691019702527 -0.024468404720005114 0 0.00013669137519936543 -0.024649453943346882 0 -0.0012751566036471379 -0.022041854901799721 0 -0.0015071219062835108 -0.021746677050751305 0 -0.0011831790207386889 -0.021855737057027477 0 -0.00056731722958802775 -0.023258559266523107 0 -0.00068140315405388425 -0.023198122424583443 0 0.00011675847119278864 -0.024680778200057873 0 0.00011474073811248593 -0.024595150448629362 0 0.00013669137519936543 -0.024649453943346882 0 0.0001518691019702527 -0.024468404720005114 0 0.00011474073811248593 -0.024595150448629362 0 0.00013669137519936543 -0.024649453943346882 0 -0.0015071219062835108 -0.021746677050751305 0 -0.0012190055458536709 -0.021679396635549245 0 -0.0013529687155704327 -0.02160254895053158 0 -0.0015071219062835108 -0.021746677050751305 0 -0.0012190055458536709 -0.021679396635549245 0 -0.0011831790207386889 -0.021855737057027477 0 -0.0012190055458536709 -0.021679396635549245 0 -0.00095184497935871162 -0.021816318519975696 0 -0.00097189547375421789 -0.021564647357778001 0 -0.00095184497935871162 -0.021816318519975696 0 -0.00068983758110935714 -0.021695636511791461 0 -0.00097189547375421789 -0.021564647357778001 0 -0.0012190055458536709 -0.021679396635549245 0 -0.0011831790207386889 -0.021855737057027477 0 -0.00095184497935871162 -0.021816318519975696 0 -0.00095184497935871162 -0.021816318519975696 0 -0.00068983758110935714 -0.021695636511791461 0 -0.00066064824117810126 -0.022147853063860214 0 -0.00068983758110935714 -0.021695636511791461 0 -0.00066064824117810126 -0.022147853063860214 0 -0.00058016360601643416 -0.02183018114882598 0 -0.0012751566036471379 -0.022041854901799721 0 -0.00096573857247062923 -0.022070675156581621 0 -0.0007115150445525586 -0.022854600838497892 0 -0.00095184497935871162 -0.021816318519975696 0 -0.00066064824117810126 -0.022147853063860214 0 -0.00096573857247062923 -0.022070675156581621 0 -0.0011831790207386889 -0.021855737057027477 0 -0.00095184497935871162 -0.021816318519975696 0 -0.00096573857247062923 -0.022070675156581621 0 -0.0012751566036471379 -0.022041854901799721 0 -0.0011831790207386889 -0.021855737057027477 0 -0.00096573857247062923 -0.022070675156581621 0 -0.00066064824117810126 -0.022147853063860214 0 -0.00096573857247062923 -0.022070675156581621 0 -0.0007115150445525586 -0.022854600838497892 0 -0.00056731722958802775 -0.023258559266523107 0 -0.00067884263952676122 -0.022944409649284875 0 0.00015115781598176741 -0.024059595232879181 0 9.0821752330839313e-05 -0.024503978702677807 0 -0.0007115150445525586 -0.022854600838497892 0 0.00015115781598176741 -0.024059595232879181 0 -0.00021868678842905718 -0.02316355797903576 0 -0.0007115150445525586 -0.022854600838497892 0 -0.00020275822816921896 -0.022368488424718884 0 -0.00035536555677142818 -0.022642810531612417 0 -0.00052196100263411443 -0.02256870486474908 0 4.0569299381606932e-05 -0.022578273137271142 0 -0.00021868678842905718 -0.02316355797903576 0 -0.00035536555677142818 -0.022642810531612417 0 -0.00021868678842905718 -0.02316355797903576 0 -0.00035536555677142818 -0.022642810531612417 0 -0.0007115150445525586 -0.022854600838497892 0 -0.00020275822816921896 -0.022368488424718884 0 4.0569299381606932e-05 -0.022578273137271142 0 -0.00035536555677142818 -0.022642810531612417 0 -0.0006201290413522881 -0.022406254598561517 0 -0.00052196100263411443 -0.02256870486474908 0 -0.00055443851986142613 -0.022774950004054228 0 -0.00035536555677142818 -0.022642810531612417 0 -0.00052196100263411443 -0.02256870486474908 0 -0.0007115150445525586 -0.022854600838497892 0 -0.00052196100263411443 -0.02256870486474908 0 -0.0007115150445525586 -0.022854600838497892 0 -0.00055443851986142613 -0.022774950004054228 0 -0.00066064824117810126 -0.022147853063860214 0 -0.0007115150445525586 -0.022854600838497892 0 -0.00055443851986142613 -0.022774950004054228 0 -0.00066064824117810126 -0.022147853063860214 0 -0.00054400545293925768 -0.021695058968039811 0 -0.00058016360601643416 -0.02183018114882598 0 -0.00068404951721438574 -0.0221236510176776 0 -0.00057227476277184341 -0.022201660254350719 0 -0.00054400545293925768 -0.021695058968039811 0 -0.00056357633662364529 -0.02162893102729763 0 -0.00058016360601643416 -0.02183018114882598 0 -0.00057227476277184341 -0.022201660254350719 0 -0.00068119107710774536 -0.021979514714694462 0 -0.0006201290413522881 -0.022406254598561517 0 -0.00055443851986142613 -0.022774950004054228 0 -0.00081625564113337317 -0.022438314326972787 0 -0.00054400545293925768 -0.021695058968039811 0 -0.00055945285658636206 -0.021509368477569586 0 -0.00056357633662364529 -0.02162893102729763 0 -0.00055945285658636206 -0.021509368477569586 0 -0.00056357633662364529 -0.02162893102729763 0 -0.00055553705155040223 -0.021499701472295095 0 -0.00056357633662364529 -0.02162893102729763 0 -0.00055046942551958814 -0.021574288405289906 0 -0.00055501941855898231 -0.021640596241444158 0 -0.00068983758110935714 -0.021695636511791461 0 -0.00058016360601643416 -0.02183018114882598 0 -0.00055501941855898231 -0.021640596241444158 0 -0.00056357633662364529 -0.02162893102729763 0 -0.00058016360601643416 -0.02183018114882598 0 -0.00055501941855898231 -0.021640596241444158 0 -0.00068983758110935714 -0.021695636511791461 0 -0.00055501941855898231 -0.021640596241444158 0 -0.00063234734329030331 -0.021489946775488582 0 -0.00055501941855898231 -0.021640596241444158 0 -0.00054239703665629889 -0.021501727680681926 0 -0.00063234734329030331 -0.021489946775488582 0 -0.00055501941855898231 -0.021640596241444158 0 -0.00054239703665629889 -0.021501727680681926 0 -0.0005450266225675381 -0.021518448386279452 0 -0.00055046942551958814 -0.021574288405289906 0 -0.00055501941855898231 -0.021640596241444158 0 -0.0005450266225675381 -0.021518448386279452 0 -0.00054239703665629889 -0.021501727680681926 0 -0.00063234734329030331 -0.021489946775488582 0 -0.00051921711183974025 -0.021427010920867438 0 -0.00063234734329030331 -0.021489946775488582 0 -0.00061131014868624637 -0.021253899033350874 0 -0.00079021236674111023 -0.021269840464833035 0 -0.0019869881462861129 -0.02051433335790085 0 -0.0012633624468016264 -0.021053458851614373 0 -0.0014413191599218147 -0.02023820975031531 0 -0.00063234734329030331 -0.021489946775488582 0 -0.00061131014868624637 -0.021253899033350874 0 -0.00051921711183974025 -0.021427010920867438 0 -0.0010382906842384284 -0.021257130136872641 0 -0.00095951115549372426 -0.021161211162614508 0 -0.0026417528051299421 -0.016489404558414536 0 -0.0026916014364504739 -0.017801320136027556 0 -0.0014413191599218147 -0.02023820975031531 0 -0.0013767425724971892 -0.019475215711965973 0 -0.0020424526468893244 -0.019707560755440917 0 -0.0028129440007379669 -0.01567451662487555 0 -0.0032120772916449393 -0.015810963275859534 0 -0.0032743836432254183 -0.015133947703632682 0 -0.0026916014364504739 -0.017801320136027556 0 -0.0025160729814868322 -0.01809067452027744 0 -0.0032120772916449393 -0.015810963275859534 0 -0.0035630082297367872 -0.015888921581399922 0 -0.0034808490253268967 -0.015847368247385692 0 -0.0034315425594865679 -0.015591778808104287 0 -0.0032120772916449393 -0.015810963275859534 0 -0.0032743836432254183 -0.015133947703632682 0 -0.0034315425594865679 -0.015591778808104287 0 -0.0032120772916449393 -0.015810963275859534 0 -0.0034808490253268967 -0.015847368247385692 0 -0.0010382906842384284 -0.021257130136872641 0 -0.0025160729814868322 -0.01809067452027744 0 -0.0019869881462861129 -0.02051433335790085 0 -0.0020424526468893244 -0.019707560755440917 0 -0.0027718749228690404 -0.01988080576578994 0 -0.0019869881462861129 -0.02051433335790085 0 -0.0014413191599218147 -0.02023820975031531 0 -0.0020424526468893244 -0.019707560755440917 0 -0.00061131014868624637 -0.021253899033350874 0 -0.00082136343117167289 -0.021021187836526151 0 -0.00079021236674111023 -0.021269840464833035 0 -0.00082136343117167289 -0.021021187836526151 0 -0.00093476529111670935 -0.021074526703496427 0 -0.00079021236674111023 -0.021269840464833035 0 -0.0034169856784036588 -0.015990259479440199 0 -0.0037102850468937786 -0.015766033793148487 0 -0.0036561103530259168 -0.016104772275889377 0 -0.0025160729814868322 -0.01809067452027744 0 -0.0022436682600292979 -0.018827777182648452 0 -0.0025160729814868322 -0.01809067452027744 0 -0.0026548836747105325 -0.017649122483468591 0 -0.0034315425594865679 -0.015591778808104287 0 -0.0034808490253268967 -0.015847368247385692 0 -0.0035573272649667182 -0.015720047974021795 0 -0.0035493112064823224 -0.015878941544989759 0 -0.0034808490253268967 -0.015847368247385692 0 -0.0035573272649667182 -0.015720047974021795 0 -0.0025160729814868322 -0.01809067452027744 0 -0.0041878076947879025 -0.015647304126864939 0 -0.0035493112064823224 -0.015878941544989759 0 -0.0035573272649667182 -0.015720047974021795 0 -0.0037102850468937786 -0.015766033793148487 0 -0.0035573272649667182 -0.015720047974021795 0 -0.0037102850468937786 -0.015766033793148487 0 -0.0035979227696713782 -0.01542389983276205 0 -0.0034315425594865679 -0.015591778808104287 0 -0.0035573272649667182 -0.015720047974021795 0 -0.0035979227696713782 -0.01542389983276205 0 -0.0037102850468937786 -0.015766033793148487 0 -0.0038867049237109289 -0.015547163058196459 0 -0.0035979227696713782 -0.01542389983276205 0 -0.0037102850468937786 -0.015766033793148487 0 -0.003938966199107408 -0.015894247187933887 0 -0.0038867049237109289 -0.015547163058196459 0 -0.0037102850468937786 -0.015766033793148487 0 -0.003938966199107408 -0.015894247187933887 0 -0.0036561103530259168 -0.016104772275889377 0 -0.0022436682600292979 -0.018827777182648452 0 -0.0017669544825508179 -0.020398826675745125 0 -0.003938966199107408 -0.015894247187933887 0 -0.0036561103530259168 -0.016104772275889377 0 -0.0041777831357675422 -0.016336711300684689 0 -0.0022436682600292979 -0.018827777182648452 0 -0.0035402747077228087 -0.017513903482132543 0 -0.00093476529111670935 -0.021074526703496427 0 -0.00098536951840481001 -0.021335969053754626 0 -0.0012422263033360365 -0.021207303267225797 0 -0.00093476529111670935 -0.021074526703496427 0 -0.00098536951840481001 -0.021335969053754626 0 -0.00079021236674111023 -0.021269840464833035 0 -0.00098536951840481001 -0.021335969053754626 0 -0.00079021236674111023 -0.021269840464833035 0 -0.00080430525820517529 -0.021453461315359128 0 -0.00068983758110935714 -0.021695636511791461 0 -0.00080430525820517529 -0.021453461315359128 0 -0.00097189547375421789 -0.021564647357778001 0 -0.00068983758110935714 -0.021695636511791461 0 -0.00063234734329030331 -0.021489946775488582 0 -0.00080430525820517529 -0.021453461315359128 0 -0.00063234734329030331 -0.021489946775488582 0 -0.00079021236674111023 -0.021269840464833035 0 -0.00080430525820517529 -0.021453461315359128 0 -0.00098536951840481001 -0.021335969053754626 0 -0.00080430525820517529 -0.021453461315359128 0 -0.00097189547375421789 -0.021564647357778001 0 -0.00098536951840481001 -0.021335969053754626 0 -0.00097189547375421789 -0.021564647357778001 0 -0.0012140375630129709 -0.021475723867269651 0 -0.0012190055458536709 -0.021679396635549245 0 -0.00097189547375421789 -0.021564647357778001 0 -0.0012140375630129709 -0.021475723867269651 0 -0.0012140375630129709 -0.021475723867269651 0 -0.0013529687155704327 -0.02160254895053158 0 -0.0014670237489018204 -0.021501473727262303 0 -0.0012190055458536709 -0.021679396635549245 0 -0.0012140375630129709 -0.021475723867269651 0 -0.0013529687155704327 -0.02160254895053158 0 -0.0015071219062835108 -0.021746677050751305 0 -0.0013529687155704327 -0.02160254895053158 0 -0.0014670237489018204 -0.021501473727262303 0 -0.0015071219062835108 -0.021746677050751305 0 -0.0014670237489018204 -0.021501473727262303 0 -0.0017649208724685426 -0.021525937420694901 0 -0.0015136474714888982 -0.021590089176718334 0 -0.0021053751507051181 -0.021246598103647703 0 -0.0041777831357675422 -0.016336711300684689 0 -0.0045381511672662805 -0.016252953890827142 0 -0.0047074780244761296 -0.016596157595662936 0 -0.0029157146610294935 -0.019736267314566305 0 -0.0025233224098622016 -0.01941914759255059 0 -0.0030323843723940569 -0.019616459611088859 0 -0.0014670237489018204 -0.021501473727262303 0 -0.0015864582600444541 -0.021379971033408478 0 -0.0012422263033360365 -0.021207303267225797 0 -0.0035402747077228087 -0.017513903482132543 0 -0.0030794497990141462 -0.020115042694810306 0 -0.0021053751507051181 -0.021246598103647703 0 -0.0017669544825508179 -0.020398826675745125 0 -0.00098536951840481001 -0.021335969053754626 0 -0.0012140375630129709 -0.021475723867269651 0 -0.0012422263033360365 -0.021207303267225797 0 -0.0012140375630129709 -0.021475723867269651 0 -0.0014670237489018204 -0.021501473727262303 0 -0.0012422263033360365 -0.021207303267225797 0 -0.0029157146610294935 -0.019736267314566305 0 -0.0024649665217774111 -0.019479081546424269 0 -0.0025233224098622016 -0.01941914759255059 0 -0.003938966199107408 -0.015894247187933887 0 -0.0041777831357675422 -0.016336711300684689 0 -0.0042231547103604543 -0.015784737025799106 0 -0.002016349924018179 -0.01921472933733586 0 -0.0024649665217774111 -0.019479081546424269 0 -0.0025233224098622016 -0.01941914759255059 0 -0.003938966199107408 -0.015894247187933887 0 -0.0042231547103604543 -0.015784737025799106 0 -0.0038867049237109289 -0.015547163058196459 0 -0.0042231547103604543 -0.015784737025799106 0 -0.0046437669235639108 -0.015904492962210054 0 -0.0044214573119466492 -0.015380899741292796 0 -0.0042231547103604543 -0.015784737025799106 0 -0.0045381511672662805 -0.016252953890827142 0 -0.0046437669235639108 -0.015904492962210054 0 -0.0041777831357675422 -0.016336711300684689 0 -0.0042231547103604543 -0.015784737025799106 0 -0.0045381511672662805 -0.016252953890827142 0 -0.0045381511672662805 -0.016252953890827142 0 -0.0046437669235639108 -0.015904492962210054 0 -0.0048422757859987002 -0.016463543327309201 0 -0.0024262186211709319 -0.020231106021715135 0 -0.0015350356956291735 -0.021682723738943054 0 -7.4240032484793237e-05 -0.024914376709579605 0 -2.0357577712953578e-05 -0.024892203238549918 0 -7.0223455436497335e-05 -0.024816116702650166 0 0.00035720762069551615 -0.025267770520129129 0 -0.0015350356956291735 -0.021682723738943054 0 -7.4240032484793237e-05 -0.024914376709579605 0 -3.1363145625733739e-05 -0.024951459512373413 0 -2.0357577712953578e-05 -0.024892203238549918 0 -7.4240032484793237e-05 -0.024914376709579605 0 -3.1363145625733739e-05 -0.024951459512373413 0 -4.0914686628153493e-05 -0.024947162527154218 0 -3.1363145625733739e-05 -0.024951459512373413 0 2.4858298599143781e-08 -0.024999778186271256 0 -3.2812249890353825e-08 -0.024999976483176287 0 -3.1363145625733739e-05 -0.024951459512373413 0 2.4858298599143781e-08 -0.024999778186271256 0 -2.0357577712953578e-05 -0.024892203238549918 0 -5.3632376462386934e-09 -0.025000047751526443 0 -7.6818186825694735e-06 -0.024998024538817901 0 -6.7171786624032132e-09 -0.024999909078589379 0 -2.4574478285717401e-07 -0.024999712276954272 0 0.00035720762069551615 -0.025267770520129129 0 -7.6818186825694735e-06 -0.024998024538817901 0 -1.4916854405110617e-05 -0.024985394983884163 0 -3.1516497660367256e-05 -0.024977799264072818 0 -7.6818186825694735e-06 -0.024998024538817901 0 -6.7171786624032132e-09 -0.024999909078589379 0 -1.4916854405110617e-05 -0.024985394983884163 0 2.1812564572388218e-07 -0.024999848444348494 0 -0.0001160091541623848 -0.024401334803636338 0 3.9674570804687619e-11 -0.02499999982903366 0 -7.1959115517920968e-07 -0.024997977950785961 0 -5.2783749289304609e-10 -0.024999996438947559 0 -6.7171786624032132e-09 -0.024999909078589379 0 -1.1132929290232481e-05 -0.024973963810559552 0 -1.4916854405110617e-05 -0.024985394983884163 0 -0.00067279314497018612 -0.023606806031109966 0 -0.00080965035835061001 -0.023649356753712027 0 -0.00076112354581901916 -0.023534316739722113 0 -1.1132929290232481e-05 -0.024973963810559552 0 -1.4916854405110617e-05 -0.024985394983884163 0 -2.7091855862984811e-05 -0.024969744112248608 0 -0.0001160091541623848 -0.024401334803636338 0 -0.0012829105933465914 -0.022875075802920558 0 -0.0018082326126489742 -0.021575715953152649 0 -0.0018282216975575437 -0.021555691656055108 0 -0.0017968618782600036 -0.021552398363226397 0 -1.4916854405110617e-05 -0.024985394983884163 0 -3.1516497660367256e-05 -0.024977799264072818 0 -2.7091855862984811e-05 -0.024969744112248608 0 -0.0015350356956291735 -0.021682723738943054 0 -0.0012829105933465914 -0.022875075802920558 0 -0.0045381511672662805 -0.016252953890827142 0 -0.0048422757859987002 -0.016463543327309201 0 -0.0047074780244761296 -0.016596157595662936 0 -0.0015350356956291735 -0.021682723738943054 0 -0.0030794497990141462 -0.020115042694810306 0 -0.0019856899967983176 -0.022138474843597593 0 -0.0019111124430663167 -0.022216499914213123 0 -0.0018327626242858406 -0.022128194214704657 0 -0.0021053751507051181 -0.021246598103647703 0 -0.0030794497990141462 -0.020115042694810306 0 -0.00177692336239901 -0.022178505277091524 0 -0.0018327626242858406 -0.022128194214704657 0 -0.0017273932673746413 -0.022068792320908456 0 -0.0019111124430663167 -0.022216499914213123 0 -0.00177692336239901 -0.022178505277091524 0 -0.0018327626242858406 -0.022128194214704657 0 -0.0030794497990141462 -0.020115042694810306 0 -0.0012829105933465914 -0.022875075802920558 0 -0.0018327626242858406 -0.022128194214704657 0 -0.0017631020059317732 -0.022038955937816157 0 -0.0017273932673746413 -0.022068792320908456 0 -0.00068140315405388425 -0.023198122424583443 0 -0.00088712043405510168 -0.023100945035251393 0 -0.0021053751507051181 -0.021246598103647703 0 -0.00088712043405510168 -0.023100945035251393 0 -0.0014670237489018204 -0.021501473727262303 0 -0.0015635770854940377 -0.021409544486995041 0 -0.0017649208724685426 -0.021525937420694901 0 -0.0012829105933465914 -0.022875075802920558 0 -0.00067319869158615885 -0.023532599201983251 0 -0.0019856899967983176 -0.022138474843597593 0 -0.0018327626242858406 -0.022128194214704657 0 -0.0017631020059317732 -0.022038955937816157 0 7.3534828047853461e-05 -0.024654811823667466 0 6.0240963198949269e-05 -0.024607823426659285 0 3.9336149569949949e-05 -0.024614649970008701 0 -5.6876325146006069e-06 -0.024993006829273731 0 -7.2618096673172725e-10 -0.024999991996743891 0 -2.6543011020681151e-06 -0.024996854807024536 0 -0.00047377059943511048 -0.024174840246432589 0 -8.9723856289135382e-08 -0.024999775596212675 0 -0.0001160091541623848 -0.024401334803636338 0 -1.780423548727541e-07 -0.024999469646845691 0 -7.2618096673172725e-10 -0.024999991996743891 0 -4.5626005349554468e-09 -0.02499999394746925 0 -2.6543011020681151e-06 -0.024996854807024536 0 -3.8678495533656134e-06 -0.024996699057053682 0 -4.5626005349554468e-09 -0.02499999394746925 0 -2.6543011020681151e-06 -0.024996854807024536 0 -0.0001160091541623848 -0.024401334803636338 0 -0.00067319869158615885 -0.023532599201983251 0 -3.8678495533656134e-06 -0.024996699057053682 0 -2.6543011020681151e-06 -0.024996854807024536 0 -6.974869623882762e-06 -0.024992554430847115 0 -5.6876325146006069e-06 -0.024993006829273731 0 -2.6543011020681151e-06 -0.024996854807024536 0 -6.974869623882762e-06 -0.024992554430847115 0 -0.00044856586044182212 -0.023576922923740314 0 -0.00063467600007800762 -0.023674890963389279 0 -0.00055924567799694623 -0.023486792134526212 0 -0.00047377059943511048 -0.024174840246432589 0 -0.00067319869158615885 -0.023532599201983251 0 -0.00088712043405510168 -0.023100945035251393 0 -0.00047377059943511048 -0.024174840246432589 0 -0.00088712043405510168 -0.023100945035251393 0 -0.00067319869158615885 -0.023532599201983251 0 -0.00018855513792869806 -0.019969779470177421 0 -0.00068739503671662392 -0.019871351613426461 0 -0.00048199995201913664 -0.020302547819693057 0 -0.00068739503671662392 -0.019871351613426461 0 -0.0010649136666631572 -0.020286740571532274 0 -0.0011049190467396148 -0.019608398690766499 0 -0.00068739503671662392 -0.019871351613426461 0 -0.00048199995201913664 -0.020302547819693057 0 -0.0010649136666631572 -0.020286740571532274 0 -0.00068739503671662392 -0.019871351613426461 0 -0.00070663901341130755 -0.019194703942458504 0 -0.0011049190467396148 -0.019608398690766499 0 -0.0016966336806165628 -0.01597226964068988 0 -0.0018259535220003166 -0.016041846341124922 0 -0.0017838669111997474 -0.015991590172702203 0 -0.00018855513792869806 -0.019969779470177421 0 -0.00068739503671662392 -0.019871351613426461 0 -0.00070663901341130755 -0.019194703942458504 0 -0.00074451964206078444 -0.018923496924721252 0 -0.0013698079802197901 -0.017432688367622802 0 -0.0016966336806165628 -0.01597226964068988 0 -0.0017262955314605859 -0.015934819124249502 0 -0.0017838669111997474 -0.015991590172702203 0 -0.0020427634843649899 -0.015014628343659523 0 -0.0012184159536423409 -0.01490645554885789 0 -0.0014067962011551723 -0.015875717797371708 0 -0.0016966336806165628 -0.01597226964068988 0 -0.0017262955314605859 -0.015934819124249502 0 -0.0014067962011551723 -0.015875717797371708 0 -0.0018778664100321076 -0.015457966458222375 0 -0.0014582068717444842 -0.015879533437852346 0 1.2213879538323247e-05 -0.010262018434390481 0 5.2488587924531056e-05 -0.010766121615587784 0 -0.0012184159536423409 -0.01490645554885789 0 -0.00076360918228017799 -0.015705829201591644 0 -0.0014067962011551723 -0.015875717797371708 0 -0.0012184159536423409 -0.01490645554885789 0 -0.00076360918228017799 -0.015705829201591644 0 -0.00043339625186060785 -0.014425434751793675 0 5.3261399088422171e-05 -0.005758230745898249 0 0.000704056118406947 -0.0057145771833760342 0 0.00059934891896724018 -0.0068423315526961849 0 1.2213879538323247e-05 -0.010262018434390481 0 -0.00012420458701715558 -0.012840155313439083 0 0.00019970490772201421 -0.0051805205872587842 0 0.000704056118406947 -0.0057145771833760342 0 0.00072441009822837756 -0.0048823633365062714 0 -0.00076360918228017799 -0.015705829201591644 0 -0.0014067962011551723 -0.015875717797371708 0 -0.0010729211390168351 -0.016546870537519454 0 -0.00074451964206078444 -0.018923496924721252 0 -0.00012420458701715558 -0.012840155313439083 0 -0.0016966336806165628 -0.01597226964068988 0 -0.0014067962011551723 -0.015875717797371708 0 -0.0010729211390168351 -0.016546870537519454 0 -0.00041251853151138803 -0.021068498501172324 0 -0.00015923793401829978 -0.020942390550753143 0 -0.00023842276491415184 -0.020588178097833889 0 -0.00018855513792869806 -0.019969779470177421 0 0.00012212835439318894 -0.0204579172847505 0 -0.00023842276491415184 -0.020588178097833889 0 0.00019970490772201421 -0.0051805205872587842 0 1.3220897925557614e-05 -0.0043934602477841353 0 0.00072441009822837756 -0.0048823633365062714 0 -7.7804927111720703e-05 -0.014844880520318867 0 -0.00012420458701715558 -0.012840155313439083 0 -0.00017007803001432227 -0.0082841084938176414 0 2.0047563325179367e-05 -0.0081977143688967483 0 -1.0300012284607425e-07 -0.0085172825369401652 0 -0.00031575753959618632 -0.0054249794641499658 0 -0.00012420458701715558 -0.012840155313439083 0 -0.00015923793401829978 -0.020942390550753143 0 0.00012212835439318894 -0.0204579172847505 0 -0.00023842276491415184 -0.020588178097833889 0 -0.00041251853151138803 -0.021068498501172324 0 -0.00050891939340009173 -0.020945648827775654 0 -0.00023842276491415184 -0.020588178097833889 0 -0.00018855513792869806 -0.019969779470177421 0 -0.00023842276491415184 -0.020588178097833889 0 -0.00048199995201913664 -0.020302547819693057 0 -0.00050891939340009173 -0.020945648827775654 0 -0.00023842276491415184 -0.020588178097833889 0 -0.00048199995201913664 -0.020302547819693057 0 -0.00050891939340009173 -0.020945648827775654 0 -0.00048199995201913664 -0.020302547819693057 0 -0.0010649136666631572 -0.020286740571532274 0 -0.00053126885083698094 -0.020959483230661727 0 -0.00077905625790173673 -0.02079453721524015 0 -0.00050891939340009173 -0.020945648827775654 0 -0.00047807456305287526 -0.02121668094333282 0 -0.00051885622171287239 -0.021313945924459191 0 -0.00046358522226184193 -0.021171904246406744 0 -0.00050891939340009173 -0.020945648827775654 0 -0.00047807456305287526 -0.02121668094333282 0 -0.000480504575888084 -0.02131282353880674 0 -0.00047807456305287526 -0.02121668094333282 0 -0.00050822413063712389 -0.021381537016077829 0 -0.00047807456305287526 -0.02121668094333282 0 -0.00048869009721385314 -0.02132753632527656 0 -0.00050822413063712389 -0.021381537016077829 0 -0.00048869009721385314 -0.02132753632527656 0 -0.00050822413063712389 -0.021381537016077829 0 -0.00048318080447137254 -0.021421526276847784 0 -0.00048869009721385314 -0.02132753632527656 0 -0.00051885622171287239 -0.021313945924459191 0 -0.00048318080447137254 -0.021421526276847784 0 -0.00047807456305287526 -0.02121668094333282 0 -0.00048869009721385314 -0.02132753632527656 0 -0.00051885622171287239 -0.021313945924459191 0 -0.00055945285658636206 -0.021509368477569586 0 -0.00057499335387103782 -0.021422372094418277 0 -0.00055553705155040223 -0.021499701472295095 0 -0.00057499335387103782 -0.021422372094418277 0 -0.00050822413063712389 -0.021381537016077829 0 -0.00055553705155040223 -0.021499701472295095 0 -0.000480504575888084 -0.02131282353880674 0 -0.00057499335387103782 -0.021422372094418277 0 -0.00050822413063712389 -0.021381537016077829 0 -0.00050822413063712389 -0.021381537016077829 0 -0.00051492970451137243 -0.021452874116845738 0 -0.00055553705155040223 -0.021499701472295095 0 -0.00050822413063712389 -0.021381537016077829 0 -0.00051492970451137243 -0.021452874116845738 0 -0.00048318080447137254 -0.021421526276847784 0 -0.00056357633662364529 -0.02162893102729763 0 -0.00055553705155040223 -0.021499701472295095 0 -0.00052534738726962447 -0.021510443374872883 0 -0.00051492970451137243 -0.021452874116845738 0 -0.00055553705155040223 -0.021499701472295095 0 -0.00052534738726962447 -0.021510443374872883 0 -0.00056357633662364529 -0.02162893102729763 0 -0.00055046942551958814 -0.021574288405289906 0 -0.00052534738726962447 -0.021510443374872883 0 -0.00055046942551958814 -0.021574288405289906 0 -0.00052534738726962447 -0.021510443374872883 0 -0.0005450266225675381 -0.021518448386279452 0 -0.00052534738726962447 -0.021510443374872883 0 -0.00049642973503891217 -0.02146339916641591 0 -0.00048318080447137254 -0.021421526276847784 0 -0.00051492970451137243 -0.021452874116845738 0 -0.00052534738726962447 -0.021510443374872883 0 -0.00048318080447137254 -0.021421526276847784 0 -0.00049642973503891217 -0.02146339916641591 0 -0.0005450266225675381 -0.021518448386279452 0 -0.00057584679104957163 -0.021422325540557792 0 -0.00052534738726962447 -0.021510443374872883 0 -0.00049642973503891217 -0.02146339916641591 0 -0.0005450266225675381 -0.021518448386279452 0 -0.00054239703665629889 -0.021501727680681926 0 -0.0005450266225675381 -0.021518448386279452 0 -0.00057584679104957163 -0.021422325540557792 0 -0.0010649136666631572 -0.020286740571532274 0 -0.0016568614743617889 -0.019476867800628055 0 -0.0011049190467396148 -0.019608398690766499 0 -0.00077905625790173673 -0.02079453721524015 0 -0.0010511531051457885 -0.020454755391699751 0 -0.00049642973503891217 -0.02146339916641591 0 -0.00048318080447137254 -0.021421526276847784 0 -0.00046398500759573864 -0.021428516110884331 0 -0.00051885622171287239 -0.021313945924459191 0 -0.00048318080447137254 -0.021421526276847784 0 -0.00046398500759573864 -0.021428516110884331 0 -0.00049642973503891217 -0.02146339916641591 0 -0.00046398500759573864 -0.021428516110884331 0 -0.0003766222609795166 -0.021278762671325772 0 -0.0016568614743617889 -0.019476867800628055 0 -0.0011049190467396148 -0.019608398690766499 0 -0.0013805213872974636 -0.018321093922617847 0 -0.00070663901341130755 -0.019194703942458504 0 -0.0011049190467396148 -0.019608398690766499 0 -0.0013805213872974636 -0.018321093922617847 0 -0.0013698079802197901 -0.017432688367622802 0 -0.001707249218881672 -0.01724013386823622 0 -0.0010511531051457885 -0.020454755391699751 0 -0.0013764483670469249 -0.019819766204613003 0 -0.0016568614743617889 -0.019476867800628055 0 -0.0013805213872974636 -0.018321093922617847 0 -0.0023248690663789703 -0.018483101065980442 0 -0.001707249218881672 -0.01724013386823622 0 -0.0023897062733657399 -0.016611912167390039 0 -0.0020545474019666183 -0.016123076336736548 0 -0.0024721213401519837 -0.016059342809301946 0 -0.0021096225198159631 -0.015967164611591984 0 -0.0013805213872974636 -0.018321093922617847 0 -0.0023248690663789703 -0.018483101065980442 0 -0.0022152751521714665 -0.017231611848815435 0 -0.0019542676768792553 -0.016036159010949243 0 -0.0021096225198159631 -0.015967164611591984 0 -0.0018975688951016468 -0.015975704308208782 0 -0.0020545474019666183 -0.016123076336736548 0 -0.0019542676768792553 -0.016036159010949243 0 -0.0018926449105338891 -0.016047363538712757 0 -0.0020545474019666183 -0.016123076336736548 0 -0.0019542676768792553 -0.016036159010949243 0 -0.0021096225198159631 -0.015967164611591984 0 -0.00095951115549372426 -0.021161211162614508 0 -0.00058515189938488645 -0.021434535145143704 0 -0.00054239703665629889 -0.021501727680681926 0 -0.00051921711183974025 -0.021427010920867438 0 -0.00057584679104957163 -0.021422325540557792 0 -0.0012633624468016264 -0.021053458851614373 0 -0.00057584679104957163 -0.021422325540557792 0 -0.0007072844854153831 -0.021042219549901583 0 -0.00057584679104957163 -0.021422325540557792 0 -0.0003766222609795166 -0.021278762671325772 0 -0.0007072844854153831 -0.021042219549901583 0 -0.00049642973503891217 -0.02146339916641591 0 -0.00057584679104957163 -0.021422325540557792 0 -0.0003766222609795166 -0.021278762671325772 0 -0.0003766222609795166 -0.021278762671325772 0 -0.0007072844854153831 -0.021042219549901583 0 -0.00071036274673310425 -0.020441448093580238 0 -0.0013764483670469249 -0.019819766204613003 0 -0.001871487200994812 -0.019045176424005647 0 -0.0023248690663789703 -0.018483101065980442 0 -0.0031288033876162701 -0.01721671826397558 0 -0.0022152751521714665 -0.017231611848815435 0 -0.0012633624468016264 -0.021053458851614373 0 -0.0007072844854153831 -0.021042219549901583 0 -0.00071036274673310425 -0.020441448093580238 0 -0.0012633624468016264 -0.021053458851614373 0 -0.0014413191599218147 -0.02023820975031531 0 -0.00071036274673310425 -0.020441448093580238 0 -0.0026417528051299421 -0.016489404558414536 0 -0.001871487200994812 -0.019045176424005647 0 -0.0014413191599218147 -0.02023820975031531 0 -0.0013767425724971892 -0.019475215711965973 0 -0.00071036274673310425 -0.020441448093580238 0 -0.0023897062733657399 -0.016611912167390039 0 -0.0031988600744731698 -0.015939209362408984 0 -0.0031288033876162701 -0.01721671826397558 0 -0.0022152751521714665 -0.017231611848815435 0 -0.0032271287528218289 -0.015924113183332256 0 -0.0024721213401519837 -0.016059342809301946 0 -0.0026464104605888792 -0.015795097883205308 0 -0.0032271287528218289 -0.015924113183332256 0 -0.0028721095778008951 -0.015487962914137095 0 -0.0026464104605888792 -0.015795097883205308 0 -0.0024813083389140043 -0.015610613808404261 0 -0.0028721095778008951 -0.015487962914137095 0 -0.0026464104605888792 -0.015795097883205308 0 -0.0032271287528218289 -0.015924113183332256 0 -0.0039411329472608669 -0.015767639383213173 0 -0.0028721095778008951 -0.015487962914137095 0 -0.0032271287528218289 -0.015924113183332256 0 -0.0026417528051299421 -0.016489404558414536 0 -0.0030484395113831142 -0.015247889373948702 0 -0.0039411329472608669 -0.015767639383213173 0 -0.0031288033876162701 -0.01721671826397558 0 -0.0032271287528218289 -0.015924113183332256 0 -0.0020948724466102434 -0.015670913741044418 0 -0.0018755520130858011 -0.015959341801298887 0 -0.0021096225198159631 -0.015967164611591984 0 -0.0020781160758893817 -0.015708862846991082 0 -0.0018975688951016468 -0.015975704308208782 0 -0.0021096225198159631 -0.015967164611591984 0 -0.00230603917996762 -0.015776602251763479 0 -0.0020781160758893817 -0.015708862846991082 0 -0.0024721213401519837 -0.016059342809301946 0 -0.0021096225198159631 -0.015967164611591984 0 -0.00230603917996762 -0.015776602251763479 0 -0.0024721213401519837 -0.016059342809301946 0 -0.0026464104605888792 -0.015795097883205308 0 -0.00230603917996762 -0.015776602251763479 0 -0.00230603917996762 -0.015776602251763479 0 -0.0024813083389140043 -0.015610613808404261 0 -0.0021450760820250925 -0.015499183216510677 0 -0.0026464104605888792 -0.015795097883205308 0 -0.00230603917996762 -0.015776602251763479 0 -0.0024813083389140043 -0.015610613808404261 0 -0.0020781160758893817 -0.015708862846991082 0 -0.0019479669157416891 -0.015551149994537074 0 -0.0019546664851664993 -0.01570858667695884 0 -0.00230603917996762 -0.015776602251763479 0 -0.0020781160758893817 -0.015708862846991082 0 -0.0021450760820250925 -0.015499183216510677 0 -0.0020781160758893817 -0.015708862846991082 0 -0.0019479669157416891 -0.015551149994537074 0 -0.0021450760820250925 -0.015499183216510677 0 -0.0019141811557265953 -0.014135377711980581 0 -0.002217197166002223 -0.013830525423173598 0 -0.0019142342674680751 -0.012599076368982217 0 -0.0016999974379268762 -0.012596351764200939 0 -0.001845890053265883 -0.012800112141574451 0 -0.0016999974379268762 -0.012596351764200939 0 -0.0015862728358842114 -0.012748479787900304 0 -0.001845890053265883 -0.012800112141574451 0 -0.0016999974379268762 -0.012596351764200939 0 -0.0015862728358842114 -0.012748479787900304 0 -0.0014663280875505758 -0.012583101848924139 0 -0.0018907870522243411 -0.012449639602779517 0 -0.002217197166002223 -0.013830525423173598 0 -0.0021423987835685818 -0.012285955197780632 0 -0.0023812617712618109 -0.012969134282853342 0 -0.0032222482774045642 -0.012465677153487674 0 -0.0021423987835685818 -0.012285955197780632 0 -0.0023812617712618109 -0.012969134282853342 0 -0.0017038887591529365 -0.012771384993239926 0 -0.0023812617712618109 -0.012969134282853342 0 -0.0018149133931427738 -0.013466555991709881 0 -0.0017038887591529365 -0.012771384993239926 0 -0.002217197166002223 -0.013830525423173598 0 -0.0024656601293661594 -0.014472902975826159 0 -0.0023812617712618109 -0.012969134282853342 0 -0.0032222482774045642 -0.012465677153487674 0 -0.0029278770293192768 -0.013314452940616534 0 -0.0020781160758893817 -0.015708862846991082 0 -0.0019546664851664993 -0.01570858667695884 0 -0.0019661980350803555 -0.015737746014881263 0 -0.0019546664851664993 -0.01570858667695884 0 -0.0019661980350803555 -0.015737746014881263 0 -0.0019804465730268498 -0.01572666666904125 0 -0.0019661980350803555 -0.015737746014881263 0 -0.0019804465730268498 -0.01572666666904125 0 -0.0019929249480497386 -0.015675333014900997 0 -0.0018975688951016468 -0.015975704308208782 0 -0.0018739128071706393 -0.016017587224846846 0 -0.0018203935661215416 -0.016023482870607675 0 -0.0019542676768792553 -0.016036159010949243 0 -0.0018975688951016468 -0.015975704308208782 0 -0.0018739128071706393 -0.016017587224846846 0 -0.0018755520130858011 -0.015959341801298887 0 -0.0021208483793573913 -0.015292423500258907 0 -0.0019542676768792553 -0.016036159010949243 0 -0.0018739128071706393 -0.016017587224846846 0 -0.0018926449105338891 -0.016047363538712757 0 -0.0029278770293192768 -0.013314452940616534 0 -0.0025304662748692752 -0.013766524642251851 0 -0.0026375782415931541 -0.014180586914342359 0 -0.0024656601293661594 -0.014472902975826159 0 -0.0021208483793573913 -0.015292423500258907 0 -0.0023812617712618109 -0.012969134282853342 0 -0.0029278770293192768 -0.013314452940616534 0 -0.0023765780504138036 -0.013518480669013034 0 -0.0029278770293192768 -0.013314452940616534 0 -0.0023765780504138036 -0.013518480669013034 0 -0.0025304662748692752 -0.013766524642251851 0 -0.0023812617712618109 -0.012969134282853342 0 -0.0023765780504138036 -0.013518480669013034 0 -0.0018149133931427738 -0.013466555991709881 0 -0.0023765780504138036 -0.013518480669013034 0 -0.0021774470195941769 -0.014053903865496348 0 -0.0018149133931427738 -0.013466555991709881 0 -0.0023765780504138036 -0.013518480669013034 0 -0.0025304662748692752 -0.013766524642251851 0 -0.0021774470195941769 -0.014053903865496348 0 -0.0025304662748692752 -0.013766524642251851 0 -0.0026375782415931541 -0.014180586914342359 0 -0.0021774470195941769 -0.014053903865496348 0 -0.0020427634843649899 -0.015014628343659523 0 -0.0026375782415931541 -0.014180586914342359 0 -0.0021774470195941769 -0.014053903865496348 0 -0.0018778664100321076 -0.015457966458222375 0 -0.0021208483793573913 -0.015292423500258907 0 -0.0018203935661215416 -0.016023482870607675 0 -0.0017838669111997474 -0.015991590172702203 0 -0.0018294644523220115 -0.016027042705351807 0 -0.0017262955314605859 -0.015934819124249502 0 -0.0018203935661215416 -0.016023482870607675 0 -0.0017838669111997474 -0.015991590172702203 0 -0.0018259535220003166 -0.016041846341124922 0 -0.0017838669111997474 -0.015991590172702203 0 -0.0018294644523220115 -0.016027042705351807 0 -0.0018259535220003166 -0.016041846341124922 0 -0.0018294644523220115 -0.016027042705351807 0 -0.0018926449105338891 -0.016047363538712757 0 -0.0018259535220003166 -0.016041846341124922 0 -0.0020545474019666183 -0.016123076336736548 0 -0.0018926449105338891 -0.016047363538712757 0 -0.0018294644523220115 -0.016027042705351807 0 -0.0018926449105338891 -0.016047363538712757 0 -0.0018440421978516699 -0.016027522051340958 0 -0.0018739128071706393 -0.016017587224846846 0 -0.0018926449105338891 -0.016047363538712757 0 -0.0018440421978516699 -0.016027522051340958 0 -0.0018739128071706393 -0.016017587224846846 0 -0.0018203935661215416 -0.016023482870607675 0 -0.0018440421978516699 -0.016027522051340958 0 -0.0018203935661215416 -0.016023482870607675 0 -0.0018294644523220115 -0.016027042705351807 0 -0.0018440421978516699 -0.016027522051340958 0 -0.0012184159536423409 -0.01490645554885789 0 -0.00043339625186060785 -0.014425434751793675 0 -0.0010496474868052028 -0.013823752418417226 0 -0.0012184159536423409 -0.01490645554885789 0 -0.001670219377468398 -0.014268241559350338 0 -0.0010496474868052028 -0.013823752418417226 0 -0.0020427634843649899 -0.015014628343659523 0 -0.0021774470195941769 -0.014053903865496348 0 -0.001670219377468398 -0.014268241559350338 0 -0.0020427634843649899 -0.015014628343659523 0 -0.0012184159536423409 -0.01490645554885789 0 -0.001670219377468398 -0.014268241559350338 0 -0.001670219377468398 -0.014268241559350338 0 -0.0018149133931427738 -0.013466555991709881 0 -0.0010496474868052028 -0.013823752418417226 0 -0.0021774470195941769 -0.014053903865496348 0 -0.001670219377468398 -0.014268241559350338 0 -0.0018149133931427738 -0.013466555991709881 0 -0.0018149133931427738 -0.013466555991709881 0 -0.0010496474868052028 -0.013823752418417226 0 -0.0011327947813099149 -0.013034842292877045 0 -0.00018336954485025238 -0.013164628305200951 0 -0.0010496474868052028 -0.013823752418417226 0 -0.0011327947813099149 -0.013034842292877045 0 0.00015888391227255523 -0.010402234218212852 0 5.2488587924531056e-05 -0.010766121615587784 0 -0.00018336954485025238 -0.013164628305200951 0 -0.00043339625186060785 -0.014425434751793675 0 -0.0010496474868052028 -0.013823752418417226 0 -0.00018336954485025238 -0.013164628305200951 0 -0.0011327947813099149 -0.013034842292877045 0 -0.0010434711294434603 -0.012101137745624591 0 -0.00018336954485025238 -0.013164628305200951 0 6.0115271980437341e-05 -0.011924688955930265 0 -0.0010434711294434603 -0.012101137745624591 0 -0.0021423987835685818 -0.012285955197780632 0 -0.0017038887591529365 -0.012771384993239926 0 -0.0010434711294434603 -0.012101137745624591 0 -0.0017038887591529365 -0.012771384993239926 0 -0.0011327947813099149 -0.013034842292877045 0 -0.0010434711294434603 -0.012101137745624591 0 -0.0018149133931427738 -0.013466555991709881 0 -0.0017038887591529365 -0.012771384993239926 0 -0.0011327947813099149 -0.013034842292877045 0 -0.0018907870522243411 -0.012449639602779517 0 -0.0012192477320390408 -0.01245350671049146 0 -0.0015862728358842114 -0.012748479787900304 0 -0.0014663280875505758 -0.012583101848924139 0 -0.001318708644964175 -0.012696648993671757 0 -0.0014663280875505758 -0.012583101848924139 0 -0.0013078247654923971 -0.01263860602764732 0 -0.001318708644964175 -0.012696648993671757 0 -0.0014663280875505758 -0.012583101848924139 0 -0.0013078247654923971 -0.01263860602764732 0 -0.0013692685933895991 -0.01252627952530015 0 -0.00011552226864660603 -0.011419940639702152 0 -0.0012192477320390408 -0.01245350671049146 0 -0.0012820196532468994 -0.012600898375254341 0 -0.0010376490480216733 -0.012260339748423268 0 -0.00065571098149507347 -0.012584097843212076 0 -0.001318708644964175 -0.012696648993671757 0 -0.00096174733677757208 -0.012439201605596419 0 -0.0013078247654923971 -0.01263860602764732 0 -0.00096174733677757208 -0.012439201605596419 0 -0.00087197066030625424 -0.012027935006979249 0 -0.0013078247654923971 -0.01263860602764732 0 -0.001318708644964175 -0.012696648993671757 0 -0.00096174733677757208 -0.012439201605596419 0 -0.00096174733677757208 -0.012439201605596419 0 -0.00087197066030625424 -0.012027935006979249 0 -0.00077759621903324106 -0.012248058986070676 0 -0.0013078247654923971 -0.01263860602764732 0 -0.0012906837167186225 -0.012443152588808735 0 -0.0013692685933895991 -0.01252627952530015 0 -0.0013078247654923971 -0.01263860602764732 0 -0.0012906837167186225 -0.012443152588808735 0 -0.0011736190565565666 -0.012438806464674355 0 -0.0012906837167186225 -0.012443152588808735 0 -0.0011736190565565666 -0.012438806464674355 0 -0.0012004440719299073 -0.012272665670897288 0 -0.0014663280875505758 -0.012583101848924139 0 -0.00141789669584147 -0.012440314381438684 0 -0.0015766698008161343 -0.012427619026659032 0 -0.0014663280875505758 -0.012583101848924139 0 -0.0013692685933895991 -0.01252627952530015 0 -0.00141789669584147 -0.012440314381438684 0 -0.0012906837167186225 -0.012443152588808735 0 -0.0013692685933895991 -0.01252627952530015 0 -0.00141789669584147 -0.012440314381438684 0 -0.00141789669584147 -0.012440314381438684 0 -0.0014117758345663283 -0.012188269607894188 0 -0.0015766698008161343 -0.012427619026659032 0 -0.0014117758345663283 -0.012188269607894188 0 -0.0016300233095158717 -0.012264881653042643 0 -0.0015766698008161343 -0.012427619026659032 0 -0.0016004831584200191 -0.012440599919755506 0 -0.0021664060929146977 -0.012930828062989033 0 -0.002092283842274363 -0.013141518950917919 0 -0.0021664060929146977 -0.012930828062989033 0 -0.0012906837167186225 -0.012443152588808735 0 -0.00141789669584147 -0.012440314381438684 0 -0.0014117758345663283 -0.012188269607894188 0 -0.0019122503319132828 -0.012749501600777436 0 -0.001783632132491258 -0.012616555558961358 0 -0.0022405837687104763 -0.01286348221856653 0 -0.0012906837167186225 -0.012443152588808735 0 -0.0014117758345663283 -0.012188269607894188 0 -0.0012004440719299073 -0.012272665670897288 0 -0.0014117758345663283 -0.012188269607894188 0 -0.0012004440719299073 -0.012272665670897288 0 -0.0011347193076517979 -0.012090550235743817 0 -0.002092283842274363 -0.013141518950917919 0 -0.0016033680410474909 -0.012835534850778773 0 -0.0022888343843928726 -0.013549896589811272 0 -0.0021572769316702549 -0.013351478365638315 0 -0.0019427810029030554 -0.01334430657110945 0 -0.0016004831584200191 -0.012440599919755506 0 -0.0013632133548346797 -0.012382505241597896 0 -0.001783632132491258 -0.012616555558961358 0 -0.0014778471072246198 -0.012598100543805973 0 -0.0013193285899388589 -0.012370391859819861 0 -0.0019122503319132828 -0.012749501600777436 0 -0.001783632132491258 -0.012616555558961358 0 -0.0014778471072246198 -0.012598100543805973 0 -0.0022888343843928726 -0.013549896589811272 0 -0.0021572769316702549 -0.013351478365638315 0 -0.0022795244676886363 -0.013393442348193464 0 -0.0022888343843928726 -0.013549896589811272 0 -0.002445624557964393 -0.013516408593218687 0 -0.0023618573279000064 -0.013460878448002141 0 -0.0022888343843928726 -0.013549896589811272 0 -0.0024740274338420692 -0.013577492066813223 0 -0.0025011413434352999 -0.013654191481109391 0 -0.0022888343843928726 -0.013549896589811272 0 -0.002445624557964393 -0.013516408593218687 0 -0.0024740274338420692 -0.013577492066813223 0 -0.002445624557964393 -0.013516408593218687 0 -0.0023618573279000064 -0.013460878448002141 0 -0.0024267870938639749 -0.013428597581349875 0 -0.0022888343843928726 -0.013549896589811272 0 -0.0023618573279000064 -0.013460878448002141 0 -0.0022795244676886363 -0.013393442348193464 0 -0.0023618573279000064 -0.013460878448002141 0 -0.0023540696917451584 -0.013360532231948207 0 -0.0024267870938639749 -0.013428597581349875 0 -0.0023618573279000064 -0.013460878448002141 0 -0.0023540696917451584 -0.013360532231948207 0 -0.0022795244676886363 -0.013393442348193464 0 -0.0023540696917451584 -0.013360532231948207 0 -0.0024267870938639749 -0.013428597581349875 0 -0.0024552775836065269 -0.013341048944179985 0 -0.0023540696917451584 -0.013360532231948207 0 -0.0024552775836065269 -0.013341048944179985 0 -0.0023405306507849042 -0.013205920770342851 0 -0.0023540696917451584 -0.013360532231948207 0 -0.0022249419549954931 -0.013229031664255021 0 -0.0023405306507849042 -0.013205920770342851 0 -0.0022249419549954931 -0.013229031664255021 0 -0.0021572769316702549 -0.013351478365638315 0 -0.0020283443792823313 -0.013127049877532337 0 -0.0022249419549954931 -0.013229031664255021 0 -0.0021572769316702549 -0.013351478365638315 0 -0.0022795244676886363 -0.013393442348193464 0 -0.0023540696917451584 -0.013360532231948207 0 -0.0022249419549954931 -0.013229031664255021 0 -0.0022795244676886363 -0.013393442348193464 0 -0.0025414785838584241 -0.013522419779932741 0 -0.0025517457314215898 -0.013505438651063227 0 -0.0025332124023057425 -0.013447543605244467 0 -0.0025414785838584241 -0.013522419779932741 0 -0.0025517457314215898 -0.013505438651063227 0 -0.0025663969634677195 -0.013598947626079314 0 -0.0025517457314215898 -0.013505438651063227 0 -0.0025663969634677195 -0.013598947626079314 0 -0.0025691817641277609 -0.013627385570845038 0 -0.0025517457314215898 -0.013505438651063227 0 -0.0025691817641277609 -0.013627385570845038 0 -0.0025598317967370351 -0.01354447907235995 0 -0.0025517457314215898 -0.013505438651063227 0 -0.0025598317967370351 -0.01354447907235995 0 -0.0025492270822675541 -0.013420522198115507 0 -0.0025402418578250722 -0.013390748247230017 0 -0.0025517457314215898 -0.013505438651063227 0 -0.0025332124023057425 -0.013447543605244467 0 -0.0025402418578250722 -0.013390748247230017 0 -0.0025517457314215898 -0.013505438651063227 0 -0.0025492270822675541 -0.013420522198115507 0 -0.0025332124023057425 -0.013447543605244467 0 -0.002517490251346378 -0.01337064723374547 0 -0.002495718401985128 -0.013454451944991995 0 -0.0025402418578250722 -0.013390748247230017 0 -0.0025332124023057425 -0.013447543605244467 0 -0.002517490251346378 -0.01337064723374547 0 -0.0024552775836065269 -0.013341048944179985 0 -0.002517490251346378 -0.01337064723374547 0 -0.0025060765349322238 -0.013283140477233965 0 -0.0024552775836065269 -0.013341048944179985 0 -0.002517490251346378 -0.01337064723374547 0 -0.002495718401985128 -0.013454451944991995 0 -0.0024267870938639749 -0.013428597581349875 0 -0.0024552775836065269 -0.013341048944179985 0 -0.002495718401985128 -0.013454451944991995 0 -0.002445624557964393 -0.013516408593218687 0 -0.0024267870938639749 -0.013428597581349875 0 -0.002495718401985128 -0.013454451944991995 0 -0.0025414785838584241 -0.013522419779932741 0 -0.002495718401985128 -0.013454451944991995 0 -0.0025028754145642964 -0.01353174108302488 0 -0.0025414785838584241 -0.013522419779932741 0 -0.0025332124023057425 -0.013447543605244467 0 -0.002495718401985128 -0.013454451944991995 0 -0.0025028754145642964 -0.01353174108302488 0 -0.0025288577771709242 -0.01358679406374513 0 -0.0025534657156777163 -0.013587285148464927 0 -0.0025414785838584241 -0.013522419779932741 0 -0.0025028754145642964 -0.01353174108302488 0 -0.0025534657156777163 -0.013587285148464927 0 -0.002445624557964393 -0.013516408593218687 0 -0.0025028754145642964 -0.01353174108302488 0 -0.0024740274338420692 -0.013577492066813223 0 -0.002445624557964393 -0.013516408593218687 0 -0.002495718401985128 -0.013454451944991995 0 -0.0025028754145642964 -0.01353174108302488 0 -0.0025028754145642964 -0.01353174108302488 0 -0.0024740274338420692 -0.013577492066813223 0 -0.0025288577771709242 -0.01358679406374513 0 -0.0024740274338420692 -0.013577492066813223 0 -0.0025288577771709242 -0.01358679406374513 0 -0.0025248137077620134 -0.013620963919339335 0 -0.0025288577771709242 -0.01358679406374513 0 -0.0025589061955180598 -0.013629447626772991 0 -0.0025248137077620134 -0.013620963919339335 0 -0.0025288577771709242 -0.01358679406374513 0 -0.0025534657156777163 -0.013587285148464927 0 -0.0025589061955180598 -0.013629447626772991 0 -0.0025534657156777163 -0.013587285148464927 0 -0.0025753041701152982 -0.013632644214050657 0 -0.0025589061955180598 -0.013629447626772991 0 -0.0025414785838584241 -0.013522419779932741 0 -0.0025534657156777163 -0.013587285148464927 0 -0.0025663969634677195 -0.013598947626079314 0 -0.0025663969634677195 -0.013598947626079314 0 -0.0025753041701152982 -0.013632644214050657 0 -0.0025857271638619656 -0.013705523339956869 0 -0.0025534657156777163 -0.013587285148464927 0 -0.0025663969634677195 -0.013598947626079314 0 -0.0025753041701152982 -0.013632644214050657 0 -0.0025753041701152982 -0.013632644214050657 0 -0.0025589061955180598 -0.013629447626772991 0 -0.0025724448579448932 -0.013631892074609263 0 -0.0021040570543850723 -0.012850668847257473 0 -0.0021584535683362468 -0.013980750841523124 0 -0.0025589061955180598 -0.013629447626772991 0 -0.0025738678460673122 -0.013643137782115216 0 -0.0025724448579448932 -0.013631892074609263 0 -0.0025589061955180598 -0.013629447626772991 0 -0.0025330035668781263 -0.013649469592384497 0 -0.0025738678460673122 -0.013643137782115216 0 -0.0024740274338420692 -0.013577492066813223 0 -0.0025011413434352999 -0.013654191481109391 0 -0.0025248137077620134 -0.013620963919339335 0 -0.0025589061955180598 -0.013629447626772991 0 -0.0025248137077620134 -0.013620963919339335 0 -0.0025330035668781263 -0.013649469592384497 0 -0.0025011413434352999 -0.013654191481109391 0 -0.0025248137077620134 -0.013620963919339335 0 -0.0025330035668781263 -0.013649469592384497 0 -0.0021664060929146977 -0.012930828062989033 0 -0.0021040570543850723 -0.012850668847257473 0 -0.0016300233095158717 -0.012264881653042643 0 -0.0016993852146128616 -0.012290284330584621 0 -0.0015766698008161343 -0.012427619026659032 0 -0.0016999974379268762 -0.012596351764200939 0 -0.0014663280875505758 -0.012583101848924139 0 -0.0015766698008161343 -0.012427619026659032 0 -0.0016993852146128616 -0.012290284330584621 0 -0.0015766698008161343 -0.012427619026659032 0 -0.0017740051353025935 -0.012472461367961214 0 -0.0016999974379268762 -0.012596351764200939 0 -0.0015766698008161343 -0.012427619026659032 0 -0.0017740051353025935 -0.012472461367961214 0 -0.0016993852146128616 -0.012290284330584621 0 -0.0017740051353025935 -0.012472461367961214 0 -0.0019863268902686475 -0.012402940963522485 0 -0.0019142342674680751 -0.012599076368982217 0 -0.0017740051353025935 -0.012472461367961214 0 -0.0019863268902686475 -0.012402940963522485 0 -0.0019142342674680751 -0.012599076368982217 0 -0.0016999974379268762 -0.012596351764200939 0 -0.0017740051353025935 -0.012472461367961214 0 -0.0019141811557265953 -0.014135377711980581 0 -0.0021584535683362468 -0.013980750841523124 0 -0.0019479669157416891 -0.015551149994537074 0 -0.002008225856100112 -0.01527773368738709 0 -0.0021450760820250925 -0.015499183216510677 0 -0.0021584535683362468 -0.013980750841523124 0 -0.0025256306317919244 -0.015304639049797928 0 -0.0022454321355062298 -0.014911756532095932 0 -0.0026549494207977146 -0.015036348713743318 0 -0.0025132824766160547 -0.014781667477086339 0 -0.002008225856100112 -0.01527773368738709 0 -0.0021450760820250925 -0.015499183216510677 0 -0.0023657204708980566 -0.015374265981266007 0 -0.0024813083389140043 -0.015610613808404261 0 -0.0021450760820250925 -0.015499183216510677 0 -0.0023657204708980566 -0.015374265981266007 0 -0.0026549494207977146 -0.015036348713743318 0 -0.0025132824766160547 -0.014781667477086339 0 -0.0027481910936173132 -0.01472574050498501 0 -0.0025132824766160547 -0.014781667477086339 0 -0.0023398116265711745 -0.014555024103000554 0 -0.002643079340850501 -0.014553993800438413 0 -0.0025132824766160547 -0.014781667477086339 0 -0.0027481910936173132 -0.01472574050498501 0 -0.002643079340850501 -0.014553993800438413 0 -0.0025738678460673122 -0.013643137782115216 0 -0.0025724448579448932 -0.013631892074609263 0 -0.0025518673798032858 -0.013633224856037232 0 -0.0021584535683362468 -0.013980750841523124 0 -0.0024567715466527269 -0.014127429642065384 0 -0.0022454321355062298 -0.014911756532095932 0 -0.0025132824766160547 -0.014781667477086339 0 -0.0023398116265711745 -0.014555024103000554 0 -0.0031497244853362304 -0.015215572737546923 0 -0.0029496856613158875 -0.01513096121866596 0 -0.0030682148640420398 -0.014995768150520852 0 -0.0029496856613158875 -0.01513096121866596 0 -0.0030682148640420398 -0.014995768150520852 0 -0.002877524387334377 -0.0149170726557117 0 -0.0028721095778008951 -0.015487962914137095 0 -0.0024813083389140043 -0.015610613808404261 0 -0.0023657204708980566 -0.015374265981266007 0 -0.0026549494207977146 -0.015036348713743318 0 -0.0027481910936173132 -0.01472574050498501 0 -0.002877524387334377 -0.0149170726557117 0 -0.0029496856613158875 -0.01513096121866596 0 -0.0026549494207977146 -0.015036348713743318 0 -0.002877524387334377 -0.0149170726557117 0 -0.0030484395113831142 -0.015247889373948702 0 -0.0025256306317919244 -0.015304639049797928 0 -0.0027481910936173132 -0.01472574050498501 0 -0.0029498358531747882 -0.014691392039252051 0 -0.0028053137422429032 -0.014468893771454711 0 -0.0027481910936173132 -0.01472574050498501 0 -0.002877524387334377 -0.0149170726557117 0 -0.0029498358531747882 -0.014691392039252051 0 -0.0030682148640420398 -0.014995768150520852 0 -0.002877524387334377 -0.0149170726557117 0 -0.0029498358531747882 -0.014691392039252051 0 -0.0030682148640420398 -0.014995768150520852 0 -0.0029498358531747882 -0.014691392039252051 0 -0.0031150783091906703 -0.014797912994695035 0 -0.0029498358531747882 -0.014691392039252051 0 -0.0030523744507659884 -0.014556743889529615 0 -0.0031150783091906703 -0.014797912994695035 0 -0.0029498358531747882 -0.014691392039252051 0 -0.0030523744507659884 -0.014556743889529615 0 -0.0028930323904869581 -0.014467340566699904 0 -0.0029498358531747882 -0.014691392039252051 0 -0.0028930323904869581 -0.014467340566699904 0 -0.0028053137422429032 -0.014468893771454711 0 -0.0028930323904869581 -0.014467340566699904 0 -0.0028053137422429032 -0.014468893771454711 0 -0.0028116259500062008 -0.014313205625174583 0 -0.0028116259500062008 -0.014313205625174583 0 -0.0028944755023259951 -0.014346765920886483 0 -0.0028051760809197344 -0.014308222022620047 0 -0.0028930323904869581 -0.014467340566699904 0 -0.0028116259500062008 -0.014313205625174583 0 -0.0028944755023259951 -0.014346765920886483 0 -0.0030523744507659884 -0.014556743889529615 0 -0.0028944755023259951 -0.014346765920886483 0 -0.0030431332998528374 -0.014382218456825132 0 -0.0030523744507659884 -0.014556743889529615 0 -0.0028930323904869581 -0.014467340566699904 0 -0.0028944755023259951 -0.014346765920886483 0 -0.0028944755023259951 -0.014346765920886483 0 -0.0030431332998528374 -0.014382218456825132 0 -0.0029318535341414363 -0.014311647858008208 0 -0.0030523744507659884 -0.014556743889529615 0 -0.0030431332998528374 -0.014382218456825132 0 -0.0031959462472592398 -0.014528674970377832 0 -0.0024567715466527269 -0.014127429642065384 0 -0.0025544428537918034 -0.013901149533388465 0 -0.0025857271638619656 -0.013705523339956869 0 -0.0025518673798032858 -0.013633224856037232 0 -0.0025718805299756696 -0.013905484020889168 0 -0.0025724448579448932 -0.013631892074609263 0 -0.0025857271638619656 -0.013705523339956869 0 -0.0025518673798032858 -0.013633224856037232 0 -0.0025753041701152982 -0.013632644214050657 0 -0.0025724448579448932 -0.013631892074609263 0 -0.0025857271638619656 -0.013705523339956869 0 -0.0023398116265711745 -0.014555024103000554 0 -0.0027174097491419569 -0.01417414741228416 0 -0.0025718805299756696 -0.013905484020889168 0 -0.0023398116265711745 -0.014555024103000554 0 -0.002643079340850501 -0.014553993800438413 0 -0.0027174097491419569 -0.01417414741228416 0 -0.0028053137422429032 -0.014468893771454711 0 -0.002643079340850501 -0.014553993800438413 0 -0.0027174097491419569 -0.01417414741228416 0 -0.0027481910936173132 -0.01472574050498501 0 -0.0028053137422429032 -0.014468893771454711 0 -0.002643079340850501 -0.014553993800438413 0 -0.0028053137422429032 -0.014468893771454711 0 -0.0028116259500062008 -0.014313205625174583 0 -0.0027174097491419569 -0.01417414741228416 0 -0.0027174097491419569 -0.01417414741228416 0 -0.0025718805299756696 -0.013905484020889168 0 -0.0026730696741092009 -0.013590729660407544 0 -0.0027174097491419569 -0.01417414741228416 0 -0.0026730696741092009 -0.013590729660407544 0 -0.0029149611190772474 -0.013461086786106219 0 -0.0027228101530346522 -0.014173113677935993 0 -0.0028449546639374122 -0.013889610508156068 0 -0.0028116259500062008 -0.014313205625174583 0 -0.0027174097491419569 -0.01417414741228416 0 -0.0028051760809197344 -0.014308222022620047 0 -0.0025718805299756696 -0.013905484020889168 0 -0.0025834774071976777 -0.013605532807096343 0 -0.0026730696741092009 -0.013590729660407544 0 -0.0025718805299756696 -0.013905484020889168 0 -0.0025834774071976777 -0.013605532807096343 0 -0.0025678490509501478 -0.013731258746690197 0 -0.0025857271638619656 -0.013705523339956869 0 -0.0025718805299756696 -0.013905484020889168 0 -0.0025678490509501478 -0.013731258746690197 0 -0.0025857271638619656 -0.013705523339956869 0 -0.0025678490509501478 -0.013731258746690197 0 -0.0025691817641277609 -0.013627385570845038 0 -0.0025663969634677195 -0.013598947626079314 0 -0.0025857271638619656 -0.013705523339956869 0 -0.0025691817641277609 -0.013627385570845038 0 -0.0025834774071976777 -0.013605532807096343 0 -0.0025678490509501478 -0.013731258746690197 0 -0.0025598317967370351 -0.01354447907235995 0 -0.0025678490509501478 -0.013731258746690197 0 -0.0025691817641277609 -0.013627385570845038 0 -0.0025598317967370351 -0.01354447907235995 0 -0.0025834774071976777 -0.013605532807096343 0 -0.0025598317967370351 -0.01354447907235995 0 -0.0025620794192895428 -0.013450910273414224 0 -0.0025834774071976777 -0.013605532807096343 0 -0.0025620794192895428 -0.013450910273414224 0 -0.0026168455985840734 -0.013459202897458137 0 -0.0025620794192895428 -0.013450910273414224 0 -0.0025807024466225422 -0.01337988104377914 0 -0.0025413582455018763 -0.01334730567862874 0 -0.0025620794192895428 -0.013450910273414224 0 -0.0025807024466225422 -0.01337988104377914 0 -0.0026168455985840734 -0.013459202897458137 0 -0.0025807024466225422 -0.01337988104377914 0 -0.0026168455985840734 -0.013459202897458137 0 -0.0026358950595700421 -0.013341957438449929 0 -0.0025834774071976777 -0.013605532807096343 0 -0.0026168455985840734 -0.013459202897458137 0 -0.0026730696741092009 -0.013590729660407544 0 -0.0026168455985840734 -0.013459202897458137 0 -0.0026730696741092009 -0.013590729660407544 0 -0.0027665032573903638 -0.013340883811477331 0 -0.0026730696741092009 -0.013590729660407544 0 -0.0027665032573903638 -0.013340883811477331 0 -0.0029149611190772474 -0.013461086786106219 0 -0.0027665032573903638 -0.013340883811477331 0 -0.0026624216752085335 -0.013280378017056992 0 -0.0027848706804163475 -0.013229048439819218 0 -0.0027665032573903638 -0.013340883811477331 0 -0.0026624216752085335 -0.013280378017056992 0 -0.0026358950595700421 -0.013341957438449929 0 -0.0026624216752085335 -0.013280378017056992 0 -0.0025686853065041365 -0.013309892354642467 0 -0.0026358950595700421 -0.013341957438449929 0 -0.0025686853065041365 -0.013309892354642467 0 -0.0025517579288613294 -0.013164694730662226 0 -0.0025287301269695055 -0.013306225494587839 0 -0.0026624216752085335 -0.013280378017056992 0 -0.0025686853065041365 -0.013309892354642467 0 -0.0025517579288613294 -0.013164694730662226 0 -0.0025807024466225422 -0.01337988104377914 0 -0.0025686853065041365 -0.013309892354642467 0 -0.0025413582455018763 -0.01334730567862874 0 -0.0025807024466225422 -0.01337988104377914 0 -0.0025686853065041365 -0.013309892354642467 0 -0.0026358950595700421 -0.013341957438449929 0 -0.0026168455985840734 -0.013459202897458137 0 -0.0027665032573903638 -0.013340883811477331 0 -0.0026358950595700421 -0.013341957438449929 0 -0.0030431332998528374 -0.014382218456825132 0 -0.0030254325983571037 -0.014310960864421641 0 -0.0029318535341414363 -0.014311647858008208 0 -0.0030431332998528374 -0.014382218456825132 0 -0.0030254325983571037 -0.014310960864421641 0 -0.0029881710061996965 -0.014401503054900752 0 -0.0030254325983571037 -0.014310960864421641 0 -0.0029318535341414363 -0.014311647858008208 0 -0.0029211438609876416 -0.014210908977167229 0 -0.0029318535341414363 -0.014311647858008208 0 -0.0028051760809197344 -0.014308222022620047 0 -0.0029211438609876416 -0.014210908977167229 0 -0.0028944755023259951 -0.014346765920886483 0 -0.0029318535341414363 -0.014311647858008208 0 -0.0028051760809197344 -0.014308222022620047 0 -0.0027665032573903638 -0.013340883811477331 0 -0.0029315940698194198 -0.013252614117989924 0 -0.0027848706804163475 -0.013229048439819218 0 -0.0027665032573903638 -0.013340883811477331 0 -0.0029149611190772474 -0.013461086786106219 0 -0.0029315940698194198 -0.013252614117989924 0 -0.0028051760809197344 -0.014308222022620047 0 -0.0029211438609876416 -0.014210908977167229 0 -0.0028033592649722235 -0.013925560581705571 0 -0.0028449546639374122 -0.013889610508156068 0 -0.0028819310208468398 -0.013576721038965232 0 -0.0029211438609876416 -0.014210908977167229 0 -0.0028033592649722235 -0.013925560581705571 0 -0.0031683056991499421 -0.01412288401449718 0 -0.0030254325983571037 -0.014310960864421641 0 -0.0029211438609876416 -0.014210908977167229 0 -0.0031683056991499421 -0.01412288401449718 0 -0.0030972378089370325 -0.014244338924997888 0 -0.0030546353076490729 -0.014490981817855688 0 -0.0029315940698194198 -0.013252614117989924 0 -0.002926429513233777 -0.013190323067000334 0 -0.0030142544908071107 -0.013194523024663717 0 -0.0028819310208468398 -0.013576721038965232 0 -0.0030101732521345273 -0.013210377173191028 0 -0.0031428160521007509 -0.013560134173017296 0 -0.0028033592649722235 -0.013925560581705571 0 -0.0030142544908071107 -0.013194523024663717 0 -0.0031428160521007509 -0.013560134173017296 0 -0.0028033592649722235 -0.013925560581705571 0 -0.0031683056991499421 -0.01412288401449718 0 -0.0031189762678964475 -0.014393714783082261 0 -0.0030546353076490729 -0.014490981817855688 0 -0.0029315940698194198 -0.013252614117989924 0 -0.0028740991304430294 -0.013201204983530977 0 -0.0027848706804163475 -0.013229048439819218 0 -0.0029315940698194198 -0.013252614117989924 0 -0.0028740991304430294 -0.013201204983530977 0 -0.002926429513233777 -0.013190323067000334 0 -0.002673012048069863 -0.012823696296377985 0 -0.0028235489482083057 -0.014043347506548154 0 -0.002926429513233777 -0.013190323067000334 0 -0.0029868118014361993 -0.013158521620016739 0 -0.0028413646773074231 -0.013130597734805597 0 -0.0028740991304430294 -0.013201204983530977 0 -0.002926429513233777 -0.013190323067000334 0 -0.0028413646773074231 -0.013130597734805597 0 -0.0031189762678964475 -0.014393714783082261 0 -0.0028235489482083057 -0.014043347506548154 0 -0.0029868118014361993 -0.013158521620016739 0 -0.0028413646773074231 -0.013130597734805597 0 -0.0029986949992231826 -0.013122088810949869 0 -0.0031428160521007509 -0.013560134173017296 0 -0.0030142544908071107 -0.013194523024663717 0 -0.0030139118842041146 -0.012873197502415029 0 -0.0030495197404057347 -0.015166719377354407 0 -0.0027309541628203369 -0.015680353326532531 0 -0.0031872680914268986 -0.016089958301592114 0 -0.002926429513233777 -0.013190323067000334 0 -0.0030142544908071107 -0.013194523024663717 0 -0.0029868118014361993 -0.013158521620016739 0 -0.0030142544908071107 -0.013194523024663717 0 -0.0029868118014361993 -0.013158521620016739 0 -0.0030139118842041146 -0.012873197502415029 0 -0.0025517579288613294 -0.013164694730662226 0 -0.0025250717341513576 -0.013032457298008088 0 -0.0025287301269695055 -0.013306225494587839 0 -0.0026624216752085335 -0.013280378017056992 0 -0.0025517579288613294 -0.013164694730662226 0 -0.0027848706804163475 -0.013229048439819218 0 -0.0027108630009978043 -0.01268621232307126 0 -0.0026913698936308263 -0.012968983569379132 0 -0.0025161970835657185 -0.013223643008266745 0 -0.002673012048069863 -0.012823696296377985 0 -0.0025517579288613294 -0.013164694730662226 0 -0.0027848706804163475 -0.013229048439819218 0 -0.0028413646773074231 -0.013130597734805597 0 -0.0025517579288613294 -0.013164694730662226 0 -0.0024877670583384093 -0.012882205837903345 0 -0.0025250717341513576 -0.013032457298008088 0 -0.0028740991304430294 -0.013201204983530977 0 -0.0027848706804163475 -0.013229048439819218 0 -0.0028413646773074231 -0.013130597734805597 0 -0.0027108630009978043 -0.01268621232307126 0 -0.0025654117421061709 -0.012579294064652987 0 -0.0024877670583384093 -0.012882205837903345 0 -0.0025250717341513576 -0.013032457298008088 0 -0.0024548740992420552 -0.012809013895313671 0 -0.0028981279281697523 -0.012334334111094828 0 -0.0028636238029052363 -0.012330039424049814 0 -0.0026622248813819699 -0.01233242739812361 0 -0.0028981279281697523 -0.012334334111094828 0 -0.002865937382487257 -0.01234405889963051 0 -0.0028636238029052363 -0.012330039424049814 0 -0.0028981279281697523 -0.012334334111094828 0 -0.002865937382487257 -0.01234405889963051 0 -0.0028464006172201888 -0.012437102007171795 0 -0.002865937382487257 -0.01234405889963051 0 -0.0027745150155377239 -0.012371608818765084 0 -0.002847105698347389 -0.012298536936479466 0 -0.0027745150155377239 -0.012371608818765084 0 -0.0026562778163623409 -0.012280574786282214 0 -0.002847105698347389 -0.012298536936479466 0 -0.002865937382487257 -0.01234405889963051 0 -0.0027745150155377239 -0.012371608818765084 0 -0.0028464006172201888 -0.012437102007171795 0 -0.0028981279281697523 -0.012334334111094828 0 -0.0028464006172201888 -0.012437102007171795 0 -0.002885349866241321 -0.012638669683210233 0 -0.0027745150155377239 -0.012371608818765084 0 -0.0028464006172201888 -0.012437102007171795 0 -0.0027214808215715062 -0.012532690377906894 0 -0.0028464006172201888 -0.012437102007171795 0 -0.0027214808215715062 -0.012532690377906894 0 -0.002885349866241321 -0.012638669683210233 0 -0.0027745150155377239 -0.012371608818765084 0 -0.0027214808215715062 -0.012532690377906894 0 -0.0025412070185708417 -0.012440016184705414 0 -0.0027214808215715062 -0.012532690377906894 0 -0.0025412070185708417 -0.012440016184705414 0 -0.002532025966527054 -0.012655516372206957 0 -0.0027745150155377239 -0.012371608818765084 0 -0.0026562778163623409 -0.012280574786282214 0 -0.0025412070185708417 -0.012440016184705414 0 -0.0026562778163623409 -0.012280574786282214 0 -0.0024596115348404137 -0.012268286290917108 0 -0.0025596887479223712 -0.012166273100025493 0 -0.0026562778163623409 -0.012280574786282214 0 -0.0024596115348404137 -0.012268286290917108 0 -0.0025412070185708417 -0.012440016184705414 0 -0.0024596115348404137 -0.012268286290917108 0 -0.0022544268802757901 -0.012429344635250942 0 -0.0025412070185708417 -0.012440016184705414 0 -0.0024596115348404137 -0.012268286290917108 0 -0.0022544268802757901 -0.012429344635250942 0 -0.0022637502833290882 -0.012107695257145433 0 -0.0022544268802757901 -0.012429344635250942 0 -0.0022637502833290882 -0.012107695257145433 0 -0.0020339821781433978 -0.012319985385939829 0 -0.0022544268802757901 -0.012429344635250942 0 -0.0021543056739798581 -0.012832521140094486 0 -0.0020339821781433978 -0.012319985385939829 0 -0.0022544268802757901 -0.012429344635250942 0 -0.0025412070185708417 -0.012440016184705414 0 -0.0023614305668700564 -0.012628627301691066 0 -0.0025412070185708417 -0.012440016184705414 0 -0.0023614305668700564 -0.012628627301691066 0 -0.002532025966527054 -0.012655516372206957 0 -0.0023614305668700564 -0.012628627301691066 0 -0.0023960161717800983 -0.012852831823953277 0 -0.002532025966527054 -0.012655516372206957 0 -0.0023960161717800983 -0.012852831823953277 0 -0.002532025966527054 -0.012655516372206957 0 -0.0025056736958652408 -0.012934348311808124 0 -0.0023614305668700564 -0.012628627301691066 0 -0.0023960161717800983 -0.012852831823953277 0 -0.0021543056739798581 -0.012832521140094486 0 -0.0022544268802757901 -0.012429344635250942 0 -0.0023614305668700564 -0.012628627301691066 0 -0.0021543056739798581 -0.012832521140094486 0 -0.0022249419549954931 -0.013229031664255021 0 -0.0021838250255485914 -0.012877044681193257 0 -0.0023405306507849042 -0.013205920770342851 0 -0.0022249419549954931 -0.013229031664255021 0 -0.0021838250255485914 -0.012877044681193257 0 -0.0020283443792823313 -0.013127049877532337 0 -0.0021838250255485914 -0.012877044681193257 0 -0.0023405306507849042 -0.013205920770342851 0 -0.0024571766103215703 -0.013207689917902747 0 -0.0023960161717800983 -0.012852831823953277 0 -0.0021543056739798581 -0.012832521140094486 0 -0.0024571766103215703 -0.013207689917902747 0 -0.0021694590885497009 -0.012865570798435767 0 -0.002454215259743658 -0.013166203089355559 0 -0.0023960161717800983 -0.012852831823953277 0 -0.0024571766103215703 -0.013207689917902747 0 -0.0025056736958652408 -0.012934348311808124 0 -0.0024552775836065269 -0.013341048944179985 0 -0.0023405306507849042 -0.013205920770342851 0 -0.0024571766103215703 -0.013207689917902747 0 -0.0024552775836065269 -0.013341048944179985 0 -0.0024571766103215703 -0.013207689917902747 0 -0.0025060765349322238 -0.013283140477233965 0 -0.0025476474575331235 -0.013183344829878582 0 -0.002540674475565025 -0.013315546366049442 0 -0.0025287301269695055 -0.013306225494587839 0 -0.002517490251346378 -0.01337064723374547 0 -0.0025060765349322238 -0.013283140477233965 0 -0.0025345134623635762 -0.013303997324066889 0 -0.0025060765349322238 -0.013283140477233965 0 -0.0025476474575331235 -0.013183344829878582 0 -0.0025345134623635762 -0.013303997324066889 0 -0.0024571766103215703 -0.013207689917902747 0 -0.0025060765349322238 -0.013283140477233965 0 -0.0025476474575331235 -0.013183344829878582 0 -0.0024571766103215703 -0.013207689917902747 0 -0.0025476474575331235 -0.013183344829878582 0 -0.0025056736958652408 -0.012934348311808124 0 -0.0025402418578250722 -0.013390748247230017 0 -0.0025345134623635762 -0.013303997324066889 0 -0.002540674475565025 -0.013315546366049442 0 -0.0025402418578250722 -0.013390748247230017 0 -0.002517490251346378 -0.01337064723374547 0 -0.0025345134623635762 -0.013303997324066889 0 -0.0025476474575331235 -0.013183344829878582 0 -0.0025345134623635762 -0.013303997324066889 0 -0.002540674475565025 -0.013315546366049442 0 -0.0025402418578250722 -0.013390748247230017 0 -0.0025492270822675541 -0.013420522198115507 0 -0.002540674475565025 -0.013315546366049442 0 -0.0025598317967370351 -0.01354447907235995 0 -0.0025620794192895428 -0.013450910273414224 0 -0.0025492270822675541 -0.013420522198115507 0 -0.0025620794192895428 -0.013450910273414224 0 -0.0025492270822675541 -0.013420522198115507 0 -0.0025413582455018763 -0.01334730567862874 0 -0.0025492270822675541 -0.013420522198115507 0 -0.0025413582455018763 -0.01334730567862874 0 -0.002540674475565025 -0.013315546366049442 0 -0.0025413582455018763 -0.01334730567862874 0 -0.002540674475565025 -0.013315546366049442 0 -0.0025287301269695055 -0.013306225494587839 0 -0.0025686853065041365 -0.013309892354642467 0 -0.0025413582455018763 -0.01334730567862874 0 -0.0025287301269695055 -0.013306225494587839 0 -0.0025468985415085799 -0.013180180191668745 0 -0.0026913698936308263 -0.012968983569379132 0 -0.0027214808215715062 -0.012532690377906894 0 -0.002885349866241321 -0.012638669683210233 0 -0.0026404260766915259 -0.012758764984008082 0 -0.0025476474575331235 -0.013183344829878582 0 -0.0026404260766915259 -0.012758764984008082 0 -0.0025056736958652408 -0.012934348311808124 0 -0.0025476474575331235 -0.013183344829878582 0 -0.002885349866241321 -0.012638669683210233 0 -0.0026404260766915259 -0.012758764984008082 0 -0.0026404260766915259 -0.012758764984008082 0 -0.002532025966527054 -0.012655516372206957 0 -0.0025056736958652408 -0.012934348311808124 0 -0.0027214808215715062 -0.012532690377906894 0 -0.0026404260766915259 -0.012758764984008082 0 -0.002532025966527054 -0.012655516372206957 0 -5.9671699777343522e-06 -0.024999623153276061 0 -2.234078616844871e-05 -0.024996476370853671 0 -3.213339712311824e-06 -0.025002136687954334 0 -3.8166495790972859e-05 -0.024918595964553751 0 -1.0877321310852656e-05 -0.024935892705493921 0 -5.9671699777343522e-06 -0.024999623153276061 0 -1.0613198481762999e-08 -0.025000016219059274 0 3.85221595613295e-09 -0.024999963482391079 0 -5.9671699777343522e-06 -0.024999623153276061 0 -1.0613198481762999e-08 -0.025000016219059274 0 -3.213339712311824e-06 -0.025002136687954334 0 -5.9439412007098466e-05 -0.024837559656783848 0 -4.6953780419913104e-05 -0.024851697338217293 0 -7.4213933381210943e-06 -0.024866325587692955 0 -5.9439412007098466e-05 -0.024837559656783848 0 -5.2532913224011885e-05 -0.024826942813586408 0 -4.6953780419913104e-05 -0.024851697338217293 0 -5.9439412007098466e-05 -0.024837559656783848 0 -5.5643915319463279e-05 -0.024912822754644209 0 -5.2532913224011885e-05 -0.024826942813586408 0 -2.234078616844871e-05 -0.024996476370853671 0 -1.8669293146706694e-05 -0.024967338669958247 0 -5.5643915319463279e-05 -0.024912822754644209 0 -3.8166495790972859e-05 -0.024918595964553751 0 -5.2367660364627146e-05 -0.024914214327627995 0 -2.234078616844871e-05 -0.024996476370853671 0 3.85221595613295e-09 -0.024999963482391079 0 -1.8669293146706694e-05 -0.024967338669958247 0 -5.9671699777343522e-06 -0.024999623153276061 0 -2.234078616844871e-05 -0.024996476370853671 0 3.85221595613295e-09 -0.024999963482391079 0 -1.8669293146706694e-05 -0.024967338669958247 0 -3.2812249890353825e-08 -0.024999976483176287 0 -4.0914686628153493e-05 -0.024947162527154218 0 3.85221595613295e-09 -0.024999963482391079 0 -1.8669293146706694e-05 -0.024967338669958247 0 -3.2812249890353825e-08 -0.024999976483176287 0 -3.1363145625733739e-05 -0.024951459512373413 0 -3.2812249890353825e-08 -0.024999976483176287 0 -4.0914686628153493e-05 -0.024947162527154218 0 -7.4240032484793237e-05 -0.024914376709579605 0 -4.0914686628153493e-05 -0.024947162527154218 0 -5.2481043238183976e-05 -0.024911615255674074 0 -4.0914686628153493e-05 -0.024947162527154218 0 -5.5643915319463279e-05 -0.024912822754644209 0 -5.2481043238183976e-05 -0.024911615255674074 0 -1.8669293146706694e-05 -0.024967338669958247 0 -4.0914686628153493e-05 -0.024947162527154218 0 -5.5643915319463279e-05 -0.024912822754644209 0 -5.5643915319463279e-05 -0.024912822754644209 0 -5.2481043238183976e-05 -0.024911615255674074 0 -3.805257929204573e-05 -0.024838662024301673 0 -0.0022385228956834104 -0.020186608642336616 0 -0.0020968995591234599 -0.019856878940377083 0 -0.0024262186211709319 -0.020231106021715135 0 -0.0022385228956834104 -0.020186608642336616 0 -0.0042231547103604543 -0.015784737025799106 0 -0.004082208117931075 -0.015268535222655779 0 -0.0038867049237109289 -0.015547163058196459 0 -0.0042231547103604543 -0.015784737025799106 0 -0.0044214573119466492 -0.015380899741292796 0 -0.004082208117931075 -0.015268535222655779 0 -0.0044214573119466492 -0.015380899741292796 0 -0.004082208117931075 -0.015268535222655779 0 -0.0041837954570498083 -0.014935130635133773 0 -0.004082208117931075 -0.015268535222655779 0 -0.0041837954570498083 -0.014935130635133773 0 -0.0038155600338393644 -0.014883232376042733 0 -0.0041837954570498083 -0.014935130635133773 0 -0.0039721858545912585 -0.014580557914805127 0 -0.0038155600338393644 -0.014883232376042733 0 -5.5643915319463279e-05 -0.024912822754644209 0 -3.805257929204573e-05 -0.024838662024301673 0 -5.2532913224011885e-05 -0.024826942813586408 0 -5.2532913224011885e-05 -0.024826942813586408 0 -7.2339418021859532e-05 -0.024792330767902975 0 -6.0004629070641339e-05 -0.024834246564475221 0 -5.2532913224011885e-05 -0.024826942813586408 0 -6.0004629070641339e-05 -0.024834246564475221 0 -4.6953780419913104e-05 -0.024851697338217293 0 -3.805257929204573e-05 -0.024838662024301673 0 -5.2532913224011885e-05 -0.024826942813586408 0 -7.2339418021859532e-05 -0.024792330767902975 0 -0.0020968995591234599 -0.019856878940377083 0 -0.0021224500496094308 -0.019820837387305234 0 -0.0039721858545912585 -0.014580557914805127 0 -0.0036779211113379456 -0.014558209021992733 0 -0.0038155600338393644 -0.014883232376042733 0 -0.0036779211113379456 -0.014558209021992733 0 -0.0035174032397252137 -0.014738505029395096 0 -0.0034079425104179798 -0.014554201628121495 0 -0.0036779211113379456 -0.014558209021992733 0 -0.0034079425104179798 -0.014554201628121495 0 -0.0035368485344061231 -0.014353675080705373 0 -0.0035174032397252137 -0.014738505029395096 0 -0.0038155600338393644 -0.014883232376042733 0 -0.003526780659238532 -0.015010421431747276 0 -0.0036779211113379456 -0.014558209021992733 0 -0.0035174032397252137 -0.014738505029395096 0 -0.0038155600338393644 -0.014883232376042733 0 -0.0038155600338393644 -0.014883232376042733 0 -0.0037897271909186976 -0.015194321986453589 0 -0.003526780659238532 -0.015010421431747276 0 -0.004082208117931075 -0.015268535222655779 0 -0.0038155600338393644 -0.014883232376042733 0 -0.0037897271909186976 -0.015194321986453589 0 -0.0037897271909186976 -0.015194321986453589 0 -0.0038867049237109289 -0.015547163058196459 0 -0.0035979227696713782 -0.01542389983276205 0 -0.004082208117931075 -0.015268535222655779 0 -0.0037897271909186976 -0.015194321986453589 0 -0.0038867049237109289 -0.015547163058196459 0 -0.0035979227696713782 -0.01542389983276205 0 -0.003526780659238532 -0.015010421431747276 0 -0.0032743836432254183 -0.015133947703632682 0 -0.0037897271909186976 -0.015194321986453589 0 -0.0035979227696713782 -0.01542389983276205 0 -0.003526780659238532 -0.015010421431747276 0 -0.003526780659238532 -0.015010421431747276 0 -0.0032743836432254183 -0.015133947703632682 0 -0.0032754677981939864 -0.014753801303854635 0 -0.0034315425594865679 -0.015591778808104287 0 -0.0035979227696713782 -0.01542389983276205 0 -0.0032743836432254183 -0.015133947703632682 0 -0.0031497244853362304 -0.015215572737546923 0 -0.0030682148640420398 -0.014995768150520852 0 -0.0032743836432254183 -0.015133947703632682 0 -0.0026417528051299421 -0.016489404558414536 0 -0.0034541678232519646 -0.01474741057722399 0 -0.0032743836432254183 -0.015133947703632682 0 -0.0031150783091906703 -0.014797912994695035 0 -0.0032754677981939864 -0.014753801303854635 0 -0.0030682148640420398 -0.014995768150520852 0 -0.0032743836432254183 -0.015133947703632682 0 -0.0031150783091906703 -0.014797912994695035 0 -0.0030523744507659884 -0.014556743889529615 0 -0.0032754677981939864 -0.014753801303854635 0 -0.0031959462472592398 -0.014528674970377832 0 -0.0030523744507659884 -0.014556743889529615 0 -0.0031150783091906703 -0.014797912994695035 0 -0.0032754677981939864 -0.014753801303854635 0 -0.0035174032397252137 -0.014738505029395096 0 -0.0032754677981939864 -0.014753801303854635 0 -0.0034079425104179798 -0.014554201628121495 0 -0.0035174032397252137 -0.014738505029395096 0 -0.003526780659238532 -0.015010421431747276 0 -0.0032754677981939864 -0.014753801303854635 0 -0.0034079425104179798 -0.014554201628121495 0 -0.0031959462472592398 -0.014528674970377832 0 -0.0032713805458169506 -0.014404240418069455 0 -0.0032754677981939864 -0.014753801303854635 0 -0.0034079425104179798 -0.014554201628121495 0 -0.0031959462472592398 -0.014528674970377832 0 -0.0030797804798829991 -0.014368340058693122 0 -0.0029324106859146123 -0.014465316044178051 0 -0.0030431332998528374 -0.014382218456825132 0 -0.0031959462472592398 -0.014528674970377832 0 -0.0032713805458169506 -0.014404240418069455 0 -0.0030254325983571037 -0.014310960864421641 0 -0.0029881710061996965 -0.014401503054900752 0 -0.0030669587703787762 -0.01425307499632726 0 -0.0029353990914465777 -0.014794780514818221 0 -0.0029881710061996965 -0.014401503054900752 0 -0.0033432352624078007 -0.01523324220530003 0 -0.0030431332998528374 -0.014382218456825132 0 -0.0029881710061996965 -0.014401503054900752 0 -0.002823009328191366 -0.014391143939365587 0 -0.0029353990914465777 -0.014794780514818221 0 -0.002823009328191366 -0.014391143939365587 0 -0.0024927939819405875 -0.015204577400930154 0 -0.003063616264812748 -0.014535977537435397 0 -0.0030546353076490729 -0.014490981817855688 0 -0.0029353990914465777 -0.014794780514818221 0 -0.0029881710061996965 -0.014401503054900752 0 -0.002823009328191366 -0.014391143939365587 0 -0.002823009328191366 -0.014391143939365587 0 -0.0024927939819405875 -0.015204577400930154 0 -0.0017362093653782663 -0.014759525429849634 0 -0.0034079425104179798 -0.014554201628121495 0 -0.0032713805458169506 -0.014404240418069455 0 -0.0035368485344061231 -0.014353675080705373 0 -0.0029324106859146123 -0.014465316044178051 0 -0.0029969771270439388 -0.01410156979999368 0 -0.0024927939819405875 -0.015204577400930154 0 -0.0021100114464500811 -0.01611473393022984 0 -0.0015744508966152961 -0.015538210282404404 0 -0.0029353990914465777 -0.014794780514818221 0 -0.0024927939819405875 -0.015204577400930154 0 -0.0033432352624078007 -0.01523324220530003 0 -0.0024927939819405875 -0.015204577400930154 0 -0.0033432352624078007 -0.01523324220530003 0 -0.0029545368064505593 -0.016212712404452809 0 -0.0030495197404057347 -0.015166719377354407 0 -0.002918699046449133 -0.014262475125928875 0 -0.0025656444835160074 -0.014993406074579416 0 -0.0030546353076490729 -0.014490981817855688 0 -0.0027325239615327117 -0.015682361421775214 0 -0.0027325239615327117 -0.015682361421775214 0 -0.0024311155582092928 -0.016273394125088426 0 -0.0025656444835160074 -0.014993406074579416 0 -0.0027309541628203369 -0.015680353326532531 0 -0.0022006630197390483 -0.015742656801096898 0 -0.0030495197404057347 -0.015166719377354407 0 -0.0025656444835160074 -0.014993406074579416 0 -0.0027309541628203369 -0.015680353326532531 0 -0.0029545368064505593 -0.016212712404452809 0 -0.0025192017733720816 -0.017197679156366802 0 -0.0021100114464500811 -0.01611473393022984 0 -0.0024927939819405875 -0.015204577400930154 0 -0.0029545368064505593 -0.016212712404452809 0 -0.0021100114464500811 -0.01611473393022984 0 -0.0021100114464500811 -0.01611473393022984 0 -0.0011766082515694267 -0.016452874815900371 0 -0.0015744508966152961 -0.015538210282404404 0 -0.00078854069861685654 -0.020946932558015129 0 -0.00076763294477502988 -0.021026172731768614 0 -0.00085667696062383808 -0.021124051976605357 0 -0.0025192017733720816 -0.017197679156366802 0 -0.0021100114464500811 -0.01611473393022984 0 -0.0011766082515694267 -0.016452874815900371 0 -0.0008395457340837863 -0.018161304918479639 0 -0.0011327092572579146 -0.020975122179486442 0 -0.0025192017733720816 -0.017197679156366802 0 -0.0011766082515694267 -0.016452874815900371 0 -0.0016926122355505288 -0.017779990549725455 0 -3.7351571371629232e-05 -0.02490324325500011 0 -3.8814300526443681e-05 -0.024913930920333695 0 -3.673803860410895e-05 -0.02491621587669127 0 -0.00078854069861685654 -0.020946932558015129 0 -0.00076763294477502988 -0.021026172731768614 0 -0.00068195807687851937 -0.020936001505455604 0 -3.7351571371629232e-05 -0.02490324325500011 0 -3.673803860410895e-05 -0.02491621587669127 0 -3.875821653844448e-05 -0.02490071680513576 0 -0.00048028946778406556 -0.02318240261272821 0 -0.00031619518353273574 -0.02282453350937105 0 -0.00078854069861685654 -0.020946932558015129 0 -0.00072413244748946264 -0.02078291962696906 0 -0.00068195807687851937 -0.020936001505455604 0 -0.0008395457340837863 -0.018161304918479639 0 -0.0013107459649938358 -0.01904405601939484 0 -0.0011766082515694267 -0.016452874815900371 0 -0.00068021460862779069 -0.015181541452708593 0 -0.0015744508966152961 -0.015538210282404404 0 -0.0024927939819405875 -0.015204577400930154 0 -0.0015744508966152961 -0.015538210282404404 0 -0.0017362093653782663 -0.014759525429849634 0 -0.00068021460862779069 -0.015181541452708593 0 -0.0015744508966152961 -0.015538210282404404 0 -0.0017362093653782663 -0.014759525429849634 0 -0.0013107459649938358 -0.01904405601939484 0 -0.0029969771270439388 -0.01410156979999368 0 -0.0036779211113379456 -0.014558209021992733 0 -0.0038058166692579421 -0.014294293715435958 0 -0.0035368485344061231 -0.014353675080705373 0 -0.0039721858545912585 -0.014580557914805127 0 -0.0036779211113379456 -0.014558209021992733 0 -0.0038058166692579421 -0.014294293715435958 0 -0.0021224500496094308 -0.019820837387305234 0 -0.0013107459649938358 -0.01904405601939484 0 -7.2339418021859532e-05 -0.024792330767902975 0 -7.5287447725201409e-05 -0.024832707647713424 0 -6.0004629070641339e-05 -0.024834246564475221 0 -7.2339418021859532e-05 -0.024792330767902975 0 -0.00010788953859940678 -0.024799606011891961 0 -7.5287447725201409e-05 -0.024832707647713424 0 -6.0004629070641339e-05 -0.024834246564475221 0 -5.0304557783465403e-05 -0.024865017362152082 0 -4.6953780419913104e-05 -0.024851697338217293 0 -6.0004629070641339e-05 -0.024834246564475221 0 -5.0304557783465403e-05 -0.024865017362152082 0 -5.9967398288254987e-05 -0.024858917215639667 0 -7.5287447725201409e-05 -0.024832707647713424 0 -6.0004629070641339e-05 -0.024834246564475221 0 -5.9967398288254987e-05 -0.024858917215639667 0 -7.5287447725201409e-05 -0.024832707647713424 0 -5.9967398288254987e-05 -0.024858917215639667 0 -7.0290855019614361e-05 -0.02486658588023026 0 -5.9967398288254987e-05 -0.024858917215639667 0 -7.0290855019614361e-05 -0.02486658588023026 0 -5.0896380563256766e-05 -0.024886639867093982 0 -5.0304557783465403e-05 -0.024865017362152082 0 -5.9967398288254987e-05 -0.024858917215639667 0 -4.4912713346609267e-05 -0.024889341602578524 0 -5.9967398288254987e-05 -0.024858917215639667 0 -5.0896380563256766e-05 -0.024886639867093982 0 -4.4912713346609267e-05 -0.024889341602578524 0 -3.9062415409148587e-05 -0.024913325583361318 0 -4.7242230538528127e-05 -0.024914681592936146 0 -3.6961935197166236e-05 -0.024929205915240785 0 -4.4912713346609267e-05 -0.024889341602578524 0 -3.9062415409148587e-05 -0.024913325583361318 0 -3.3640688095630974e-05 -0.024914506433503663 0 -5.0896380563256766e-05 -0.024886639867093982 0 -3.9062415409148587e-05 -0.024913325583361318 0 -4.7242230538528127e-05 -0.024914681592936146 0 -5.0896380563256766e-05 -0.024886639867093982 0 -4.4912713346609267e-05 -0.024889341602578524 0 -3.9062415409148587e-05 -0.024913325583361318 0 -7.0290855019614361e-05 -0.02486658588023026 0 -4.7242230538528127e-05 -0.024914681592936146 0 -9.3496673371665259e-05 -0.024889226836029395 0 -0.00032066494640327673 -0.024129306481086379 0 -6.8119623930376361e-05 -0.023573731175196278 0 -7.0290855019614361e-05 -0.02486658588023026 0 -5.0896380563256766e-05 -0.024886639867093982 0 -4.7242230538528127e-05 -0.024914681592936146 0 0.00016204766442906026 -0.024254466549177275 0 -6.8119623930376361e-05 -0.023573731175196278 0 -0.00010788953859940678 -0.024799606011891961 0 -7.5287447725201409e-05 -0.024832707647713424 0 -7.5383808026312872e-05 -0.024860617198897747 0 -0.00072413244748946264 -0.02078291962696906 0 -0.0005925482048515908 -0.020851976839743432 0 -0.00068195807687851937 -0.020936001505455604 0 -0.0013107459649938358 -0.01904405601939484 0 -6.8119623930376361e-05 -0.023573731175196278 0 -7.5287447725201409e-05 -0.024832707647713424 0 -7.0290855019614361e-05 -0.02486658588023026 0 -7.5383808026312872e-05 -0.024860617198897747 0 -3.8814300526443681e-05 -0.024913930920333695 0 -3.5171402496249599e-05 -0.024928405125817781 0 -4.0096445481003882e-05 -0.024923134812930708 0 -4.3473643309653488e-05 -0.02491261959657716 0 -3.8814300526443681e-05 -0.024913930920333695 0 -4.0096445481003882e-05 -0.024923134812930708 0 -6.8119623930376361e-05 -0.023573731175196278 0 -0.00031619518353273574 -0.02282453350937105 0 -3.8814300526443681e-05 -0.024913930920333695 0 -3.5171402496249599e-05 -0.024928405125817781 0 -3.673803860410895e-05 -0.02491621587669127 0 -3.5171402496249599e-05 -0.024928405125817781 0 -3.673803860410895e-05 -0.02491621587669127 0 -3.3364546250920847e-05 -0.0249235910870453 0 -3.5171402496249599e-05 -0.024928405125817781 0 -2.3407785005928816e-05 -0.024949267000579253 0 -3.3364546250920847e-05 -0.0249235910870453 0 -3.5171402496249599e-05 -0.024928405125817781 0 -2.9081481332503994e-05 -0.024943637654238144 0 -2.3407785005928816e-05 -0.024949267000579253 0 -2.9081481332503994e-05 -0.024943637654238144 0 -4.0096445481003882e-05 -0.024923134812930708 0 -3.6961935197166236e-05 -0.024929205915240785 0 -3.5171402496249599e-05 -0.024928405125817781 0 -2.9081481332503994e-05 -0.024943637654238144 0 -4.0096445481003882e-05 -0.024923134812930708 0 -4.7242230538528127e-05 -0.024914681592936146 0 -4.0096445481003882e-05 -0.024923134812930708 0 -3.6961935197166236e-05 -0.024929205915240785 0 -4.7242230538528127e-05 -0.024914681592936146 0 -4.3473643309653488e-05 -0.02491261959657716 0 -4.0096445481003882e-05 -0.024923134812930708 0 -2.9081481332503994e-05 -0.024943637654238144 0 -3.6961935197166236e-05 -0.024929205915240785 0 -2.8467601923927389e-05 -0.024936068932748634 0 -3.9062415409148587e-05 -0.024913325583361318 0 -3.6961935197166236e-05 -0.024929205915240785 0 -2.8467601923927389e-05 -0.024936068932748634 0 -2.9081481332503994e-05 -0.024943637654238144 0 -2.8467601923927389e-05 -0.024936068932748634 0 -1.2882366727181872e-05 -0.024964342384214584 0 -2.9081481332503994e-05 -0.024943637654238144 0 -1.2882366727181872e-05 -0.024964342384214584 0 -1.441799753774189e-05 -0.024967322088987196 0 -2.8467601923927389e-05 -0.024936068932748634 0 -1.2882366727181872e-05 -0.024964342384214584 0 -2.261427237145496e-05 -0.024936604745761353 0 -2.9081481332503994e-05 -0.024943637654238144 0 -1.441799753774189e-05 -0.024967322088987196 0 -2.3407785005928816e-05 -0.024949267000579253 0 -1.2882366727181872e-05 -0.024964342384214584 0 -1.441799753774189e-05 -0.024967322088987196 0 -2.2773651089619279e-08 -0.024999999045948424 0 -1.441799753774189e-05 -0.024967322088987196 0 -2.2773651089619279e-08 -0.024999999045948424 0 -1.0052513241820218e-05 -0.024972745774438154 0 -1.2882366727181872e-05 -0.024964342384214584 0 -2.2773651089619279e-08 -0.024999999045948424 0 5.8802059187145321e-08 -0.024999770568122307 0 -1.2882366727181872e-05 -0.024964342384214584 0 5.8802059187145321e-08 -0.024999770568122307 0 -2.261427237145496e-05 -0.024936604745761353 0 5.8802059187145321e-08 -0.024999770568122307 0 -2.261427237145496e-05 -0.024936604745761353 0 -2.0726608228420653e-05 -0.024920068730637717 0 -2.8467601923927389e-05 -0.024936068932748634 0 -2.261427237145496e-05 -0.024936604745761353 0 -3.3640688095630974e-05 -0.024914506433503663 0 -3.9062415409148587e-05 -0.024913325583361318 0 -2.8467601923927389e-05 -0.024936068932748634 0 -3.3640688095630974e-05 -0.024914506433503663 0 -4.4912713346609267e-05 -0.024889341602578524 0 -3.3640688095630974e-05 -0.024914506433503663 0 -3.5272071092736316e-05 -0.024896122428347198 0 -2.261427237145496e-05 -0.024936604745761353 0 -3.3640688095630974e-05 -0.024914506433503663 0 -3.5272071092736316e-05 -0.024896122428347198 0 -5.0304557783465403e-05 -0.024865017362152082 0 -4.4912713346609267e-05 -0.024889341602578524 0 -3.5272071092736316e-05 -0.024896122428347198 0 -2.261427237145496e-05 -0.024936604745761353 0 -3.5272071092736316e-05 -0.024896122428347198 0 -2.0726608228420653e-05 -0.024920068730637717 0 -3.5272071092736316e-05 -0.024896122428347198 0 -2.9867104100925407e-05 -0.024884449627209721 0 -2.0726608228420653e-05 -0.024920068730637717 0 -2.9867104100925407e-05 -0.024884449627209721 0 -4.6953780419913104e-05 -0.024851697338217293 0 -7.4213933381210943e-06 -0.024866325587692955 0 -5.0304557783465403e-05 -0.024865017362152082 0 -3.5272071092736316e-05 -0.024896122428347198 0 -4.6953780419913104e-05 -0.024851697338217293 0 -3.5272071092736316e-05 -0.024896122428347198 0 -2.9867104100925407e-05 -0.024884449627209721 0 -4.6953780419913104e-05 -0.024851697338217293 0 -1.0613198481762999e-08 -0.025000016219059274 0 4.3060660038333843e-09 -0.0249999952945404 0 -3.213339712311824e-06 -0.025002136687954334 0 -6.7644820668026629e-10 -0.024999970057552327 0 -1.0877321310852656e-05 -0.024935892705493921 0 5.8802059187145321e-08 -0.024999770568122307 0 -7.4213933381210943e-06 -0.024866325587692955 0 -2.0726608228420653e-05 -0.024920068730637717 0 -2.9867104100925407e-05 -0.024884449627209721 0 -7.4213933381210943e-06 -0.024866325587692955 0 -2.0726608228420653e-05 -0.024920068730637717 0 -4.7551571522200162e-06 -0.02497357088099313 0 1.6221437644579761e-10 -0.024999965599386401 0 -1.3786506398922059e-06 -0.02498494686375188 0 -4.7551571522200162e-06 -0.02497357088099313 0 -1.1456859991063917e-05 -0.024949851828119957 0 -7.372051990179293e-06 -0.024968661636765463 0 -4.7551571522200162e-06 -0.02497357088099313 0 -7.372051990179293e-06 -0.024968661636765463 0 -1.3786506398922059e-06 -0.02498494686375188 0 -4.7551571522200162e-06 -0.02497357088099313 0 -9.8453846183925512e-06 -0.024958679770885471 0 1.6221437644579761e-10 -0.024999965599386401 0 -4.7551571522200162e-06 -0.02497357088099313 0 -9.8453846183925512e-06 -0.024958679770885471 0 -1.1456859991063917e-05 -0.024949851828119957 0 -9.8453846183925512e-06 -0.024958679770885471 0 1.6221437644579761e-10 -0.024999965599386401 0 -5.7321407094877606e-09 -0.024999952548874368 0 -2.2773651089619279e-08 -0.024999999045948424 0 -5.7321407094877606e-09 -0.024999952548874368 0 -1.0052513241820218e-05 -0.024972745774438154 0 -1.441799753774189e-05 -0.024967322088987196 0 -1.0052513241820218e-05 -0.024972745774438154 0 -2.3407785005928816e-05 -0.024949267000579253 0 -9.8453846183925512e-06 -0.024958679770885471 0 -5.7321407094877606e-09 -0.024999952548874368 0 -1.0052513241820218e-05 -0.024972745774438154 0 -9.8453846183925512e-06 -0.024958679770885471 0 -1.0052513241820218e-05 -0.024972745774438154 0 -1.8894704263089109e-05 -0.024950706755491714 0 -9.8453846183925512e-06 -0.024958679770885471 0 -1.8894704263089109e-05 -0.024950706755491714 0 -2.6557241036510416e-05 -0.02494309809776982 0 -1.0052513241820218e-05 -0.024972745774438154 0 -1.8894704263089109e-05 -0.024950706755491714 0 -2.3407785005928816e-05 -0.024949267000579253 0 -1.8894704263089109e-05 -0.024950706755491714 0 -2.3407785005928816e-05 -0.024949267000579253 0 -3.3364546250920847e-05 -0.0249235910870453 0 -3.3364546250920847e-05 -0.0249235910870453 0 -2.6557241036510416e-05 -0.02494309809776982 0 -3.8054104424293552e-05 -0.024911792620685283 0 -5.6472965254560496e-05 -0.024904822572321315 0 6.6153159933007323e-05 -0.025077000148876819 0 -1.8894704263089109e-05 -0.024950706755491714 0 -3.3364546250920847e-05 -0.0249235910870453 0 -2.6557241036510416e-05 -0.02494309809776982 0 -2.3897420327095722e-05 -0.024899570502351573 0 -4.9577459570615399e-05 -0.024894891870282054 0 -7.2139274565240086e-05 -0.024839011798828033 0 -2.3897420327095722e-05 -0.024899570502351573 0 -3.4448389372185793e-05 -0.0249306305493864 0 -4.9577459570615399e-05 -0.024894891870282054 0 -2.3897420327095722e-05 -0.024899570502351573 0 -1.1456859991063917e-05 -0.024949851828119957 0 -3.4448389372185793e-05 -0.0249306305493864 0 -9.8453846183925512e-06 -0.024958679770885471 0 -2.3897420327095722e-05 -0.024899570502351573 0 -1.1456859991063917e-05 -0.024949851828119957 0 -1.2382656997908857e-06 -0.024952700116150382 0 -5.6472965254560496e-05 -0.024904822572321315 0 -1.1456859991063917e-05 -0.024949851828119957 0 -2.0983131085898073e-05 -0.024954337853584412 0 -7.372051990179293e-06 -0.024968661636765463 0 -1.1456859991063917e-05 -0.024949851828119957 0 -3.4448389372185793e-05 -0.0249306305493864 0 -2.0983131085898073e-05 -0.024954337853584412 0 -3.4448389372185793e-05 -0.0249306305493864 0 -9.2715124283470094e-05 -0.024906270724826075 0 -4.6397416405555114e-05 -0.024953702490202737 0 -3.4448389372185793e-05 -0.0249306305493864 0 -9.2715124283470094e-05 -0.024906270724826075 0 -4.9577459570615399e-05 -0.024894891870282054 0 0.00030194894353534725 -0.020042965760807736 0 -1.9202905122499737e-05 -0.019874997218911904 0 -9.7020039068759989e-06 -0.020433816648982927 0 -1.9202905122499737e-05 -0.019874997218911904 0 4.8361148961887482e-05 -0.019530006282616651 0 -0.00010583405643397378 -0.019449085200754907 0 0.00014528584644054159 -0.022614033516225804 0 -0.00014794080083625386 -0.021550257249720827 0 -9.2715124283470094e-05 -0.024906270724826075 0 -7.2139274565240086e-05 -0.024839011798828033 0 -0.0001458804635112879 -0.024818775845609847 0 0.00030194894353534725 -0.020042965760807736 0 -1.9202905122499737e-05 -0.019874997218911904 0 4.8361148961887482e-05 -0.019530006282616651 0 -9.2715124283470094e-05 -0.024906270724826075 0 -4.9577459570615399e-05 -0.024894891870282054 0 -7.2139274565240086e-05 -0.024839011798828033 0 -3.8054104424293552e-05 -0.024911792620685283 0 -3.875821653844448e-05 -0.02490071680513576 0 -4.1044270014774864e-05 -0.024887972512229361 0 -3.3364546250920847e-05 -0.0249235910870453 0 -3.8054104424293552e-05 -0.024911792620685283 0 -3.875821653844448e-05 -0.02490071680513576 0 -3.673803860410895e-05 -0.02491621587669127 0 -3.3364546250920847e-05 -0.0249235910870453 0 -3.875821653844448e-05 -0.02490071680513576 0 -3.7351571371629232e-05 -0.02490324325500011 0 -3.875821653844448e-05 -0.02490071680513576 0 -3.9808602219236293e-05 -0.024881603900866335 0 -0.00048028946778406556 -0.02318240261272821 0 -0.0011327092572579146 -0.020975122179486442 0 -3.875821653844448e-05 -0.02490071680513576 0 -3.9808602219236293e-05 -0.024881603900866335 0 -4.1044270014774864e-05 -0.024887972512229361 0 -0.0011327092572579146 -0.020975122179486442 0 -0.0010244885114286896 -0.021229996778662427 0 -0.0011327092572579146 -0.020975122179486442 0 -0.0017973162755051579 -0.01841051212163286 0 -3.8054104424293552e-05 -0.024911792620685283 0 -4.1044270014774864e-05 -0.024887972512229361 0 -4.3372629160449987e-05 -0.024874370984826553 0 -3.9808602219236293e-05 -0.024881603900866335 0 -4.1044270014774864e-05 -0.024887972512229361 0 -4.258658729723093e-05 -0.024873125966580416 0 -4.1044270014774864e-05 -0.024887972512229361 0 -4.3372629160449987e-05 -0.024874370984826553 0 -4.258658729723093e-05 -0.024873125966580416 0 -7.2139274565240086e-05 -0.024839011798828033 0 -0.00015901791753055334 -0.024784502901098356 0 -0.0001458804635112879 -0.024818775845609847 0 6.6153159933007323e-05 -0.025077000148876819 0 -0.00046144488430697344 -0.021935148803113466 0 -0.0013670577943099675 -0.020576638463046699 0 -0.001049741006832648 -0.01980500353483566 0 -0.00091634634720796058 -0.02008615387476358 0 -0.00046144488430697344 -0.021935148803113466 0 -0.0010244885114286896 -0.021229996778662427 0 -0.00053078880231508495 -0.020131044320728042 0 -0.00016862274897678679 -0.020886093776358857 0 -0.00099879723399707502 -0.020463201057226404 0 -0.00046144488430697344 -0.021935148803113466 0 -0.00014794080083625386 -0.021550257249720827 0 -0.00014794080083625386 -0.021550257249720827 0 -0.0010601811213280308 -0.018748267594035105 0 -0.0030874581577846304 -0.016173118110106615 0 -0.0027714069838093813 -0.016383946737136557 0 -0.002134772960329441 -0.015647222378183563 0 -0.0010610843488592927 -0.020394286754061998 0 -0.0020928724525517885 -0.017301314161029823 0 -0.00048937058849128244 -0.018679335466815186 0 -0.00075815689111441507 -0.01934354313301944 0 -0.0020651020569901805 -0.018466753237210049 0 -0.0010601811213280308 -0.018748267594035105 0 -0.0020928724525517885 -0.017301314161029823 0 -0.00046144488430697344 -0.021935148803113466 0 -0.0010610843488592927 -0.020394286754061998 0 -0.00053078880231508495 -0.020131044320728042 0 -0.00084679673417544085 -0.020088612758855588 0 -0.00099879723399707502 -0.020463201057226404 0 -0.0010610843488592927 -0.020394286754061998 0 -0.0010601811213280308 -0.018748267594035105 0 -0.0020928724525517885 -0.017301314161029823 0 -0.0021992391083494973 -0.01540057402745606 0 -0.0020928724525517885 -0.017301314161029823 0 -0.002386688503826099 -0.015977491018443084 0 -0.0020641160990947072 -0.016766788958467546 0 -0.0022308373045806982 -0.016344401905378909 0 -0.0026495099397749154 -0.016423643361188268 0 -0.0018960912960817569 -0.018906674734224572 0 -0.0016605508910583387 -0.01893206289817332 0 -0.0019327498377333654 -0.018996508764581022 0 -0.0020641160990947072 -0.016766788958467546 0 -0.0018313197096468756 -0.016514179543521804 0 -0.0022308373045806982 -0.016344401905378909 0 -0.0016605508910583387 -0.01893206289817332 0 -0.0019327498377333654 -0.018996508764581022 0 -0.0018588143843800526 -0.019152319034415291 0 -0.0010610843488592927 -0.020394286754061998 0 -0.0010244885114286896 -0.021229996778662427 0 -0.0014330790412347227 -0.020905324424777716 0 -0.001235974960920515 -0.020930366544533476 0 -0.0013217181875444497 -0.021141500731264879 0 -0.0020928724525517885 -0.017301314161029823 0 -0.0017973162755051579 -0.01841051212163286 0 -0.0010244885114286896 -0.021229996778662427 0 -0.0017973162755051579 -0.01841051212163286 0 -0.0025192017733720816 -0.017197679156366802 0 -0.0016926122355505288 -0.017779990549725455 0 -0.0020627472140444291 -0.018188272660253444 0 -0.0022006630197390483 -0.015742656801096898 0 -0.0018313197096468756 -0.016514179543521804 0 -0.0022308373045806982 -0.016344401905378909 0 -0.0024311155582092928 -0.016273394125088426 0 -0.0017973162755051579 -0.01841051212163286 0 -0.0027309541628203369 -0.015680353326532531 0 -0.0022006630197390483 -0.015742656801096898 0 -0.0026495099397749154 -0.016423643361188268 0 -0.0027309541628203369 -0.015680353326532531 0 -0.0026495099397749154 -0.016423643361188268 0 -0.0031872680914268986 -0.016089958301592114 0 -0.0022006630197390483 -0.015742656801096898 0 -0.0022308373045806982 -0.016344401905378909 0 -0.0026495099397749154 -0.016423643361188268 0 -0.002386688503826099 -0.015977491018443084 0 -0.0028235489482083057 -0.014043347506548154 0 -0.002685656831438558 -0.015649141327104835 0 -0.0022852085243786078 -0.015198958004319089 0 -0.0017601861674856479 -0.015758777170209709 0 -0.0015662427828332254 -0.015944321307136865 0 -0.0022567473285741934 -0.015540391965993499 0 -0.0028501532945932042 -0.015750285843152537 0 -0.0020928724525517885 -0.017301314161029823 0 -0.002275538827915658 -0.015031574751054671 0 -0.002134772960329441 -0.015647222378183563 0 -0.0025509147861476331 -0.014812722271681539 0 -0.0015391300014196837 -0.014924118492293206 0 -0.0022852085243786078 -0.015198958004319089 0 -0.0017601861674856479 -0.015758777170209709 0 -0.0018916771879486994 -0.014761291594121647 0 -0.0021992391083494973 -0.01540057402745606 0 -0.0019427632985120555 -0.014131833712832545 0 -1.9202905122499737e-05 -0.019874997218911904 0 -0.00010583405643397378 -0.019449085200754907 0 -0.00033779972778101585 -0.02001223410660289 0 -0.0030874581577846304 -0.016173118110106615 0 -0.002134772960329441 -0.015647222378183563 0 -0.0025509147861476331 -0.014812722271681539 0 -0.0010601811213280308 -0.018748267594035105 0 -0.0014784008518985191 -0.017264744839384477 0 -1.9202905122499737e-05 -0.019874997218911904 0 -0.00033779972778101585 -0.02001223410660289 0 -9.7020039068759989e-06 -0.020433816648982927 0 -0.001847482240954313 -0.013559090933044346 0 -0.0019427632985120555 -0.014131833712832545 0 -0.0019797588611392028 -0.014255875952006463 0 -0.001922398754482498 -0.013619560649226483 0 -0.0015391300014196837 -0.014924118492293206 0 -0.0025509147861476331 -0.014812722271681539 0 -0.0019797588611392028 -0.014255875952006463 0 -0.0015391300014196837 -0.014924118492293206 0 -0.0014784008518985191 -0.017264744839384477 0 -0.0012954694802313918 -0.017041880410650197 0 -0.001922398754482498 -0.013619560649226483 0 -0.0019354065658731582 -0.012940377685685385 0 -0.0020268392234814294 -0.013371870693180769 0 -0.0025509147861476331 -0.014812722271681539 0 -0.0019797588611392028 -0.014255875952006463 0 -0.0019672044341111179 -0.013632996927643675 0 -0.0019797588611392028 -0.014255875952006463 0 -0.0019672044341111179 -0.013632996927643675 0 -0.001922398754482498 -0.013619560649226483 0 -0.00057579667415989723 -0.02058490306965477 0 -0.0002301656391659234 -0.020824587270044045 0 -9.7020039068759989e-06 -0.020433816648982927 0 -0.00033779972778101585 -0.02001223410660289 0 -0.00057579667415989723 -0.02058490306965477 0 -9.7020039068759989e-06 -0.020433816648982927 0 -0.0002301656391659234 -0.020824587270044045 0 -0.00047942464051995353 -0.020969681603910668 0 -0.00021997438211143606 -0.021248749242012886 0 -0.0002301656391659234 -0.020824587270044045 0 -0.00021997438211143606 -0.021248749242012886 0 0.00013752723709125754 -0.020889070391044554 0 -0.00057579667415989723 -0.02058490306965477 0 -0.0002301656391659234 -0.020824587270044045 0 -0.00047942464051995353 -0.020969681603910668 0 -0.0019672044341111179 -0.013632996927643675 0 -0.0020432058108535316 -0.013735416217808707 0 -0.0019770749043584129 -0.013910804716705822 0 -0.00057579667415989723 -0.02058490306965477 0 -0.00047942464051995353 -0.020969681603910668 0 -0.0008141460163994356 -0.021156124985076668 0 -0.0012954694802313918 -0.017041880410650197 0 -0.001123981188607131 -0.01819033322921117 0 -0.0019672044341111179 -0.013632996927643675 0 -0.001922398754482498 -0.013619560649226483 0 -0.0020432058108535316 -0.013735416217808707 0 -9.0768197398497243e-05 -0.023182881497974359 0 -0.0011107325234272368 -0.019702660675045218 0 -0.0001388419078022346 -0.021581769557921977 0 -0.001123981188607131 -0.01819033322921117 0 -0.00043431387951852569 -0.021521529227170429 0 -0.00025388738733231824 -0.021283566967442762 0 -0.00091697295653870789 -0.02119177047938817 0 -0.00047942464051995353 -0.020969681603910668 0 -0.00021997438211143606 -0.021248749242012886 0 -0.0008141460163994356 -0.021156124985076668 0 -0.00043431387951852569 -0.021521529227170429 0 -0.00098677728656873043 -0.021364031871905907 0 -0.00091697295653870789 -0.02119177047938817 0 -0.00016005192261076619 -0.024575039248531952 0 -0.00012091215216043472 -0.024511994513936378 0 -0.00016251295352669084 -0.024504670356698236 0 -0.00018137124299519655 -0.024793344441378432 0 -2.5607004585489974e-05 -0.024038732479987508 0 -9.0768197398497243e-05 -0.023182881497974359 0 -2.5607004585489974e-05 -0.024038732479987508 0 -0.00016005192261076619 -0.024575039248531952 0 -0.00012091215216043472 -0.024511994513936378 0 2.7892262351894722e-05 -0.024523854387733225 0 -0.00016005192261076619 -0.024575039248531952 0 -0.00017014725693846052 -0.02461349250947769 0 2.7892262351894722e-05 -0.024523854387733225 0 -5.4543444323612065e-05 -0.024754406160969314 0 -0.00017014725693846052 -0.02461349250947769 0 3.7467882798225819e-06 -0.024749781569594249 0 -0.00043431387951852569 -0.021521529227170429 0 -0.00025388738733231824 -0.021283566967442762 0 0.00010032340997784872 -0.021659233875677867 0 -0.0001388419078022346 -0.021581769557921977 0 0.00030823088842604426 -0.021274393376081752 0 -0.00021997438211143606 -0.021248749242012886 0 0.0003873926833063197 -0.021349592189292371 0 0.00013752723709125754 -0.020889070391044554 0 -0.00025388738733231824 -0.021283566967442762 0 0.00010032340997784872 -0.021659233875677867 0 0.0003873926833063197 -0.021349592189292371 0 -2.5607004585489974e-05 -0.024038732479987508 0 1.6094246582641003e-05 -0.024840672261585626 0 -2.5607004585489974e-05 -0.024038732479987508 0 0.00034441848157486753 -0.023143087935286591 0 0.00010032340997784872 -0.021659233875677867 0 0.00053450289022219865 -0.021532592931656946 0 0.0003873926833063197 -0.021349592189292371 0 1.2942751752064088e-05 -0.024826191512232101 0 3.7467882798225819e-06 -0.024749781569594249 0 1.8467890029110373e-05 -0.024820357047659572 0 -8.0920421246746067e-05 -0.024820536032781108 0 -3.3083932123815425e-05 -0.024844934726028327 0 -3.3677241628106801e-05 -0.024815273474227795 0 1.88247822056961e-05 -0.024859604102013037 0 1.8467890029110373e-05 -0.024820357047659572 0 1.9209322967861946e-05 -0.024879752446288671 0 -3.3083932123815425e-05 -0.024844934726028327 0 -3.3677241628106801e-05 -0.024815273474227795 0 -2.8214184185915939e-08 -0.024836313521385909 0 0.0003873926833063197 -0.021349592189292371 0 0.00052813455660946282 -0.021093160525953787 0 0.00013752723709125754 -0.020889070391044554 0 0.00053450289022219865 -0.021532592931656946 0 0.0003873926833063197 -0.021349592189292371 0 0.00096153537755552213 -0.02142105950663745 0 0.0003873926833063197 -0.021349592189292371 0 0.00052813455660946282 -0.021093160525953787 0 0.00096153537755552213 -0.02142105950663745 0 0.00052813455660946282 -0.021093160525953787 0 0.00062980827485623861 -0.020714489990047231 0 0.00013752723709125754 -0.020889070391044554 0 0.00052813455660946282 -0.021093160525953787 0 0.00062980827485623861 -0.020714489990047231 0 0.00096153537755552213 -0.02142105950663745 0 -0.0002301656391659234 -0.020824587270044045 0 0.00013752723709125754 -0.020889070391044554 0 -9.7020039068759989e-06 -0.020433816648982927 0 0.00030194894353534725 -0.020042965760807736 0 0.00062980827485623861 -0.020714489990047231 0 -9.7020039068759989e-06 -0.020433816648982927 0 0.00062980827485623861 -0.020714489990047231 0 0.00013752723709125754 -0.020889070391044554 0 -9.7020039068759989e-06 -0.020433816648982927 0 0.00014528584644054159 -0.022614033516225804 0 0.00028002692388489698 -0.022680415878170226 0 -3.4448389372185793e-05 -0.0249306305493864 0 -4.6397416405555114e-05 -0.024953702490202737 0 -2.0983131085898073e-05 -0.024954337853584412 0 -4.6397416405555114e-05 -0.024953702490202737 0 -2.0983131085898073e-05 -0.024954337853584412 0 -1.0011553765122766e-05 -0.024970730453562906 0 -2.0983131085898073e-05 -0.024954337853584412 0 -7.372051990179293e-06 -0.024968661636765463 0 -1.0011553765122766e-05 -0.024970730453562906 0 -7.372051990179293e-06 -0.024968661636765463 0 -1.0011553765122766e-05 -0.024970730453562906 0 -1.0348848096826833e-08 -0.024987048891884016 0 -1.0011553765122766e-05 -0.024970730453562906 0 4.1775385774666456e-06 -0.0249824317154572 0 -1.0348848096826833e-08 -0.024987048891884016 0 -4.6397416405555114e-05 -0.024953702490202737 0 -1.0011553765122766e-05 -0.024970730453562906 0 -1.6773776557018718e-05 -0.024980893120237463 0 0.00028002692388489698 -0.022680415878170226 0 0.00035594373739014786 -0.023816707434938578 0 0.00034441848157486753 -0.023143087935286591 0 0.00035594373739014786 -0.023816707434938578 0 4.4799611199432532e-05 -0.025282162652781093 0 0.00035594373739014786 -0.023816707434938578 0 1.6094246582641003e-05 -0.024840672261585626 0 6.9362215292367705e-06 -0.024863404595859371 0 2.9304785244554285e-05 -0.024918102820153578 0 2.7962762008342545e-05 -0.024799616338848689 0 1.9209322967861946e-05 -0.024879752446288671 0 2.7962762008342545e-05 -0.024799616338848689 0 -2.8214184185915939e-08 -0.024836313521385909 0 1.9209322967861946e-05 -0.024879752446288671 0 -3.3083932123815425e-05 -0.024844934726028327 0 -2.8214184185915939e-08 -0.024836313521385909 0 1.9209322967861946e-05 -0.024879752446288671 0 -3.3677241628106801e-05 -0.024815273474227795 0 2.7962762008342545e-05 -0.024799616338848689 0 -2.8214184185915939e-08 -0.024836313521385909 0 8.3769350343050073e-06 -0.02495603053145715 0 2.0717436632565087e-05 -0.024958283105098372 0 4.1775385774666456e-06 -0.0249824317154572 0 2.9304785244554285e-05 -0.024918102820153578 0 4.9481442267248231e-05 -0.024974570677434499 0 2.0717436632565087e-05 -0.024958283105098372 0 2.9304785244554285e-05 -0.024918102820153578 0 8.3769350343050073e-06 -0.02495603053145715 0 2.0717436632565087e-05 -0.024958283105098372 0 -1.0011553765122766e-05 -0.024970730453562906 0 -1.6773776557018718e-05 -0.024980893120237463 0 4.1775385774666456e-06 -0.0249824317154572 0 4.9481442267248231e-05 -0.024974570677434499 0 2.0717436632565087e-05 -0.024958283105098372 0 4.1775385774666456e-06 -0.0249824317154572 0 0.00035594373739014786 -0.023816707434938578 0 -0.00020106676731778786 -0.024982064267881587 0 4.1775385774666456e-06 -0.0249824317154572 0 3.5108848133004257e-07 -0.024985008059388754 0 -1.0348848096826833e-08 -0.024987048891884016 0 8.3769350343050073e-06 -0.02495603053145715 0 4.1775385774666456e-06 -0.0249824317154572 0 3.5108848133004257e-07 -0.024985008059388754 0 8.3769350343050073e-06 -0.02495603053145715 0 3.5108848133004257e-07 -0.024985008059388754 0 9.0759599741986405e-07 -0.024980186960388645 0 -7.1452198889712247e-10 -0.024999954718990774 0 9.0759599741986405e-07 -0.024980186960388645 0 -3.332217217379967e-09 -0.024999982655701261 0 3.5108848133004257e-07 -0.024985008059388754 0 -3.332217217379967e-09 -0.024999982655701261 0 -1.0348848096826833e-08 -0.024987048891884016 0 3.5108848133004257e-07 -0.024985008059388754 0 9.0759599741986405e-07 -0.024980186960388645 0 -3.332217217379967e-09 -0.024999982655701261 0 -3.332217217379967e-09 -0.024999982655701261 0 -1.0348848096826833e-08 -0.024987048891884016 0 1.8003564100079588e-09 -0.024999978206705603 0 -7.372051990179293e-06 -0.024968661636765463 0 -1.0348848096826833e-08 -0.024987048891884016 0 -1.3786506398922059e-06 -0.02498494686375188 0 1.6221437644579761e-10 -0.024999965599386401 0 -1.3786506398922059e-06 -0.02498494686375188 0 1.8003564100079588e-09 -0.024999978206705603 0 -1.0348848096826833e-08 -0.024987048891884016 0 -1.3786506398922059e-06 -0.02498494686375188 0 1.8003564100079588e-09 -0.024999978206705603 0 -0.0033608150349774967 -0.012751812832789105 0 -0.0035567612858699834 -0.012845569678847299 0 -0.0032628174148198745 -0.012892050973838547 0 -0.0033608150349774967 -0.012751812832789105 0 -0.0035567612858699834 -0.012845569678847299 0 -0.0034709444203573163 -0.012597145811664625 0 -0.0033608150349774967 -0.012751812832789105 0 -0.0034709444203573163 -0.012597145811664625 0 -0.0031349897790384942 -0.012659782123035736 0 -0.0031178860750421537 -0.012833642945791257 0 -0.0032628174148198745 -0.012892050973838547 0 -0.0030921449536746907 -0.012949180115980346 0 -0.0031349897790384942 -0.012659782123035736 0 -0.0031178860750421537 -0.012833642945791257 0 -0.0029720764120003944 -0.012838953035525659 0 -0.0031178860750421537 -0.012833642945791257 0 -0.0030921449536746907 -0.012949180115980346 0 -0.0029720764120003944 -0.012838953035525659 0 -0.0031349897790384942 -0.012659782123035736 0 -0.0031178860750421537 -0.012833642945791257 0 -0.0032628174148198745 -0.012892050973838547 0 -0.0033608150349774967 -0.012751812832789105 0 -0.0031349897790384942 -0.012659782123035736 0 -0.0032628174148198745 -0.012892050973838547 0 -0.0035567612858699834 -0.012845569678847299 0 -0.0031595706704216761 -0.013134681386343923 0 -0.0032715219389894269 -0.013226732926666516 0 -0.0035567612858699834 -0.012845569678847299 0 -0.0032628174148198745 -0.012892050973838547 0 -0.003129903041983532 -0.013158217706181224 0 -0.0035377810481995358 -0.012861069955399051 0 -0.0031503994477024557 -0.013145422199824128 0 -0.0030921449536746907 -0.012949180115980346 0 -0.003129903041983532 -0.013158217706181224 0 -0.0029818947762315939 -0.013018764492749309 0 -0.0032628174148198745 -0.012892050973838547 0 -0.0030921449536746907 -0.012949180115980346 0 -0.003129903041983532 -0.013158217706181224 0 -0.0035567612858699834 -0.012845569678847299 0 -0.0036034080655535541 -0.013013760367201302 0 -0.0032715219389894269 -0.013226732926666516 0 -0.003220472595603307 -0.012315853962012768 0 -0.0028563357893687407 -0.012169215335177491 0 -0.0027258796370144352 -0.011641602658073383 0 -0.0026107763955153219 -0.011623681310269512 0 -0.0026269053981708714 -0.011493328575470389 0 -0.0026107763955153219 -0.011623681310269512 0 -0.0025084315925662584 -0.011599835629860925 0 -0.0025816147598690322 -0.011761102170499778 0 -0.0035567612858699834 -0.012845569678847299 0 -0.0036034080655535541 -0.013013760367201302 0 -0.0038490441930048229 -0.012800296192835669 0 -0.0026107763955153219 -0.011623681310269512 0 -0.0025084315925662584 -0.011599835629860925 0 -0.0026269053981708714 -0.011493328575470389 0 -0.0027258796370144352 -0.011641602658073383 0 -0.0026107763955153219 -0.011623681310269512 0 -0.0025816147598690322 -0.011761102170499778 0 -0.003220472595603307 -0.012315853962012768 0 -0.0027446596371030873 -0.012061700457625052 0 -0.0025084315925662584 -0.011599835629860925 0 -0.002383632937116647 -0.011461043610681428 0 -0.0023382206157987096 -0.011635346560998778 0 -0.0027446596371030873 -0.012061700457625052 0 -0.0021848564070940392 -0.01155108822631268 0 -0.0025084315925662584 -0.011599835629860925 0 -0.0025816147598690322 -0.011761102170499778 0 -0.0023382206157987096 -0.011635346560998778 0 -0.0022250500169144947 -0.01169038219110935 0 -0.0023703312545656995 -0.011683861457764287 0 -0.0021657940731710824 -0.01158616418313662 0 -0.0022539393375438565 -0.011849328695315627 0 -0.0024012999541780091 -0.011743743585859782 0 -0.0024385772578549383 -0.011932596917775314 0 -0.0022250500169144947 -0.01169038219110935 0 -0.002258399301703786 -0.011775228095278494 0 -0.0023703312545656995 -0.011683861457764287 0 -0.002244013078451262 -0.011818567676516716 0 -0.0027446596371030873 -0.012061700457625052 0 -0.0031511214575492188 -0.012315473299869172 0 -0.0027446596371030873 -0.012061700457625052 0 -0.0026847795842690624 -0.011929135874914993 0 -0.0024012999541780091 -0.011743743585859782 0 -0.0024385772578549383 -0.011932596917775314 0 -0.0035567612858699834 -0.012845569678847299 0 -0.0034709444203573163 -0.012597145811664625 0 -0.0038490441930048229 -0.012800296192835669 0 -0.0024385772578549383 -0.011932596917775314 0 -0.0024383783434537018 -0.012036953422239129 0 -0.002290828724809874 -0.011970150098449652 0 -0.0024385772578549383 -0.011932596917775314 0 -0.0024383783434537018 -0.012036953422239129 0 -0.0025866260164925871 -0.012054861841121617 0 -0.0022539393375438565 -0.011849328695315627 0 -0.0024385772578549383 -0.011932596917775314 0 -0.002290828724809874 -0.011970150098449652 0 -0.0022539393375438565 -0.011849328695315627 0 -0.002290828724809874 -0.011970150098449652 0 -0.0021226473577667521 -0.011879839319477427 0 -0.0024383783434537018 -0.012036953422239129 0 -0.002290828724809874 -0.011970150098449652 0 -0.0022637502833290882 -0.012107695257145433 0 -0.002290828724809874 -0.011970150098449652 0 -0.0022637502833290882 -0.012107695257145433 0 -0.0021226473577667521 -0.011879839319477427 0 -0.0024596115348404137 -0.012268286290917108 0 -0.0022637502833290882 -0.012107695257145433 0 -0.0025596887479223712 -0.012166273100025493 0 -0.0024383783434537018 -0.012036953422239129 0 -0.0022637502833290882 -0.012107695257145433 0 -0.0025596887479223712 -0.012166273100025493 0 -0.0024383783434537018 -0.012036953422239129 0 -0.0025596887479223712 -0.012166273100025493 0 -0.0025866260164925871 -0.012054861841121617 0 -0.0026562778163623409 -0.012280574786282214 0 -0.0027362869718966392 -0.012191133265648302 0 -0.002847105698347389 -0.012298536936479466 0 -0.0026562778163623409 -0.012280574786282214 0 -0.0025596887479223712 -0.012166273100025493 0 -0.0027362869718966392 -0.012191133265648302 0 -0.0025596887479223712 -0.012166273100025493 0 -0.0027362869718966392 -0.012191133265648302 0 -0.0025866260164925871 -0.012054861841121617 0 -0.0026847795842690624 -0.011929135874914993 0 -0.0024385772578549383 -0.011932596917775314 0 -0.0025866260164925871 -0.012054861841121617 0 -0.0026847795842690624 -0.011929135874914993 0 -0.0027362869718966392 -0.012191133265648302 0 -0.0025866260164925871 -0.012054861841121617 0 -0.0026847795842690624 -0.011929135874914993 0 -0.0027362869718966392 -0.012191133265648302 0 -0.0029511365285424286 -0.012332989298693361 0 -0.0031511214575492188 -0.012315473299869172 0 -0.0029166261698635636 -0.012287908942127288 0 -0.0034709444203573163 -0.012597145811664625 0 -0.0031349897790384942 -0.012659782123035736 0 -0.0029511365285424286 -0.012332989298693361 0 -0.0027362869718966392 -0.012191133265648302 0 -0.002847105698347389 -0.012298536936479466 0 -0.0029511365285424286 -0.012332989298693361 0 -0.0028636238029052363 -0.012330039424049814 0 -0.0027473505697476271 -0.012482290475949787 0 -0.0029511365285424286 -0.012332989298693361 0 -0.002847105698347389 -0.012298536936479466 0 -0.0028636238029052363 -0.012330039424049814 0 -0.0029511365285424286 -0.012332989298693361 0 -0.002865937382487257 -0.01234405889963051 0 -0.002847105698347389 -0.012298536936479466 0 -0.0028636238029052363 -0.012330039424049814 0 -0.0028636238029052363 -0.012330039424049814 0 -0.0026622248813819699 -0.01233242739812361 0 -0.0027473505697476271 -0.012482290475949787 0 -0.0026622248813819699 -0.01233242739812361 0 -0.0027473505697476271 -0.012482290475949787 0 -0.0025929026681821101 -0.012507794797480074 0 -0.0027473505697476271 -0.012482290475949787 0 -0.0025929026681821101 -0.012507794797480074 0 -0.0025805903885327687 -0.012641563541572979 0 -0.0027473505697476271 -0.012482290475949787 0 -0.0025805903885327687 -0.012641563541572979 0 -0.0027046293476157362 -0.012692568384781487 0 -0.0027473505697476271 -0.012482290475949787 0 -0.0028476743791198303 -0.012618282383096617 0 -0.0027046293476157362 -0.012692568384781487 0 -0.0031349897790384942 -0.012659782123035736 0 -0.0029511365285424286 -0.012332989298693361 0 -0.0028476743791198303 -0.012618282383096617 0 -0.0027473505697476271 -0.012482290475949787 0 -0.0029511365285424286 -0.012332989298693361 0 -0.0028476743791198303 -0.012618282383096617 0 -0.0024426578442480334 -0.012726208930731637 0 -0.0024376486739229393 -0.012754349689710639 0 -0.0023757283746341212 -0.012686904587829556 0 -0.0025916531156550977 -0.014001236418945316 0 -0.002275538827915658 -0.015031574751054671 0 -0.0022567473285741934 -0.015540391965993499 0 -0.002918169628033946 -0.01524877086959249 0 -0.0028501532945932042 -0.015750285843152537 0 -0.0022567473285741934 -0.015540391965993499 0 -0.002918169628033946 -0.01524877086959249 0 -0.0029030768233171658 -0.015143847137092374 0 -0.0025916531156550977 -0.014001236418945316 0 -0.0028235489482083057 -0.014043347506548154 0 -0.0030144165115610594 -0.013032721236170991 0 -0.0028235489482083057 -0.014043347506548154 0 -0.0024426578442480334 -0.012726208930731637 0 -0.0024408526160644515 -0.012734131124903934 0 -0.0024376486739229393 -0.012754349689710639 0 -0.0024548740992420552 -0.012809013895313671 0 -0.0024385152863296514 -0.012771497966061968 0 -0.0023757283746341212 -0.012686904587829556 0 -0.0026622248813819699 -0.01233242739812361 0 -0.0025929026681821101 -0.012507794797480074 0 -0.0023757283746341212 -0.012686904587829556 0 -0.0024376486739229393 -0.012754349689710639 0 -0.0024385152863296514 -0.012771497966061968 0 -0.0023757283746341212 -0.012686904587829556 0 -0.0024877670583384093 -0.012882205837903345 0 -0.0024548740992420552 -0.012809013895313671 0 -0.0024385152863296514 -0.012771497966061968 0 -0.0025654117421061709 -0.012579294064652987 0 -0.0023955666533450222 -0.012674217192170909 0 -0.0024877670583384093 -0.012882205837903345 0 -0.0024408526160644515 -0.012734131124903934 0 -0.0024376486739229393 -0.012754349689710639 0 -0.0024877670583384093 -0.012882205837903345 0 -0.0024376486739229393 -0.012754349689710639 0 -0.0024385152863296514 -0.012771497966061968 0 -0.0025929026681821101 -0.012507794797480074 0 -0.0024935152805818494 -0.012643877557837717 0 -0.0023757283746341212 -0.012686904587829556 0 -0.0025929026681821101 -0.012507794797480074 0 -0.0025805903885327687 -0.012641563541572979 0 -0.0024935152805818494 -0.012643877557837717 0 -0.0025805903885327687 -0.012641563541572979 0 -0.0024935152805818494 -0.012643877557837717 0 -0.0024353643237945135 -0.012727365947086979 0 -0.0024935152805818494 -0.012643877557837717 0 -0.0023757283746341212 -0.012686904587829556 0 -0.0024353643237945135 -0.012727365947086979 0 -0.0024426578442480334 -0.012726208930731637 0 -0.0023757283746341212 -0.012686904587829556 0 -0.0023165873302634127 -0.012709296903475418 0 -0.002192490943573044 -0.014344155981773438 0 -0.0022110972561056727 -0.014170523694914221 0 -0.0021192359874421568 -0.013909926198577224 0 -0.0025916531156550977 -0.014001236418945316 0 -0.0021896311425293226 -0.0132328438879947 0 -0.0023757283746341212 -0.012686904587829556 0 -0.0023165873302634127 -0.012709296903475418 0 -0.0024353643237945135 -0.012727365947086979 0 -0.0023165873302634127 -0.012709296903475418 0 -0.0023428321824914737 -0.012859887607056435 0 -0.0022156975023207462 -0.013221307111976046 0 -0.002275538827915658 -0.015031574751054671 0 -0.0019427632985120555 -0.014131833712832545 0 -0.0022110972561056727 -0.014170523694914221 0 -0.0021192359874421568 -0.013909926198577224 0 -0.002266342146850561 -0.013688285645604682 0 -0.0023165873302634127 -0.012709296903475418 0 -0.0023428321824914737 -0.012859887607056435 0 -0.0024353643237945135 -0.012727365947086979 0 -0.0023428321824914737 -0.012859887607056435 0 -0.0024486329704674408 -0.012886574973695542 0 -0.0024353643237945135 -0.012727365947086979 0 -0.0023428321824914737 -0.012859887607056435 0 -0.0024486329704674408 -0.012886574973695542 0 -0.0023580328247274377 -0.013013833834977166 0 -0.0024486329704674408 -0.012886574973695542 0 -0.0024353643237945135 -0.012727365947086979 0 -0.002562059979466064 -0.012785732869368502 0 -0.0025805903885327687 -0.012641563541572979 0 -0.0024353643237945135 -0.012727365947086979 0 -0.002562059979466064 -0.012785732869368502 0 -0.0024486329704674408 -0.012886574973695542 0 -0.002562059979466064 -0.012785732869368502 0 -0.0025443341915000225 -0.012924155582837641 0 -0.0025443341915000225 -0.012924155582837641 0 -0.0024564037569519701 -0.013021493793925863 0 -0.0025430115327032296 -0.013070195289994497 0 -0.0024486329704674408 -0.012886574973695542 0 -0.0025443341915000225 -0.012924155582837641 0 -0.0024564037569519701 -0.013021493793925863 0 -0.0024528731053933567 -0.013144412732450666 0 -0.0024078320741190446 -0.013254787896800613 0 -0.002547634420233826 -0.013221646444477507 0 -0.0025430115327032296 -0.013070195289994497 0 -0.0024528731053933567 -0.013144412732450666 0 -0.002547634420233826 -0.013221646444477507 0 -0.0024564037569519701 -0.013021493793925863 0 -0.0025430115327032296 -0.013070195289994497 0 -0.0024528731053933567 -0.013144412732450666 0 -0.0024528731053933567 -0.013144412732450666 0 -0.0023914606378707655 -0.013100169994056513 0 -0.0023698740674130982 -0.013175546694730591 0 -0.0023038847492365434 -0.013178722532289206 0 -0.00234593254602954 -0.013119138099319217 0 -0.0023580328247274377 -0.013013833834977166 0 -0.0024564037569519701 -0.013021493793925863 0 -0.0024528731053933567 -0.013144412732450666 0 -0.0023914606378707655 -0.013100169994056513 0 -0.0024528731053933567 -0.013144412732450666 0 -0.0023698740674130982 -0.013175546694730591 0 -0.0024078320741190446 -0.013254787896800613 0 -0.0023698740674130982 -0.013175546694730591 0 -0.0023119362989183212 -0.013260080479089817 0 -0.0024078320741190446 -0.013254787896800613 0 -0.0023038847492365434 -0.013178722532289206 0 -0.0022760776520695204 -0.013244484372253508 0 -0.0023119362989183212 -0.013260080479089817 0 -0.0023698740674130982 -0.013175546694730591 0 -0.0023038847492365434 -0.013178722532289206 0 -0.0023119362989183212 -0.013260080479089817 0 -0.0023914606378707655 -0.013100169994056513 0 -0.0023698740674130982 -0.013175546694730591 0 -0.00234593254602954 -0.013119138099319217 0 -0.0023698740674130982 -0.013175546694730591 0 -0.0023038847492365434 -0.013178722532289206 0 -0.00234593254602954 -0.013119138099319217 0 -0.0023914606378707655 -0.013100169994056513 0 -0.00234593254602954 -0.013119138099319217 0 -0.0023580328247274377 -0.013013833834977166 0 -0.0024564037569519701 -0.013021493793925863 0 -0.0023914606378707655 -0.013100169994056513 0 -0.0023580328247274377 -0.013013833834977166 0 -0.0024486329704674408 -0.012886574973695542 0 -0.0024564037569519701 -0.013021493793925863 0 -0.0023580328247274377 -0.013013833834977166 0 -0.0021192359874421568 -0.013909926198577224 0 -0.0020715005779182406 -0.013474246544718007 0 -0.002266342146850561 -0.013688285645604682 0 -0.0023428321824914737 -0.012859887607056435 0 -0.0023580328247274377 -0.013013833834977166 0 -0.0022156975023207462 -0.013221307111976046 0 -0.0021896311425293226 -0.0132328438879947 0 -0.0020688090358248934 -0.013323557928333767 0 -0.0019354065658731582 -0.012940377685685385 0 -0.0020268392234814294 -0.013371870693180769 0 -0.0021185138139523797 -0.013278536301555389 0 -0.0023038847492365434 -0.013178722532289206 0 -0.0023580328247274377 -0.013013833834977166 0 -0.0022156975023207462 -0.013221307111976046 0 -0.0023038847492365434 -0.013178722532289206 0 -0.0022156975023207462 -0.013221307111976046 0 -0.0022760776520695204 -0.013244484372253508 0 -0.0022156975023207462 -0.013221307111976046 0 -0.0022760776520695204 -0.013244484372253508 0 -0.0022263646774879305 -0.013269293599774247 0 -0.0022156975023207462 -0.013221307111976046 0 -0.0021951576464822606 -0.013267789988930571 0 -0.0022263646774879305 -0.013269293599774247 0 -0.0022156975023207462 -0.013221307111976046 0 -0.0021185138139523797 -0.013278536301555389 0 -0.0021951576464822606 -0.013267789988930571 0 -0.0020688090358248934 -0.013323557928333767 0 -0.0019427632985120555 -0.014131833712832545 0 -0.0022156975023207462 -0.013221307111976046 0 -0.0019354065658731582 -0.012940377685685385 0 -0.0021185138139523797 -0.013278536301555389 0 -0.0031349897790384942 -0.012659782123035736 0 -0.0029720764120003944 -0.012838953035525659 0 -0.0028476743791198303 -0.012618282383096617 0 -0.0028033022519879224 -0.012790345205819002 0 -0.0029720764120003944 -0.012838953035525659 0 -0.0028325720969177687 -0.012951674483105684 0 -0.0028033022519879224 -0.012790345205819002 0 -0.0029720764120003944 -0.012838953035525659 0 -0.0028476743791198303 -0.012618282383096617 0 -0.0028033022519879224 -0.012790345205819002 0 -0.0028476743791198303 -0.012618282383096617 0 -0.0027046293476157362 -0.012692568384781487 0 -0.002562059979466064 -0.012785732869368502 0 -0.0027046293476157362 -0.012692568384781487 0 -0.0026866093690603812 -0.012865584883738413 0 -0.0025805903885327687 -0.012641563541572979 0 -0.002562059979466064 -0.012785732869368502 0 -0.0027046293476157362 -0.012692568384781487 0 -0.002562059979466064 -0.012785732869368502 0 -0.0025443341915000225 -0.012924155582837641 0 -0.0026866093690603812 -0.012865584883738413 0 -0.0028033022519879224 -0.012790345205819002 0 -0.0027046293476157362 -0.012692568384781487 0 -0.0026866093690603812 -0.012865584883738413 0 -0.0028033022519879224 -0.012790345205819002 0 -0.0026866093690603812 -0.012865584883738413 0 -0.0028325720969177687 -0.012951674483105684 0 -0.0026713785784427181 -0.013055692734255222 0 -0.0028484443451893692 -0.01315309753407958 0 -0.0028325720969177687 -0.012951674483105684 0 -0.0026866093690603812 -0.012865584883738413 0 -0.0026713785784427181 -0.013055692734255222 0 -0.0028325720969177687 -0.012951674483105684 0 -0.0025443341915000225 -0.012924155582837641 0 -0.0026866093690603812 -0.012865584883738413 0 -0.0026713785784427181 -0.013055692734255222 0 -0.0025443341915000225 -0.012924155582837641 0 -0.0025430115327032296 -0.013070195289994497 0 -0.0026713785784427181 -0.013055692734255222 0 -0.0025430115327032296 -0.013070195289994497 0 -0.0026713785784427181 -0.013055692734255222 0 -0.002547634420233826 -0.013221646444477507 0 -0.0026713785784427181 -0.013055692734255222 0 -0.0026759497417844953 -0.013282049586260043 0 -0.002547634420233826 -0.013221646444477507 0 -0.0026713785784427181 -0.013055692734255222 0 -0.0028484443451893692 -0.01315309753407958 0 -0.0026759497417844953 -0.013282049586260043 0 -0.003129903041983532 -0.013158217706181224 0 -0.0028484443451893692 -0.01315309753407958 0 -0.0029818947762315939 -0.013018764492749309 0 -0.0028484443451893692 -0.01315309753407958 0 -0.0028325720969177687 -0.012951674483105684 0 -0.0029818947762315939 -0.013018764492749309 0 -0.0029720764120003944 -0.012838953035525659 0 -0.0028325720969177687 -0.012951674483105684 0 -0.0029818947762315939 -0.013018764492749309 0 -0.0030921449536746907 -0.012949180115980346 0 -0.0029720764120003944 -0.012838953035525659 0 -0.0029818947762315939 -0.013018764492749309 0 -0.0031595706704216761 -0.013134681386343923 0 -0.0029845850653531457 -0.013400830901641634 0 -0.0026950961631479289 -0.01349151528238497 0 -0.003129903041983532 -0.013158217706181224 0 -0.0028484443451893692 -0.01315309753407958 0 -0.0027501821802605715 -0.013494702913470722 0 -0.0031503994477024557 -0.013145422199824128 0 -0.0027154233323423752 -0.013496572245546647 0 -0.0029845850653531457 -0.013400830901641634 0 -0.0031530711721007537 -0.0132312673276013 0 -0.0031304026625906863 -0.013378371217470238 0 -0.0029845850653531457 -0.013400830901641634 0 -0.0030860686836462693 -0.013511921726406194 0 -0.0031304026625906863 -0.013378371217470238 0 -0.0027501821802605715 -0.013494702913470722 0 -0.002527515820613291 -0.013456497857431766 0 -0.0023970244743074885 -0.013619883298771014 0 -0.0028484443451893692 -0.01315309753407958 0 -0.0026759497417844953 -0.013282049586260043 0 -0.0027501821802605715 -0.013494702913470722 0 -0.0026759497417844953 -0.013282049586260043 0 -0.002547634420233826 -0.013221646444477507 0 -0.002527515820613291 -0.013456497857431766 0 -0.0026759497417844953 -0.013282049586260043 0 -0.0027501821802605715 -0.013494702913470722 0 -0.002527515820613291 -0.013456497857431766 0 -0.0026950961631479289 -0.01349151528238497 0 -0.0023698283508621601 -0.013903778257727156 0 -0.0027865908280527924 -0.013846137301072122 0 -0.0029948310413612901 -0.013635908758757769 0 -0.0027865908280527924 -0.013846137301072122 0 -0.0032374328606961517 -0.013799203690518675 0 -0.0026950961631479289 -0.01349151528238497 0 -0.0029948310413612901 -0.013635908758757769 0 -0.0027865908280527924 -0.013846137301072122 0 -0.0029845850653531457 -0.013400830901641634 0 -0.0029948310413612901 -0.013635908758757769 0 -0.0030860686836462693 -0.013511921726406194 0 -0.0029845850653531457 -0.013400830901641634 0 -0.0026950961631479289 -0.01349151528238497 0 -0.0029948310413612901 -0.013635908758757769 0 -0.001922398754482498 -0.013619560649226483 0 -0.0020333833575869715 -0.013511848799564428 0 -0.0020268392234814294 -0.013371870693180769 0 -0.001922398754482498 -0.013619560649226483 0 -0.002035021299900173 -0.013603274987689038 0 -0.0020333833575869715 -0.013511848799564428 0 -0.002035021299900173 -0.013603274987689038 0 -0.0020966782556718138 -0.013518505142905765 0 -0.0020333833575869715 -0.013511848799564428 0 -0.002035021299900173 -0.013603274987689038 0 -0.0020966782556718138 -0.013518505142905765 0 -0.0021198035456163299 -0.013601567552986192 0 -0.0020966782556718138 -0.013518505142905765 0 -0.0020333833575869715 -0.013511848799564428 0 -0.0020860406046734883 -0.013432834452237571 0 -0.0020966782556718138 -0.013518505142905765 0 -0.0020860406046734883 -0.013432834452237571 0 -0.0021701865690205904 -0.013433829391284329 0 -0.0020268392234814294 -0.013371870693180769 0 -0.0021185138139523797 -0.013278536301555389 0 -0.0021007172949681261 -0.013366264507793959 0 -0.0021007172949681261 -0.013366264507793959 0 -0.0020860406046734883 -0.013432834452237571 0 -0.0021615533914308305 -0.013372318380314784 0 -0.0020333833575869715 -0.013511848799564428 0 -0.0020268392234814294 -0.013371870693180769 0 -0.0020860406046734883 -0.013432834452237571 0 -0.0020268392234814294 -0.013371870693180769 0 -0.0021007172949681261 -0.013366264507793959 0 -0.0020860406046734883 -0.013432834452237571 0 -0.0020860406046734883 -0.013432834452237571 0 -0.0021615533914308305 -0.013372318380314784 0 -0.0021701865690205904 -0.013433829391284329 0 -0.0021615533914308305 -0.013372318380314784 0 -0.0022063162852437009 -0.013361146471587985 0 -0.0021701865690205904 -0.013433829391284329 0 -0.0021615533914308305 -0.013372318380314784 0 -0.0022232217716970739 -0.013312332003889985 0 -0.0022063162852437009 -0.013361146471587985 0 -0.0021185138139523797 -0.013278536301555389 0 -0.0021007172949681261 -0.013366264507793959 0 -0.0021615533914308305 -0.013372318380314784 0 -0.0021185138139523797 -0.013278536301555389 0 -0.0021615533914308305 -0.013372318380314784 0 -0.0021746779723334489 -0.013303703595884057 0 -0.0021615533914308305 -0.013372318380314784 0 -0.0021746779723334489 -0.013303703595884057 0 -0.0022232217716970739 -0.013312332003889985 0 -0.0021746779723334489 -0.013303703595884057 0 -0.0021951576464822606 -0.013267789988930571 0 -0.0022232217716970739 -0.013312332003889985 0 -0.0021185138139523797 -0.013278536301555389 0 -0.0021746779723334489 -0.013303703595884057 0 -0.0021951576464822606 -0.013267789988930571 0 -0.0022760776520695204 -0.013244484372253508 0 -0.0022563653630643561 -0.013282974421966725 0 -0.0022263646774879305 -0.013269293599774247 0 -0.0022760776520695204 -0.013244484372253508 0 -0.0022563653630643561 -0.013282974421966725 0 -0.0023119362989183212 -0.013260080479089817 0 -0.0021951576464822606 -0.013267789988930571 0 -0.0022263646774879305 -0.013269293599774247 0 -0.0022232217716970739 -0.013312332003889985 0 -0.0022563653630643561 -0.013282974421966725 0 -0.0022263646774879305 -0.013269293599774247 0 -0.0022232217716970739 -0.013312332003889985 0 -0.0022563653630643561 -0.013282974421966725 0 -0.0022232217716970739 -0.013312332003889985 0 -0.0022477195117531676 -0.013348876200300348 0 -0.0022563653630643561 -0.013282974421966725 0 -0.0022477195117531676 -0.013348876200300348 0 -0.002289486897526788 -0.013333526265262477 0 -0.0022477195117531676 -0.013348876200300348 0 -0.0022824859507626317 -0.013401764168472526 0 -0.002289486897526788 -0.013333526265262477 0 -0.0022232217716970739 -0.013312332003889985 0 -0.0022477195117531676 -0.013348876200300348 0 -0.0022063162852437009 -0.013361146471587985 0 -0.0022477195117531676 -0.013348876200300348 0 -0.0022063162852437009 -0.013361146471587985 0 -0.0022269824517755069 -0.013398104605423226 0 -0.0022063162852437009 -0.013361146471587985 0 -0.0022269824517755069 -0.013398104605423226 0 -0.0021701865690205904 -0.013433829391284329 0 -0.0022477195117531676 -0.013348876200300348 0 -0.0022269824517755069 -0.013398104605423226 0 -0.0022824859507626317 -0.013401764168472526 0 -0.0022269824517755069 -0.013398104605423226 0 -0.0022277126169313504 -0.013458979987612418 0 -0.0022824859507626317 -0.013401764168472526 0 -0.0022269824517755069 -0.013398104605423226 0 -0.0022277126169313504 -0.013458979987612418 0 -0.0021701865690205904 -0.013433829391284329 0 -0.0020966782556718138 -0.013518505142905765 0 -0.0021701865690205904 -0.013433829391284329 0 -0.0021712083471855576 -0.013504949047566441 0 -0.0022277126169313504 -0.013458979987612418 0 -0.0021701865690205904 -0.013433829391284329 0 -0.0021712083471855576 -0.013504949047566441 0 -0.0020966782556718138 -0.013518505142905765 0 -0.0021712083471855576 -0.013504949047566441 0 -0.0021198035456163299 -0.013601567552986192 0 -0.0021712083471855576 -0.013504949047566441 0 -0.0022265577458550749 -0.013539710582924715 0 -0.0021198035456163299 -0.013601567552986192 0 -0.0022277126169313504 -0.013458979987612418 0 -0.0022265577458550749 -0.013539710582924715 0 -0.0022879182572045536 -0.013471806702212924 0 -0.0022277126169313504 -0.013458979987612418 0 -0.0021712083471855576 -0.013504949047566441 0 -0.0022265577458550749 -0.013539710582924715 0 -0.0022265577458550749 -0.013539710582924715 0 -0.0023247898443457087 -0.013533399127967385 0 -0.0022879182572045536 -0.013471806702212924 0 -0.0023247898443457087 -0.013533399127967385 0 -0.0023769753152233734 -0.013432813278998503 0 -0.0022879182572045536 -0.013471806702212924 0 -0.0023769753152233734 -0.013432813278998503 0 -0.0022879182572045536 -0.013471806702212924 0 -0.0022824859507626317 -0.013401764168472526 0 -0.0022277126169313504 -0.013458979987612418 0 -0.0022879182572045536 -0.013471806702212924 0 -0.0022824859507626317 -0.013401764168472526 0 -0.0023769753152233734 -0.013432813278998503 0 -0.0022824859507626317 -0.013401764168472526 0 -0.0023588391213098131 -0.013343512609656575 0 -0.0022824859507626317 -0.013401764168472526 0 -0.002289486897526788 -0.013333526265262477 0 -0.0023588391213098131 -0.013343512609656575 0 -0.0022563653630643561 -0.013282974421966725 0 -0.002289486897526788 -0.013333526265262477 0 -0.0023119362989183212 -0.013260080479089817 0 -0.002289486897526788 -0.013333526265262477 0 -0.0023119362989183212 -0.013260080479089817 0 -0.0023588391213098131 -0.013343512609656575 0 -0.0023119362989183212 -0.013260080479089817 0 -0.0024078320741190446 -0.013254787896800613 0 -0.0023588391213098131 -0.013343512609656575 0 -0.0023769753152233734 -0.013432813278998503 0 -0.0023588391213098131 -0.013343512609656575 0 -0.0024523384778562668 -0.013343436119354376 0 -0.0024078320741190446 -0.013254787896800613 0 -0.0023588391213098131 -0.013343512609656575 0 -0.0024523384778562668 -0.013343436119354376 0 -0.0024078320741190446 -0.013254787896800613 0 -0.002547634420233826 -0.013221646444477507 0 -0.0024523384778562668 -0.013343436119354376 0 -0.002547634420233826 -0.013221646444477507 0 -0.0024523384778562668 -0.013343436119354376 0 -0.002527515820613291 -0.013456497857431766 0 -0.0023247898443457087 -0.013533399127967385 0 -0.0023769753152233734 -0.013432813278998503 0 -0.002527515820613291 -0.013456497857431766 0 -0.0023247898443457087 -0.013533399127967385 0 -0.002527515820613291 -0.013456497857431766 0 -0.0023970244743074885 -0.013619883298771014 0 -0.0023769753152233734 -0.013432813278998503 0 -0.0024523384778562668 -0.013343436119354376 0 -0.002527515820613291 -0.013456497857431766 0 -0.0027501821802605715 -0.013494702913470722 0 -0.0023970244743074885 -0.013619883298771014 0 -0.002274616894907842 -0.013834033222489394 0 -0.0027154233323423752 -0.013496572245546647 0 -0.0022967036283023405 -0.013813661343576937 0 -0.0026950961631479289 -0.01349151528238497 0 -0.002274616894907842 -0.013834033222489394 0 -0.0023698283508621601 -0.013903778257727156 0 -0.0023970244743074885 -0.013619883298771014 0 -0.002274616894907842 -0.013834033222489394 0 -0.0022363618383604354 -0.013695194375463312 0 -0.0023970244743074885 -0.013619883298771014 0 -0.0022721370879355859 -0.013605392769408208 0 -0.0022363618383604354 -0.013695194375463312 0 -0.0023247898443457087 -0.013533399127967385 0 -0.0023970244743074885 -0.013619883298771014 0 -0.0022721370879355859 -0.013605392769408208 0 -0.0022265577458550749 -0.013539710582924715 0 -0.0023247898443457087 -0.013533399127967385 0 -0.0022721370879355859 -0.013605392769408208 0 -0.002274616894907842 -0.013834033222489394 0 -0.0020432058108535316 -0.013735416217808707 0 -0.0019770749043584129 -0.013910804716705822 0 -0.0021768390919964754 -0.013639154298603835 0 -0.0022363618383604354 -0.013695194375463312 0 -0.0020432058108535316 -0.013735416217808707 0 -0.0021768390919964754 -0.013639154298603835 0 -0.0021198035456163299 -0.013601567552986192 0 -0.0020432058108535316 -0.013735416217808707 0 -0.0022265577458550749 -0.013539710582924715 0 -0.0022721370879355859 -0.013605392769408208 0 -0.0021768390919964754 -0.013639154298603835 0 -0.0022265577458550749 -0.013539710582924715 0 -0.0021768390919964754 -0.013639154298603835 0 -0.0021198035456163299 -0.013601567552986192 0 -0.0022721370879355859 -0.013605392769408208 0 -0.0021768390919964754 -0.013639154298603835 0 -0.0022363618383604354 -0.013695194375463312 0 -0.002274616894907842 -0.013834033222489394 0 -0.0022363618383604354 -0.013695194375463312 0 -0.0020432058108535316 -0.013735416217808707 0 -0.001922398754482498 -0.013619560649226483 0 -0.002035021299900173 -0.013603274987689038 0 -0.0020432058108535316 -0.013735416217808707 0 -0.002035021299900173 -0.013603274987689038 0 -0.0021198035456163299 -0.013601567552986192 0 -0.0020432058108535316 -0.013735416217808707 0 -0.002274616894907842 -0.013834033222489394 0 -0.0019770749043584129 -0.013910804716705822 0 -0.0023698283508621601 -0.013903778257727156 0 -0.001123981188607131 -0.01819033322921117 0 -0.0023230701131941381 -0.014739168856438457 0 -0.0014002212593345353 -0.016245120703170968 0 -0.0017790523611443542 -0.016305985434651536 0 -0.0019821951461054606 -0.016155352749094347 0 -0.0014645447680045542 -0.016405025889047326 0 -0.0014002212593345353 -0.016245120703170968 0 -0.0017790523611443542 -0.016305985434651536 0 -0.0011107325234272368 -0.019702660675045218 0 -0.001123981188607131 -0.01819033322921117 0 -0.0011107325234272368 -0.019702660675045218 0 -0.0021140297900926175 -0.016950460233216776 0 -0.0014791610130233221 -0.016393426610452753 0 -0.0017790523611443542 -0.016305985434651536 0 -0.001698420842136948 -0.016538235538642389 0 -0.0017790523611443542 -0.016305985434651536 0 -0.0020552003279932433 -0.016418384716791343 0 -0.0018766127689621779 -0.016597897588420646 0 -0.0017790523611443542 -0.016305985434651536 0 -0.0019821951461054606 -0.016155352749094347 0 -0.0020552003279932433 -0.016418384716791343 0 -0.0020552003279932433 -0.016418384716791343 0 -0.0021625779538957776 -0.01663955596137822 0 -0.0018766127689621779 -0.016597897588420646 0 -0.0020279168414043982 -0.016960651920586326 0 -0.0021625779538957776 -0.01663955596137822 0 -0.0018766127689621779 -0.016597897588420646 0 -0.0020279168414043982 -0.016960651920586326 0 -0.0016582928130149659 -0.016859979877764563 0 -0.0018766127689621779 -0.016597897588420646 0 -0.0017790523611443542 -0.016305985434651536 0 -0.0018766127689621779 -0.016597897588420646 0 -0.001698420842136948 -0.016538235538642389 0 -0.00011166171251606353 -0.024488539021182972 0 -0.00016005192261076619 -0.024575039248531952 0 -0.00016251295352669084 -0.024504670356698236 0 -0.00090305814165557582 -0.020826172255347698 0 -0.0011107325234272368 -0.019702660675045218 0 -0.0016582928130149659 -0.016859979877764563 0 -0.0014791610130233221 -0.016393426610452753 0 -0.001698420842136948 -0.016538235538642389 0 -0.0016582928130149659 -0.016859979877764563 0 -0.0018766127689621779 -0.016597897588420646 0 -0.001698420842136948 -0.016538235538642389 0 -0.0026649048046658583 -0.015130850145558705 0 -0.0029140523162224812 -0.013219490066649341 0 -0.0025376636605458497 -0.016076815113856401 0 -0.0024667493231320817 -0.016395630824079327 0 -0.0030887859896509282 -0.016000660105712751 0 -0.0024667493231320817 -0.016395630824079327 0 -0.0030082366126696499 -0.016673036602075437 0 -0.0030887859896509282 -0.016000660105712751 0 -0.0019821951461054606 -0.016155352749094347 0 -0.0020552003279932433 -0.016418384716791343 0 -0.0024667493231320817 -0.016395630824079327 0 -0.0023230701131941381 -0.014739168856438457 0 -0.0026649048046658583 -0.015130850145558705 0 -0.0019821951461054606 -0.016155352749094347 0 -0.0025376636605458497 -0.016076815113856401 0 -0.0024667493231320817 -0.016395630824079327 0 -0.0024904649046695025 -0.01683840292998429 0 -0.0020279168414043982 -0.016960651920586326 0 -0.0021625779538957776 -0.01663955596137822 0 -0.0020552003279932433 -0.016418384716791343 0 -0.0021625779538957776 -0.01663955596137822 0 -0.0024667493231320817 -0.016395630824079327 0 -0.0024904649046695025 -0.01683840292998429 0 -0.0021625779538957776 -0.01663955596137822 0 -0.0024667493231320817 -0.016395630824079327 0 -0.0024904649046695025 -0.01683840292998429 0 -0.0024667493231320817 -0.016395630824079327 0 -0.0030082366126696499 -0.016673036602075437 0 -0.0023428775188509194 -0.011261748636694607 0 -0.002383712711498745 -0.011309029934079737 0 -0.002327502093039501 -0.01129714069261782 0 -0.002383712711498745 -0.011309029934079737 0 -0.002327502093039501 -0.01129714069261782 0 -0.0023537876597318095 -0.011340224175351989 0 -0.002327502093039501 -0.01129714069261782 0 -0.0023537876597318095 -0.011340224175351989 0 -0.0023076395069608247 -0.011336210304346105 0 -0.0023537876597318095 -0.011340224175351989 0 -0.0023516080372565328 -0.011372623719655608 0 -0.0023076395069608247 -0.011336210304346105 0 -0.0027107978058787049 -0.014100752667052432 0 -0.0029140523162224812 -0.013219490066649341 0 -0.002383712711498745 -0.011309029934079737 0 -0.0023537876597318095 -0.011340224175351989 0 -0.0023858420511705617 -0.011379672846881838 0 -0.0023537876597318095 -0.011340224175351989 0 -0.0023858420511705617 -0.011379672846881838 0 -0.0023516080372565328 -0.011372623719655608 0 -0.0024078820851157015 -0.011379114878393609 0 -0.0023755948476550568 -0.011408423064546919 0 -0.0023998136371273762 -0.011450915205412634 0 -0.0029140523162224812 -0.013219490066649341 0 -0.0030211724559280292 -0.012448420324661123 0 -0.0029948310413612901 -0.013635908758757769 0 -0.0030860686836462693 -0.013511921726406194 0 -0.0032374328606961517 -0.013799203690518675 0 -0.0030860686836462693 -0.013511921726406194 0 -0.0032374328606961517 -0.013799203690518675 0 -0.0032145744651390909 -0.013426766802500977 0 -0.0032374328606961517 -0.013799203690518675 0 -0.0032145744651390909 -0.013426766802500977 0 -0.0032872205367108242 -0.013364281404960928 0 -0.0029140523162224812 -0.013219490066649341 0 -0.0022984690241163496 -0.011706057183413629 0 -0.0024078820851157015 -0.011379114878393609 0 -0.0023755948476550568 -0.011408423064546919 0 -0.0023516080372565328 -0.011372623719655608 0 -0.0023755948476550568 -0.011408423064546919 0 -0.0023516080372565328 -0.011372623719655608 0 -0.0023505665840487669 -0.011406256943943441 0 -0.0023516080372565328 -0.011372623719655608 0 -0.0023149360030933802 -0.011385688778979415 0 -0.0023076395069608247 -0.011336210304346105 0 -0.0023516080372565328 -0.011372623719655608 0 -0.0023505665840487669 -0.011406256943943441 0 -0.0023149360030933802 -0.011385688778979415 0 -0.0023505665840487669 -0.011406256943943441 0 -0.0023257143505409738 -0.011421564968495177 0 -0.0023149360030933802 -0.011385688778979415 0 -0.0023505665840487669 -0.011406256943943441 0 -0.0023670157481841376 -0.011430684184799388 0 -0.0023257143505409738 -0.011421564968495177 0 -0.0023755948476550568 -0.011408423064546919 0 -0.0023505665840487669 -0.011406256943943441 0 -0.0023670157481841376 -0.011430684184799388 0 -0.0036034080655535541 -0.013013760367201302 0 -0.0033601531909012391 -0.013232086548834234 0 -0.0032715219389894269 -0.013226732926666516 0 -0.0023670157481841376 -0.011430684184799388 0 -0.0023257143505409738 -0.011421564968495177 0 -0.0023785273595403637 -0.011466846606556478 0 -0.0028563357893687407 -0.012169215335177491 0 -0.0024003364586842853 -0.011394380930612317 0 -0.0023257143505409738 -0.011421564968495177 0 -0.0023785273595403637 -0.011466846606556478 0 -0.0022888387216766261 -0.011441847964489878 0 -0.0027258796370144352 -0.011641602658073383 0 -0.0028683077252395421 -0.011527188109086895 0 -0.0026269053981708714 -0.011493328575470389 0 -0.0028563357893687407 -0.012169215335177491 0 -0.0030211724559280292 -0.012448420324661123 0 -0.0028563357893687407 -0.012169215335177491 0 -0.0031834250515065123 -0.012713266012020474 0 -0.0031834250515065123 -0.012713266012020474 0 -0.0030211724559280292 -0.012448420324661123 0 -0.0033041549383372362 -0.01324437469284446 0 -0.0032161500911483888 -0.013317014233998408 0 -0.0032907603672556419 -0.013362519409364233 0 -0.0030105137237801081 -0.012340522304165255 0 -0.0029395856917193634 -0.012333885168738425 0 -0.0029315964771272547 -0.012407433164369337 0 -0.0031595706704216761 -0.013134681386343923 0 -0.0032715219389894269 -0.013226732926666516 0 -0.0031530711721007537 -0.0132312673276013 0 -0.0031595706704216761 -0.013134681386343923 0 -0.0029845850653531457 -0.013400830901641634 0 -0.0031530711721007537 -0.0132312673276013 0 -0.0031834250515065123 -0.012713266012020474 0 -0.0032186543949359152 -0.012909229662890327 0 -0.0031530711721007537 -0.0132312673276013 0 -0.0032161500911483888 -0.013317014233998408 0 -0.0031304026625906863 -0.013378371217470238 0 -0.0033041549383372362 -0.01324437469284446 0 -0.0031530711721007537 -0.0132312673276013 0 -0.0032161500911483888 -0.013317014233998408 0 -0.0032161500911483888 -0.013317014233998408 0 -0.0031304026625906863 -0.013378371217470238 0 -0.0032145744651390909 -0.013426766802500977 0 -0.0032161500911483888 -0.013317014233998408 0 -0.0032145744651390909 -0.013426766802500977 0 -0.0032907603672556419 -0.013362519409364233 0 -0.0029386982076615403 -0.012736316379111729 0 -0.0030211724559280292 -0.012448420324661123 0 -0.0030860686836462693 -0.013511921726406194 0 -0.0031304026625906863 -0.013378371217470238 0 -0.0032145744651390909 -0.013426766802500977 0 -0.0023670157481841376 -0.011430684184799388 0 -0.0023785273595403637 -0.011466846606556478 0 -0.0023998136371273762 -0.011450915205412634 0 -0.0023755948476550568 -0.011408423064546919 0 -0.0023670157481841376 -0.011430684184799388 0 -0.0023998136371273762 -0.011450915205412634 0 -0.0022888387216766261 -0.011441847964489878 0 -0.0022608815620679605 -0.011397180694660267 0 -0.0021977368898829764 -0.011418520675967249 0 -0.0024003364586842853 -0.011394380930612317 0 -0.002304741219818818 -0.011448576824394732 0 -0.0025084315925662584 -0.011599835629860925 0 -0.0026269053981708714 -0.011493328575470389 0 -0.002383632937116647 -0.011461043610681428 0 -0.0023257143505409738 -0.011421564968495177 0 -0.0022888387216766261 -0.011441847964489878 0 -0.0022608815620679605 -0.011397180694660267 0 -0.0023257143505409738 -0.011421564968495177 0 -0.0023149360030933802 -0.011385688778979415 0 -0.0022608815620679605 -0.011397180694660267 0 -0.0023149360030933802 -0.011385688778979415 0 -0.0022791510069817052 -0.01136173138248628 0 -0.0022608815620679605 -0.011397180694660267 0 -0.0023149360030933802 -0.011385688778979415 0 -0.0022791510069817052 -0.01136173138248628 0 -0.0023076395069608247 -0.011336210304346105 0 -0.0022153367303124069 -0.011345543470400489 0 -0.0022608815620679605 -0.011397180694660267 0 -0.0021977368898829764 -0.011418520675967249 0 -0.0022791510069817052 -0.01136173138248628 0 -0.0022153367303124069 -0.011345543470400489 0 -0.0022495788023428609 -0.011320734535517112 0 -0.0022791510069817052 -0.01136173138248628 0 -0.0022153367303124069 -0.011345543470400489 0 -0.0022608815620679605 -0.011397180694660267 0 -0.0022153367303124069 -0.011345543470400489 0 -0.0022495788023428609 -0.011320734535517112 0 -0.0022066753594265423 -0.011271340991255171 0 -0.0022495788023428609 -0.011320734535517112 0 -0.0022696138652684912 -0.011283754185087659 0 -0.0022066753594265423 -0.011271340991255171 0 -0.0022791510069817052 -0.01136173138248628 0 -0.0022495788023428609 -0.011320734535517112 0 -0.0023076395069608247 -0.011336210304346105 0 -0.0022495788023428609 -0.011320734535517112 0 -0.0023076395069608247 -0.011336210304346105 0 -0.0022696138652684912 -0.011283754185087659 0 -0.002327502093039501 -0.01129714069261782 0 -0.0023076395069608247 -0.011336210304346105 0 -0.0022696138652684912 -0.011283754185087659 0 -0.0022817828973724962 -0.011239423914257958 0 -0.002327502093039501 -0.01129714069261782 0 -0.0022696138652684912 -0.011283754185087659 0 -0.0022817828973724962 -0.011239423914257958 0 -0.0022696138652684912 -0.011283754185087659 0 -0.0022323378954861471 -0.01123711377726078 0 -0.0022696138652684912 -0.011283754185087659 0 -0.0022323378954861471 -0.01123711377726078 0 -0.0022066753594265423 -0.011271340991255171 0 -0.0021678635218473573 -0.011187596803670699 0 -0.0022323378954861471 -0.01123711377726078 0 -0.0022066753594265423 -0.011271340991255171 0 -0.0021678635218473573 -0.011187596803670699 0 -0.0021362487738236014 -0.011223447223404147 0 -0.0022066753594265423 -0.011271340991255171 0 -0.0021678635218473573 -0.011187596803670699 0 -0.0020570125281506742 -0.011121150084657571 0 -0.0021362487738236014 -0.011223447223404147 0 -0.0020570125281506742 -0.011121150084657571 0 -0.0021362487738236014 -0.011223447223404147 0 -0.0020755386312751871 -0.011228989639919059 0 -0.0020755386312751871 -0.011228989639919059 0 -0.0021549326064060101 -0.011298897485205749 0 -0.0020869141425119623 -0.011317478523447024 0 -0.0021362487738236014 -0.011223447223404147 0 -0.0020755386312751871 -0.011228989639919059 0 -0.0021549326064060101 -0.011298897485205749 0 -0.0020755386312751871 -0.011228989639919059 0 -0.0020343940450870345 -0.011267560172833955 0 -0.0020869141425119623 -0.011317478523447024 0 -0.0022153367303124069 -0.011345543470400489 0 -0.0021549326064060101 -0.011298897485205749 0 -0.0022066753594265423 -0.011271340991255171 0 -0.0021362487738236014 -0.011223447223404147 0 -0.0021549326064060101 -0.011298897485205749 0 -0.0022066753594265423 -0.011271340991255171 0 -0.0020570125281506742 -0.011121150084657571 0 -0.0018886740433406398 -0.011055462286126562 0 -0.0019780142658273651 -0.011153505504211264 0 -0.0018886740433406398 -0.011055462286126562 0 -0.0018899657863670669 -0.011141065301790709 0 -0.0019780142658273651 -0.011153505504211264 0 -0.0018899657863670669 -0.011141065301790709 0 -0.0019780142658273651 -0.011153505504211264 0 -0.0019689991673311549 -0.011215017322232157 0 -0.0020570125281506742 -0.011121150084657571 0 -0.0020755386312751871 -0.011228989639919059 0 -0.0019780142658273651 -0.011153505504211264 0 -0.0020755386312751871 -0.011228989639919059 0 -0.0020343940450870345 -0.011267560172833955 0 -0.0019689991673311549 -0.011215017322232157 0 -0.0020755386312751871 -0.011228989639919059 0 -0.0019780142658273651 -0.011153505504211264 0 -0.0019689991673311549 -0.011215017322232157 0 -0.0020343940450870345 -0.011267560172833955 0 -0.0019892349800748861 -0.011271913888592848 0 -0.0019689991673311549 -0.011215017322232157 0 -0.0019892349800748861 -0.011271913888592848 0 -0.0019689991673311549 -0.011215017322232157 0 -0.0019364197098127723 -0.011261220421579596 0 -0.0019689991673311549 -0.011215017322232157 0 -0.0018769672124923625 -0.011206525559324007 0 -0.0019364197098127723 -0.011261220421579596 0 -0.0018769672124923625 -0.011206525559324007 0 -0.00188693103164154 -0.011256263976069204 0 -0.0018356667562929197 -0.01122894281426496 0 -0.0018769672124923625 -0.011206525559324007 0 -0.00188693103164154 -0.011256263976069204 0 -0.0019364197098127723 -0.011261220421579596 0 -0.0018899657863670669 -0.011141065301790709 0 -0.0019689991673311549 -0.011215017322232157 0 -0.0018769672124923625 -0.011206525559324007 0 -0.00186769336754609 -0.011284801200842218 0 -0.0019158486608444178 -0.011336337624110083 0 -0.0019005377121308461 -0.011371009409429892 0 -0.00186769336754609 -0.011284801200842218 0 -0.0019249622423980197 -0.011305711914557469 0 -0.0019158486608444178 -0.011336337624110083 0 -0.00186769336754609 -0.011284801200842218 0 -0.00188693103164154 -0.011256263976069204 0 -0.0019249622423980197 -0.011305711914557469 0 -0.00186769336754609 -0.011284801200842218 0 -0.00188693103164154 -0.011256263976069204 0 -0.0018356667562929197 -0.01122894281426496 0 -0.0019892349800748861 -0.011271913888592848 0 -0.0019364197098127723 -0.011261220421579596 0 -0.001969731962268715 -0.01130593838173094 0 -0.00188693103164154 -0.011256263976069204 0 -0.0019249622423980197 -0.011305711914557469 0 -0.0019364197098127723 -0.011261220421579596 0 -0.0019249622423980197 -0.011305711914557469 0 -0.0019364197098127723 -0.011261220421579596 0 -0.001969731962268715 -0.01130593838173094 0 -0.0019249622423980197 -0.011305711914557469 0 -0.0019495113435215074 -0.011339482987107172 0 -0.001969731962268715 -0.01130593838173094 0 -0.0019495113435215074 -0.011339482987107172 0 -0.0019885937051345882 -0.011348538171656703 0 -0.0019379991339822998 -0.011382094361325959 0 -0.0019249622423980197 -0.011305711914557469 0 -0.0019495113435215074 -0.011339482987107172 0 -0.0019158486608444178 -0.011336337624110083 0 -0.0019495113435215074 -0.011339482987107172 0 -0.0019158486608444178 -0.011336337624110083 0 -0.0019379991339822998 -0.011382094361325959 0 -0.0019158486608444178 -0.011336337624110083 0 -0.0019379991339822998 -0.011382094361325959 0 -0.0019005377121308461 -0.011371009409429892 0 -0.0019885937051345882 -0.011348538171656703 0 -0.0020409542948017262 -0.011357946068350626 0 -0.0019379991339822998 -0.011382094361325959 0 -0.0019495113435215074 -0.011339482987107172 0 -0.0019885937051345882 -0.011348538171656703 0 -0.001969731962268715 -0.01130593838173094 0 -0.0019885937051345882 -0.011348538171656703 0 -0.001969731962268715 -0.01130593838173094 0 -0.0020243138692642645 -0.011311174415238236 0 -0.0020343940450870345 -0.011267560172833955 0 -0.0019892349800748861 -0.011271913888592848 0 -0.0020243138692642645 -0.011311174415238236 0 -0.0019892349800748861 -0.011271913888592848 0 -0.001969731962268715 -0.01130593838173094 0 -0.0020243138692642645 -0.011311174415238236 0 -0.0020243138692642645 -0.011311174415238236 0 -0.0020409542948017262 -0.011357946068350626 0 -0.0020869141425119623 -0.011317478523447024 0 -0.0020343940450870345 -0.011267560172833955 0 -0.0020243138692642645 -0.011311174415238236 0 -0.0020869141425119623 -0.011317478523447024 0 -0.0019885937051345882 -0.011348538171656703 0 -0.0020243138692642645 -0.011311174415238236 0 -0.0020409542948017262 -0.011357946068350626 0 -0.0021093057981215481 -0.011505827625083512 0 -0.0019379991339822998 -0.011382094361325959 0 -0.0021499058195228603 -0.011429848686914585 0 -0.0020409542948017262 -0.011357946068350626 0 -0.0019379991339822998 -0.011382094361325959 0 -0.0020875488396159508 -0.011398545626160007 0 -0.0019490939808290981 -0.011386258997945644 0 -0.0021123659375882346 -0.011411929022735861 0 -0.0020787748517690037 -0.01151136048874514 0 -0.001894641961728244 -0.011361919619326456 0 -0.0020136770928010257 -0.011497126604326726 0 -0.0019413029105507971 -0.011481044340350289 0 -0.0018981243589987196 -0.011373484605868421 0 -0.0021093057981215481 -0.011505827625083512 0 -0.0019379991339822998 -0.011382094361325959 0 -0.0019005377121308461 -0.011371009409429892 0 -0.0019413029105507971 -0.011481044340350289 0 -0.0018998591767108268 -0.01145746279924636 0 -0.0018981243589987196 -0.011373484605868421 0 -0.0019413029105507971 -0.011481044340350289 0 -0.0018998591767108268 -0.01145746279924636 0 -0.0019260137252558377 -0.011510393963852061 0 -0.0018998591767108268 -0.01145746279924636 0 -0.0018789589400237672 -0.011504221493668799 0 -0.0019260137252558377 -0.011510393963852061 0 -0.0018998591767108268 -0.01145746279924636 0 -0.0018683417753448687 -0.011399264367913288 0 -0.0018508996148791305 -0.011447847437300025 0 -0.0018998591767108268 -0.01145746279924636 0 -0.0018789589400237672 -0.011504221493668799 0 -0.0018508996148791305 -0.011447847437300025 0 -0.0018789589400237672 -0.011504221493668799 0 -0.0018398308039975543 -0.011501128213373915 0 -0.0018508996148791305 -0.011447847437300025 0 -0.0018683417753448687 -0.011399264367913288 0 -0.0018444534502039529 -0.011403423124830024 0 -0.0018508996148791305 -0.011447847437300025 0 -0.0018683417753448687 -0.011399264367913288 0 -0.0018981243589987196 -0.011373484605868421 0 -0.0018399446753812805 -0.011368232490570623 0 -0.0018998591767108268 -0.01145746279924636 0 -0.0018683417753448687 -0.011399264367913288 0 -0.0018981243589987196 -0.011373484605868421 0 -0.0022153367303124069 -0.011345543470400489 0 -0.0021549326064060101 -0.011298897485205749 0 -0.0021510433559944198 -0.01135555629411068 0 -0.0022153367303124069 -0.011345543470400489 0 -0.0021510433559944198 -0.01135555629411068 0 -0.0021977368898829764 -0.011418520675967249 0 -0.0021549326064060101 -0.011298897485205749 0 -0.0021510433559944198 -0.01135555629411068 0 -0.0020869141425119623 -0.011317478523447024 0 -0.0020409542948017262 -0.011357946068350626 0 -0.0020869141425119623 -0.011317478523447024 0 -0.0020875488396159508 -0.011398545626160007 0 -0.0021510433559944198 -0.01135555629411068 0 -0.0020869141425119623 -0.011317478523447024 0 -0.0020875488396159508 -0.011398545626160007 0 -0.0021093057981215481 -0.011505827625083512 0 -0.0021499058195228603 -0.011429848686914585 0 -0.002251734646221761 -0.011512125526774067 0 -0.002251734646221761 -0.011512125526774067 0 -0.002383632937116647 -0.011461043610681428 0 -0.0023382206157987096 -0.011635346560998778 0 -0.0021499058195228603 -0.011429848686914585 0 -0.002251734646221761 -0.011512125526774067 0 -0.002383632937116647 -0.011461043610681428 0 -0.0021510433559944198 -0.01135555629411068 0 -0.0020875488396159508 -0.011398545626160007 0 -0.0021977368898829764 -0.011418520675967249 0 -0.0021123659375882346 -0.011411929022735861 0 -0.002304741219818818 -0.011448576824394732 0 -0.0021657940731710824 -0.01158616418313662 0 -0.0021077775915448369 -0.011716188354715966 0 -0.0020477015317623961 -0.011604682099234926 0 -0.0022250500169144947 -0.01169038219110935 0 -0.002258399301703786 -0.011775228095278494 0 -0.0021077775915448369 -0.011716188354715966 0 -0.0022250500169144947 -0.01169038219110935 0 -0.0021657940731710824 -0.01158616418313662 0 -0.0021077775915448369 -0.011716188354715966 0 -0.0021077775915448369 -0.011716188354715966 0 -0.0020477015317623961 -0.011604682099234926 0 -0.0019939025150976421 -0.011667379934548342 0 -0.0021077775915448369 -0.011716188354715966 0 -0.0019939025150976421 -0.011667379934548342 0 -0.0020247156520151318 -0.011816416060860176 0 -0.0020787748517690037 -0.01151136048874514 0 -0.0021848564070940392 -0.01155108822631268 0 -0.0021093057981215481 -0.011505827625083512 0 -0.002251734646221761 -0.011512125526774067 0 -0.0023382206157987096 -0.011635346560998778 0 -0.0020136770928010257 -0.011497126604326726 0 -0.0021657940731710824 -0.01158616418313662 0 -0.0020477015317623961 -0.011604682099234926 0 -0.0020136770928010257 -0.011497126604326726 0 -0.0020477015317623961 -0.011604682099234926 0 -0.0019682357408303849 -0.01156288570663923 0 -0.0020136770928010257 -0.011497126604326726 0 -0.0019413029105507971 -0.011481044340350289 0 -0.0019682357408303849 -0.01156288570663923 0 -0.0019682357408303849 -0.01156288570663923 0 -0.0019056087643541677 -0.011624910718083898 0 -0.0019939025150976421 -0.011667379934548342 0 -0.0019413029105507971 -0.011481044340350289 0 -0.0019682357408303849 -0.01156288570663923 0 -0.0019260137252558377 -0.011510393963852061 0 -0.0019682357408303849 -0.01156288570663923 0 -0.0019260137252558377 -0.011510393963852061 0 -0.001895691925931088 -0.011560400913394662 0 -0.0019682357408303849 -0.01156288570663923 0 -0.001895691925931088 -0.011560400913394662 0 -0.0019056087643541677 -0.011624910718083898 0 -0.0020477015317623961 -0.011604682099234926 0 -0.0019682357408303849 -0.01156288570663923 0 -0.0019939025150976421 -0.011667379934548342 0 -0.0018443769159888245 -0.011550521724370637 0 -0.0018789589400237672 -0.011504221493668799 0 -0.001895691925931088 -0.011560400913394662 0 -0.0018443769159888245 -0.011550521724370637 0 -0.0018789589400237672 -0.011504221493668799 0 -0.0018398308039975543 -0.011501128213373915 0 -0.0018789589400237672 -0.011504221493668799 0 -0.0019260137252558377 -0.011510393963852061 0 -0.001895691925931088 -0.011560400913394662 0 -0.001895691925931088 -0.011560400913394662 0 -0.0018490021607457882 -0.011609407117143365 0 -0.0019056087643541677 -0.011624910718083898 0 -0.0018443769159888245 -0.011550521724370637 0 -0.001895691925931088 -0.011560400913394662 0 -0.0018490021607457882 -0.011609407117143365 0 -0.0019056087643541677 -0.011624910718083898 0 -0.0018306987496276253 -0.01169336060088759 0 -0.0019302204694610582 -0.011725665996388111 0 -0.0018490021607457882 -0.011609407117143365 0 -0.0019056087643541677 -0.011624910718083898 0 -0.0018306987496276253 -0.01169336060088759 0 -0.0019056087643541677 -0.011624910718083898 0 -0.0019302204694610582 -0.011725665996388111 0 -0.0019939025150976421 -0.011667379934548342 0 -0.0019302204694610582 -0.011725665996388111 0 -0.0019939025150976421 -0.011667379934548342 0 -0.0020247156520151318 -0.011816416060860176 0 -0.0019302204694610582 -0.011725665996388111 0 -0.0019463906588567568 -0.011860744420881333 0 -0.0020247156520151318 -0.011816416060860176 0 -0.0018306987496276253 -0.01169336060088759 0 -0.0019302204694610582 -0.011725665996388111 0 -0.0019463906588567568 -0.011860744420881333 0 -0.001221334276517938 -0.010982836009474171 0 -0.0015799395756995592 -0.011394412585598829 0 -0.0012085420042578416 -0.011340993174444619 0 -0.0015430528048632852 -0.011360450008339754 0 -0.0017551606223037257 -0.011630291368180513 0 -0.0015799395756995592 -0.011394412585598829 0 -0.0012085420042578416 -0.011340993174444619 0 -0.0013301595814797262 -0.011688480065959779 0 -0.0012085420042578416 -0.011340993174444619 0 -0.0010889582581941149 -0.011593847591586217 0 -0.0013301595814797262 -0.011688480065959779 0 -0.0015799395756995592 -0.011394412585598829 0 -0.0016386697636495942 -0.012030786277264033 0 -0.0013301595814797262 -0.011688480065959779 0 -0.0021226473577667521 -0.011879839319477427 0 -0.0020247156520151318 -0.011816416060860176 0 -0.0020024912815570606 -0.012006496292016368 0 -0.0015799395756995592 -0.011394412585598829 0 -0.0020024912815570606 -0.012006496292016368 0 -0.0016386697636495942 -0.012030786277264033 0 -0.0017551606223037257 -0.011630291368180513 0 -0.0019988959935304659 -0.011974396368965632 0 -0.0019463906588567568 -0.011860744420881333 0 -0.0020247156520151318 -0.011816416060860176 0 -0.0020024912815570606 -0.012006496292016368 0 -0.0022637502833290882 -0.012107695257145433 0 -0.0021226473577667521 -0.011879839319477427 0 -0.0020024912815570606 -0.012006496292016368 0 -0.002258399301703786 -0.011775228095278494 0 -0.0021077775915448369 -0.011716188354715966 0 -0.0021226473577667521 -0.011879839319477427 0 -0.0021077775915448369 -0.011716188354715966 0 -0.0021226473577667521 -0.011879839319477427 0 -0.0020247156520151318 -0.011816416060860176 0 -0.002244013078451262 -0.011818567676516716 0 -0.0021419718188509106 -0.011878563931887551 0 -0.00068871534113607274 -0.011101963185671603 0 -0.00047034013307341646 -0.011069787775188232 0 -0.00057462418790891492 -0.011295595988893656 0 -0.00068871534113607274 -0.011101963185671603 0 -0.00047034013307341646 -0.011069787775188232 0 -0.00061461693830486437 -0.010885331031763836 0 -0.00047034013307341646 -0.011069787775188232 0 -0.00040303006599361668 -0.010858997821901599 0 -0.00022131874691329738 -0.010959540644168618 0 -0.00047034013307341646 -0.011069787775188232 0 -0.00035458199827010354 -0.011231418268931426 0 -0.00022131874691329738 -0.010959540644168618 0 -0.00047034013307341646 -0.011069787775188232 0 -0.00035458199827010354 -0.011231418268931426 0 -0.00057462418790891492 -0.011295595988893656 0 -0.00035458199827010354 -0.011231418268931426 0 -0.00045209971955813326 -0.011426984244832072 0 -0.00057462418790891492 -0.011295595988893656 0 -0.00035458199827010354 -0.011231418268931426 0 -0.00045209971955813326 -0.011426984244832072 0 -0.00026552135213702804 -0.011444322821648109 0 -0.00057462418790891492 -0.011295595988893656 0 -0.00079634973179804893 -0.011343698975086875 0 -0.00066322001020556909 -0.011492558622033364 0 -0.00045209971955813326 -0.011426984244832072 0 -0.00057462418790891492 -0.011295595988893656 0 -0.00066322001020556909 -0.011492558622033364 0 -0.00068871534113607274 -0.011101963185671603 0 -0.00057462418790891492 -0.011295595988893656 0 -0.00079634973179804893 -0.011343698975086875 0 -0.00079634973179804893 -0.011343698975086875 0 -0.00085495157229163168 -0.011592392096496713 0 -0.00066322001020556909 -0.011492558622033364 0 -0.00079634973179804893 -0.011343698975086875 0 -0.00094812445797952264 -0.011469339400918726 0 -0.00085495157229163168 -0.011592392096496713 0 -0.00079634973179804893 -0.011343698975086875 0 -0.00094812445797952264 -0.011469339400918726 0 -0.0010023053158890562 -0.01129928654089681 0 -0.0010889582581941149 -0.011593847591586217 0 -0.00094812445797952264 -0.011469339400918726 0 -0.00085495157229163168 -0.011592392096496713 0 -0.0010889582581941149 -0.011593847591586217 0 -0.00094812445797952264 -0.011469339400918726 0 -0.0010023053158890562 -0.01129928654089681 0 -0.0012085420042578416 -0.011340993174444619 0 -0.0010889582581941149 -0.011593847591586217 0 -0.0010023053158890562 -0.01129928654089681 0 -0.001221334276517938 -0.010982836009474171 0 -0.0012085420042578416 -0.011340993174444619 0 -0.0010663766188526735 -0.011117166425449836 0 -0.0012085420042578416 -0.011340993174444619 0 -0.0010023053158890562 -0.01129928654089681 0 -0.0010663766188526735 -0.011117166425449836 0 -0.0010023053158890562 -0.01129928654089681 0 -0.0010663766188526735 -0.011117166425449836 0 -0.00089358810714178834 -0.011080040421365437 0 -0.0010663766188526735 -0.011117166425449836 0 -0.00089358810714178834 -0.011080040421365437 0 -0.0010220191832009348 -0.010897957387334916 0 -0.00068871534113607274 -0.011101963185671603 0 -0.00079634973179804893 -0.011343698975086875 0 -0.00089358810714178834 -0.011080040421365437 0 -0.00079634973179804893 -0.011343698975086875 0 -0.0010023053158890562 -0.01129928654089681 0 -0.00089358810714178834 -0.011080040421365437 0 -0.00068871534113607274 -0.011101963185671603 0 -0.00089358810714178834 -0.011080040421365437 0 -0.00077314534666232269 -0.010938547099027637 0 -0.00089358810714178834 -0.011080040421365437 0 -0.00077314534666232269 -0.010938547099027637 0 -0.0008956834779895185 -0.010832402369299939 0 -0.00089358810714178834 -0.011080040421365437 0 -0.0008956834779895185 -0.010832402369299939 0 -0.0010220191832009348 -0.010897957387334916 0 -0.00094098024481843886 -0.010719962757393307 0 -0.0012478513476092076 -0.011018449217160709 0 -0.0008956834779895185 -0.010832402369299939 0 -0.0010220191832009348 -0.010897957387334916 0 -0.00093430896424238875 -0.010604667007583841 0 -0.00077314534666232269 -0.010938547099027637 0 -0.0008956834779895185 -0.010832402369299939 0 -0.00077351087329931452 -0.010786475893039708 0 -0.0008956834779895185 -0.010832402369299939 0 -0.00077351087329931452 -0.010786475893039708 0 -0.00084612037259510929 -0.010679776416108702 0 -0.001221334276517938 -0.010982836009474171 0 -0.0010220191832009348 -0.010897957387334916 0 -0.00091331426410485108 -0.010677169689018126 0 -0.0015430528048632852 -0.011360450008339754 0 -0.0012478513476092076 -0.011018449217160709 0 -0.0018306987496276253 -0.01169336060088759 0 -0.0017908148032943108 -0.011586371484738473 0 -0.0017238086295741327 -0.011563569594479317 0 -0.001221334276517938 -0.010982836009474171 0 -0.0010663766188526735 -0.011117166425449836 0 -0.0010220191832009348 -0.010897957387334916 0 -0.0018490021607457882 -0.011609407117143365 0 -0.0018306987496276253 -0.01169336060088759 0 -0.0017908148032943108 -0.011586371484738473 0 -0.0018443769159888245 -0.011550521724370637 0 -0.0018490021607457882 -0.011609407117143365 0 -0.0017908148032943108 -0.011586371484738473 0 -0.0018443769159888245 -0.011550521724370637 0 -0.0017908148032943108 -0.011586371484738473 0 -0.0018063364094016248 -0.011533555576543167 0 -0.0017908148032943108 -0.011586371484738473 0 -0.0017827564883284861 -0.011549642248031435 0 -0.0018063364094016248 -0.011533555576543167 0 -0.0017908148032943108 -0.011586371484738473 0 -0.0017589849026684759 -0.011555564826876542 0 -0.0017448135424519466 -0.011557025791084342 0 -0.0017908148032943108 -0.011586371484738473 0 -0.0017448135424519466 -0.011557025791084342 0 -0.0017238086295741327 -0.011563569594479317 0 -0.0017908148032943108 -0.011586371484738473 0 -0.0017589849026684759 -0.011555564826876542 0 -0.0017827564883284861 -0.011549642248031435 0 -0.0017589849026684759 -0.011555564826876542 0 -0.0017493467812332093 -0.011534963949741749 0 -0.0017745732237289284 -0.011521390957632428 0 -0.0017493467812332093 -0.011534963949741749 0 -0.0017745732237289284 -0.011521390957632428 0 -0.0017428468329057567 -0.011508581895024184 0 -0.0017589849026684759 -0.011555564826876542 0 -0.0017493467812332093 -0.011534963949741749 0 -0.0017448135424519466 -0.011557025791084342 0 -0.0017745732237289284 -0.011521390957632428 0 -0.0017428468329057567 -0.011508581895024184 0 -0.0017693135839316563 -0.011466893519992803 0 -0.0017745732237289284 -0.011521390957632428 0 -0.0018104905557615679 -0.011473281741788603 0 -0.0017693135839316563 -0.011466893519992803 0 -0.0017589849026684759 -0.011555564826876542 0 -0.0017827564883284861 -0.011549642248031435 0 -0.0017745732237289284 -0.011521390957632428 0 -0.0017827564883284861 -0.011549642248031435 0 -0.0017745732237289284 -0.011521390957632428 0 -0.0018063364094016248 -0.011533555576543167 0 -0.0018063364094016248 -0.011533555576543167 0 -0.0018398308039975543 -0.011501128213373915 0 -0.0018104905557615679 -0.011473281741788603 0 -0.0017745732237289284 -0.011521390957632428 0 -0.0018063364094016248 -0.011533555576543167 0 -0.0018104905557615679 -0.011473281741788603 0 -0.0018443769159888245 -0.011550521724370637 0 -0.0018063364094016248 -0.011533555576543167 0 -0.0018398308039975543 -0.011501128213373915 0 -0.00084612037259510929 -0.010679776416108702 0 -0.00081543927606535769 -0.010573141530853276 0 -0.00069150324735951069 -0.010658941744533525 0 -0.00077351087329931452 -0.010786475893039708 0 -0.00084612037259510929 -0.010679776416108702 0 -0.00069150324735951069 -0.010658941744533525 0 -0.00087444769353866257 -0.010607425202796956 0 -0.00084612037259510929 -0.010679776416108702 0 -0.00081543927606535769 -0.010573141530853276 0 -0.00087444769353866257 -0.010607425202796956 0 -0.00086587324928746065 -0.010568403882091466 0 -0.00081543927606535769 -0.010573141530853276 0 -0.0008956834779895185 -0.010832402369299939 0 -0.00084612037259510929 -0.010679776416108702 0 -0.00093430896424238875 -0.010604667007583841 0 -0.0017448135424519466 -0.011557025791084342 0 -0.0017238086295741327 -0.011563569594479317 0 -0.0017289705745472995 -0.011548014636389482 0 -0.00087444769353866257 -0.010607425202796956 0 -0.00084612037259510929 -0.010679776416108702 0 -0.00093430896424238875 -0.010604667007583841 0 -0.00087444769353866257 -0.010607425202796956 0 -0.00093430896424238875 -0.010604667007583841 0 -0.00086587324928746065 -0.010568403882091466 0 -0.0017238086295741327 -0.011563569594479317 0 -0.0017186864808647778 -0.011533387760434399 0 -0.0016871355784805599 -0.011499454156785634 0 -0.0017493467812332093 -0.011534963949741749 0 -0.0017448135424519466 -0.011557025791084342 0 -0.0017314025205711482 -0.011535447161962727 0 -0.0017448135424519466 -0.011557025791084342 0 -0.0017289705745472995 -0.011548014636389482 0 -0.0017314025205711482 -0.011535447161962727 0 -0.0017238086295741327 -0.011563569594479317 0 -0.0017289705745472995 -0.011548014636389482 0 -0.0017186864808647778 -0.011533387760434399 0 -0.0017289705745472995 -0.011548014636389482 0 -0.0017186864808647778 -0.011533387760434399 0 -0.0017314025205711482 -0.011535447161962727 0 -0.0017186864808647778 -0.011533387760434399 0 -0.0017314025205711482 -0.011535447161962727 0 -0.0017201832162683265 -0.011514299947167973 0 -0.0017493467812332093 -0.011534963949741749 0 -0.0017314025205711482 -0.011535447161962727 0 -0.0017428468329057567 -0.011508581895024184 0 -0.0017314025205711482 -0.011535447161962727 0 -0.0017428468329057567 -0.011508581895024184 0 -0.0017201832162683265 -0.011514299947167973 0 -0.0017428468329057567 -0.011508581895024184 0 -0.0017201832162683265 -0.011514299947167973 0 -0.0017156795475100507 -0.011492877006255267 0 -0.0017428468329057567 -0.011508581895024184 0 -0.0017156795475100507 -0.011492877006255267 0 -0.0017360066631406034 -0.011475029552736465 0 -0.0017186864808647778 -0.011533387760434399 0 -0.0017201832162683265 -0.011514299947167973 0 -0.0016871355784805599 -0.011499454156785634 0 -0.0017201832162683265 -0.011514299947167973 0 -0.0017156795475100507 -0.011492877006255267 0 -0.0016871355784805599 -0.011499454156785634 0 -0.0017156795475100507 -0.011492877006255267 0 -0.0016871355784805599 -0.011499454156785634 0 -0.001710141165008706 -0.011466202079386676 0 -0.00093430896424238875 -0.010604667007583841 0 -0.00085515072806958883 -0.010506079690161008 0 -0.00086587324928746065 -0.010568403882091466 0 -0.00085515072806958883 -0.010506079690161008 0 -0.00086587324928746065 -0.010568403882091466 0 -0.00081543927606535769 -0.010573141530853276 0 -0.00085515072806958883 -0.010506079690161008 0 -0.00081543927606535769 -0.010573141530853276 0 -0.00079773511768273155 -0.010449758407967023 0 -0.00081543927606535769 -0.010573141530853276 0 -0.00079773511768273155 -0.010449758407967023 0 -0.00071362810038981767 -0.010505744869132567 0 -0.00071362810038981767 -0.010505744869132567 0 -0.0005396919219060783 -0.010506886651381876 0 -0.00069150324735951069 -0.010658941744533525 0 -0.00079773511768273155 -0.010449758407967023 0 -0.00071362810038981767 -0.010505744869132567 0 -0.00071709950313230872 -0.010361737391893876 0 -0.00071362810038981767 -0.010505744869132567 0 -0.0005396919219060783 -0.010506886651381876 0 -0.00064098918658639587 -0.01041237185613444 0 -0.0005396919219060783 -0.010506886651381876 0 -0.00069150324735951069 -0.010658941744533525 0 -0.00046515979202109436 -0.010683862571246356 0 -0.00081543927606535769 -0.010573141530853276 0 -0.00071362810038981767 -0.010505744869132567 0 -0.00069150324735951069 -0.010658941744533525 0 -0.00077351087329931452 -0.010786475893039708 0 -0.00069150324735951069 -0.010658941744533525 0 -0.00061461693830486437 -0.010885331031763836 0 -0.00069150324735951069 -0.010658941744533525 0 -0.00061461693830486437 -0.010885331031763836 0 -0.00046515979202109436 -0.010683862571246356 0 -0.00068871534113607274 -0.011101963185671603 0 -0.00077314534666232269 -0.010938547099027637 0 -0.00061461693830486437 -0.010885331031763836 0 -0.00077314534666232269 -0.010938547099027637 0 -0.00077351087329931452 -0.010786475893039708 0 -0.00061461693830486437 -0.010885331031763836 0 -0.00040303006599361668 -0.010858997821901599 0 -0.00025330853605438713 -0.010687462592193255 0 -0.00022131874691329738 -0.010959540644168618 0 -0.00047034013307341646 -0.011069787775188232 0 -0.00061461693830486437 -0.010885331031763836 0 -0.00040303006599361668 -0.010858997821901599 0 -0.00061461693830486437 -0.010885331031763836 0 -0.00040303006599361668 -0.010858997821901599 0 -0.00046515979202109436 -0.010683862571246356 0 -0.00040303006599361668 -0.010858997821901599 0 -0.00046515979202109436 -0.010683862571246356 0 -0.00025330853605438713 -0.010687462592193255 0 -0.00046515979202109436 -0.010683862571246356 0 -0.00035407641696471817 -0.010478143980130888 0 -0.00025330853605438713 -0.010687462592193255 0 -0.0005396919219060783 -0.010506886651381876 0 -0.00046515979202109436 -0.010683862571246356 0 -0.00035407641696471817 -0.010478143980130888 0 -0.0005396919219060783 -0.010506886651381876 0 -0.00035407641696471817 -0.010478143980130888 0 -0.00050499139413841515 -0.010294672472259401 0 -0.00035407641696471817 -0.010478143980130888 0 -0.00026222001273607171 -0.01026082217259308 0 -0.00050499139413841515 -0.010294672472259401 0 -0.00026222001273607171 -0.01026082217259308 0 -0.00050499139413841515 -0.010294672472259401 0 -0.00033845203742614995 -0.01003592212049291 0 -0.00050499139413841515 -0.010294672472259401 0 -0.00055542952559188205 -0.01011314718771663 0 -0.00033845203742614995 -0.01003592212049291 0 -0.00050499139413841515 -0.010294672472259401 0 -0.00064098918658639587 -0.01041237185613444 0 -0.00067051763221378841 -0.010296081587271511 0 -0.00079773511768273155 -0.010449758407967023 0 -0.00071709950313230872 -0.010361737391893876 0 -0.00075605422767084532 -0.010122469818193865 0 -0.0005396919219060783 -0.010506886651381876 0 -0.00050499139413841515 -0.010294672472259401 0 -0.00064098918658639587 -0.01041237185613444 0 -0.00071362810038981767 -0.010505744869132567 0 -0.00064098918658639587 -0.01041237185613444 0 -0.00071709950313230872 -0.010361737391893876 0 -0.00064098918658639587 -0.01041237185613444 0 -0.00071709950313230872 -0.010361737391893876 0 -0.00067051763221378841 -0.010296081587271511 0 -0.00067051763221378841 -0.010296081587271511 0 -0.00062124813214310811 -0.010206998142440006 0 -0.00075605422767084532 -0.010122469818193865 0 -0.00071709950313230872 -0.010361737391893876 0 -0.00067051763221378841 -0.010296081587271511 0 -0.00075605422767084532 -0.010122469818193865 0 -0.00050499139413841515 -0.010294672472259401 0 -0.00067051763221378841 -0.010296081587271511 0 -0.00062124813214310811 -0.010206998142440006 0 -0.00062124813214310811 -0.010206998142440006 0 -0.00055542952559188205 -0.01011314718771663 0 -0.00075605422767084532 -0.010122469818193865 0 -0.00050499139413841515 -0.010294672472259401 0 -0.00062124813214310811 -0.010206998142440006 0 -0.00055542952559188205 -0.01011314718771663 0 -0.001435571995726132 -0.011334388731457578 0 -0.0017256185122239585 -0.011094916544759841 0 -0.0012592173395383961 -0.01009627307647374 0 -0.00055542952559188205 -0.01011314718771663 0 -0.00075605422767084532 -0.010122469818193865 0 -0.00051785832662727769 -0.0099057325832999244 0 -0.0011055771661695533 -0.010702488873293788 0 -0.00056577608919293476 -0.0095540877255082968 0 -0.00075605422767084532 -0.010122469818193865 0 -0.00051785832662727769 -0.0099057325832999244 0 -0.00055774738653501302 -0.0094869474135307157 0 -0.00051785832662727769 -0.0099057325832999244 0 -0.00033845203742614995 -0.01003592212049291 0 -0.0003516126689435271 -0.0097627604926086211 0 -0.00033845203742614995 -0.01003592212049291 0 -0.0003516126689435271 -0.0097627604926086211 0 -0.00015170784120663761 -0.0098499284942491789 0 -0.00055542952559188205 -0.01011314718771663 0 -0.00051785832662727769 -0.0099057325832999244 0 -0.00033845203742614995 -0.01003592212049291 0 -0.0018981243589987196 -0.011373484605868421 0 -0.0018399446753812805 -0.011368232490570623 0 -0.0018105246270158097 -0.011311608045502403 0 -0.0018399446753812805 -0.011368232490570623 0 -0.0017965297028984431 -0.011350733951950414 0 -0.0018105246270158097 -0.011311608045502403 0 -0.0018399446753812805 -0.011368232490570623 0 -0.0018202542693828358 -0.011409609876758924 0 -0.0017965297028984431 -0.011350733951950414 0 -0.0018399446753812805 -0.011368232490570623 0 -0.0018202542693828358 -0.011409609876758924 0 -0.0018444534502039529 -0.011403423124830024 0 -0.0018683417753448687 -0.011399264367913288 0 -0.0018399446753812805 -0.011368232490570623 0 -0.0018444534502039529 -0.011403423124830024 0 -0.0018202542693828358 -0.011409609876758924 0 -0.0018444534502039529 -0.011403423124830024 0 -0.0018508996148791305 -0.011447847437300025 0 -0.0018202542693828358 -0.011409609876758924 0 -0.0018508996148791305 -0.011447847437300025 0 -0.0018104905557615679 -0.011473281741788603 0 -0.0018398308039975543 -0.011501128213373915 0 -0.0018508996148791305 -0.011447847437300025 0 -0.0018104905557615679 -0.011473281741788603 0 -0.0018202542693828358 -0.011409609876758924 0 -0.0018104905557615679 -0.011473281741788603 0 -0.0017948182677066677 -0.01143612868591079 0 -0.0018202542693828358 -0.011409609876758924 0 -0.0017948182677066677 -0.01143612868591079 0 -0.001776651878912824 -0.011398423920424137 0 -0.0017948182677066677 -0.01143612868591079 0 -0.0017693135839316563 -0.011466893519992803 0 -0.001776651878912824 -0.011398423920424137 0 -0.0018104905557615679 -0.011473281741788603 0 -0.0017948182677066677 -0.01143612868591079 0 -0.0017693135839316563 -0.011466893519992803 0 -0.0017428468329057567 -0.011508581895024184 0 -0.0017693135839316563 -0.011466893519992803 0 -0.0017360066631406034 -0.011475029552736465 0 -0.0017693135839316563 -0.011466893519992803 0 -0.0017388384148480276 -0.011438493232690016 0 -0.0017360066631406034 -0.011475029552736465 0 -0.0017693135839316563 -0.011466893519992803 0 -0.001776651878912824 -0.011398423920424137 0 -0.0017388384148480276 -0.011438493232690016 0 -0.001776651878912824 -0.011398423920424137 0 -0.0017965297028984431 -0.011350733951950414 0 -0.0017554471453569804 -0.011332988946599102 0 -0.001776651878912824 -0.011398423920424137 0 -0.0017554471453569804 -0.011332988946599102 0 -0.001721990138405533 -0.011387567891653469 0 -0.0018202542693828358 -0.011409609876758924 0 -0.001776651878912824 -0.011398423920424137 0 -0.0017965297028984431 -0.011350733951950414 0 -0.0017965297028984431 -0.011350733951950414 0 -0.0017554471453569804 -0.011332988946599102 0 -0.0017693794541747796 -0.011283047960986474 0 -0.0017238086295741327 -0.011563569594479317 0 -0.0016871355784805599 -0.011499454156785634 0 -0.001435571995726132 -0.011334388731457578 0 -0.00085515072806958883 -0.010506079690161008 0 -0.00079773511768273155 -0.010449758407967023 0 -0.00075605422767084532 -0.010122469818193865 0 -0.0016871355784805599 -0.011499454156785634 0 -0.001435571995726132 -0.011334388731457578 0 -0.0016625251632337924 -0.011440520967835249 0 -0.0012478513476092076 -0.011018449217160709 0 -0.0011055771661695533 -0.010702488873293788 0 -0.00093430896424238875 -0.010604667007583841 0 -0.00085515072806958883 -0.010506079690161008 0 -0.00075605422767084532 -0.010122469818193865 0 -0.0017554471453569804 -0.011332988946599102 0 -0.0017208412248430165 -0.011338865911267954 0 -0.0017277147016812415 -0.011255705029135721 0 -0.0017208412248430165 -0.011338865911267954 0 -0.0016700918393718043 -0.011351790959337969 0 -0.0017277147016812415 -0.011255705029135721 0 -0.001721990138405533 -0.011387567891653469 0 -0.0016700918393718043 -0.011351790959337969 0 -0.0016579634317779536 -0.011400079435217043 0 -0.0017208412248430165 -0.011338865911267954 0 -0.001721990138405533 -0.011387567891653469 0 -0.0016700918393718043 -0.011351790959337969 0 -0.0017554471453569804 -0.011332988946599102 0 -0.0017208412248430165 -0.011338865911267954 0 -0.001721990138405533 -0.011387567891653469 0 -0.001776651878912824 -0.011398423920424137 0 -0.001721990138405533 -0.011387567891653469 0 -0.0017388384148480276 -0.011438493232690016 0 -0.001721990138405533 -0.011387567891653469 0 -0.0017388384148480276 -0.011438493232690016 0 -0.0016994173379144808 -0.011427012742211163 0 -0.0017388384148480276 -0.011438493232690016 0 -0.001710141165008706 -0.011466202079386676 0 -0.0016994173379144808 -0.011427012742211163 0 -0.0017388384148480276 -0.011438493232690016 0 -0.001710141165008706 -0.011466202079386676 0 -0.0017360066631406034 -0.011475029552736465 0 -0.0017156795475100507 -0.011492877006255267 0 -0.001710141165008706 -0.011466202079386676 0 -0.0017360066631406034 -0.011475029552736465 0 -0.0016871355784805599 -0.011499454156785634 0 -0.001710141165008706 -0.011466202079386676 0 -0.0016625251632337924 -0.011440520967835249 0 -0.001710141165008706 -0.011466202079386676 0 -0.0016625251632337924 -0.011440520967835249 0 -0.0016994173379144808 -0.011427012742211163 0 -0.0016625251632337924 -0.011440520967835249 0 -0.0016994173379144808 -0.011427012742211163 0 -0.0016579634317779536 -0.011400079435217043 0 -0.001721990138405533 -0.011387567891653469 0 -0.0016994173379144808 -0.011427012742211163 0 -0.0016579634317779536 -0.011400079435217043 0 -0.001435571995726132 -0.011334388731457578 0 -0.0016700918393718043 -0.011351790959337969 0 -0.0016588501197470676 -0.011258291840862297 0 -0.001435571995726132 -0.011334388731457578 0 -0.0016625251632337924 -0.011440520967835249 0 -0.0016579634317779536 -0.011400079435217043 0 -0.001435571995726132 -0.011334388731457578 0 -0.0016700918393718043 -0.011351790959337969 0 -0.0016579634317779536 -0.011400079435217043 0 -0.0016700918393718043 -0.011351790959337969 0 -0.0016588501197470676 -0.011258291840862297 0 -0.0017277147016812415 -0.011255705029135721 0 -0.001435571995726132 -0.011334388731457578 0 -0.0016588501197470676 -0.011258291840862297 0 -0.0017256185122239585 -0.011094916544759841 0 -0.0016588501197470676 -0.011258291840862297 0 -0.0017256185122239585 -0.011094916544759841 0 -0.0017277147016812415 -0.011255705029135721 0 -0.0017256185122239585 -0.011094916544759841 0 -0.0017478901206841467 -0.011185594266030649 0 -0.0017228493284737253 -0.011133645095439657 0 -0.0017256185122239585 -0.011094916544759841 0 -0.0017478901206841467 -0.011185594266030649 0 -0.0017277147016812415 -0.011255705029135721 0 -0.0017478901206841467 -0.011185594266030649 0 -0.0017277147016812415 -0.011255705029135721 0 -0.0017693794541747796 -0.011283047960986474 0 -0.0017554471453569804 -0.011332988946599102 0 -0.0017277147016812415 -0.011255705029135721 0 -0.0017693794541747796 -0.011283047960986474 0 -0.00186769336754609 -0.011284801200842218 0 -0.0019005377121308461 -0.011371009409429892 0 -0.0017478901206841467 -0.011185594266030649 0 -0.0018981243589987196 -0.011373484605868421 0 -0.0017478901206841467 -0.011185594266030649 0 -0.0018105246270158097 -0.011311608045502403 0 -0.00186769336754609 -0.011284801200842218 0 -0.0017478901206841467 -0.011185594266030649 0 -0.0018356667562929197 -0.01122894281426496 0 -0.001894641961728244 -0.011361919619326456 0 -0.0017522167898656024 -0.01120880429092261 0 -0.0017478901206841467 -0.011185594266030649 0 -0.0017693794541747796 -0.011283047960986474 0 -0.0018105246270158097 -0.011311608045502403 0 -0.0017965297028984431 -0.011350733951950414 0 -0.0017693794541747796 -0.011283047960986474 0 -0.0018105246270158097 -0.011311608045502403 0 -0.0018769672124923625 -0.011206525559324007 0 -0.0017996827981671276 -0.011180905395602311 0 -0.0018081556417353141 -0.011138545076223248 0 -0.0018899657863670669 -0.011141065301790709 0 -0.0018769672124923625 -0.011206525559324007 0 -0.0018081556417353141 -0.011138545076223248 0 -0.0018769672124923625 -0.011206525559324007 0 -0.0018356667562929197 -0.01122894281426496 0 -0.0017996827981671276 -0.011180905395602311 0 -0.0017478901206841467 -0.011185594266030649 0 -0.0018356667562929197 -0.01122894281426496 0 -0.0017996827981671276 -0.011180905395602311 0 -0.0017996827981671276 -0.011180905395602311 0 -0.0017441228489848855 -0.011140429714471498 0 -0.0018081556417353141 -0.011138545076223248 0 -0.0017256185122239585 -0.011094916544759841 0 -0.0017228493284737253 -0.011133645095439657 0 -0.0016953169360090588 -0.011128219584794301 0 -0.0017478901206841467 -0.011185594266030649 0 -0.0017441228489848855 -0.011140429714471498 0 -0.0017228493284737253 -0.011133645095439657 0 -0.0017478901206841467 -0.011185594266030649 0 -0.0017996827981671276 -0.011180905395602311 0 -0.0017441228489848855 -0.011140429714471498 0 -0.0017441228489848855 -0.011140429714471498 0 -0.0017228493284737253 -0.011133645095439657 0 -0.0016953169360090588 -0.011128219584794301 0 -0.0017441228489848855 -0.011140429714471498 0 -0.0017432043571508505 -0.011101962794406305 0 -0.0016953169360090588 -0.011128219584794301 0 -0.0017042936069231196 -0.011037137027768811 0 -0.0017432043571508505 -0.011101962794406305 0 -0.0016953169360090588 -0.011128219584794301 0 -0.0017042936069231196 -0.011037137027768811 0 -0.0017500760388219369 -0.011027640517106457 0 -0.0017432043571508505 -0.011101962794406305 0 -0.0017500760388219369 -0.011027640517106457 0 -0.0017432043571508505 -0.011101962794406305 0 -0.0018154053030761195 -0.01107876741566946 0 -0.0017441228489848855 -0.011140429714471498 0 -0.0017432043571508505 -0.011101962794406305 0 -0.0018081556417353141 -0.011138545076223248 0 -0.0017432043571508505 -0.011101962794406305 0 -0.0018081556417353141 -0.011138545076223248 0 -0.0018154053030761195 -0.01107876741566946 0 -0.0018886740433406398 -0.011055462286126562 0 -0.0018899657863670669 -0.011141065301790709 0 -0.0018154053030761195 -0.01107876741566946 0 -0.0018899657863670669 -0.011141065301790709 0 -0.0018081556417353141 -0.011138545076223248 0 -0.0018154053030761195 -0.01107876741566946 0 -0.00015672829875507785 -0.0094209899541086908 0 -0.0003516126689435271 -0.0097627604926086211 0 -0.00015170784120663761 -0.0098499284942491789 0 -0.00051785832662727769 -0.0099057325832999244 0 -0.00055774738653501302 -0.0094869474135307157 0 -0.0003516126689435271 -0.0097627604926086211 0 -0.00055774738653501302 -0.0094869474135307157 0 -0.00015672829875507785 -0.0094209899541086908 0 -0.00080751468158855313 -0.0091541545017542539 0 -0.00055774738653501302 -0.0094869474135307157 0 -0.00015672829875507785 -0.0094209899541086908 0 -0.0003516126689435271 -0.0097627604926086211 0 -0.0017256185122239585 -0.011094916544759841 0 -0.0012592173395383961 -0.01009627307647374 0 -0.0014588130806141887 -0.0089668822898966542 0 -0.0017124529089166539 -0.010982019258061476 0 -0.0016070650659248825 -0.01016120727059513 0 -0.001435571995726132 -0.011334388731457578 0 -0.00055774738653501302 -0.0094869474135307157 0 -0.0012592173395383961 -0.01009627307647374 0 -0.0012592173395383961 -0.01009627307647374 0 -0.0010437101502895304 -0.0094169993124719516 0 -0.0014588130806141887 -0.0089668822898966542 0 -0.00055774738653501302 -0.0094869474135307157 0 -0.0012592173395383961 -0.01009627307647374 0 -0.0010437101502895304 -0.0094169993124719516 0 -0.00055774738653501302 -0.0094869474135307157 0 -0.0010437101502895304 -0.0094169993124719516 0 -0.00080751468158855313 -0.0091541545017542539 0 -0.00080751468158855313 -0.0091541545017542539 0 -0.0014588130806141887 -0.0089668822898966542 0 -0.0010334983796401981 -0.0085100974981261908 0 -0.0010437101502895304 -0.0094169993124719516 0 -0.00080751468158855313 -0.0091541545017542539 0 -0.0014588130806141887 -0.0089668822898966542 0 -0.0010750351601092429 -0.0076863537965490558 0 -0.0014588130806141887 -0.0089668822898966542 0 -0.0010334983796401981 -0.0085100974981261908 0 -0.00015672829875507785 -0.0094209899541086908 0 -0.00080751468158855313 -0.0091541545017542539 0 -0.0010334983796401981 -0.0085100974981261908 0 -0.0007658584985767359 -0.0082524921179296887 0 -0.0007691681733526857 -0.0081391246498451926 0 -0.00074257452889509826 -0.0080418247260486582 0 -0.0007658584985767359 -0.0082524921179296887 0 -0.0007691681733526857 -0.0081391246498451926 0 -0.0010334983796401981 -0.0085100974981261908 0 -0.0005221825303447031 -0.0087674312743063372 0 -0.0010064126409221022 -0.0084927837020008431 0 -0.00094126999743004687 -0.0078475751063769271 0 -0.00070024211308347011 -0.0081060453308565289 0 -0.00076103413446613284 -0.0077754199686886046 0 -0.00093605122175851002 -0.007761882248878217 0 -0.00074257452889509826 -0.0080418247260486582 0 -0.00076103413446613284 -0.0077754199686886046 0 -0.00063926846147135952 -0.0078262803451188117 0 -0.00074257452889509826 -0.0080418247260486582 0 -0.00074257452889509826 -0.0080418247260486582 0 -0.00067493138362104393 -0.0080604356064196102 0 -0.00060695665505384848 -0.0079291584992001417 0 -0.00063926846147135952 -0.0078262803451188117 0 -0.00074257452889509826 -0.0080418247260486582 0 -0.00060695665505384848 -0.0079291584992001417 0 -0.0007691681733526857 -0.0081391246498451926 0 -0.00074257452889509826 -0.0080418247260486582 0 -0.00067493138362104393 -0.0080604356064196102 0 -0.00015672829875507785 -0.0094209899541086908 0 5.0992432470096961e-05 -0.0097964370982033949 0 -0.00015170784120663761 -0.0098499284942491789 0 -0.0007691681733526857 -0.0081391246498451926 0 -0.00067493138362104393 -0.0080604356064196102 0 -0.00065179509337670528 -0.008167353532869414 0 -0.0005221825303447031 -0.0087674312743063372 0 -0.00028239799211045335 -0.0089869349992305787 0 -0.00065179509337670528 -0.008167353532869414 0 -0.00052156644584778588 -0.0080006625232514443 0 -0.00037626399832740468 -0.0081339015611797284 0 -0.00052156644584778588 -0.0080006625232514443 0 -0.000420241554262102 -0.0077814424553324397 0 -0.00037626399832740468 -0.0081339015611797284 0 -0.00067493138362104393 -0.0080604356064196102 0 -0.00052156644584778588 -0.0080006625232514443 0 -0.00060695665505384848 -0.0079291584992001417 0 -0.00067493138362104393 -0.0080604356064196102 0 -0.00065179509337670528 -0.008167353532869414 0 -0.00052156644584778588 -0.0080006625232514443 0 -0.00052156644584778588 -0.0080006625232514443 0 -0.00050737879786247417 -0.0078201937504497904 0 -0.000420241554262102 -0.0077814424553324397 0 -0.00050737879786247417 -0.0078201937504497904 0 -0.00044695615607741985 -0.0077322120931155001 0 -0.000420241554262102 -0.0077814424553324397 0 -0.00052156644584778588 -0.0080006625232514443 0 -0.00050737879786247417 -0.0078201937504497904 0 -0.00060695665505384848 -0.0079291584992001417 0 -0.00050737879786247417 -0.0078201937504497904 0 -0.00060695665505384848 -0.0079291584992001417 0 -0.00055691833505817922 -0.0078037825939726354 0 -0.00063926846147135952 -0.0078262803451188117 0 -0.00060695665505384848 -0.0079291584992001417 0 -0.00055691833505817922 -0.0078037825939726354 0 -0.00055254543330455303 -0.0077359380869085779 0 -0.00055691833505817922 -0.0078037825939726354 0 -0.00048958434154525068 -0.0077406912003509963 0 -0.00055254543330455303 -0.0077359380869085779 0 -0.00063926846147135952 -0.0078262803451188117 0 -0.00055691833505817922 -0.0078037825939726354 0 -0.00050737879786247417 -0.0078201937504497904 0 -0.00055691833505817922 -0.0078037825939726354 0 -0.00048958434154525068 -0.0077406912003509963 0 -0.00050737879786247417 -0.0078201937504497904 0 -0.00044695615607741985 -0.0077322120931155001 0 -0.00048958434154525068 -0.0077406912003509963 0 -0.00044695615607741985 -0.0077322120931155001 0 -0.00048958434154525068 -0.0077406912003509963 0 -0.00044619092934842673 -0.007697829377932096 0 -0.00044619092934842673 -0.007697829377932096 0 -0.00038206344021491794 -0.0076620188769956207 0 -0.00045419821368192974 -0.0076695083281121948 0 -0.00038206344021491794 -0.0076620188769956207 0 -0.00053556266148055756 -0.0076179189642479493 0 -0.00068801409979936412 -0.0073621926436785758 0 -0.00035548626664223723 -0.007636751317400923 0 -0.00017902991625702854 -0.0075866499825344991 0 -0.00038206344021491794 -0.0076620188769956207 0 0.0004162881290565962 -0.0078129363089448414 0 7.4325181339959302e-05 -0.0078650980033871925 0 -0.00044695615607741985 -0.0077322120931155001 0 -0.00044619092934842673 -0.007697829377932096 0 -0.00038206344021491794 -0.0076620188769956207 0 -0.00038206344021491794 -0.0076620188769956207 0 -0.00045419821368192974 -0.0076695083281121948 0 -0.00053556266148055756 -0.0076179189642479493 0 -0.00038206344021491794 -0.0076620188769956207 0 -0.0002045587044334236 -0.0078504223744826785 0 7.4325181339959302e-05 -0.0078650980033871925 0 -0.0002045587044334236 -0.0078504223744826785 0 -0.000420241554262102 -0.0077814424553324397 0 -0.000269961039776912 -0.007991013542722426 0 -0.00044695615607741985 -0.0077322120931155001 0 -0.00038206344021491794 -0.0076620188769956207 0 -0.000420241554262102 -0.0077814424553324397 0 -0.00038206344021491794 -0.0076620188769956207 0 -0.0002045587044334236 -0.0078504223744826785 0 -0.000420241554262102 -0.0077814424553324397 0 -0.00069151097724966368 -0.0075600588741685038 0 -0.00068801409979936412 -0.0073621926436785758 0 -0.00084049874468441219 -0.0074589048613798387 0 -0.00078593498454172805 -0.0076223112897890336 0 -0.00069151097724966368 -0.0075600588741685038 0 -0.00084049874468441219 -0.0074589048613798387 0 -0.00053556266148055756 -0.0076179189642479493 0 -0.00069151097724966368 -0.0075600588741685038 0 -0.00068801409979936412 -0.0073621926436785758 0 0.00044407747018294772 -0.0077277604791028635 0 0.00052432274999121705 -0.0077874898741402583 0 0.0004162881290565962 -0.0078129363089448414 0 0.00041974981796325173 -0.0077381271115039684 0 1.3146688242625299e-05 -0.0073185287995400829 0 0.00041974981796325173 -0.0077381271115039684 0 8.6818945046468444e-05 -0.0080215794038851068 0 7.4325181339959302e-05 -0.0078650980033871925 0 0.0004162881290565962 -0.0078129363089448414 0 0.00041974981796325173 -0.0077381271115039684 0 7.4325181339959302e-05 -0.0078650980033871925 0 0.00041974981796325173 -0.0077381271115039684 0 8.6818945046468444e-05 -0.0080215794038851068 0 0.00019002767413295283 -0.0084562789799262073 0 -0.00041903874019680722 -0.0078649487844152811 0 -0.00040964508716378258 -0.008067679022581483 0 -0.000420241554262102 -0.0077814424553324397 0 -0.000269961039776912 -0.007991013542722426 0 -0.000445812857094258 -0.0081787719087208326 0 -0.0002045587044334236 -0.0078504223744826785 0 -0.000269961039776912 -0.007991013542722426 0 -6.2889272966507552e-05 -0.0079723080311018841 0 -0.0002045587044334236 -0.0078504223744826785 0 7.4325181339959302e-05 -0.0078650980033871925 0 -6.2889272966507552e-05 -0.0079723080311018841 0 8.6818945046468444e-05 -0.0080215794038851068 0 7.4325181339959302e-05 -0.0078650980033871925 0 -6.2889272966507552e-05 -0.0079723080311018841 0 -0.000269961039776912 -0.007991013542722426 0 -6.2889272966507552e-05 -0.0079723080311018841 0 -0.00017142148240358837 -0.0082227297104299057 0 8.6818945046468444e-05 -0.0080215794038851068 0 -0.00017142148240358837 -0.0082227297104299057 0 0.00019002767413295283 -0.0084562789799262073 0 8.6818945046468444e-05 -0.0080215794038851068 0 -6.2889272966507552e-05 -0.0079723080311018841 0 -0.00017142148240358837 -0.0082227297104299057 0 -0.000269961039776912 -0.007991013542722426 0 -0.00017142148240358837 -0.0082227297104299057 0 -0.000445812857094258 -0.0081787719087208326 0 -0.00017142148240358837 -0.0082227297104299057 0 -0.00048018593581237843 -0.0088402654973384759 0 0.00019002767413295283 -0.0084562789799262073 0 -0.00040964508716378258 -0.008067679022581483 0 -9.6763664717646386e-05 -0.0091910237922066627 0 -0.00017142148240358837 -0.0082227297104299057 0 -0.000445812857094258 -0.0081787719087208326 0 -0.00048018593581237843 -0.0088402654973384759 0 -0.00048018593581237843 -0.0088402654973384759 0 0.00019002767413295283 -0.0084562789799262073 0 0.00025272477736975533 -0.0089315400577989444 0 0.00041974981796325173 -0.0077381271115039684 0 0.00019002767413295283 -0.0084562789799262073 0 0.00085943733363634371 -0.0089083049728024763 0 0.00019002767413295283 -0.0084562789799262073 0 0.00025272477736975533 -0.0089315400577989444 0 0.00085943733363634371 -0.0089083049728024763 0 0.00044973767373215207 -0.0095189981814349546 0 0.00085943733363634371 -0.0089083049728024763 0 0.001022207860467835 -0.0098421415456582603 0 0.00025272477736975533 -0.0089315400577989444 0 0.00044973767373215207 -0.0095189981814349546 0 0.00085943733363634371 -0.0089083049728024763 0 -9.6763664717646386e-05 -0.0091910237922066627 0 0.00012939998680810939 -0.010280453181530161 0 -9.6763664717646386e-05 -0.0091910237922066627 0 0.00032217358090882612 -0.0094157194534210224 0 -9.7944357840745407e-05 -0.009143790004437994 0 0.00044973767373215207 -0.0095189981814349546 0 -4.7376449039825846e-05 -0.009903876072297509 0 -0.00048018593581237843 -0.0088402654973384759 0 0.00025272477736975533 -0.0089315400577989444 0 0.00044973767373215207 -0.0095189981814349546 0 0.00029524677475931382 -0.010043798655966189 0 7.8430476919124425e-05 -0.010347719687709955 0 0.00024317142854145653 -0.010476125785809689 0 0.00029524677475931382 -0.010043798655966189 0 7.8430476919124425e-05 -0.010347719687709955 0 -4.2213456882354375e-05 -0.010100316125816735 0 -0.00026222001273607171 -0.01026082217259308 0 -4.2213456882354375e-05 -0.010100316125816735 0 -0.00011399705310812364 -0.010407697495755456 0 -0.00026222001273607171 -0.01026082217259308 0 -0.00033845203742614995 -0.01003592212049291 0 -4.2213456882354375e-05 -0.010100316125816735 0 7.8430476919124425e-05 -0.010347719687709955 0 -4.2213456882354375e-05 -0.010100316125816735 0 -0.00011399705310812364 -0.010407697495755456 0 -0.00035407641696471817 -0.010478143980130888 0 -0.00026222001273607171 -0.01026082217259308 0 -0.00011399705310812364 -0.010407697495755456 0 -0.00033845203742614995 -0.01003592212049291 0 -4.2213456882354375e-05 -0.010100316125816735 0 -0.00015170784120663761 -0.0098499284942491789 0 5.0992432470096961e-05 -0.0097964370982033949 0 -4.2213456882354375e-05 -0.010100316125816735 0 -0.00015170784120663761 -0.0098499284942491789 0 -0.00028239799211045335 -0.0089869349992305787 0 -9.6763664717646386e-05 -0.0091910237922066627 0 5.0992432470096961e-05 -0.0097964370982033949 0 0.00029524677475931382 -0.010043798655966189 0 -4.2213456882354375e-05 -0.010100316125816735 0 -0.00065179509337670528 -0.008167353532869414 0 -0.00037626399832740468 -0.0081339015611797284 0 -0.00036075280504570988 -0.008397542833998144 0 -0.0022513169476134475 -0.0071080365003287028 0 -0.0020095789826346687 -0.0067898553686662538 0 -0.0018485467176928142 -0.0071866481127611896 0 -0.0020095789826346687 -0.0067898553686662538 0 -0.0018485467176928142 -0.0071866481127611896 0 -0.0015209517391858403 -0.0069726573609647183 0 -0.0019620285793999258 -0.0068298606627436613 0 -0.001387382995781563 -0.0070723550924331408 0 -0.0020308907399659458 -0.0076357648416178992 0 -0.0018485467176928142 -0.0071866481127611896 0 -0.0014042911316427069 -0.0074613734537084756 0 -0.0020308907399659458 -0.0076357648416178992 0 -0.0022513169476134475 -0.0071080365003287028 0 -0.0018485467176928142 -0.0071866481127611896 0 -0.0018485467176928142 -0.0071866481127611896 0 -0.0014042911316427069 -0.0074613734537084756 0 -0.0015209517391858403 -0.0069726573609647183 0 -0.001387382995781563 -0.0070723550924331408 0 -0.00072805680384831304 -0.0073549058034958967 0 -0.0012474363532072158 -0.007180018646443141 0 -0.00040306731027095098 -0.0075565462551831931 0 -0.00062128482259065124 -0.0066531055057610913 0 -0.00098687244952326428 -0.0075629520124730603 0 -0.0014042911316427069 -0.0074613734537084756 0 -0.0010716304815596095 -0.0071582082761953159 0 -0.0014042911316427069 -0.0074613734537084756 0 -0.0015209517391858403 -0.0069726573609647183 0 -0.0010716304815596095 -0.0071582082761953159 0 -0.00098687244952326428 -0.0075629520124730603 0 -0.0010716304815596095 -0.0071582082761953159 0 -0.00084049874468441219 -0.0074589048613798387 0 -0.00068801409979936412 -0.0073621926436785758 0 -0.0010716304815596095 -0.0071582082761953159 0 -0.00084049874468441219 -0.0074589048613798387 0 -0.00098687244952326428 -0.0075629520124730603 0 -0.00078593498454172805 -0.0076223112897890336 0 -0.00084049874468441219 -0.0074589048613798387 0 0.00041974981796325173 -0.0077381271115039684 0 1.3146688242625299e-05 -0.0073185287995400829 0 0.00022366846810394946 -0.0066322769933417304 0 -0.00040306731027095098 -0.0075565462551831931 0 1.3146688242625299e-05 -0.0073185287995400829 0 -0.00062128482259065124 -0.0066531055057610913 0 -0.00017902991625702854 -0.0075866499825344991 0 -0.00072805680384831304 -0.0073549058034958967 0 0.0004162881290565962 -0.0078129363089448414 0 -0.00040306731027095098 -0.0075565462551831931 0 1.3146688242625299e-05 -0.0073185287995400829 0 1.3146688242625299e-05 -0.0073185287995400829 0 0.00022366846810394946 -0.0066322769933417304 0 -0.00062128482259065124 -0.0066531055057610913 0 0.00022366846810394946 -0.0066322769933417304 0 -0.00025699642908304818 -0.0062605344003168334 0 -0.00062128482259065124 -0.0066531055057610913 0 0.00052432274999121705 -0.0077874898741402583 0 0.00044260359757582174 -0.0077137996541445054 0 0.00022366846810394946 -0.0066322769933417304 0 -0.00025699642908304818 -0.0062605344003168334 0 -8.8519703081291629e-05 -0.0057381833237357535 0 -0.00025699642908304818 -0.0062605344003168334 0 -0.00063579377640595293 -0.0058121550822955387 0 -8.8519703081291629e-05 -0.0057381833237357535 0 -0.00062128482259065124 -0.0066531055057610913 0 -0.0011559564605583123 -0.0060492967871093256 0 -0.00063579377640595293 -0.0058121550822955387 0 -0.00025699642908304818 -0.0062605344003168334 0 -0.00062128482259065124 -0.0066531055057610913 0 -0.00063579377640595293 -0.0058121550822955387 0 -0.0012474363532072158 -0.007180018646443141 0 -0.00062128482259065124 -0.0066531055057610913 0 -0.0013760917217273193 -0.0065644207779896073 0 -0.00062128482259065124 -0.0066531055057610913 0 -0.0013760917217273193 -0.0065644207779896073 0 -0.0011559564605583123 -0.0060492967871093256 0 -0.0013760917217273193 -0.0065644207779896073 0 -0.0011559564605583123 -0.0060492967871093256 0 -0.0017843117046169826 -0.0061463717076839291 0 -0.0021547183226712351 -0.0056040472684740815 0 -0.0017843117046169826 -0.0061463717076839291 0 -0.0015659828608020356 -0.0056963808032514853 0 -0.0011559564605583123 -0.0060492967871093256 0 -0.0017843117046169826 -0.0061463717076839291 0 -0.0015659828608020356 -0.0056963808032514853 0 -0.0020095789826346687 -0.0067898553686662538 0 -0.0013760917217273193 -0.0065644207779896073 0 -0.0017843117046169826 -0.0061463717076839291 0 -0.0020095789826346687 -0.0067898553686662538 0 -0.0012474363532072158 -0.007180018646443141 0 -0.0013760917217273193 -0.0065644207779896073 0 -0.0023072958062139268 -0.0049406960239517933 0 -0.0017479069993072706 -0.0050856214308824116 0 -0.0018725028076443035 -0.0044226775403972901 0 -0.002110227075004324 -0.0055561594306932872 0 -0.0017331967643997475 -0.0051827168136220278 0 -0.0021547183226712351 -0.0056040472684740815 0 -0.0016290233281418133 -0.0051716860699014674 0 -0.0015659828608020356 -0.0056963808032514853 0 -0.0016290233281418133 -0.0051716860699014674 0 -0.0015659828608020356 -0.0056963808032514853 0 -0.001076673929120874 -0.0053908698374510325 0 -0.0011559564605583123 -0.0060492967871093256 0 -0.0015659828608020356 -0.0056963808032514853 0 -0.001076673929120874 -0.0053908698374510325 0 -0.0011559564605583123 -0.0060492967871093256 0 -0.001076673929120874 -0.0053908698374510325 0 -0.00063579377640595293 -0.0058121550822955387 0 -0.0016290233281418133 -0.0051716860699014674 0 -0.001076673929120874 -0.0053908698374510325 0 -0.0011014831020888169 -0.0046960098793536768 0 -0.0017331967643997475 -0.0051827168136220278 0 -0.0011356371661949019 -0.0044246076288561257 0 -0.001076673929120874 -0.0053908698374510325 0 -0.00036524291164726381 -0.0049614494203299173 0 -0.0011014831020888169 -0.0046960098793536768 0 -0.001076673929120874 -0.0053908698374510325 0 -0.00063579377640595293 -0.0058121550822955387 0 -0.00036524291164726381 -0.0049614494203299173 0 -0.00063579377640595293 -0.0058121550822955387 0 -8.8519703081291629e-05 -0.0057381833237357535 0 -0.00036524291164726381 -0.0049614494203299173 0 0.00044260359757582174 -0.0077137996541445054 0 0.000514830472322831 -0.0080458535949577831 0 0.001022207860467835 -0.0098421415456582603 0 0.0011113968920471601 -0.010488708800223775 0 0.00053339825744928967 -0.010206165974945234 0 0.0011113968920471601 -0.010488708800223775 0 0.00053339825744928967 -0.010206165974945234 0 0.00063222193655056245 -0.010693193390789646 0 0.0011113968920471601 -0.010488708800223775 0 0.00084579403049601432 -0.010930449179137713 0 0.0011905933860642621 -0.010982068463872511 0 0.0011113968920471601 -0.010488708800223775 0 0.00084579403049601432 -0.010930449179137713 0 0.00063222193655056245 -0.010693193390789646 0 0.00084579403049601432 -0.010930449179137713 0 0.0011905933860642621 -0.010982068463872511 0 0.00085014431129922918 -0.011297130496531142 0 -0.00059309033051888581 -0.0061546042683052905 0 6.9217949009430134e-05 -0.0077258981776198712 0 -0.0010506693976877278 -0.0042544148190971935 0 -0.0012156470080860787 -0.0036023439106399394 0 -0.00067078263877389129 -0.0038471013457952977 0 -0.00099473193119511733 -0.0042270628200454354 0 -0.0014217920963208164 -0.0041700075076060179 0 -0.0012156470080860787 -0.0036023439106399394 0 -0.00059309033051888581 -0.0061546042683052905 0 -0.001404624746932117 -0.0028665515733375599 0 0.000514830472322831 -0.0080458535949577831 0 -0.00059309033051888581 -0.0061546042683052905 0 -0.00036524291164726381 -0.0049614494203299173 0 -0.00060071513999415097 -0.0042330407433351725 0 -0.0011014831020888169 -0.0046960098793536768 0 -0.00059309033051888581 -0.0061546042683052905 0 -0.0011356371661949019 -0.0044246076288561257 0 -0.0013727950737807255 -0.0046366406421324575 0 -0.0014217920963208164 -0.0041700075076060179 0 -0.0018725028076443035 -0.0044226775403972901 0 -0.00099473193119511733 -0.0042270628200454354 0 -0.0013727950737807255 -0.0046366406421324575 0 -0.0014217920963208164 -0.0041700075076060179 0 -0.0014217920963208164 -0.0041700075076060179 0 -0.0018725028076443035 -0.0044226775403972901 0 -0.0017029013647158941 -0.0038420743363485541 0 -0.0014217920963208164 -0.0041700075076060179 0 -0.0017029013647158941 -0.0038420743363485541 0 -0.0012156470080860787 -0.0036023439106399394 0 -0.0021845152456356027 -0.0038991876178402704 0 -0.0018725028076443035 -0.0044226775403972901 0 -0.0017029013647158941 -0.0038420743363485541 0 -0.0017479069993072706 -0.0050856214308824116 0 -0.0013727950737807255 -0.0046366406421324575 0 -0.0018725028076443035 -0.0044226775403972901 0 1.1146463138531255e-05 -0.010657722108542236 0 0.00024317142854145653 -0.010476125785809689 0 0.00016123738299310308 -0.010754117935349571 0 1.1146463138531255e-05 -0.010657722108542236 0 -0.00025330853605438713 -0.010687462592193255 0 -0.00022131874691329738 -0.010959540644168618 0 1.1146463138531255e-05 -0.010657722108542236 0 -0.00025330853605438713 -0.010687462592193255 0 -0.00011399705310812364 -0.010407697495755456 0 -0.00035407641696471817 -0.010478143980130888 0 -0.00025330853605438713 -0.010687462592193255 0 -0.00011399705310812364 -0.010407697495755456 0 7.8430476919124425e-05 -0.010347719687709955 0 1.1146463138531255e-05 -0.010657722108542236 0 0.00024317142854145653 -0.010476125785809689 0 7.8430476919124425e-05 -0.010347719687709955 0 1.1146463138531255e-05 -0.010657722108542236 0 -0.00011399705310812364 -0.010407697495755456 0 0.00044973767373215207 -0.0095189981814349546 0 0.001022207860467835 -0.0098421415456582603 0 0.00053339825744928967 -0.010206165974945234 0 0.00044973767373215207 -0.0095189981814349546 0 -4.7376449039825846e-05 -0.009903876072297509 0 0.00053339825744928967 -0.010206165974945234 0 0.00053339825744928967 -0.010206165974945234 0 0.00016123738299310308 -0.010754117935349571 0 0.00063222193655056245 -0.010693193390789646 0 -4.7376449039825846e-05 -0.009903876072297509 0 0.00053339825744928967 -0.010206165974945234 0 0.00016123738299310308 -0.010754117935349571 0 0.00012939998680810939 -0.010280453181530161 0 0.00014424195064123324 -0.010667952234371921 0 0.00016123738299310308 -0.010754117935349571 0 0.00046536480250328991 -0.011035886884481507 0 4.4190138864360659e-05 -0.011012671704767565 0 0.00016123738299310308 -0.010754117935349571 0 0.00063222193655056245 -0.010693193390789646 0 0.00046536480250328991 -0.011035886884481507 0 0.00084579403049601432 -0.010930449179137713 0 0.00063222193655056245 -0.010693193390789646 0 0.00046536480250328991 -0.011035886884481507 0 0.00046536480250328991 -0.011035886884481507 0 0.00040189567792380031 -0.011334254739069259 0 0.00085014431129922918 -0.011297130496531142 0 0.00084579403049601432 -0.010930449179137713 0 0.00046536480250328991 -0.011035886884481507 0 0.00085014431129922918 -0.011297130496531142 0 0.00046536480250328991 -0.011035886884481507 0 0.00011765259954023417 -0.011275424208362621 0 0.00040189567792380031 -0.011334254739069259 0 0.00046536480250328991 -0.011035886884481507 0 0.00011765259954023417 -0.011275424208362621 0 4.4190138864360659e-05 -0.011012671704767565 0 0.00011765259954023417 -0.011275424208362621 0 -0.00014575160310812592 -0.011200607220167323 0 -6.8386641916198926e-05 -0.011415875773947509 0 0.00011765259954023417 -0.011275424208362621 0 4.4190138864360659e-05 -0.011012671704767565 0 -0.00014575160310812592 -0.011200607220167323 0 1.1146463138531255e-05 -0.010657722108542236 0 0.00016123738299310308 -0.010754117935349571 0 4.4190138864360659e-05 -0.011012671704767565 0 1.1146463138531255e-05 -0.010657722108542236 0 4.4190138864360659e-05 -0.011012671704767565 0 -0.00022131874691329738 -0.010959540644168618 0 -0.00035458199827010354 -0.011231418268931426 0 -0.00022131874691329738 -0.010959540644168618 0 -0.00014575160310812592 -0.011200607220167323 0 4.4190138864360659e-05 -0.011012671704767565 0 -0.00022131874691329738 -0.010959540644168618 0 -0.00014575160310812592 -0.011200607220167323 0 -0.00035458199827010354 -0.011231418268931426 0 -0.00014575160310812592 -0.011200607220167323 0 -0.00026552135213702804 -0.011444322821648109 0 -0.00014575160310812592 -0.011200607220167323 0 -0.00026552135213702804 -0.011444322821648109 0 -6.8386641916198926e-05 -0.011415875773947509 0 -0.00026552135213702804 -0.011444322821648109 0 -0.00015811907079278932 -0.011588724580314338 0 -6.8386641916198926e-05 -0.011415875773947509 0 -0.00026552135213702804 -0.011444322821648109 0 -0.00015811907079278932 -0.011588724580314338 0 -0.00027688698309287333 -0.011643351292195783 0 -0.00015811907079278932 -0.011588724580314338 0 -0.00027688698309287333 -0.011643351292195783 0 -0.0002100483725929505 -0.011759768611497017 0 -0.00015811907079278932 -0.011588724580314338 0 -0.0002100483725929505 -0.011759768611497017 0 -0.00012138475139561218 -0.011686445773367048 0 -0.0002100483725929505 -0.011759768611497017 0 -0.00010291578685846032 -0.011778481011071493 0 -0.00012138475139561218 -0.011686445773367048 0 -0.00027688698309287333 -0.011643351292195783 0 -0.0002100483725929505 -0.011759768611497017 0 -0.00033982280656137659 -0.01181015364348606 0 2.7081925617009381e-05 -0.011692274917337306 0 0.00014153137472364206 -0.011716209480523264 0 2.0946521728629208e-05 -0.011802005989015844 0 2.7081925617009381e-05 -0.011692274917337306 0 -0.00010291578685846032 -0.011778481011071493 0 2.0946521728629208e-05 -0.011802005989015844 0 2.7081925617009381e-05 -0.011692274917337306 0 -0.00010291578685846032 -0.011778481011071493 0 -0.00012138475139561218 -0.011686445773367048 0 -0.00015811907079278932 -0.011588724580314338 0 -0.00012138475139561218 -0.011686445773367048 0 7.1272628053225561e-06 -0.011558139681139154 0 2.7081925617009381e-05 -0.011692274917337306 0 -0.00012138475139561218 -0.011686445773367048 0 7.1272628053225561e-06 -0.011558139681139154 0 2.7081925617009381e-05 -0.011692274917337306 0 7.1272628053225561e-06 -0.011558139681139154 0 0.00016802436257659591 -0.011607547002144947 0 7.1272628053225561e-06 -0.011558139681139154 0 0.00018018859579394948 -0.011458968958818832 0 0.00016802436257659591 -0.011607547002144947 0 7.1272628053225561e-06 -0.011558139681139154 0 5.7245605165910254e-05 -0.011427128885076281 0 0.00018018859579394948 -0.011458968958818832 0 -0.00015811907079278932 -0.011588724580314338 0 7.1272628053225561e-06 -0.011558139681139154 0 -6.8386641916198926e-05 -0.011415875773947509 0 7.1272628053225561e-06 -0.011558139681139154 0 -6.8386641916198926e-05 -0.011415875773947509 0 5.7245605165910254e-05 -0.011427128885076281 0 0.00011765259954023417 -0.011275424208362621 0 -6.8386641916198926e-05 -0.011415875773947509 0 5.7245605165910254e-05 -0.011427128885076281 0 0.00011765259954023417 -0.011275424208362621 0 5.7245605165910254e-05 -0.011427128885076281 0 0.00018018859579394948 -0.011458968958818832 0 0.00011765259954023417 -0.011275424208362621 0 0.00040189567792380031 -0.011334254739069259 0 0.00018018859579394948 -0.011458968958818832 0 0.00040189567792380031 -0.011334254739069259 0 0.00031078818948424795 -0.011532357635410688 0 0.00018018859579394948 -0.011458968958818832 0 0.00031078818948424795 -0.011532357635410688 0 0.00018018859579394948 -0.011458968958818832 0 0.00016802436257659591 -0.011607547002144947 0 0.00040189567792380031 -0.011334254739069259 0 0.00052846208098914209 -0.011560918659448118 0 0.00085014431129922918 -0.011297130496531142 0 0.00040189567792380031 -0.011334254739069259 0 0.00031078818948424795 -0.011532357635410688 0 0.00052846208098914209 -0.011560918659448118 0 0.0001251137185692292 -0.0074182810987454767 0 6.9217949009430134e-05 -0.0077258981776198712 0 -0.00031628093516618104 -0.0034688484456686826 0 -0.0003978116084084808 -0.0029837942580520425 0 -0.00019444584115375091 -0.0030955761945041325 0 -0.00031628093516618104 -0.0034688484456686826 0 -0.00072358603218369995 -0.0034169487923343257 0 -0.00053915864433716357 -0.0032255151649543284 0 -0.00031628093516618104 -0.0034688484456686826 0 -0.0003978116084084808 -0.0029837942580520425 0 -0.00053915864433716357 -0.0032255151649543284 0 -0.00031628093516618104 -0.0034688484456686826 0 5.2835846696901879e-05 -0.0031005880518219604 0 -0.00019444584115375091 -0.0030955761945041325 0 0.00031078818948424795 -0.011532357635410688 0 0.00016802436257659591 -0.011607547002144947 0 0.00026850010402947939 -0.011687895999748205 0 0.00031078818948424795 -0.011532357635410688 0 0.00052846208098914209 -0.011560918659448118 0 0.00026850010402947939 -0.011687895999748205 0 0.0001251137185692292 -0.0074182810987454767 0 0.00051459062124553938 -0.0082040015389055806 0 0.00052846208098914209 -0.011560918659448118 0 0.00026850010402947939 -0.011687895999748205 0 0.00023523488475400155 -0.011775810885061294 0 6.4932164159422337e-05 -0.01087050371563719 0 0.00051459062124553938 -0.0082040015389055806 0 0.00026850010402947939 -0.011687895999748205 0 0.00014153137472364206 -0.011716209480523264 0 0.00022416656531742098 -0.011789476301439094 0 0.00014153137472364206 -0.011716209480523264 0 0.00022416656531742098 -0.011789476301439094 0 2.0946521728629208e-05 -0.011802005989015844 0 0.00016802436257659591 -0.011607547002144947 0 0.00026850010402947939 -0.011687895999748205 0 0.00014153137472364206 -0.011716209480523264 0 2.7081925617009381e-05 -0.011692274917337306 0 0.00016802436257659591 -0.011607547002144947 0 0.00014153137472364206 -0.011716209480523264 0 0.00051459062124553938 -0.0082040015389055806 0 0.00065817607050742489 -0.004819658657709786 0 5.2835846696901879e-05 -0.0031005880518219604 0 -0.00011565731669341302 -0.0028255571250700973 0 0.0001995069224647703 -0.0023748107965607646 0 5.2835846696901879e-05 -0.0031005880518219604 0 -0.00011565731669341302 -0.0028255571250700973 0 -0.00019444584115375091 -0.0030955761945041325 0 -0.00011565731669341302 -0.0028255571250700973 0 -0.0003978116084084808 -0.0029837942580520425 0 -0.00019444584115375091 -0.0030955761945041325 0 -0.00011565731669341302 -0.0028255571250700973 0 -0.0003978116084084808 -0.0029837942580520425 0 -0.00033395231601684766 -0.002598110451506755 0 -0.0003978116084084808 -0.0029837942580520425 0 -0.00033395231601684766 -0.002598110451506755 0 -0.00066495444410724234 -0.0026699686115138873 0 -0.00033395231601684766 -0.002598110451506755 0 -0.00066495444410724234 -0.0026699686115138873 0 -0.00057141697465116635 -0.0022252230748129364 0 -0.00011565731669341302 -0.0028255571250700973 0 -0.00033395231601684766 -0.002598110451506755 0 -0.00011549868329397935 -0.0025020207709000146 0 -0.00033395231601684766 -0.002598110451506755 0 -0.00011549868329397935 -0.0025020207709000146 0 -0.00020956305023789532 -0.0022089752930550158 0 -0.00033395231601684766 -0.002598110451506755 0 -0.00057141697465116635 -0.0022252230748129364 0 -0.00020956305023789532 -0.0022089752930550158 0 0.0001995069224647703 -0.0023748107965607646 0 -0.00011549868329397935 -0.0025020207709000146 0 -0.00020956305023789532 -0.0022089752930550158 0 -0.00011565731669341302 -0.0028255571250700973 0 0.0001995069224647703 -0.0023748107965607646 0 -0.00011549868329397935 -0.0025020207709000146 0 0.0010128521737959341 -0.0084899257998513073 0 0.0010024002239459218 -0.0084947631968518428 0 0.0010099469323108252 -0.0085100632164050328 0 -0.00017966790056709808 -0.011959526267116284 0 -0.00024999313640724244 -0.011915252009374577 0 -0.00038635605954140314 -0.011604012821942331 0 -0.00028114914305296201 -0.011804019136891527 0 -0.00024999313640724244 -0.011915252009374577 0 -0.00038635605954140314 -0.011604012821942331 0 0.0010024002239459218 -0.0084947631968518428 0 0.0010087874143534321 -0.0085295407690609577 0 0.0010099469323108252 -0.0085100632164050328 0 0.00032710416492651189 -0.010507184651396786 0 0.00037121156064382112 -0.0099919158256143205 0 -0.00028114914305296201 -0.011804019136891527 0 -0.00024999313640724244 -0.011915252009374577 0 -0.00025854803445756136 -0.011974100137098013 0 -0.00024999313640724244 -0.011915252009374577 0 -0.0002686501602208206 -0.011898173819273914 0 -0.00019096575864478244 -0.011868063137208952 0 -0.00017966790056709808 -0.011959526267116284 0 -0.00024999313640724244 -0.011915252009374577 0 -0.00019096575864478244 -0.011868063137208952 0 -0.00024999313640724244 -0.011915252009374577 0 -0.0002686501602208206 -0.011898173819273914 0 -0.00025854803445756136 -0.011974100137098013 0 -0.0002100483725929505 -0.011759768611497017 0 -0.0002686501602208206 -0.011898173819273914 0 -0.00033982280656137659 -0.01181015364348606 0 -0.0002100483725929505 -0.011759768611497017 0 -0.0002686501602208206 -0.011898173819273914 0 -0.00019096575864478244 -0.011868063137208952 0 -0.0002100483725929505 -0.011759768611497017 0 -0.00010291578685846032 -0.011778481011071493 0 -0.00019096575864478244 -0.011868063137208952 0 0.00051459062124553938 -0.0082040015389055806 0 0.00032710416492651189 -0.010507184651396786 0 -0.00010291578685846032 -0.011778481011071493 0 -0.00019096575864478244 -0.011868063137208952 0 -0.00010013486760864239 -0.011850670778655762 0 0.00022416656531742098 -0.011789476301439094 0 -0.00017966790056709808 -0.011959526267116284 0 2.0946521728629208e-05 -0.011802005989015844 0 0.0010109283404353953 -0.0084695541036008751 0 0.0010128521737959341 -0.0084899257998513073 0 0.0010024002239459218 -0.0084947631968518428 0 -0.00017966790056709808 -0.011959526267116284 0 -0.00010013486760864239 -0.011850670778655762 0 2.0946521728629208e-05 -0.011802005989015844 0 -0.00010291578685846032 -0.011778481011071493 0 -0.00010013486760864239 -0.011850670778655762 0 2.0946521728629208e-05 -0.011802005989015844 0 -0.00017966790056709808 -0.011959526267116284 0 -0.00019096575864478244 -0.011868063137208952 0 -0.00010013486760864239 -0.011850670778655762 0 -0.0023221245537591337 -0.0029537997789644056 0 -0.00195893685861034 -0.0033280304712214378 0 -0.0018865947723557979 -0.0028317763561433867 0 -0.00195893685861034 -0.0033280304712214378 0 -0.0015282559747662151 -0.0032709390697512834 0 -0.0018865947723557979 -0.0028317763561433867 0 -0.00195893685861034 -0.0033280304712214378 0 -0.0017029013647158941 -0.0038420743363485541 0 -0.0015282559747662151 -0.0032709390697512834 0 -0.0021845152456356027 -0.0038991876178402704 0 -0.00195893685861034 -0.0033280304712214378 0 -0.0017029013647158941 -0.0038420743363485541 0 -0.0017029013647158941 -0.0038420743363485541 0 -0.0015282559747662151 -0.0032709390697512834 0 -0.0012156470080860787 -0.0036023439106399394 0 -0.0015282559747662151 -0.0032709390697512834 0 -0.0011001509483556217 -0.0031586709754856993 0 -0.0014213331542814863 -0.0028426740152514701 0 -0.0011001509483556217 -0.0031586709754856993 0 -0.0012156470080860787 -0.0036023439106399394 0 -0.00072358603218369995 -0.0034169487923343257 0 -0.0015282559747662151 -0.0032709390697512834 0 -0.0011001509483556217 -0.0031586709754856993 0 -0.0012156470080860787 -0.0036023439106399394 0 -0.00031628093516618104 -0.0034688484456686826 0 -0.00067078263877389129 -0.0038471013457952977 0 -0.00072358603218369995 -0.0034169487923343257 0 -0.0012156470080860787 -0.0036023439106399394 0 -0.00067078263877389129 -0.0038471013457952977 0 -0.00072358603218369995 -0.0034169487923343257 0 -0.0011001509483556217 -0.0031586709754856993 0 -0.00072358603218369995 -0.0034169487923343257 0 -0.00071997737347395522 -0.0030315312346080054 0 -0.00072358603218369995 -0.0034169487923343257 0 -0.00053915864433716357 -0.0032255151649543284 0 -0.00071997737347395522 -0.0030315312346080054 0 -0.0003978116084084808 -0.0029837942580520425 0 -0.00053915864433716357 -0.0032255151649543284 0 -0.00071997737347395522 -0.0030315312346080054 0 -0.0003978116084084808 -0.0029837942580520425 0 -0.00071997737347395522 -0.0030315312346080054 0 -0.00066495444410724234 -0.0026699686115138873 0 -0.00071997737347395522 -0.0030315312346080054 0 -0.00066495444410724234 -0.0026699686115138873 0 -0.0010405342422890758 -0.0027777364464280831 0 -0.00066495444410724234 -0.0026699686115138873 0 -0.00092242227910238346 -0.0024043205506694646 0 -0.00057141697465116635 -0.0022252230748129364 0 -0.00066495444410724234 -0.0026699686115138873 0 -0.00092242227910238346 -0.0024043205506694646 0 -0.0010405342422890758 -0.0027777364464280831 0 -0.00092242227910238346 -0.0024043205506694646 0 -0.0010405342422890758 -0.0027777364464280831 0 -0.001358391377947066 -0.0023750745967325471 0 -0.00092242227910238346 -0.0024043205506694646 0 -0.001358391377947066 -0.0023750745967325471 0 -0.0011039727904217657 -0.0020553313930713173 0 -0.0010405342422890758 -0.0027777364464280831 0 -0.0014213331542814863 -0.0028426740152514701 0 -0.001358391377947066 -0.0023750745967325471 0 -0.0011001509483556217 -0.0031586709754856993 0 -0.00071997737347395522 -0.0030315312346080054 0 -0.0010405342422890758 -0.0027777364464280831 0 -0.0011001509483556217 -0.0031586709754856993 0 -0.0010405342422890758 -0.0027777364464280831 0 -0.0014213331542814863 -0.0028426740152514701 0 -0.0014213331542814863 -0.0028426740152514701 0 -0.0016738924210807041 -0.0025323997926853586 0 -0.0018865947723557979 -0.0028317763561433867 0 -0.0015282559747662151 -0.0032709390697512834 0 -0.0014213331542814863 -0.0028426740152514701 0 -0.0018865947723557979 -0.0028317763561433867 0 -0.0014213331542814863 -0.0028426740152514701 0 -0.001358391377947066 -0.0023750745967325471 0 -0.0016738924210807041 -0.0025323997926853586 0 -0.001358391377947066 -0.0023750745967325471 0 -0.0016738924210807041 -0.0025323997926853586 0 -0.0017417618838841183 -0.0022013252179650493 0 -0.0016738924210807041 -0.0025323997926853586 0 -0.0020017242496305964 -0.0024034714426840608 0 -0.0018865947723557979 -0.0028317763561433867 0 -0.0022009519439557443 -0.002052193630229987 0 -0.0020017242496305964 -0.0024034714426840608 0 -0.0017417618838841183 -0.0022013252179650493 0 -0.0023903486965522825 -0.0024767724253478571 0 -0.0020017242496305964 -0.0024034714426840608 0 -0.0018865947723557979 -0.0028317763561433867 0 -0.0016738924210807041 -0.0025323997926853586 0 -0.0020017242496305964 -0.0024034714426840608 0 -0.0017417618838841183 -0.0022013252179650493 0 -0.0021211595139840468 -0.0015988665197803045 0 -0.0018912996162173238 -0.0016304354160368145 0 -0.0019371978891762614 -0.0012715524022499738 0 -0.0018912996162173238 -0.0016304354160368145 0 -0.0016410513879645092 -0.0015171721849704498 0 -0.0019371978891762614 -0.0012715524022499738 0 -0.0018912996162173238 -0.0016304354160368145 0 -0.0018263224005301243 -0.0018720954893881191 0 -0.0016410513879645092 -0.0015171721849704498 0 -0.002146696078082635 -0.0017929416416736347 0 -0.0018912996162173238 -0.0016304354160368145 0 -0.0018263224005301243 -0.0018720954893881191 0 -0.002146696078082635 -0.0017929416416736347 0 -0.0021211595139840468 -0.0015988665197803045 0 -0.0018912996162173238 -0.0016304354160368145 0 -0.0022009519439557443 -0.002052193630229987 0 -0.0017417618838841183 -0.0022013252179650493 0 -0.0018263224005301243 -0.0018720954893881191 0 -0.002146696078082635 -0.0017929416416736347 0 -0.0022009519439557443 -0.002052193630229987 0 -0.0018263224005301243 -0.0018720954893881191 0 -0.001358391377947066 -0.0023750745967325471 0 -0.0017417618838841183 -0.0022013252179650493 0 -0.0014265526480323101 -0.0018540859055825173 0 -0.0017417618838841183 -0.0022013252179650493 0 -0.0018263224005301243 -0.0018720954893881191 0 -0.0014265526480323101 -0.0018540859055825173 0 -0.0014265526480323101 -0.0018540859055825173 0 -0.0016410513879645092 -0.0015171721849704498 0 -0.0013595049061383888 -0.0015354138989866636 0 -0.0018263224005301243 -0.0018720954893881191 0 -0.0014265526480323101 -0.0018540859055825173 0 -0.0016410513879645092 -0.0015171721849704498 0 -0.0013595049061383888 -0.0015354138989866636 0 -0.0011223962397253922 -0.001486274188765157 0 -0.0011822434415714386 -0.0017409520110793142 0 -0.0011223962397253922 -0.001486274188765157 0 -0.0011822434415714386 -0.0017409520110793142 0 -0.00089869272811144416 -0.0017773606560744833 0 -0.0014265526480323101 -0.0018540859055825173 0 -0.0013595049061383888 -0.0015354138989866636 0 -0.0011822434415714386 -0.0017409520110793142 0 -0.001358391377947066 -0.0023750745967325471 0 -0.0014265526480323101 -0.0018540859055825173 0 -0.0011039727904217657 -0.0020553313930713173 0 -0.0014265526480323101 -0.0018540859055825173 0 -0.0011822434415714386 -0.0017409520110793142 0 -0.0011039727904217657 -0.0020553313930713173 0 -0.00092242227910238346 -0.0024043205506694646 0 -0.0011039727904217657 -0.0020553313930713173 0 -0.00082964614759312313 -0.0020462419938154014 0 -0.0011822434415714386 -0.0017409520110793142 0 -0.0011039727904217657 -0.0020553313930713173 0 -0.00089869272811144416 -0.0017773606560744833 0 -0.0011039727904217657 -0.0020553313930713173 0 -0.00082964614759312313 -0.0020462419938154014 0 -0.00089869272811144416 -0.0017773606560744833 0 -0.00082964614759312313 -0.0020462419938154014 0 -0.00067860516874642968 -0.0018153510071653176 0 -0.00089869272811144416 -0.0017773606560744833 0 -0.00092242227910238346 -0.0024043205506694646 0 -0.00082964614759312313 -0.0020462419938154014 0 -0.00057141697465116635 -0.0022252230748129364 0 -0.00082964614759312313 -0.0020462419938154014 0 -0.00057141697465116635 -0.0022252230748129364 0 -0.00067860516874642968 -0.0018153510071653176 0 -0.00067860516874642968 -0.0018153510071653176 0 -0.00089869272811144416 -0.0017773606560744833 0 -0.000810670784676947 -0.0015277212634964275 0 -0.0011223962397253922 -0.001486274188765157 0 -0.00089869272811144416 -0.0017773606560744833 0 -0.000810670784676947 -0.0015277212634964275 0 -0.00067860516874642968 -0.0018153510071653176 0 -0.000810670784676947 -0.0015277212634964275 0 -0.00055663748275844532 -0.0014907208152602539 0 -0.00083394828108163729 -0.0012663894308129657 0 -0.00058572279638623647 -0.0011561718607355331 0 -0.00055663748275844532 -0.0014907208152602539 0 -0.000810670784676947 -0.0015277212634964275 0 -0.00083394828108163729 -0.0012663894308129657 0 -0.00055663748275844532 -0.0014907208152602539 0 -0.0011223962397253922 -0.001486274188765157 0 -0.000810670784676947 -0.0015277212634964275 0 -0.00083394828108163729 -0.0012663894308129657 0 -0.00083394828108163729 -0.0012663894308129657 0 -0.00084328182904249707 -0.0010228356004658874 0 -0.0010680660289439931 -0.0012428729604761627 0 -0.00083394828108163729 -0.0012663894308129657 0 -0.00058572279638623647 -0.0011561718607355331 0 -0.00084328182904249707 -0.0010228356004658874 0 -0.00058572279638623647 -0.0011561718607355331 0 -0.00064762044576052746 -0.0008760736767667454 0 -0.00084328182904249707 -0.0010228356004658874 0 -0.00074990981707967865 -0.000522665157736161 0 -0.00064762044576052746 -0.0008760736767667454 0 -0.00043825241907968705 -0.00070976392276637132 0 -0.00074990981707967865 -0.000522665157736161 0 -0.00064762044576052746 -0.0008760736767667454 0 -0.00090778071267565272 -0.0008035360139280706 0 -0.00064762044576052746 -0.0008760736767667454 0 -0.00090778071267565272 -0.0008035360139280706 0 -0.00084328182904249707 -0.0010228356004658874 0 -0.00090778071267565272 -0.0008035360139280706 0 -0.00084328182904249707 -0.0010228356004658874 0 -0.0011204453244789804 -0.00097461680486749577 0 -0.0011406822374751748 -0.00065284434445102963 0 -0.00090778071267565272 -0.0008035360139280706 0 -0.0011204453244789804 -0.00097461680486749577 0 -0.0011406822374751748 -0.00065284434445102963 0 -0.0011204453244789804 -0.00097461680486749577 0 -0.001388455848693672 -0.00091400378198381487 0 -0.0011204453244789804 -0.00097461680486749577 0 -0.001362505371039022 -0.0012418287102520765 0 -0.001388455848693672 -0.00091400378198381487 0 -0.0011204453244789804 -0.00097461680486749577 0 -0.0010680660289439931 -0.0012428729604761627 0 -0.001362505371039022 -0.0012418287102520765 0 -0.00084328182904249707 -0.0010228356004658874 0 -0.0011204453244789804 -0.00097461680486749577 0 -0.0010680660289439931 -0.0012428729604761627 0 -0.0011223962397253922 -0.001486274188765157 0 -0.00083394828108163729 -0.0012663894308129657 0 -0.0010680660289439931 -0.0012428729604761627 0 -0.0013595049061383888 -0.0015354138989866636 0 -0.0011223962397253922 -0.001486274188765157 0 -0.001362505371039022 -0.0012418287102520765 0 -0.0011223962397253922 -0.001486274188765157 0 -0.0010680660289439931 -0.0012428729604761627 0 -0.001362505371039022 -0.0012418287102520765 0 -0.0016410513879645092 -0.0015171721849704498 0 -0.0016666944785178133 -0.001099016275561845 0 -0.001362505371039022 -0.0012418287102520765 0 -0.0016410513879645092 -0.0015171721849704498 0 -0.0013595049061383888 -0.0015354138989866636 0 -0.001362505371039022 -0.0012418287102520765 0 -0.0016666944785178133 -0.001099016275561845 0 -0.001362505371039022 -0.0012418287102520765 0 -0.001388455848693672 -0.00091400378198381487 0 -0.0014869667746622787 -0.00045110563247783159 0 -0.001388455848693672 -0.00091400378198381487 0 -0.0016995515478049948 -0.00078576082538507977 0 -0.0016666944785178133 -0.001099016275561845 0 -0.001388455848693672 -0.00091400378198381487 0 -0.0016995515478049948 -0.00078576082538507977 0 -0.0016666944785178133 -0.001099016275561845 0 -0.0016995515478049948 -0.00078576082538507977 0 -0.0020557044703429931 -0.0009046586112186546 0 -0.0019156438648951452 -0.00056444796233436772 0 -0.0016995515478049948 -0.00078576082538507977 0 -0.0020557044703429931 -0.0009046586112186546 0 -0.0016410513879645092 -0.0015171721849704498 0 -0.0016666944785178133 -0.001099016275561845 0 -0.0019371978891762614 -0.0012715524022499738 0 -0.0016666944785178133 -0.001099016275561845 0 -0.0020557044703429931 -0.0009046586112186546 0 -0.0019371978891762614 -0.0012715524022499738 0 0.0010074534836519696 -0.0085040846640801436 0 0.0010153008165391746 -0.0085234908460228524 0 0.0010247932536013888 -0.0085252930988230224 0 0.0010260376412757528 -0.0085387116119588855 0 0.0010153008165391746 -0.0085234908460228524 0 0.0010247932536013888 -0.0085252930988230224 0 0.0010153008165391746 -0.0085234908460228524 0 0.0010087874143534321 -0.0085295407690609577 0 0.0010099469323108252 -0.0085100632164050328 0 0.0010260376412757528 -0.0085387116119588855 0 0.0010153008165391746 -0.0085234908460228524 0 0.0010087874143534321 -0.0085295407690609577 0 0.00065817607050742489 -0.004819658657709786 0 0.00069725604594890944 -0.0055763875220129775 0 0.0010074534836519696 -0.0085040846640801436 0 0.0010153008165391746 -0.0085234908460228524 0 0.0010099469323108252 -0.0085100632164050328 0 0.0010128521737959341 -0.0084899257998513073 0 0.0010074534836519696 -0.0085040846640801436 0 0.0010099469323108252 -0.0085100632164050328 0 0.0001995069224647703 -0.0023748107965607646 0 0.00031562891268753642 -0.0016547420260839007 0 -7.4121573235542778e-05 -0.001832293312851506 0 0.0001995069224647703 -0.0023748107965607646 0 -0.00020956305023789532 -0.0022089752930550158 0 -7.4121573235542778e-05 -0.001832293312851506 0 -0.00057141697465116635 -0.0022252230748129364 0 -0.00020956305023789532 -0.0022089752930550158 0 -0.00039823317751715127 -0.0018322223250175358 0 -0.00020956305023789532 -0.0022089752930550158 0 -0.00039823317751715127 -0.0018322223250175358 0 -7.4121573235542778e-05 -0.001832293312851506 0 -0.00057141697465116635 -0.0022252230748129364 0 -0.00067860516874642968 -0.0018153510071653176 0 -0.00039823317751715127 -0.0018322223250175358 0 -0.00067860516874642968 -0.0018153510071653176 0 -0.00039823317751715127 -0.0018322223250175358 0 -0.00055663748275844532 -0.0014907208152602539 0 -0.00039823317751715127 -0.0018322223250175358 0 -0.0003120176070338784 -0.0015536981336780275 0 -7.4121573235542778e-05 -0.001832293312851506 0 -0.0003120176070338784 -0.0015536981336780275 0 -0.00055663748275844532 -0.0014907208152602539 0 -0.00028901299146522487 -0.0012795846015392492 0 -0.00039823317751715127 -0.0018322223250175358 0 -0.0003120176070338784 -0.0015536981336780275 0 -0.00055663748275844532 -0.0014907208152602539 0 -0.0003120176070338784 -0.0015536981336780275 0 -7.4121573235542778e-05 -0.001832293312851506 0 -4.9859434589108019e-05 -0.0013738737473932186 0 0.00031562891268753642 -0.0016547420260839007 0 -7.4121573235542778e-05 -0.001832293312851506 0 -4.9859434589108019e-05 -0.0013738737473932186 0 0.00031562891268753642 -0.0016547420260839007 0 -4.9859434589108019e-05 -0.0013738737473932186 0 0.00013034960489105229 -0.00091220115181506016 0 -4.9859434589108019e-05 -0.0013738737473932186 0 -0.00012042886444534536 -0.0010380305067411067 0 0.00013034960489105229 -0.00091220115181506016 0 -4.9859434589108019e-05 -0.0013738737473932186 0 -0.00012042886444534536 -0.0010380305067411067 0 -0.00028901299146522487 -0.0012795846015392492 0 -0.00058572279638623647 -0.0011561718607355331 0 -0.00055663748275844532 -0.0014907208152602539 0 -0.00028901299146522487 -0.0012795846015392492 0 -0.0003120176070338784 -0.0015536981336780275 0 -4.9859434589108019e-05 -0.0013738737473932186 0 -0.00028901299146522487 -0.0012795846015392492 0 -0.00012042886444534536 -0.0010380305067411067 0 -0.00028901299146522487 -0.0012795846015392492 0 -0.00037306861445489782 -0.00098701620975331699 0 -0.00058572279638623647 -0.0011561718607355331 0 -0.00028901299146522487 -0.0012795846015392492 0 -0.00037306861445489782 -0.00098701620975331699 0 -0.00058572279638623647 -0.0011561718607355331 0 -0.00064762044576052746 -0.0008760736767667454 0 -0.00037306861445489782 -0.00098701620975331699 0 -0.00064762044576052746 -0.0008760736767667454 0 -0.00037306861445489782 -0.00098701620975331699 0 -0.00043825241907968705 -0.00070976392276637132 0 -0.00012042886444534536 -0.0010380305067411067 0 -0.00037306861445489782 -0.00098701620975331699 0 -0.00021209863292586125 -0.00079369327203580896 0 -0.00024169428440805918 -0.00054077181855486593 0 -0.00043825241907968705 -0.00070976392276637132 0 -0.00021209863292586125 -0.00079369327203580896 0 -0.00037306861445489782 -0.00098701620975331699 0 -0.00043825241907968705 -0.00070976392276637132 0 -0.00021209863292586125 -0.00079369327203580896 0 -4.7222148479131391e-05 -0.00083495878860257778 0 9.9702473548937939e-05 -0.00067569178239810688 0 0.00013034960489105229 -0.00091220115181506016 0 -0.00012042886444534536 -0.0010380305067411067 0 -4.7222148479131391e-05 -0.00083495878860257778 0 0.00013034960489105229 -0.00091220115181506016 0 -0.00012042886444534536 -0.0010380305067411067 0 -4.7222148479131391e-05 -0.00083495878860257778 0 -0.00021209863292586125 -0.00079369327203580896 0 -4.6932903544692073e-05 -0.00061744770537515783 0 -4.7222148479131391e-05 -0.00083495878860257778 0 -0.00021209863292586125 -0.00079369327203580896 0 -4.6932903544692073e-05 -0.00061744770537515783 0 -0.00024169428440805918 -0.00054077181855486593 0 -0.00021209863292586125 -0.00079369327203580896 0 -4.6932903544692073e-05 -0.00061744770537515783 0 -4.7222148479131391e-05 -0.00083495878860257778 0 9.9702473548937939e-05 -0.00067569178239810688 0 0.00035901826030833664 0.00027426349319094735 0 2.2879552392741973e-05 -0.0028840453361541046 0 0.00016520546093558443 -0.00043633050560587349 0 9.9702473548937939e-05 -0.00067569178239810688 0 0.00024816348327092466 -0.00083197843757424749 0 9.9702473548937939e-05 -0.00067569178239810688 0 0.00024816348327092466 -0.00083197843757424749 0 0.00013034960489105229 -0.00091220115181506016 0 2.2879552392741973e-05 -0.0028840453361541046 0 0.00034311036587436936 -0.001651069504795923 0 0.0010074534836519696 -0.0085040846640801436 0 0.0010011259468357553 -0.0084659886863883062 0 0.0010247932536013888 -0.0085252930988230224 0 0.00069725604594890944 -0.0055763875220129775 0 2.2879552392741973e-05 -0.0028840453361541046 0 0.00031562891268753642 -0.0016547420260839007 0 0.00041374496995611837 -0.0008818327802794406 0 0.00013034960489105229 -0.00091220115181506016 0 0.0010011259468357553 -0.0084659886863883062 0 0.0010247932536013888 -0.0085252930988230224 0 0.0010239640117574685 -0.0085105903802587188 0 0.0010247932536013888 -0.0085252930988230224 0 0.0010239640117574685 -0.0085105903802587188 0 0.0010543912859017372 -0.0085561106769394754 0 2.2879552392741973e-05 -0.0028840453361541046 0 0.0005512134968738326 -0.0044837876401005537 0 0.00018201887242496557 -0.00033380473992824741 0 0.00010880335847709482 -0.00037297942788849602 0 4.3353582263409325e-05 -0.00033108069342566729 0 0.00016520546093558443 -0.00043633050560587349 0 0.00018201887242496557 -0.00033380473992824741 0 0.00010880335847709482 -0.00037297942788849602 0 0.0010011259468357553 -0.0084659886863883062 0 0.0010239640117574685 -0.0085105903802587188 0 0.0010299642768937772 -0.0084957221130036974 0 6.061058476390128e-05 -0.000381197355892016 0 0.00010880335847709482 -0.00037297942788849602 0 4.3353582263409325e-05 -0.00033108069342566729 0 0.0010832853694303381 -0.0085446680963506254 0 0.0010299642768937772 -0.0084957221130036974 0 0.001149171641538213 -0.0084825331411163066 0 0.0005512134968738326 -0.0044837876401005537 0 0.00096379234697035966 -0.0050788264792936142 0 -2.3429134880014095e-05 -0.00035141620919738024 0 4.3353582263409325e-05 -0.00033108069342566729 0 -9.0311816839615217e-05 -0.00032154422417266258 0 0.0010832853694303381 -0.0085446680963506254 0 0.0010299642768937772 -0.0084957221130036974 0 0.0010543912859017372 -0.0085561106769394754 0 0.0010299642768937772 -0.0084957221130036974 0 0.0011678833436189146 -0.0084503905637520818 0 0.001149171641538213 -0.0084825331411163066 0 0.00065448584977764908 -0.0073809060346138548 0 0.00082912612903264938 -0.0063910618330159227 0 0.00093512856208910575 -0.0065224660088826188 0 0.0008534417792267925 -0.006622814158030307 0 0.0010821135349493708 -0.0064962975040744565 0 0.00096379234697035966 -0.0050788264792936142 0 0.00082912612903264938 -0.0063910618330159227 0 0.00096379234697035966 -0.0050788264792936142 0 0.00065448584977764908 -0.0073809060346138548 0 0.00088888022995549051 -0.0082067989286371563 0 0.00065448584977764908 -0.0073809060346138548 0 0.001099184936506142 -0.0085914446607904173 0 0.0011134217195583119 -0.0086094480325937476 0 0.0011055433707338976 -0.0086169972499345274 0 0.0010832853694303381 -0.0085446680963506254 0 0.001099184936506142 -0.0085914446607904173 0 0.0011067004200617095 -0.0086116222890720122 0 0.0010832853694303381 -0.0085446680963506254 0 0.001099184936506142 -0.0085914446607904173 0 0.0010892175342206393 -0.0085843760525793501 0 0.001099184936506142 -0.0085914446607904173 0 0.0011055433707338976 -0.0086169972499345274 0 0.0010892175342206393 -0.0085843760525793501 0 0.00059130575712502205 -0.0078026334193210794 0 0.00065448584977764908 -0.0073809060346138548 0 0.0011451225219085495 -0.008649143328638198 0 0.0011134217195583119 -0.0086094480325937476 0 0.0011793890983747808 -0.0086258865950194479 0 0.0011451225219085495 -0.008649143328638198 0 0.0011134217195583119 -0.0086094480325937476 0 0.0011055433707338976 -0.0086169972499345274 0 0.0010964155756843473 -0.0086521208954931407 0 0.0010797960475733806 -0.0085956707259396536 0 0.0010503253070336933 -0.0085642499533274581 0 0.0010964155756843473 -0.0086521208954931407 0 0.0011055433707338976 -0.0086169972499345274 0 0.0010797960475733806 -0.0085956707259396536 0 0.0011451225219085495 -0.008649143328638198 0 0.0010964155756843473 -0.0086521208954931407 0 0.0011055433707338976 -0.0086169972499345274 0 0.0011055433707338976 -0.0086169972499345274 0 0.0010892175342206393 -0.0085843760525793501 0 0.0010797960475733806 -0.0085956707259396536 0 0.0010797960475733806 -0.0085956707259396536 0 0.0010543912859017372 -0.0085561106769394754 0 0.0010503253070336933 -0.0085642499533274581 0 0.0010247932536013888 -0.0085252930988230224 0 0.0010543912859017372 -0.0085561106769394754 0 0.0010503253070336933 -0.0085642499533274581 0 0.0010239640117574685 -0.0085105903802587188 0 0.0010299642768937772 -0.0084957221130036974 0 0.0010543912859017372 -0.0085561106769394754 0 0.0010832853694303381 -0.0085446680963506254 0 0.0010892175342206393 -0.0085843760525793501 0 0.0010543912859017372 -0.0085561106769394754 0 0.0010892175342206393 -0.0085843760525793501 0 0.0010797960475733806 -0.0085956707259396536 0 0.0010543912859017372 -0.0085561106769394754 0 0.0010260376412757528 -0.0085387116119588855 0 0.0010247932536013888 -0.0085252930988230224 0 0.0010503253070336933 -0.0085642499533274581 0 0.0009550798617593599 -0.0092009851834139421 0 0.00056230427982949054 -0.0096346425674813264 0 0.0007336906027218381 -0.0097758900589392066 0 6.591738555623467e-05 -0.010688948382896309 0 0.0011238321331400204 -0.010276330107754391 0 0.00072048087744241074 -0.011116471057562151 0 -8.7472629507648529e-05 -0.011769530401291641 0 6.591738555623467e-05 -0.010688948382896309 0 8.162412062907501e-05 -0.011242011597162243 0 0.0012131350675628452 -0.010961293020693806 0 8.162412062907501e-05 -0.011242011597162243 0 0.0012131350675628452 -0.010961293020693806 0 0.00036302031539139418 -0.011633882509326664 0 8.162412062907501e-05 -0.011242011597162243 0 -0.00012842028083800654 -0.011672696343763165 0 0.00036302031539139418 -0.011633882509326664 0 0.0010260376412757528 -0.0085387116119588855 0 0.0010087874143534321 -0.0085295407690609577 0 0.0010503253070336933 -0.0085642499533274581 0 -0.00038635605954140314 -0.011604012821942331 0 6.591738555623467e-05 -0.010688948382896309 0 8.162412062907501e-05 -0.011242011597162243 0 -0.00038635605954140314 -0.011604012821942331 0 8.162412062907501e-05 -0.011242011597162243 0 -0.00012842028083800654 -0.011672696343763165 0 0.00037121156064382112 -0.0099919158256143205 0 0.00056230427982949054 -0.0096346425674813264 0 0.00065691379852997247 -0.011287812740136502 0 0.00025463860301791643 -0.011263980795585438 0 0.00049288774255759279 -0.011635383410745158 0 0.00065691379852997247 -0.011287812740136502 0 0.00085626241776441279 -0.011174465558014619 0 0.00083117841826053581 -0.011519229181150607 0 0.00018600303050353022 -0.011429555620905486 0 -0.00040586083068197472 -0.012024225293581148 0 -0.00020793810159180597 -0.011821965662682874 0 -0.00045157633927206679 -0.01190983829320554 0 -0.00025299901041594334 -0.011905163592975746 0 0.00065691379852997247 -0.011287812740136502 0 0.00083117841826053581 -0.011519229181150607 0 0.00049288774255759279 -0.011635383410745158 0 0.00018600303050353022 -0.011429555620905486 0 -0.0006288977695369409 -0.012085370434681523 0 0.00025463860301791643 -0.011263980795585438 0 9.2760743752260706e-05 -0.011639041614213891 0 0.00049288774255759279 -0.011635383410745158 0 0.00025463860301791643 -0.011263980795585438 0 -0.00030620644754316328 -0.011645017730031034 0 9.2760743752260706e-05 -0.011639041614213891 0 6.591738555623467e-05 -0.010688948382896309 0 0.0012131350675628452 -0.010961293020693806 0 0.0011238321331400204 -0.010276330107754391 0 0.00072048087744241074 -0.011116471057562151 0 0.0016573490742013051 -0.010434223173364164 0 0.0012131350675628452 -0.010961293020693806 0 0.0011238321331400204 -0.010276330107754391 0 0.0021448811918159099 -0.010231236479029744 0 0.00065691379852997247 -0.011287812740136502 0 0.00025463860301791643 -0.011263980795585438 0 0.00082457116393572628 -0.010880700726026484 0 0.00065691379852997247 -0.011287812740136502 0 0.00085626241776441279 -0.011174465558014619 0 0.00082457116393572628 -0.010880700726026484 0 0.0015335509477032898 -0.0097117806422006066 0 0.0020886674847919746 -0.0094072950264772921 0 0.0021448811918159099 -0.010231236479029744 0 0.0011238321331400204 -0.010276330107754391 0 0.0015335509477032898 -0.0097117806422006066 0 0.0021448811918159099 -0.010231236479029744 0 0.0007336906027218381 -0.0097758900589392066 0 0.0015335509477032898 -0.0097117806422006066 0 0.0015073030142568398 -0.0088100153661029058 0 0.0007336906027218381 -0.0097758900589392066 0 0.0011238321331400204 -0.010276330107754391 0 0.0015335509477032898 -0.0097117806422006066 0 0.0009550798617593599 -0.0092009851834139421 0 0.0014735211584926027 -0.0088012490473304023 0 0.0010964155756843473 -0.0086521208954931407 0 0.0012223052345720377 -0.0086833909841018304 0 0.0015073030142568398 -0.0088100153661029058 0 0.0011451225219085495 -0.008649143328638198 0 0.0012223052345720377 -0.0086833909841018304 0 0.0011793890983747808 -0.0086258865950194479 0 0.0011451225219085495 -0.008649143328638198 0 0.0010964155756843473 -0.0086521208954931407 0 0.0012223052345720377 -0.0086833909841018304 0 0.0012223052345720377 -0.0086833909841018304 0 0.0012396712554766814 -0.0086559490700183362 0 0.0015073030142568398 -0.0088100153661029058 0 0.00076243997075440249 -0.0060741221372184392 0 0.00092775147823182121 -0.0070790648247663276 0 0.00055317678127202554 -0.0065432832468638206 0 0.00057215580538891059 -0.0064158623591453927 0 0.00090023041128579927 -0.0063680704718281373 0 0.00076243997075440249 -0.0060741221372184392 0 0.00082912612903264938 -0.0063910618330159227 0 0.0012223052345720377 -0.0086833909841018304 0 0.0012396712554766814 -0.0086559490700183362 0 0.0011793890983747808 -0.0086258865950194479 0 0.00092775147823182121 -0.0070790648247663276 0 0.00082912612903264938 -0.0063910618330159227 0 0.0020952241368418119 -0.008632389657160797 0 0.0020886674847919746 -0.0094072950264772921 0 0.0015073030142568398 -0.0088100153661029058 0 0.00068495112575333466 -0.0072856100583319058 0 0.0012166511703951186 -0.0072638359743613145 0 0.0012273553838012112 -0.0071921697926419738 0 0.0020952241368418119 -0.008632389657160797 0 0.0012396712554766814 -0.0086559490700183362 0 0.0015073030142568398 -0.0088100153661029058 0 0.0015335509477032898 -0.0097117806422006066 0 0.0020886674847919746 -0.0094072950264772921 0 0.0015073030142568398 -0.0088100153661029058 0 0.0016363562718639871 -0.0079327599732785213 0 0.00092775147823182121 -0.0070790648247663276 0 0.0020952241368418119 -0.008632389657160797 0 0.0020886674847919746 -0.0094072950264772921 0 0.0026692119039943142 -0.0089740393963076408 0 0.0030991739090280965 -0.0085181870239115897 0 0.0020952241368418119 -0.008632389657160797 0 0.0026692119039943142 -0.0089740393963076408 0 0.0020886674847919746 -0.0094072950264772921 0 0.0026692119039943142 -0.0089740393963076408 0 0.0024847968217018021 -0.0095359587378772148 0 0.0026692119039943142 -0.0089740393963076408 0 0.0030302096619812982 -0.0095558571126285342 0 0.0024847968217018021 -0.0095359587378772148 0 0.0030991739090280965 -0.0085181870239115897 0 0.0026692119039943142 -0.0089740393963076408 0 0.0032893428320310792 -0.0090556498637562634 0 0.00068016263127037993 -0.0088164987909242817 0 0.00069586398749611051 -0.010736450820676787 0 0.00010004469701338879 -0.011904776956107957 0 0.00022154971996604786 -0.011684642537714675 0 0.00014521927646161153 -0.011735572602251498 0 0.00069586398749611051 -0.010736450820676787 0 0.00027847228132375188 -0.011872987667235803 0 0.00010004469701338879 -0.011904776956107957 0 0.00014521927646161153 -0.011735572602251498 0 -4.7294416351770328e-06 -0.011690158680989151 0 0.00069586398749611051 -0.010736450820676787 0 0.0013922786143780756 -0.010648810374532124 0 0.0026692119039943142 -0.0089740393963076408 0 0.0032893428320310792 -0.0090556498637562634 0 0.0030302096619812982 -0.0095558571126285342 0 0.00022666485564873062 -0.011668017476706217 0 0.00018841642751940126 -0.011481618511514078 0 0.00039250358290207816 -0.011300249579219988 0 0.0013922786143780756 -0.010648810374532124 0 0.00073103372746459341 -0.011205825447502425 0 0.0013922786143780756 -0.010648810374532124 0 0.0006713569149031358 -0.011179290424666052 0 0.00022666485564873062 -0.011668017476706217 0 0.00014521927646161153 -0.011735572602251498 0 0.00011598813406221008 -0.011611546890642171 0 0.00014521927646161153 -0.011735572602251498 0 0.00011598813406221008 -0.011611546890642171 0 -4.7294416351770328e-06 -0.011690158680989151 0 0.00011598813406221008 -0.011611546890642171 0 -4.7294416351770328e-06 -0.011690158680989151 0 8.8313050594303172e-07 -0.011482966954286427 0 0.00011598813406221008 -0.011611546890642171 0 0.00018841642751940126 -0.011481618511514078 0 8.8313050594303172e-07 -0.011482966954286427 0 0.00022666485564873062 -0.011668017476706217 0 0.00011598813406221008 -0.011611546890642171 0 0.00018841642751940126 -0.011481618511514078 0 0.0013887228422114822 -0.010504481961481826 0 0.001112105586480678 -0.011009740018434964 0 0.00082457116393572628 -0.010880700726026484 0 0.0013922786143780756 -0.010648810374532124 0 0.0016573490742013051 -0.010434223173364164 0 0.0030302096619812982 -0.0095558571126285342 0 0.0024847968217018021 -0.0095359587378772148 0 0.0021448811918159099 -0.010231236479029744 0 0.0020886674847919746 -0.0094072950264772921 0 0.0024847968217018021 -0.0095359587378772148 0 0.0021448811918159099 -0.010231236479029744 0 -0.00087197066030625424 -0.012027935006979249 0 -0.00052875064666222337 -0.012040402810408685 0 -0.0005016840860924323 -0.011585221846961251 0 -0.00087197066030625424 -0.012027935006979249 0 -0.00077759621903324106 -0.012248058986070676 0 -0.00052875064666222337 -0.012040402810408685 0 -0.00062177493641578179 -0.012346871513637206 0 -0.00077759621903324106 -0.012248058986070676 0 -0.00052875064666222337 -0.012040402810408685 0 -0.00062177493641578179 -0.012346871513637206 0 -0.00041272495627014846 -0.012295609240371356 0 -0.00052875064666222337 -0.012040402810408685 0 -0.00052875064666222337 -0.012040402810408685 0 -0.00023482075767501152 -0.012075850142945448 0 -0.00033233361991068152 -0.011762148537996333 0 -0.00041272495627014846 -0.012295609240371356 0 -0.00011457700571148554 -0.012425613704709485 0 -0.00023482075767501152 -0.012075850142945448 0 -0.00041272495627014846 -0.012295609240371356 0 -0.00052875064666222337 -0.012040402810408685 0 -0.00023482075767501152 -0.012075850142945448 0 -0.00060711371543223857 -0.010183146567309684 0 0.00069586398749611051 -0.010736450820676787 0 -0.00011457700571148554 -0.012425613704709485 0 0.00010970060929723064 -0.012030011212668773 0 -0.00023482075767501152 -0.012075850142945448 0 0.00010970060929723064 -0.012030011212668773 0 -0.00023482075767501152 -0.012075850142945448 0 -4.7294416351770328e-06 -0.011690158680989151 0 -0.00023974245990009767 -0.012076528023696664 0 -8.2293754816755526e-06 -0.011447361383927528 0 -0.00023482075767501152 -0.012075850142945448 0 -4.7294416351770328e-06 -0.011690158680989151 0 8.8313050594303172e-07 -0.011482966954286427 0 -0.00023482075767501152 -0.012075850142945448 0 -0.00010869613424166729 -0.01156916737654266 0 -0.00033233361991068152 -0.011762148537996333 0 -0.00010869613424166729 -0.01156916737654266 0 -0.00028700364174583153 -0.011579154990146499 0 -0.00033233361991068152 -0.011762148537996333 0 -0.00010869613424166729 -0.01156916737654266 0 -0.00028700364174583153 -0.011579154990146499 0 -0.00021159204850629954 -0.011417346034564301 0 -0.00028700364174583153 -0.011579154990146499 0 -0.0005016840860924323 -0.011585221846961251 0 -0.00021159204850629954 -0.011417346034564301 0 -0.00028700364174583153 -0.011579154990146499 0 -0.00033233361991068152 -0.011762148537996333 0 -0.0005016840860924323 -0.011585221846961251 0 -0.00052875064666222337 -0.012040402810408685 0 -0.00033233361991068152 -0.011762148537996333 0 -0.0005016840860924323 -0.011585221846961251 0 -0.0011736190565565666 -0.012438806464674355 0 -0.0012004440719299073 -0.012272665670897288 0 -0.0010120588180074553 -0.012217848628802229 0 -0.0010376490480216733 -0.012260339748423268 0 -0.00071027953465476021 -0.011829088035604953 0 -0.0012004440719299073 -0.012272665670897288 0 -0.0010120588180074553 -0.012217848628802229 0 -0.0011347193076517979 -0.012090550235743817 0 -0.0010120588180074553 -0.012217848628802229 0 -0.0011347193076517979 -0.012090550235743817 0 -0.0008508583790451089 -0.011992085658198461 0 -0.0014778471072246198 -0.012598100543805973 0 -0.0010388201949546186 -0.012444396446259076 0 -0.0013193285899388589 -0.012370391859819861 0 -0.0013632133548346797 -0.012382505241597896 0 -0.00075884584595550331 -0.011968721483821892 0 -0.0005016840860924323 -0.011585221846961251 0 -0.00021159204850629954 -0.011417346034564301 0 -0.00021492358681394905 -0.011220655767153307 0 -0.00010869613424166729 -0.01156916737654266 0 -0.00021159204850629954 -0.011417346034564301 0 2.738637877576562e-05 -0.011138177750554651 0 -0.00071027953465476021 -0.011829088035604953 0 -0.00075884584595550331 -0.011968721483821892 0 -0.00021159204850629954 -0.011417346034564301 0 -0.00021492358681394905 -0.011220655767153307 0 2.738637877576562e-05 -0.011138177750554651 0 -0.0017473210037028607 -0.013092850281333284 0 -0.0019427810029030554 -0.01334430657110945 0 -0.0015121761422110637 -0.013079877936596681 0 -0.0016033680410474909 -0.012835534850778773 0 -0.0012494016115780701 -0.012664515437776351 0 -0.0013193285899388589 -0.012370391859819861 0 -0.00088630551790405763 -0.012225600029200999 0 -0.00085312983544432038 -0.012126966218423955 0 -0.0010388201949546186 -0.012444396446259076 0 -0.0013193285899388589 -0.012370391859819861 0 -0.00088630551790405763 -0.012225600029200999 0 -0.00075884584595550331 -0.011968721483821892 0 -0.00025180715135405667 -0.011536017681242882 0 -0.00075884584595550331 -0.011968721483821892 0 -0.0009888028807975202 -0.012359882394789927 0 -0.0017648850798704313 -0.012999983461201398 0 -0.0012494016115780701 -0.012664515437776351 0 -0.0017473210037028607 -0.013092850281333284 0 -0.0019427810029030554 -0.01334430657110945 0 -0.0020283443792823313 -0.013127049877532337 0 -0.0021572769316702549 -0.013351478365638315 0 -0.0019427810029030554 -0.01334430657110945 0 -0.0020283443792823313 -0.013127049877532337 0 0.001112105586480678 -0.011009740018434964 0 0.00085626241776441279 -0.011174465558014619 0 0.00082457116393572628 -0.010880700726026484 0 0.00018841642751940126 -0.011481618511514078 0 0.00039250358290207816 -0.011300249579219988 0 0.00018283831601724539 -0.01134997532232535 0 -8.2293754816755526e-06 -0.011447361383927528 0 -0.00025180715135405667 -0.011536017681242882 0 8.8313050594303172e-07 -0.011482966954286427 0 0.00018283831601724539 -0.01134997532232535 0 0.00015347081025164739 -0.011122717740882445 0 0.00018841642751940126 -0.011481618511514078 0 8.8313050594303172e-07 -0.011482966954286427 0 0.00018283831601724539 -0.01134997532232535 0 0.00039250358290207816 -0.011300249579219988 0 0.00018283831601724539 -0.01134997532232535 0 0.00015347081025164739 -0.011122717740882445 0 -0.00042441385663403015 -0.011812902002785203 0 -0.00041138516298639679 -0.011773416612525988 0 -0.00034090047068548 -0.011787103210105227 0 -0.00099818791473201668 -0.012389289695279889 0 -0.00081704623267457642 -0.012333007414715619 0 -0.00088630551790405763 -0.012225600029200999 0 -0.00088630551790405763 -0.012225600029200999 0 -0.00085312983544432038 -0.012126966218423955 0 -0.00073849653220942188 -0.012130616348861731 0 -0.00081704623267457642 -0.012333007414715619 0 -0.00088630551790405763 -0.012225600029200999 0 -0.00073849653220942188 -0.012130616348861731 0 -0.0012494016115780701 -0.012664515437776351 0 -0.00087507911804720056 -0.012260477670053397 0 -0.00025180715135405667 -0.011536017681242882 0 -0.00087507911804720056 -0.012260477670053397 0 -0.00087507911804720056 -0.012260477670053397 0 -0.0006288977695369409 -0.012085370434681523 0 0.00073103372746459341 -0.011205825447502425 0 0.00018600303050353022 -0.011429555620905486 0 -0.00025180715135405667 -0.011536017681242882 0 0.00018600303050353022 -0.011429555620905486 0 -0.00041138516298639679 -0.011773416612525988 0 -0.00034090047068548 -0.011787103210105227 0 -0.00033344947161714349 -0.01177342280610813 0 0.00039250358290207816 -0.011300249579219988 0 0.00015347081025164739 -0.011122717740882445 0 0.00055597698080525712 -0.010993146916665829 0 0.001112105586480678 -0.011009740018434964 0 0.00085626241776441279 -0.011174465558014619 0 0.00083117841826053581 -0.011519229181150607 0 -0.0012186743904471502 -0.012330248200227635 0 -0.0011496592577423389 -0.012327232537965841 0 -0.0010857475946781548 -0.012370425099670611 0 -0.0011128224697108194 -0.012297570065397067 0 -0.0011496592577423389 -0.012327232537965841 0 -0.0010857475946781548 -0.012370425099670611 0 -0.0011877774920887891 -0.012289254729537517 0 -0.0012032814869795136 -0.012311039244835859 0 -0.0012096154407219141 -0.01223767568335005 0 -0.0011128224697108194 -0.012297570065397067 0 -0.0011589728526725587 -0.012297663332050346 0 -0.0011496592577423389 -0.012327232537965841 0 -0.0011128224697108194 -0.012297570065397067 0 -0.0011497913960490829 -0.012258602154882335 0 -0.0011589728526725587 -0.012297663332050346 0 -0.0011497913960490829 -0.012258602154882335 0 -0.0011589728526725587 -0.012297663332050346 0 -0.0011877774920887891 -0.012289254729537517 0 -0.0011589728526725587 -0.012297663332050346 0 -0.0011877774920887891 -0.012289254729537517 0 -0.0011846594661525896 -0.012311040423377434 0 -0.0012186743904471502 -0.012330248200227635 0 -0.0011846594661525896 -0.012311040423377434 0 -0.0011496592577423389 -0.012327232537965841 0 -0.0011589728526725587 -0.012297663332050346 0 -0.0011846594661525896 -0.012311040423377434 0 -0.0011496592577423389 -0.012327232537965841 0 -0.0011650346103203788 -0.012550873722886612 0 -0.0010213957108129103 -0.012549719124777562 0 -0.00099091857121782773 -0.012461182279481868 0 -0.0012186743904471502 -0.012330248200227635 0 -0.0011846594661525896 -0.012311040423377434 0 -0.0012032814869795136 -0.012311039244835859 0 -0.00087507911804720056 -0.012260477670053397 0 -0.0011686690852545888 -0.012606709147026321 0 -0.0013151518199518346 -0.012993349823284291 0 -0.0014983722650330157 -0.012900289118764029 0 -0.001421344721601788 -0.012814081550033928 0 -0.0011877774920887891 -0.012289254729537517 0 -0.0011846594661525896 -0.012311040423377434 0 -0.0012032814869795136 -0.012311039244835859 0 -0.0012494016115780701 -0.012664515437776351 0 -0.0011686690852545888 -0.012606709147026321 0 -0.0015091857410401888 -0.013073355625089704 0 -0.0013151518199518346 -0.012993349823284291 0 -0.0014983722650330157 -0.012900289118764029 0 -0.0015091857410401888 -0.013073355625089704 0 -0.0014983722650330157 -0.012900289118764029 0 -0.0016381505850471261 -0.012931572070788948 0 -0.0014983722650330157 -0.012900289118764029 0 -0.001421344721601788 -0.012814081550033928 0 -0.0015784511717332539 -0.012714317953262513 0 -0.001421344721601788 -0.012814081550033928 0 -0.0013525946687154412 -0.012653668894994268 0 -0.0015784511717332539 -0.012714317953262513 0 -0.0014983722650330157 -0.012900289118764029 0 -0.0015784511717332539 -0.012714317953262513 0 -0.0016381505850471261 -0.012931572070788948 0 -0.0013151518199518346 -0.012993349823284291 0 -0.001421344721601788 -0.012814081550033928 0 -0.0013525946687154412 -0.012653668894994268 0 -0.0014589845993068955 -0.012448252628473114 0 -0.0017814665060560434 -0.0125064930033679 0 -0.0013571784407356746 -0.012157355453690061 0 -0.0013151518199518346 -0.012993349823284291 0 -0.0013525946687154412 -0.012653668894994268 0 -0.0012096154407219141 -0.01223767568335005 0 -0.0013525946687154412 -0.012653668894994268 0 -0.0015784511717332539 -0.012714317953262513 0 -0.0014589845993068955 -0.012448252628473114 0 -0.0013525946687154412 -0.012653668894994268 0 -0.0014589845993068955 -0.012448252628473114 0 -0.0012096154407219141 -0.01223767568335005 0 -0.0011497913960490829 -0.012258602154882335 0 -0.0011877774920887891 -0.012289254729537517 0 -0.0012096154407219141 -0.01223767568335005 0 -0.0011686690852545888 -0.012606709147026321 0 -0.0012315409113769875 -0.012291302850722028 0 -0.0012096154407219141 -0.01223767568335005 0 -0.0011020843012774176 -0.012190028835172274 0 -0.0010516332085485063 -0.012089067579114231 0 -0.0011497913960490829 -0.012258602154882335 0 -0.0012096154407219141 -0.01223767568335005 0 -0.0011020843012774176 -0.012190028835172274 0 -0.0017473210037028607 -0.013092850281333284 0 -0.0020283443792823313 -0.013127049877532337 0 -0.0018396361055270148 -0.012873347305390184 0 -0.0021838250255485914 -0.012877044681193257 0 -0.0020283443792823313 -0.013127049877532337 0 -0.0018396361055270148 -0.012873347305390184 0 -0.0017473210037028607 -0.013092850281333284 0 -0.0018396361055270148 -0.012873347305390184 0 -0.0016381505850471261 -0.012931572070788948 0 -0.0017473210037028607 -0.013092850281333284 0 -0.0015091857410401888 -0.013073355625089704 0 -0.0016381505850471261 -0.012931572070788948 0 -0.0015784511717332539 -0.012714317953262513 0 -0.0018396361055270148 -0.012873347305390184 0 -0.0016381505850471261 -0.012931572070788948 0 -0.0015784511717332539 -0.012714317953262513 0 -0.0014589845993068955 -0.012448252628473114 0 -0.0017814665060560434 -0.0125064930033679 0 -0.0015784511717332539 -0.012714317953262513 0 -0.0018396361055270148 -0.012873347305390184 0 -0.0017814665060560434 -0.0125064930033679 0 -0.0021838250255485914 -0.012877044681193257 0 -0.0018396361055270148 -0.012873347305390184 0 -0.0017814665060560434 -0.0125064930033679 0 -0.0021694590885497009 -0.012865570798435767 0 -0.0018006411961778422 -0.012519667338005891 0 -0.0021543056739798581 -0.012832521140094486 0 -0.0018367530203880968 -0.012551239516277676 0 -0.0020339821781433978 -0.012319985385939829 0 -0.0018367530203880968 -0.012551239516277676 0 -0.0020339821781433978 -0.012319985385939829 0 -0.0016386697636495942 -0.012030786277264033 0 -0.0020339821781433978 -0.012319985385939829 0 -0.0020024912815570606 -0.012006496292016368 0 -0.0016386697636495942 -0.012030786277264033 0 -0.0022637502833290882 -0.012107695257145433 0 -0.0020339821781433978 -0.012319985385939829 0 -0.0020024912815570606 -0.012006496292016368 0 -0.0011862566957102796 -0.012068508934432643 0 -0.0013571784407356746 -0.012157355453690061 0 -0.001280562721103331 -0.011942109960734075 0 -0.0011862566957102796 -0.012068508934432643 0 -0.001280562721103331 -0.011942109960734075 0 -0.0010855436449962719 -0.011919113365090602 0 -0.0012096154407219141 -0.01223767568335005 0 -0.0011862566957102796 -0.012068508934432643 0 -0.0010516332085485063 -0.012089067579114231 0 -0.0012096154407219141 -0.01223767568335005 0 -0.0011862566957102796 -0.012068508934432643 0 -0.0013571784407356746 -0.012157355453690061 0 -0.0014589845993068955 -0.012448252628473114 0 -0.0012096154407219141 -0.01223767568335005 0 -0.0013571784407356746 -0.012157355453690061 0 -0.0013571784407356746 -0.012157355453690061 0 -0.0016386697636495942 -0.012030786277264033 0 -0.001280562721103331 -0.011942109960734075 0 -0.0018006411961778422 -0.012519667338005891 0 -0.0013762894478310905 -0.012195664350287242 0 -0.0018367530203880968 -0.012551239516277676 0 -0.0013571784407356746 -0.012157355453690061 0 -0.0016386697636495942 -0.012030786277264033 0 -0.0016386697636495942 -0.012030786277264033 0 -0.0013301595814797262 -0.011688480065959779 0 -0.001280562721103331 -0.011942109960734075 0 -0.0013301595814797262 -0.011688480065959779 0 -0.001280562721103331 -0.011942109960734075 0 -0.0011433384051265545 -0.01178641037375641 0 -0.0010889582581941149 -0.011593847591586217 0 -0.0013301595814797262 -0.011688480065959779 0 -0.0011433384051265545 -0.01178641037375641 0 -0.001280562721103331 -0.011942109960734075 0 -0.0011433384051265545 -0.01178641037375641 0 -0.0010855436449962719 -0.011919113365090602 0 -0.0010889582581941149 -0.011593847591586217 0 -0.00095709845432400071 -0.011775756131836094 0 -0.00085495157229163168 -0.011592392096496713 0 -0.0010889582581941149 -0.011593847591586217 0 -0.0011433384051265545 -0.01178641037375641 0 -0.00095709845432400071 -0.011775756131836094 0 -0.0011433384051265545 -0.01178641037375641 0 -0.00095709845432400071 -0.011775756131836094 0 -0.0010855436449962719 -0.011919113365090602 0 -0.00095709845432400071 -0.011775756131836094 0 -0.0009731351321150166 -0.011941673578742783 0 -0.00084084140989703921 -0.01187917459658025 0 -0.00095709845432400071 -0.011775756131836094 0 -0.0010855436449962719 -0.011919113365090602 0 -0.0009731351321150166 -0.011941673578742783 0 -0.0009731351321150166 -0.011941673578742783 0 -0.0010516332085485063 -0.012089067579114231 0 -0.00089940797175616237 -0.012031256028750601 0 -0.0010855436449962719 -0.011919113365090602 0 -0.0009731351321150166 -0.011941673578742783 0 -0.0010516332085485063 -0.012089067579114231 0 -0.0011862566957102796 -0.012068508934432643 0 -0.0010855436449962719 -0.011919113365090602 0 -0.0010516332085485063 -0.012089067579114231 0 -0.00095709845432400071 -0.011775756131836094 0 -0.00084084140989703921 -0.01187917459658025 0 -0.0007193022595547038 -0.011696822410990237 0 -0.00074584377263530626 -0.011946165740590738 0 -0.00084084140989703921 -0.01187917459658025 0 -0.00070068648216732707 -0.011821225153951082 0 -0.00074584377263530626 -0.011946165740590738 0 -0.00084084140989703921 -0.01187917459658025 0 -0.00089940797175616237 -0.012031256028750601 0 -0.0009731351321150166 -0.011941673578742783 0 -0.00084084140989703921 -0.01187917459658025 0 -0.00089940797175616237 -0.012031256028750601 0 -0.00084084140989703921 -0.01187917459658025 0 -0.0007193022595547038 -0.011696822410990237 0 -0.00070068648216732707 -0.011821225153951082 0 -0.00095709845432400071 -0.011775756131836094 0 -0.0007193022595547038 -0.011696822410990237 0 -0.00085495157229163168 -0.011592392096496713 0 -0.0007193022595547038 -0.011696822410990237 0 -0.00085495157229163168 -0.011592392096496713 0 -0.00066322001020556909 -0.011492558622033364 0 -0.0007193022595547038 -0.011696822410990237 0 -0.00066322001020556909 -0.011492558622033364 0 -0.0005406749205587475 -0.011598582211207476 0 -0.00045209971955813326 -0.011426984244832072 0 -0.00066322001020556909 -0.011492558622033364 0 -0.0005406749205587475 -0.011598582211207476 0 -0.0007193022595547038 -0.011696822410990237 0 -0.0005406749205587475 -0.011598582211207476 0 -0.00059766356991458982 -0.011731725702280097 0 -0.00045209971955813326 -0.011426984244832072 0 -0.00026552135213702804 -0.011444322821648109 0 -0.000398026825653688 -0.011569927087411773 0 -0.00045209971955813326 -0.011426984244832072 0 -0.0005406749205587475 -0.011598582211207476 0 -0.000398026825653688 -0.011569927087411773 0 -0.0005406749205587475 -0.011598582211207476 0 -0.000398026825653688 -0.011569927087411773 0 -0.00045476538925204947 -0.0117271149920551 0 -0.00026552135213702804 -0.011444322821648109 0 -0.00027688698309287333 -0.011643351292195783 0 -0.000398026825653688 -0.011569927087411773 0 -0.00027688698309287333 -0.011643351292195783 0 -0.000398026825653688 -0.011569927087411773 0 -0.00045476538925204947 -0.0117271149920551 0 -0.00027688698309287333 -0.011643351292195783 0 -0.00045476538925204947 -0.0117271149920551 0 -0.00033982280656137659 -0.01181015364348606 0 -0.00045476538925204947 -0.0117271149920551 0 -0.00033982280656137659 -0.01181015364348606 0 -0.00048517125283581642 -0.01188905154880447 0 -0.0007193022595547038 -0.011696822410990237 0 -0.00070068648216732707 -0.011821225153951082 0 -0.00059766356991458982 -0.011731725702280097 0 -0.00070068648216732707 -0.011821225153951082 0 -0.00059766356991458982 -0.011731725702280097 0 -0.00060026214685148373 -0.011848119963416878 0 -0.0005406749205587475 -0.011598582211207476 0 -0.00045476538925204947 -0.0117271149920551 0 -0.00059766356991458982 -0.011731725702280097 0 -0.00045476538925204947 -0.0117271149920551 0 -0.00059766356991458982 -0.011731725702280097 0 -0.00060026214685148373 -0.011848119963416878 0 -0.00045476538925204947 -0.0117271149920551 0 -0.00060026214685148373 -0.011848119963416878 0 -0.00048517125283581642 -0.01188905154880447 0 -0.00074584377263530626 -0.011946165740590738 0 -0.00070068648216732707 -0.011821225153951082 0 -0.00060026214685148373 -0.011848119963416878 0 -0.00074584377263530626 -0.011946165740590738 0 -0.00060026214685148373 -0.011848119963416878 0 -0.00064197314718442719 -0.011990095994384472 0 -0.00060026214685148373 -0.011848119963416878 0 -0.00064197314718442719 -0.011990095994384472 0 -0.00048517125283581642 -0.01188905154880447 0 -0.00064197314718442719 -0.011990095994384472 0 -0.00048517125283581642 -0.01188905154880447 0 -0.00052118665898383992 -0.01204697003189029 0 -0.00064197314718442719 -0.011990095994384472 0 -0.00052118665898383992 -0.01204697003189029 0 -0.00070083378682567969 -0.01213017838871152 0 -0.00052118665898383992 -0.01204697003189029 0 -0.00037829477317496822 -0.011926649235247134 0 -0.00025854803445756136 -0.011974100137098013 0 -0.0002686501602208206 -0.011898173819273914 0 -0.00033982280656137659 -0.01181015364348606 0 -0.00037829477317496822 -0.011926649235247134 0 -0.00033982280656137659 -0.01181015364348606 0 -0.00048517125283581642 -0.01188905154880447 0 -0.00037829477317496822 -0.011926649235247134 0 -0.00048517125283581642 -0.01188905154880447 0 -0.00052118665898383992 -0.01204697003189029 0 -0.00037829477317496822 -0.011926649235247134 0 -0.0002686501602208206 -0.011898173819273914 0 -0.00037829477317496822 -0.011926649235247134 0 -0.00025854803445756136 -0.011974100137098013 0 -0.00029904874194017163 -0.012045099368233768 0 -8.7472629507648529e-05 -0.011769530401291641 0 -0.00025854803445756136 -0.011974100137098013 0 -0.00012842028083800654 -0.011672696343763165 0 0.00022534665563388303 -0.011671828786994754 0 -0.00052118665898383992 -0.01204697003189029 0 -0.00025854803445756136 -0.011974100137098013 0 -0.00054297292402832496 -0.012302311137538669 0 3.4433042034101488e-05 -0.011681580485584894 0 -8.7472629507648529e-05 -0.011769530401291641 0 -0.00028114914305296201 -0.011804019136891527 0 -0.00038635605954140314 -0.011604012821942331 0 -0.00012842028083800654 -0.011672696343763165 0 -0.00028114914305296201 -0.011804019136891527 0 -0.00025854803445756136 -0.011974100137098013 0 -0.00012842028083800654 -0.011672696343763165 0 -0.00052118665898383992 -0.01204697003189029 0 -0.00054297292402832496 -0.012302311137538669 0 -0.00066506121624361253 -0.012217975557286797 0 -0.00070083378682567969 -0.01213017838871152 0 -0.00066506121624361253 -0.012217975557286797 0 -0.00075631141801715113 -0.012255422143904937 0 -0.00052118665898383992 -0.01204697003189029 0 -0.00070083378682567969 -0.01213017838871152 0 -0.00066506121624361253 -0.012217975557286797 0 -0.00054297292402832496 -0.012302311137538669 0 -0.00066506121624361253 -0.012217975557286797 0 -0.00076151003396872396 -0.01231258612585206 0 -8.7472629507648529e-05 -0.011769530401291641 0 -0.00035193272834198888 -0.011968438797520574 0 -0.00076151003396872396 -0.01231258612585206 0 -0.00075631141801715113 -0.012255422143904937 0 -0.00090056931299311227 -0.012308417413526883 0 -0.00095450780614256335 -0.012322221966651057 0 -0.00040586083068197472 -0.012024225293581148 0 -0.00075631141801715113 -0.012255422143904937 0 -0.00088186242482221925 -0.012236004973502725 0 -0.00094199971519165612 -0.012321691503403273 0 -0.00066506121624361253 -0.012217975557286797 0 -0.00076151003396872396 -0.01231258612585206 0 -0.00075631141801715113 -0.012255422143904937 0 -0.00070083378682567969 -0.01213017838871152 0 -0.00075631141801715113 -0.012255422143904937 0 -0.00082381796459894945 -0.012176165362118425 0 -0.00082381796459894945 -0.012176165362118425 0 -0.00088186242482221925 -0.012236004973502725 0 -0.00096817998364487454 -0.012187152122247519 0 -0.00075631141801715113 -0.012255422143904937 0 -0.00082381796459894945 -0.012176165362118425 0 -0.00088186242482221925 -0.012236004973502725 0 -0.00035193272834198888 -0.011968438797520574 0 -0.00040586083068197472 -0.012024225293581148 0 -0.0006288977695369409 -0.012085370434681523 0 -0.0010686820321286364 -0.012328402968426853 0 -0.0011128224697108194 -0.012297570065397067 0 -0.0011497913960490829 -0.012258602154882335 0 -0.00096817998364487454 -0.012187152122247519 0 -0.0011128224697108194 -0.012297570065397067 0 -0.0010857475946781548 -0.012370425099670611 0 -0.00096817998364487454 -0.012187152122247519 0 -0.00094199971519165612 -0.012321691503403273 0 -0.0010207865486280981 -0.012321101368453111 0 -0.00096817998364487454 -0.012187152122247519 0 -0.00088186242482221925 -0.012236004973502725 0 -0.00094199971519165612 -0.012321691503403273 0 -0.00096817998364487454 -0.012187152122247519 0 -0.00040586083068197472 -0.012024225293581148 0 -0.0006288977695369409 -0.012085370434681523 0 -0.0011497913960490829 -0.012258602154882335 0 -0.0011020843012774176 -0.012190028835172274 0 -0.00096817998364487454 -0.012187152122247519 0 -0.0011020843012774176 -0.012190028835172274 0 -0.00096817998364487454 -0.012187152122247519 0 -0.0010516332085485063 -0.012089067579114231 0 -0.00096817998364487454 -0.012187152122247519 0 -0.0010516332085485063 -0.012089067579114231 0 -0.00089940797175616237 -0.012031256028750601 0 -0.00074584377263530626 -0.011946165740590738 0 -0.00089940797175616237 -0.012031256028750601 0 -0.00079907539996102947 -0.012084421478764051 0 -0.00074584377263530626 -0.011946165740590738 0 -0.00064197314718442719 -0.011990095994384472 0 -0.00079907539996102947 -0.012084421478764051 0 -0.00064197314718442719 -0.011990095994384472 0 -0.00070083378682567969 -0.01213017838871152 0 -0.00079907539996102947 -0.012084421478764051 0 -0.00070083378682567969 -0.01213017838871152 0 -0.00082381796459894945 -0.012176165362118425 0 -0.00079907539996102947 -0.012084421478764051 0 -0.00096817998364487454 -0.012187152122247519 0 -0.00089940797175616237 -0.012031256028750601 0 -0.00079907539996102947 -0.012084421478764051 0 -0.00082381796459894945 -0.012176165362118425 0 -0.00096817998364487454 -0.012187152122247519 0 -0.00079907539996102947 -0.012084421478764051 0 
</DataArray>
</PointData>
<CellData Scalars="region_id,cross_section_updated," Vectors="" Tensors="stress,">
<DataArray type="Float64" Name="region_id" format="ascii">
5 5 5 5 5 5 5 5 5 5 5 5 5 6 5 5 5 5 5 5 5 5 5 6 6 5 5 5 5 5 5 5 5 5 5 5 6 5 6 5 6 5 5 5 5 5 5 5 5 5 5 5 5 5 5 5 6 5 5 5 6 5 5 5 5 5 5 6 5 5 5 5 6 5 5 5 5 5 5 5 5 5 5 6 5 5 6 5 6 5 5 6 5 6 5 5 5 5 5 5 5 6 5 5 6 5 5 5 5 6 6 5 6 5 5 5 5 5 5 5 5 5 5 6 5 5 6 5 5 5 6 5 5 5 5 5 5 5 5 5 5 5 5 6 5 5 5 5 5 5 5 5 5 5 5 5 5 5 5 5 5 5 5 6 5 5 5 5 5 5 5 5 5 5 5 5 5 5 5 5 5 5 5 5 5 5 5 5 5 6 5 5 5 5 6 5 6 5 5 5 5 5 5 5 5 5 5 5 6 5 5 5 5 5 5 5 5 5 5 5 5 5 5 5 5 5 5 6 6 5 5 5 5 5 5 6 5 5 5 6 5 5 5 5 5 6 5 5 5 5 5 5 6 5 5 5 5 6 5 5 5 5 6 6 5 5 5 5 5 5 5 5 5 5 5 5 5 5 5 5 6 5 6 5 5 5 5 5 5 5 6 5 6 5 5 5 6 5 5 5 5 5 5 5 5 5 6 5 5 5 5 5 5 5 6 5 5 5 5 5 5 5 5 5 5 5 5 5 5 5 5 5 5 5 6 5 5 5 5 5 5 5 5 5 5 6 5 6 5 5 5 6 5 5 5 5 5 5 5 5 5 5 5 5 6 5 5 6 5 6 5 5 5 6 5 5 5 5 5 5 5 5 5 6 5 5 5 6 5 5 5 5 5 5 6 5 5 5 5 5 5 5 5 5 5 5 5 6 5 5 5 5 5 6 5 6 5 5 5 6 5 5 5 5 5 5 5 5 5 5 5 5 5 5 5 6 5 6 5 5 5 5 6 5 5 5 5 5 5 5 5 6 5 5 6 5 6 5 6 5 5 5 6 6 5 5 5 5 5 5 5 6 6 5 6 5 6 5 6 5 5 5 6 5 6 5 6 5 5 6 5 5 5 6 5 5 5 5 6 5 6 5 5 5 5 6 5 5 5 5 5 6 5 5 5 5 5 6 5 5 5 6 5 6 5 5 5 6 5 5 5 5 5 5 5 6 5 5 5 5 5 6 5 5 5 5 5 6 5 6 5 5 5 5 5 5 5 5 6 5 5 5 5 5 5 6 5 5 5 5 5 5 6 5 5 5 5 6 5 5 5 6 5 5 5 5 5 5 5 5 5 6 5 5 5 5 5 5 5 5 5 5 5 5 6 5 5 5 5 5 6 5 5 6 5 5 5 5 5 5 5 6 5 5 5 5 5 5 5 6 5 6 5 5 5 6 5 5 5 5 5 5 5 5 6 5 5 5 5 6 5 5 6 5 5 5 5 5 5 5 5 5 5 5 5 5 5 5 5 5 5 6 5 5 5 5 5 5 5 5 5 5 6 5 5 5 6 5 5 5 5 6 5 5 5 5 6 5 5 5 6 5 5 5 5 5 5 5 6 5 5 6 5 5 6 5 5 5 5 5 5 5 6 5 5 5 5 5 5 5 5 5 5 5 6 5 5 5 5 5 5 5 5 5 5 5 5 6 5 5 5 5 5 5 5 5 5 5 5 5 5 6 5 5 6 5 6 6 5 6 5 5 5 5 6 5 6 5 5 6 6 5 5 6 5 5 5 6 6 5 5 5 5 5 5 5 5 5 5 5 5 5 5 5 5 5 5 5 5 5 5 5 5 5 5 6 5 5 5 5 6 5 6 5 5 5 5 5 5 6 5 5 5 5 6 5 6 5 6 6 6 6 5 6 5 5 5 5 5 5 5 5 5 5 5 5 5 6 5 5 5 6 6 5 5 5 6 5 6 5 6 5 5 6 6 6 5 6 5 5 5 5 5 5 5 5 6 5 5 5 5 5 6 6 6 5 5 5 6 6 6 6 5 5 5 5 5 5 5 5 5 5 5 5 5 5 6 5 5 5 5 5 5 5 5 5 5 5 5 6 5 5 5 5 6 5 5 5 5 6 5 5 5 5 5 6 5 5 5 5 5 5 5 5 6 5 5 5 5 6 6 5 5 6 6 5 5 5 5 6 5 6 5 5 5 5 5 5 6 5 5 5 6 5 5 5 6 6 5 6 5 5 5 5 6 5 5 5 5 5 6 5 6 6 5 5 5 5 5 5 5 5 6 5 5 5 5 5 6 6 6 5 5 5 5 5 5 6 5 5 5 6 5 5 5 5 6 6 6 5 5 5 6 5 5 5 5 5 5 5 5 6 5 5 6 5 5 5 5 5 5 5 5 5 5 5 5 5 5 5 5 5 5 5 5 5 5 5 5 5 5 5 5 5 5 5 5 5 5 5 5 5 5 5 5 5 6 5 5 5 5 5 5 5 5 5 5 5 5 5 5 5 5 5 5 5 5 5 5 5 5 5 6 5 5 5 6 5 5 5 5 5 6 5 5 5 5 6 5 5 6 5 5 5 5 6 5 5 6 5 5 5 6 5 5 6 5 5 5 5 6 5 5 5 5 5 5 6 5 5 5 6 5 5 5 5 5 5 5 6 5 5 5 5 5 5 5 5 5 5 5 5 5 5 6 5 5 5 5 5 6 5 5 5 5 5 5 5 5 5 5 5 5 5 5 5 5 5 5 5 5 5 5 5 5 5 5 5 5 6 5 5 5 5 5 5 6 6 6 6 5 5 5 5 5 5 5 5 5 5 5 5 5 5 5 5 5 5 5 6 5 5 5 5 5 5 5 5 5 6 5 5 6 5 5 5 5 5 5 5 5 5 5 5 5 5 5 5 5 5 6 5 5 5 5 6 5 5 6 5 5 6 5 5 5 5 5 5 5 5 5 5 5 5 6 5 5 5 5 5 5 5 5 5 5 5 6 5 5 5 6 5 6 6 5 5 5 5 5 5 5 5 5 5 5 5 5 6 5 5 6 6 5 5 5 6 5 5 6 5 5 5 5 6 6 5 6 5 5 5 6 5 5 5 5 5 6 5 5 6 6 5 5 6 5 5 5 5 5 5 5 5 5 6 6 5 5 5 5 5 5 5 6 5 5 5 6 5 5 5 6 5 5 5 6 5 5 5 5 5 5 5 5 5 5 5 6 5 5 5 6 5 6 5 5 5 5 5 6 5 6 5 5 6 5 5 6 6 5 5 5 6 5 5 5 6 5 5 5 6 5 5 5 5 6 6 6 5 5 5 5 5 5 5 6 5 5 5 5 6 6 5 5 5 5 5 5 5 6 5 6 5 5 5 6 5 6 5 5 5 5 5 5 5 5 5 6 5 5 5 5 5 5 5 5 5 5 5 5 5 5 5 5 5 5 5 5 5 5 5 5 6 5 5 5 6 5 5 6 5 5 5 5 5 5 6 5 6 5 5 5 6 5 6 5 5 5 6 5 5 5 5 5 5 5 5 5 5 5 5 5 5 5 5 6 5 5 5 5 5 6 5 5 5 5 5 5 5 5 5 5 5 6 5 5 5 5 5 6 5 5 5 5 5 5 5 5 5 5 5 5 5 5 6 5 5 5 6 5 5 5 5 5 5 5 5 5 5 5 5 5 5 5 6 5 5 5 5 5 5 6 5 6 5 5 5 5 5 5 5 5 6 5 6 5 5 5 5 5 5 6 5 5 5 5 5 5 5 6 5 6 6 5 5 6 5 5 5 5 6 5 6 5 6 5 5 5 5 5 5 5 5 5 5 5 5 5 5 5 5 5 5 6 5 6 5 5 5 5 5 5 5 5 5 5 5 5 5 5 6 5 6 5 5 5 6 6 5 6 5 5 5 5 6 5 5 5 5 6 6 5 5 6 6 5 5 6 6 5 5 5 5 6 5 5 6 5 5 5 6 5 6 5 6 5 5 5 6 5 5 5 6 6 6 6 5 5 5 5 6 5 5 6 5 6 5 6 5 5 5 5 5 5 5 6 6 5 5 5 5 6 6 5 5 6 5 5 6 5 5 5 5 5 5 5 5 5 5 6 5 5 5 5 5 5 6 5 5 5 6 5 5 5 6 5 5 5 5 5 5 6 5 6 5 6 5 5 5 6 5 5 6 5 5 6 5 6 5 5 6 5 5 5 5 6 5 5 5 6 5 5 5 5 5 5 5 5 5 5 5 5 5 5 5 5 5 5 5 5 5 5 5 5 5 5 5 5 5 6 6 5 5 6 5 5 5 5 5 5 5 5 5 6 5 5 5 5 5 5 5 6 6 5 5 6 5 5 5 5 5 5 5 5 5 5 5 5 5 5 5 5 5 5 6 5 5 5 5 5 5 5 5 5 5 5 5 5 5 5 5 5 5 5 5 5 5 5 5 5 5 5 5 5 5 5 5 5 5 5 5 5 5 5 5 5 5 5 5 5 5 5 5 5 5 5 5 5 5 5 5 5 5 5 5 5 5 5 5 5 5 5 5 5 5 5 5 6 5 5 5 5 5 5 5 6 5 5 5 6 5 6 5 5 5 5 5 5 5 5 5 5 5 6 5 5 5 5 5 5 5 5 5 5 5 5 5 6 5 5 5 6 5 5 6 5 5 5 5 5 6 5 6 5 5 5 5 5 5 5 5 5 6 5 5 5 5 5 5 5 6 5 5 6 5 5 6 5 5 5 5 5 5 5 5 5 5 5 5 5 5 5 6 5 5 5 5 5 5 5 5 5 5 5 5 5 5 5 5 5 5 5 5 5 5 5 5 5 5 5 5 5 5 5 5 6 5 5 5 5 5 5 5 5 5 5 5 5 5 5 5 5 5 5 5 5 5 5 5 5 5 5 5 5 5 5 5 5 5 6 5 5 5 5 5 5 5 5 5 5 5 5 5 5 5 5 5 5 5 5 5 5 5 5 5 5 5 5 5 5 5 5 5 5 5 5 5 5 5 5 5 5 5 5 5 5 5 5 5 5 5 5 5 5 5 5 5 5 5 5 5 5 5 5 5 5 5 5 5 5 5 5 5 5 5 5 5 5 5 5 5 5 5 5 5 5 6 5 5 5 6 5 5 5 5 5 5 5 5 5 6 5 5 5 6 5 5 5 5 5 6 5 6 5 5 6 5 5 6 5 5 5 5 5 5 5 5 6 5 5 5 6 5 5 5 5 5 5 5 6 6 5 5 6 5 5 6 6 5 5 5 5 5 5 5 5 5 6 5 5 5 6 5 5 5 6 5 5 6 5 5 6 5 6 6 5 6 5 5 5 5 5 5 6 6 5 5 5 5 5 5 5 5 5 5 5 5 5 5 5 5 6 5 5 6 5 5 5 6 5 5 5 5 5 5 5 5 5 5 6 5 5 5 6 5 5 5 6 5 5 5 5 6 6 5 6 5 5 6 5 6 6 5 5 5 6 5 5 5 6 6 5 5 5 5 5 6 5 5 6 5 5 5 6 5 5 5 5 5 5 5 5 5 5 5 5 6 5 5 5 5 5 5 5 5 5 6 5 5 5 5 5 5 5 5 5 5 5 5 5 5 5 5 5 5 5 5 5 6 5 5 6 5 5 5 5 5 5 5 5 5 5 5 5 5 5 5 5 5 5 5 5 5 5 5 5 5 5 5 5 5 5 5 6 5 5 5 5 5 5 5 6 5 5 5 5 5 5 5 5 5 5 5 5 5 5 5 5 5 5 5 5 5 6 5 5 5 5 5 5 5 5 6 5 5 5 5 5 6 5 5 5 6 5 5 5 5 5 5 5 5 5 5 5 5 5 6 6 5 5 5 5 6 5 5 5 5 5 5 6 5 6 5 5 5 5 6 5 5 5 5 6 6 5 5 5 6 5 5 5 5 5 5 5 5 5 6 5 5 5 5 6 5 5 5 5 5 5 5 5 5 5 5 5 5 5 5 5 6 5 5 5 5 5 5 5 5 5 6 5 5 5 5 5 5 5 5 5 5 5 5 5 5 5 5 5 5 5 5 5 5 5 5 5 5 5 6 5 5 6 5 5 5 5 5 5 5 6 5 5 5 5 5 5 5 5 5 5 5 5 5 5 5 5 6 5 5 5 5 5 5 5 5 5 5 5 5 5 5 5 5 5 5 5 5 5 5 5 5 5 6 5 5 5 5 5 5 5 6 5 5 5 5 5 5 5 6 6 6 5 5 5 5 6 5 5 6 5 5 6 6 5 5 5 6 6 5 5 5 5 5 5 5 5 5 5 5 5 5 6 5 5 5 6 5 5 5 5 6 5 5 5 5 5 5 5 5 5 5 5 5 5 5 5 5 5 5 5 5 5 5 5 5 5 5 5 5 5 5 5 5 5 5 5 5 5 5 5 5 5 5 5 5 6 5 5 5 5 5 5 5 6 5 5 5 6 5 6 6 5 5 6 5 6 6 5 5 6 5 5 5 6 5 5 5 5 5 5 5 6 5 5 6 5 5 5 5 5 5 5 5 5 5 6 5 5 5 5 5 5 5 5 5 6 5 5 5 5 6 6 5 5 5 5 5 5 5 6 5 5 5 5 5 5 5 6 6 6 5 6 6 5 5 5 5 5 5 6 5 5 5 5 5 5 5 5 5 5 5 5 5 5 5 5 5 5 5 5 5 5 5 5 5 5 5 5 5 5 5 5 5 5 5 5 5 5 5 5 5 5 5 5 5 5 5 5 5 5 5 5 5 5 5 5 5 5 5 5 5 5 5 5 5 6 5 5 5 5 5 5 5 5 6 5 6 5 5 5 5 6 5 6 5 5 5 6 5 5 5 6 5 5 5 5 5 5 5 5 5 5 5 5 6 5 5 5 5 5 5 5 5 5 6 6 5 5 6 5 5 5 6 6 5 5 6 5 5 6 5 5 6 5 6 5 5 5 6 5 5 6 5 5 5 5 5 5 5 5 6 5 5 5 6 6 5 5 5 5 5 5 5 5 5 5 5 5 6 5 5 5 5 5 5 5 5 5 5 5 5 5 5 5 5 5 5 6 5 5 5 5 5 5 5 6 5 5 5 6 5 5 5 5 5 5 5 5 5 5 5 5 5 5 5 5 5 5 5 5 5 5 5 5 5 5 5 5 5 6 6 5 5 5 5 5 6 5 5 5 5 6 5 5 5 5 5 6 5 5 5 5 5 5 5 6 5 5 5 5 5 5 5 6 5 5 5 5 5 5 5 5 5 5 5 5 5 5 5 5 5 5 5 6 5 5 5 5 5 5 5 6 5 5 5 5 5 5 5 5 5 6 5 5 6 5 5 5 5 5 6 6 5 5 5 6 5 6 5 6 5 5 5 6 5 5 5 5 5 5 5 6 5 5 5 6 5 5 5 6 5 5 5 5 5 6 5 5 5 6 6 5 6 5 5 6 5 5 5 5 6 5 5 6 6 5 5 5 6 6 5 6 5 5 5 5 5 5 5 6 5 5 6 5 5 5 6 5 6 5 6 5 5 5 5 5 5 5 5 5 6 5 5 6 5 5 5 5 5 5 5 5 5 5 5 6 5 5 6 5 5 5 5 5 5 5 6 5 5 5 5 5 5 5 5 5 6 5 6 5 6 5 5 5 5 6 5 5 5 6 6 5 5 5 6 5 5 5 5 5 5 5 6 5 5 6 5 5 6 5 5 5 5 5 5 5 5 6 5 5 5 5 5 5 6 5 5 5 5 5 5 5 5 5 5 6 5 5 5 5 5 5 5 5 5 5 5 5 5 5 5 5 5 5 5 5 5 5 5 5 5 5 5 5 5 5 5 5 5 5 5 6 5 5 5 5 5 5 5 5 5 5 5 5 5 6 5 5 5 5 6 6 6 5 5 5 5 5 5 5 5 5 5 5 5 5 5 5 6 5 5 5 5 5 6 5 6 5 5 5 5 5 5 6 5 5 5 5 5 6 5 5 5 5 5 6 5 5 5 5 5 5 6 5 5 6 5 5 5 5 6 5 5 5 5 5 5 5 5 5 5 5 5 5 5 5 5 6 5 5 5 5 5 5 5 5 6 5 5 5 5 5 5 5 5 5 6 5 5 5 5 5 5 5 5 5 5 5 5 6 5 5 5 5 6 5 5 5 5 5 5 6 6 6 5 5 5 5 5 6 6 6 5 5 5 5 5 5 5 6 6 5 5 5 5 5 5 6 5 5 5 6 5 5 5 5 5 5 5 5 5 5 5 5 6 5 5 5 5 5 6 5 5 5 5 6 5 5 5 5 6 5 5 5 5 5 5 6 6 6 5 5 5 5 5 5 5 5 5 5 5 6 5 5 5 5 5 5 5 5 5 5 5 5 5 5 5 5 5 5 5 5 5 5 5 5 5 5 5 5 5 5 5 5 5 5 5 5 5 5 5 5 5 5 5 5 5 5 6 5 6 5 5 5 5 5 5 5 5 6 5 6 5 5 5 5 5 5 6 5 5 6 5 5 5 5 5 5 5 6 5 6 5 6 5 5 5 5 6 5 6 5 5 6 5 5 5 5 5 5 5 5 5 5 6 5 5 5 6 5 5 5 5 5 5 5 6 5 5 5 5 5 5 5 5 5 5 5 5 5 5 5 5 5 5 5 5 5 5 5 5 5 5 6 5 5 5 6 5 5 6 5 5 5 5 5 5 5 5 5 6 5 5 5 5 5 5 5 5 5 5 6 5 5 6 5 5 5 5 5 5 5 5 5 5 5 5 5 5 5 5 5 5 5 5 5 5 5 5 5 5 5 6 5 5 6 5 5 5 6 5 6 5 5 5 5 5 5 5 5 6 5 5 5 6 5 5 5 5 5 5 5 6 5 5 5 5 6 5 5 6 5 5 6 5 5 5 6 5 5 5 6 5 5 6 6 5 5 6 6 5 5 5 5 5 5 5 5 5 5 6 5 5 5 5 6 5 5 5 5 5 5 5 5 5 5 5 5 6 5 6 5 5 5 5 5 5 6 5 5 6 5 5 5 5 5 5 5 5 5 5 5 5 6 5 5 5 5 6 5 5 5 6 6 5 5 5 5 5 5 5 6 5 5 5 5 5 5 5 5 5 5 6 5 5 5 5 5 5 5 5 5 5 5 5 5 6 6 5 5 6 5 5 5 5 5 5 6 5 6 5 5 5 5 6 5 6 5 5 6 6 5 5 5 5 5 5 5 5 5 5 5 5 5 5 5 5 5 5 5 5 5 5 5 5 5 5 5 5 5 5 5 5 5 5 5 5 5 5 5 5 5 5 5 5 5 5 5 5 5 5 5 5 5 5 5 5 5 5 5 6 5 5 5 5 5 5 5 5 6 5 5 6 5 5 5 5 5 5 5 5 5 5 5 5 5 5 5 5 5 5 5 5 5 5 5 5 5 5 5 5 6 5 5 5 5 5 5 5 5 6 5 6 5 5 6 5 6 5 5 5 6 5 5 5 6 5 6 5 5 5 5 5 5 5 5 5 5 5 5 5 5 5 6 5 5 6 5 5 5 5 5 5 6 5 5 6 5 5 6 5 5 5 5 5 6 5 5 6 5 5 5 6 5 5 5 5 5 5 6 6 5 5 5 6 6 6 6 5 5 5 6 5 6 5 5 5 5 5 6 5 5 5 5 5 5 6 5 5 5 5 5 5 5 5 5 5 5 5 5 5 6 5 5 5 5 6 6 5 5 5 5 5 5 5 5 5 5 5 5 5 6 5 5 6 6 5 5 6 5 5 5 5 5 5 5 5 5 5 6 5 5 5 5 5 5 5 6 5 5 5 5 5 5 5 5 5 5 6 5 5 5 5 5 5 5 5 6 5 5 5 5 5 5 5 5 5 5 5 5 5 5 5 5 5 6 5 5 5 5 6 5 6 5 5 5 5 5 5 5 5 5 5 5 5 6 5 6 5 6 5 5 5 5 5 6 5 6 5 6 5 5 5 6 6 6 5 5 5 5 6 5 5 5 6 5 6 5 5 5 5 5 5 5 6 5 6 5 5 5 5 5 5 5 6 5 6 5 5 5 5 5 6 5 5 5 6 6 5 6 5 5 5 5 5 5 5 5 6 5 5 5 5 6 5 5 5 5 5 5 5 6 5 5 5 5 5 5 5 5 5 5 5 5 5 5 5 5 5 5 5 5 5 5 5 5 6 6 5 5 5 5 5 6 6 6 5 5 6 5 5 5 5 5 5 6 5 5 6 6 5 5 5 5 5 5 5 5 5 5 5 5 6 5 5 5 5 5 5 5 5 5 5 5 5 5 5 5 5 5 5 5 5 5 5 5 5 6 6 5 6 5 5 5 5 5 5 5 5 5 5 5 5 5 6 5 5 5 5 5 5 5 6 6 5 5 5 5 5 5 5 5 6 5 6 5 5 5 6 6 6 5 6 5 5 6 5 5 6 5 5 5 5 5 5 5 5 5 5 5 5 5 5 5 5 5 5 6 5 5 5 5 5 5 5 5 5 5 5 6 5 5 5 5 5 5 5 5 6 5 5 5 5 5 5 5 5 5 5 5 5 5 5 5 5 5 5 5 5 6 5 5 5 5 5 5 6 6 5 5 5 5 5 5 6 5 5 5 5 6 5 5 5 5 5 5 5 5 5 5 5 5 5 5 5 6 5 5 5 6 5 5 5 5 5 5 5 5 5 5 5 5 5 5 5 6 5 5 5 5 5 5 6 6 6 5 5 5 5 5 5 6 5 5 6 5 5 5 5 5 5 6 5 6 5 5 5 5 5 5 5 5 6 6 6 5 5 5 5 5 5 5 5 5 5 6 5 5 6 5 5 6 6 5 5 5 5 5 5 5 5 5 6 5 5 5 5 6 6 5 6 5 5 5 5 5 5 5 5 5 6 6 5 6 5 5 5 6 5 6 5 5 5 5 5 5 5 5 5 5 5 5 5 5 6 5 5 6 5 5 5 6 5 5 5 5 6 5 5 5 5 5 5 5 5 5 5 5 5 5 6 5 5 5 5 5 5 6 5 5 5 5 5 5 5 6 5 6 5 5 5 6 5 5 5 6 5 5 5 5 5 5 6 5 6 5 5 5 5 5 5 5 6 6 5 5 6 5 5 5 6 5 5 6 5 5 5 6 5 5 5 5 5 5 6 6 5 5 5 6 6 5 6 6 5 5 5 6 6 5 5 5 5 5 6 5 5 5 5 5 5 5 5 5 5 5 5 5 5 5 5 5 5 5 5 5 5 5 5 5 5 5 6 5 5 5 5 5 5 5 5 5 5 5 5 5 6 6 5 6 6 5 5 6 6 6 5 5 6 5 6 5 5 5 5 6 5 5 5 6 5 6 5 5 6 5 5 5 5 6 6 5 5 5 5 6 5 5 6 5 5 5 5 5 5 5 5 5 6 5 5 5 6 5 5 6 6 5 5 5 5 5 5 6 5 5 5 5 5 5 6 5 5 5 5 5 5 5 5 5 6 6 5 6 5 5 5 5 5 5 5 5 5 5 5 5 5 5 5 5 5 5 5 5 5 5 5 5 5 5 5 5 5 5 5 5 5 5 6 5 5 5 5 5 5 5 5 5 5 5 5 5 6 5 5 6 6 5 5 5 5 5 5 6 5 5 6 5 5 5 6 6 5 5 5 5 5 5 5 5 6 5 5 6 5 5 5 5 5 5 5 5 5 5 5 5 6 6 5 6 5 5 6 5 5 6 5 5 5 5 6 5 5 6 5 5 6 5 5 6 5 5 6 6 5 6 5 5 5 6 5 5 5 5 5 5 5 5 5 6 5 5 5 5 5 6 5 5 6 5 5 5 5 5 5 6 5 5 5 6 6 5 5 5 5 5 6 5 6 5 5 5 6 5 5 5 5 5 5 5 5 5 5 5 5 5 5 5 6 5 5 5 5 5 5 5 5 5 5 5 5 5 5 5 6 5 5 5 5 5 5 5 5 6 5 5 5 5 5 5 5 5 5 5 5 5 5 5 5 5 5 5 5 5 5 5 5 5 5 5 5 5 5 5 5 5 5 5 5 5 5 5 5 5 6 5 6 5 5 5 5 5 5 5 5 5 5 5 5 5 5 5 5 5 5 5 5 5 5 5 5 5 5 5 5 5 5 5 5 6 5 5 5 5 5 5 6 5 5 5 5 5 5 5 5 5 5 5 5 5 6 6 5 5 6 5 5 5 5 5 5 5 5 6 5 5 5 5 5 5 5 5 5 5 5 5 5 5 5 5 5 5 5 5 5 5 5 5 5 6 6 5 5 6 5 6 5 5 5 5 5 5 5 5 5 5 5 5 5 5 5 5 5 5 6 5 6 5 6 5 5 5 5 5 5 5 5 6 5 5 5 5 5 5 5 5 6 5 5 5 5 5 5 5 5 5 5 5 5 5 5 5 5 5 5 5 5 5 5 6 5 5 5 6 6 5 5 5 5 5 5 5 5 5 5 5 5 5 5 5 6 5 5 5 5 5 5 5 5 6 5 5 5 5 5 5 5 5 5 5 5 5 5 5 5 5 5 5 5 5 6 5 5 5 5 5 5 5 5 5 5 5 6 5 5 6 5 5 5 5 5 5 5 6 5 5 6 5 5 5 5 6 5 5 6 6 5 5 5 6 5 5 5 5 5 5 6 5 5 5 5 5 5 5 5 6 5 5 5 5 5 6 5 5 5 5 5 5 6 5 5 6 5 5 5 5 5 5 5 5 5 5 6 6 5 5 6 6 5 5 5 5 5 6 5 5 6 5 6 5 5 6 5 6 5 6 5 6 5 6 5 6 5 5 5 5 5 6 5 5 5 5 6 5 6 5 5 5 6 6 5 5 5 5 5 5 5 5 5 5 5 6 5 5 5 5 5 5 5 5 5 5 5 5 5 5 5 5 5 5 5 5 5 5 5 6 5 5 5 5 5 5 5 5 5 5 5 6 5 5 6 6 6 5 5 5 5 5 5 5 5 5 5 6 6 5 5 5 5 6 5 5 5 5 5 5 6 5 5 5 5 5 5 5 5 5 6 5 6 5 5 5 5 5 5 6 5 5 5 5 5 5 5 5 5 5 5 5 5 5 5 5 5 5 5 5 5 5 5 5 5 5 5 5 5 6 5 5 6 5 5 5 5 5 5 5 6 5 5 5 5 5 5 6 5 5 5 5 6 5 6 5 5 6 5 5 5 5 5 5 5 6 5 5 5 5 6 5 5 5 5 5 6 5 5 5 5 5 6 5 5 6 5 5 5 5 5 5 5 5 5 6 5 5 5 5 5 5 5 5 6 5 6 5 6 5 5 5 5 5 5 5 5 5 5 5 5 5 5 6 5 5 5 5 6 5 6 5 6 5 5 5 6 5 5 5 6 5 6 5 5 5 5 5 5 5 5 6 5 5 5 5 5 5 5 5 6 5 5 5 5 5 5 5 5 5 5 5 5 5 5 5 5 5 5 5 5 5 5 6 6 5 5 5 6 5 6 5 6 5 5 6 5 5 6 5 5 5 6 5 5 5 5 5 5 5 5 6 5 5 6 5 5 5 5 5 5 5 5 5 6 6 5 5 5 5 6 5 5 5 5 5 5 5 5 5 5 5 5 5 6 5 5 5 6 5 6 5 6 5 5 5 6 5 5 5 5 5 5 5 5 5 5 5 5 5 5 5 5 5 5 5 5 5 5 6 5 5 5 5 5 6 5 6 5 5 5 6 5 5 5 5 5 5 5 5 5 5 5 5 5 5 5 5 5 5 5 5 5 5 5 5 5 5 5 5 5 5 5 5 5 5 5 5 5 5 5 5 5 6 5 5 5 5 5 5 5 5 5 5 5 5 5 5 5 6 5 5 5 5 5 5 5 5 5 5 5 5 5 5 6 5 5 6 5 5 5 5 5 5 5 5 5 5 5 6 5 5 5 5 6 6 5 6 6 6 5 5 5 5 5 6 5 5 6 6 5 5 5 5 5 5 5 5 5 6 5 5 5 5 6 6 6 5 5 6 5 5 6 5 6 6 5 5 5 5 5 5 5 5 5 5 5 5 5 5 6 5 5 5 5 6 5 5 6 5 6 6 5 6 6 5 5 5 6 5 5 5 6 5 5 5 5 5 5 5 5 6 5 5 6 6 6 5 5 5 5 6 5 5 5 5 6 5 5 5 5 5 5 5 5 5 6 5 5 5 5 5 6 6 5 5 5 5 5 5 5 5 5 5 5 5 5 5 5 5 5 5 5 5 5 5 5 6 5 6 5 5 6 5 5 5 5 5 5 5 5 5 5 6 5 6 5 5 5 5 6 5 5 5 5 5 5 5 5 5 5 5 5 6 5 5 6 5 6 5 6 6 5 5 5 5 6 5 6 5 6 6 5 5 6 5 5 5 5 6 5 6 5 5 5 5 6 5 5 5 5 5 5 5 5 5 5 5 5 5 5 5 6 6 5 5 5 6 5 6 5 5 6 5 6 6 5 5 5 5 5 5 6 5 5 5 6 5 5 5 6 5 5 5 5 5 5 5 5 5 5 5 5 5 5 6 5 5 5 6 5 5 6 5 5 6 5 5 5 5 5 5 5 5 6 6 5 6 5 6 5 6 6 6 6 6 5 5 5 5 5 6 5 5 5 5 6 6 5 5 6 5 6 5 5 6 6 5 6 5 5 5 5 5 5 6 6 5 5 5 5 5 5 6 5 5 5 5 6 5 6 5 5 5 5 5 5 5 5 5 5 5 5 6 5 6 5 6 5 6 5 5 6 5 6 5 5 5 5 5 5 5 5 5 5 6 5 5 5 5 5 5 5 5 6 5 5 5 5 5 6 5 5 5 5 5 6 6 5 5 5 5 6 6 5 5 5 5 5 5 5 5 5 5 5 5 6 5 5 6 5 5 5 5 6 6 6 5 5 5 6 6 5 5 6 5 5 5 5 5 5 6 5 6 6 5 5 5 5 6 6 6 5 5 6 5 5 5 6 5 5 6 5 5 5 5 5 6 6 5 5 6 5 5 5 6 5 5 5 5 5 5 5 5 5 5 5 5 5 5 6 6 5 5 6 5 6 5 5 5 5 6 5 5 5 5 5 5 6 5 6 5 5 5 5 6 6 5 6 5 5 5 6 6 5 5 6 5 5 5 5 5 5 5 6 5 5 5 6 5 5 6 5 5 6 5 5 5 6 6 5 5 6 5 5 5 5 5 5 5 5 5 5 6 5 5 5 5 5 5 5 5 5 5 5 5 5 5 6 5 5 5 5 5 5 5 5 5 5 5 5 5 5 5 5 5 5 5 5 5 6 5 5 5 5 5 6 5 5 5 5 5 5 5 5 5 5 5 5 5 5 5 5 5 5 5 5 5 5 5 5 5 5 6 5 5 5 5 5 5 5 6 5 6 5 5 5 5 5 5 6 5 5 6 5 5 5 5 5 5 5 5 5 5 5 5 5 5 5 5 5 5 5 5 5 5 5 5 5 5 5 5 6 5 5 6 5 5 5 5 5 5 5 5 5 5 5 5 5 6 5 5 5 5 6 5 5 5 5 6 5 5 5 5 5 6 5 5 5 5 6 5 5 6 5 5 5 6 5 5 5 5 6 5 5 5 5 6 5 5 5 6 6 6 5 5 6 5 5 5 5 6 6 5 6 5 5 6 5 5 5 6 5 5 6 5 5 6 6 5 5 6 5 5 5 5 5 5 5 5 5 5 5 5 5 5 5 6 5 5 5 5 5 5 5 5 5 5 5 5 5 5 5 5 5 5 5 6 5 5 5 6 5 6 5 6 5 5 5 5 6 5 5 5 5 5 5 5 5 5 5 5 5 6 5 5 5 5 5 5 5 5 6 5 5 5 5 5 5 5 5 5 5 5 5 5 5 5 5 5 5 5 5 6 5 5 5 5 5 5 5 5 6 5 5 5 5 5 5 5 5 5 5 5 5 5 6 5 6 5 6 5 5 5 5 5 5 5 5 5 5 6 5 6 5 5 5 5 5 5 5 5 5 6 5 6 5 5 6 5 5 5 5 5 5 6 5 5 5 6 6 5 5 5 5 5 5 5 5 5 5 5 5 6 5 6 5 5 5 5 5 5 5 5 5 5 5 5 5 5 6 5 5 5 5 5 6 5 5 5 5 5 5 5 5 5 5 5 5 5 5 5 5 5 5 5 5 5 5 5 5 5 5 5 5 5 5 5 5 5 5 5 6 5 5 6 5 5 6 5 5 5 5 5 5 5 5 5 5 5 5 5 5 5 5 5 5 5 5 5 5 5 5 5 5 5 5 5 5 5 5 6 5 5 5 5 5 5 5 5 5 5 5 5 5 5 6 5 5 6 5 5 6 5 5 5 5 5 5 6 6 5 5 5 5 5 5 5 5 5 5 5 5 5 5 5 5 5 5 5 5 5 5 5 5 5 5 5 5 5 5 5 5 5 5 5 5 5 5 5 5 5 5 5 5 6 5 5 5 5 5 6 6 5 5 5 5 5 5 5 5 5 5 5 5 5 5 5 5 5 5 5 5 5 5 5 5 6 5 5 5 5 5 6 5 5 5 5 5 5 5 6 5 5 5 5 5 5 5 6 5 5 5 5 5 5 5 5 5 6 5 5 5 5 5 5 5 6 5 5 6 5 5 5 5 5 5 5 5 5 5 5 5 5 5 5 5 6 5 5 6 5 5 5 5 5 5 5 5 5 5 5 5 5 5 5 5 5 5 5 5 5 6 5 5 5 5 5 5 5 6 5 5 5 5 6 5 5 5 5 5 5 5 5 5 6 5 5 5 5 5 6 5 5 5 6 5 5 5 6 5 5 6 6 5 5 5 6 5 6 5 5 5 5 5 6 5 5 5 5 5 5 5 5 5 5 5 5 6 5 6 5 5 5 5 5 5 6 5 5 5 5 5 6 5 5 5 6 5 5 5 5 5 5 5 5 6 5 5 5 5 5 5 6 5 5 5 5 5 6 5 5 6 5 6 5 5 5 5 5 5 6 5 5 5 5 6 5 5 5 5 5 6 5 5 5 5 5 5 5 5 5 5 5 5 5 5 5 6 5 5 5 5 6 6 5 5 5 5 5 5 5 5 6 5 5 5 5 5 5 5 5 5 5 5 5 6 5 5 6 5 5 6 5 5 5 5 5 5 5 6 5 6 6 5 5 6 5 5 5 5 5 5 6 5 5 6 5 6 5 5 5 5 5 5 5 5 5 5 5 5 5 6 5 5 5 5 5 5 6 5 5 5 5 5 5 5 5 5 5 5 6 5 5 6 5 5 5 6 5 5 5 5 5 5 5 5 5 6 5 5 5 5 5 5 5 6 5 5 5 5 5 5 5 6 5 5 5 6 5 5 5 5 6 5 5 5 5 5 5 6 5 5 5 5 5 5 5 5 5 5 5 5 5 5 5 6 5 6 5 5 6 5 5 5 5 5 5 5 6 5 5 5 5 5 5 5 5 5 5 5 5 5 5 5 5 5 5 5 5 5 5 5 5 5 5 5 5 5 5 5 5 5 6 5 5 5 5 5 5 5 5 5 5 5 5 6 5 5 6 5 5 5 6 5 5 5 5 6 5 5 5 5 5 6 5 5 5 5 5 5 5 5 5 5 5 5 5 5 5 5 5 5 5 5 6 6 5 5 5 6 5 5 5 5 6 5 5 5 6 5 5 6 5 5 5 5 5 5 5 6 5 5 5 5 5 5 5 5 5 5 6 5 5 5 5 5 5 5 5 5 5 5 5 5 5 5 5 5 5 5 5 5 5 5 5 5 5 5 5 5 5 5 5 6 5 5 6 5 5 5 5 5 5 6 5 5 6 5 5 5 5 5 5 5 5 5 5 5 5 6 5 6 5 5 5 5 5 5 5 5 6 5 5 5 6 5 5 5 5 5 5 6 5 5 5 5 5 5 5 5 5 5 5 5 5 5 5 6 5 5 5 5 5 5 5 5 5 5 5 5 5 5 5 5 5 5 5 5 5 5 5 5 5 5 5 5 5 5 5 5 5 5 5 5 5 6 5 5 5 6 5 5 5 5 5 5 6 5 5 5 6 5 5 5 6 5 6 6 5 5 5 5 5 5 5 5 5 5 5 5 5 6 5 5 5 5 6 5 5 5 5 6 6 5 6 5 6 5 5 5 5 5 5 6 5 5 5 6 5 5 6 5 5 6 5 5 6 5 5 6 5 5 6 5 5 6 5 5 6 5 5 6 6 5 5 5 5 5 5 5 5 5 5 5 5 5 5 5 5 5 5 5 5 5 5 5 5 5 6 5 5 5 5 5 5 6 5 5 5 5 6 5 5 6 5 6 5 5 6 5 5 5 6 5 5 5 5 5 5 5 5 5 5 5 6 5 5 5 5 5 5 5 6 5 5 5 5 5 5 6 5 5 5 5 5 5 5 5 6 5 5 5 6 5 5 5 5 5 5 5 5 5 5 5 5 5 5 5 6 6 5 5 5 5 5 5 5 5 5 5 5 5 5 5 5 5 5 5 5 5 5 5 5 5 5 5 5 5 5 5 6 5 5 5 5 5 5 5 5 6 5 5 5 5 5 5 6 5 5 5 5 5 6 5 6 5 5 5 5 5 6 5 5 5 5 5 5 5 5 5 5 6 5 5 5 5 5 5 5 5 5 6 5 5 5 5 5 5 5 5 5 5 5 6 5 5 5 5 5 5 5 5 5 5 5 5 5 6 5 5 5 6 5 5 5 6 5 5 5 6 5 5 6 5 5 5 5 5 5 5 5 5 5 5 5 5 5 5 5 5 5 5 5 5 6 5 5 5 5 5 6 5 5 5 5 5 6 5 5 5 5 5 5 5 5 5 5 5 5 5 5 5 5 5 6 5 5 5 5 5 5 5 5 5 5 5 5 5 5 5 5 5 5 5 5 5 5 6 5 5 5 5 5 5 5 5 5 5 5 5 5 5 5 5 5 5 5 5 5 5 5 5 5 5 5 5 5 5 5 5 6 5 5 5 5 5 6 6 5 5 6 5 5 5 5 5 5 5 5 5 5 5 5 5 5 5 5 5 5 5 5 5 5 5 5 5 5 5 5 5 5 6 5 5 5 6 6 5 6 5 5 6 5 5 6 5 5 6 5 5 5 6 5 6 6 5 6 5 6 5 5 5 5 6 5 5 5 5 5 6 5 5 5 5 5 5 5 6 5 5 5 6 5 5 5 5 5 6 5 6 5 5 5 5 5 5 5 6 6 5 5 5 5 5 5 6 5 5 5 5 5 6 5 5 6 5 5 6 5 5 5 5 5 5 5 5 5 5 5 5 6 5 5 5 5 5 5 5 5 5 5 5 5 6 5 5 6 5 5 5 6 5 5 5 5 5 5 5 5 5 5 5 5 5 6 5 6 5 5 5 5 5 6 5 5 5 5 5 5 5 5 5 5 5 5 5 5 5 5 5 5 6 5 6 5 5 6 6 5 5 5 5 5 5 5 6 5 5 5 5 5 6 5 6 5 5 5 6 5 6 5 5 5 5 5 6 5 5 5 5 5 5 5 5 5 5 5 5 5 5 5 6 5 5 5 5 5 5 5 5 5 5 5 5 6 5 5 5 5 5 5 5 5 6 5 5 5 5 5 6 6 5 5 6 5 6 5 6 5 5 5 5 5 5 5 5 5 5 5 5 5 5 5 5 5 5 5 5 6 5 6 5 5 5 5 6 5 5 5 5 5 5 5 5 5 6 5 5 6 5 6 5 5 5 6 6 5 6 5 5 5 5 5 5 5 5 6 6 6 5 5 5 5 5 5 6 5 5 5 5 5 5 5 5 5 5 6 5 5 5 6 5 5 5 5 5 5 5 5 5 5 6 5 5 5 6 6 5 5 5 6 5 6 6 5 5 6 5 5 5 6 5 6 5 5 5 5 5 5 5 5 5 6 6 5 5 5 6 5 5 5 5 5 5 5 6 5 5 5 5 5 5 5 6 5 5 5 5 5 5 5 5 6 5 5 5 5 5 5 5 5 6 5 5 5 6 5 5 5 5 5 6 5 5 5 5 5 5 5 5 5 5 5 6 5 5 6 5 5 5 6 5 5 5 5 5 5 5 5 5 6 5 5 5 5 6 5 5 5 5 5 5 5 5 6 5 5 5 5 5 5 5 5 5 5 6 5 5 5 5 5 5 5 6 5 5 5 5 5 6 5 5 5 5 5 6 5 5 5 5 5 5 5 5 5 5 5 5 5 5 6 5 5 5 5 5 5 5 5 5 5 5 6 5 6 5 5 5 5 5 5 5 5 5 5 5 5 5 5 6 6 5 5 6 5 5 5 6 5 5 5 5 5 6 6 5 5 6 5 5 5 5 5 5 6 5 6 5 5 5 5 5 5 5 5 5 5 5 5 5 6 5 5 5 6 6 5 5 5 5 5 5 5 5 5 5 6 5 6 5 5 5 5 5 6 5 5 6 5 5 5 5 6 5 5 6 5 6 5 6 5 5 6 5 6 6 5 6 5 5 5 6 6 5 5 6 5 5 5 6 6 6 5 5 5 5 5 5 6 5 5 5 6 6 5 5 5 6 5 5 6 5 5 5 5 6 5 6 5 5 5 5 5 6 5 5 5 5 5 5 5 5 5 5 5 5 5 5 5 5 5 5 5 5 5 5 6 5 5 5 5 5 6 6 5 6 5 5 5 5 5 6 5 5 5 5 5 6 5 5 5 6 5 6 5 5 5 5 5 6 5 6 5 5 5 5 5 5 5 5 5 6 5 5 5 6 5 5 5 6 5 5 5 5 5 5 6 5 5 6 5 5 5 5 5 5 5 6 5 5 5 5 5 5 5 5 5 5 5 5 5 5 5 5 5 6 5 5 5 5 5 5 6 5 5 5 6 6 5 5 5 5 5 5 5 5 5 5 5 5 6 6 5 5 5 5 6 5 6 5 5 5 5 5 5 5 5 5 5 5 5 5 5 5 5 5 5 5 5 5 5 5 5 5 5 5 5 5 5 5 5 5 5 5 5 5 5 5 5 5 5 5 5 6 5 5 5 5 5 6 5 5 5 5 5 5 5 6 5 6 5 5 5 5 5 5 5 6 5 5 5 5 5 5 6 5 5 5 5 5 5 5 5 5 5 5 5 5 5 6 5 5 5 5 5 5 5 5 5 5 6 5 5 5 5 5 5 5 5 5 5 5 5 5 5 5 5 5 5 5 5 5 5 5 5 5 5 5 5 5 5 5 5 6 5 5 6 5 6 5 5 6 5 5 6 5 5 6 5 5 5 5 5 5 5 6 6 5 5 5 6 5 5 5 5 5 5 5 5 5 5 5 5 5 5 5 5 5 5 5 5 5 5 5 5 5 5 5 5 5 6 5 5 5 5 5 5 5 5 5 5 5 5 5 5 5 5 5 6 5 5 5 5 5 5 6 5 5 5 5 5 5 6 5 5 5 5 5 5 5 5 5 6 6 5 5 5 5 5 5 5 5 5 6 5 5 5 5 5 5 5 5 5 5 5 5 5 5 6 5 5 5 5 5 5 5 5 6 5 5 5 5 5 6 5 5 5 6 5 5 5 5 6 6 5 5 5 5 5 5 5 6 5 5 5 5 6 5 6 5 5 5 6 5 5 6 5 5 5 5 5 5 5 5 5 5 5 5 5 5 6 5 6 5 5 6 5 5 5 6 5 5 5 5 5 5 5 5 5 5 5 5 5 5 5 5 5 5 5 5 5 5 5 5 5 5 5 5 5 5 6 5 5 5 5 5 5 5 5 5 5 5 5 5 5 5 5 6 5 5 5 5 5 6 5 5 5 5 5 5 6 5 5 5 5 5 5 5 6 5 6 6 5 5 5 5 6 5 6 5 6 6 5 6 5 6 6 5 6 6 6 5 5 5 5 6 5 6 6 5 5 6 5 5 5 6 5 5 6 5 5 6 5 5 6 5 6 5 5 6 5 5 5 5 5 5 5 5 5 5 6 5 6 6 5 5 5 5 6 6 5 5 5 5 6 5 5 6 6 5 5 5 5 5 5 5 5 5 5 5 5 5 6 5 5 5 5 5 5 6 6 6 6 5 5 5 5 5 5 5 5 5 6 5 5 5 5 5 5 5 5 5 5 5 5 5 5 5 5 5 5 5 5 6 5 5 5 6 5 5 5 5 5 6 5 6 5 5 5 5 6 6 5 5 5 5 5 5 5 5 5 5 5 5 5 5 5 5 5 6 5 5 5 5 5 5 5 5 5 5 5 5 5 6 5 5 6 6 5 5 5 5 5 6 5 5 5 5 5 5 5 5 6 5 5 6 5 5 5 5 5 5 5 5 5 5 5 5 5 5 5 5 5 5 5 5 5 5 5 5 5 5 6 5 5 5 5 5 5 6 5 5 5 5 5 5 5 5 5 5 5 5 5 5 5 5 5 5 5 5 5 5 5 6 5 5 5 5 5 5 5 5 5 5 5 5 5 5 5 5 5 5 5 5 5 5 5 5 5 5 5 5 5 5 5 5 5 5 5 5 5 5 5 5 5 5 5 5 5 5 5 5 5 5 5 5 5 5 5 5 5 5 5 5 5 5 5 5 5 6 5 5 5 5 5 5 5 5 5 5 5 5 5 5 5 6 5 5 6 6 5 5 5 5 5 5 5 5 6 5 5 6 5 5 5 6 5 5 5 5 5 5 5 5 5 6 5 5 5 6 5 5 5 6 5 5 5 5 5 5 5 5 5 6 5 5 6 6 6 5 5 5 5 6 5 5 5 5 6 5 5 5 5 6 5 5 5 5 5 5 5 5 5 5 5 5 5 5 5 5 5 5 5 5 5 5 5 5 5 5 5 5 5 5 5 5 5 5 5 5 5 5 5 5 5 5 5 5 5 5 5 5 5 5 5 5 5 5 5 5 5 5 5 6 6 5 5 5 5 5 5 5 5 5 5 5 5 5 5 5 5 5 5 5 5 6 5 5 5 5 5 6 5 5 5 5 5 5 5 5 5 5 5 5 5 5 5 5 5 5 5 5 5 6 5 5 5 5 5 6 5 5 5 5 6 5 5 5 5 5 5 5 5 5 5 5 5 5 5 5 5 5 5 5 5 5 5 5 5 5 6 5 5 5 5 6 5 5 5 5 5 5 5 5 5 5 5 5 5 5 5 5 5 5 5 5 5 5 5 5 5 5 5 5 5 5 5 5 5 5 5 5 5 5 5 5 5 5 5 5 5 5 5 5 5 5 5 5 5 5 5 5 5 5 5 5 5 5 5 5 5 5 5 5 5 5 5 5 5 5 5 6 5 5 5 5 5 5 5 5 5 5 5 5 5 5 5 5 5 5 5 5 5 5 5 5 5 5 6 5 5 5 5 5 5 5 5 5 5 5 5 5 5 5 5 5 5 5 5 5 5 5 5 5 5 5 5 6 5 5 5 5 5 5 5 5 5 5 5 5 5 5 5 5 5 5 5 5 5 5 5 5 6 5 5 5 5 5 5 5 5 5 5 6 6 5 5 5 5 5 5 5 6 5 5 5 5 5 5 5 5 5 5 5 5 5 5 5 5 6 5 5 5 5 5 5 5 5 5 5 6 5 5 5 5 6 5 5 5 5 5 5 5 5 5 6 5 5 5 5 5 5 6 6 5 5 5 5 5 5 5 5 5 5 6 5 5 5 5 6 5 5 5 6 5 5 5 5 5 5 5 5 6 5 5 5 6 5 5 5 5 5 5 5 5 5 5 5 5 6 5 5 5 5 5 6 5 5 5 6 5 5 5 5 5 6 5 5 6 6 5 6 5 5 5 5 5 5 5 5 5 5 5 5 5 5 5 5 6 5 5 5 5 5 5 5 5 5 5 5 5 5 5 5 5 5 5 5 5 5 5 5 5 5 5 5 5 5 5 5 5 5 5 5 5 5 5 6 5 5 5 5 5 5 6 5 6 5 5 5 5 6 5 5 5 5 5 5 5 5 5 5 5 5 5 5 5 6 5 5 5 5 5 5 5 6 5 5 5 5 5 5 5 5 5 5 5 5 5 5 5 5 5 5 5 5 5 5 5 5 5 5 5 5 5 5 5 5 5 5 5 5 5 5 5 5 5 5 5 5 5 5 5 5 5 5 5 5 5 5 5 5 5 5 5 5 5 5 5 5 5 5 5 5 5 5 5 5 5 5 5 5 5 5 5 5 5 5 5 5 5 5 5 5 5 5 5 5 6 5 5 5 5 5 5 5 5 5 5 5 5 5 5 5 5 5 5 5 5 5 5 5 5 5 5 5 5 5 5 5 6 5 5 6 5 6 5 5 5 6 5 5 5 5 5 6 5 5 5 6 5 6 6 6 5 5 5 5 6 5 5 5 5 5 5 5 5 5 5 5 5 6 5 6 5 5 5 5 5 5 6 5 5 6 5 5 6 5 5 5 6 5 5 5 5 5 5 5 6 5 5 5 5 6 5 6 5 6 5 5 5 5 6 5 5 5 5 5 6 5 6 5 6 5 5 6 6 5 5 5 5 5 5 6 5 5 5 5 5 5 5 5 5 6 5 5 6 5 5 5 5 5 5 5 5 6 5 5 5 6 5 5 6 5 5 6 5 5 6 6 6 5 5 5 5 6 5 5 5 5 5 5 5 6 6 6 6 6 5 5 5 5 5 5 5 5 5 5 5 5 5 5 6 5 5 6 5 5 5 5 5 5 5 5 5 5 5 6 5 5 5 5 5 5 5 5 5 5 6 5 5 5 5 5 5 5 5 5 5 6 5 5 5 5 5 5 5 5 5 5 5 5 5 5 5 5 5 5 5 5 5 5 5 5 5 5 5 5 5 5 5 5 5 5 5 5 5 5 5 5 5 5 5 5 5 6 5 5 6 5 5 5 5 5 5 6 5 6 5 5 5 5 5 6 6 5 5 5 5 6 5 5 5 5 5 5 5 5 5 
</DataArray>
<DataArray type="Float64" Name="stress" NumberOfComponents="9" format="ascii">
0.37472799822821951 -72.536986332082961 0 -72.536986332082961 709.03687762083428 0 0 0 0 -86.696389135780933 -532.88163688037093 0 -532.88163688037093 2489.341717584824 0 0 0 0 318.08461732819529 -503.54374414548374 0 -503.54374414548374 -125.20701279092464 0 0 0 0 318.68276034602297 -611.88907565696024 0 -611.88907565696024 180.14430089168309 0 0 0 0 -14.443463616953482 139.42605955361438 0 139.42605955361438 -174.98589492766769 0 0 0 0 -15.653643487479588 -67.423176383735296 0 -67.423176383735296 898.02272272433038 0 0 0 0 103.59549162425118 -43.015447213430889 0 -43.015447213430889 242.44819058344001 0 0 0 0 -123.76600026785877 273.2900059093663 0 273.2900059093663 604.41549259833118 0 0 0 0 92.239474432253289 84.546755327850406 0 84.546755327850406 603.10603313846514 0 0 0 0 -190.40524897750078 123.88799284223933 0 123.88799284223933 687.5618549232604 0 0 0 0 -120.31521101563544 -589.05477098899428 0 -589.05477098899428 1171.8677112421428 0 0 0 0 13.462992086971298 -148.95585849119379 0 -148.95585849119379 145.82194130295829 0 0 0 0 -177.75411126813128 5.5097227339028905 0 5.5097227339028905 126.41576793171089 0 0 0 0 0.72334080163639169 -4.0860651544479651 0 -4.0860651544479651 11.537950805424146 0 0 0 0 564.39403195258524 567.95978093905433 0 567.95978093905433 -286.66113314466202 0 0 0 0 606.05207771238486 1051.7272036389334 0 1051.7272036389334 911.29890855099075 0 0 0 0 -71.481558113868402 -1463.0743881258968 0 -1463.0743881258968 1144.1548093878228 0 0 0 0 -106.89992925385627 519.19617200941138 0 519.19617200941138 813.96610904260888 0 0 0 0 -262.89229753255859 -80.286495409163763 0 -80.286495409163763 429.33475642288977 0 0 0 0 81.295639937295164 588.57192136555386 0 588.57192136555386 -97.089956026393338 0 0 0 0 -309.52582910166757 -56.479102788507589 0 -56.479102788507589 -444.02021154362592 0 0 0 0 208.39956271160003 389.53556075103916 0 389.53556075103916 -270.75413978498545 0 0 0 0 -55.015178932072217 470.19633118905767 0 470.19633118905767 -169.40786467080761 0 0 0 0 -0.27366903459183761 -3.1890046093160223 0 -3.1890046093160223 3.8289857897151762 0 0 0 0 -0.20994086850001886 1.4663074441701802 0 1.4663074441701802 9.3253033017055316 0 0 0 0 -249.60252656032281 -78.834826728669213 0 -78.834826728669213 430.99881777027622 0 0 0 0 19.850584086285721 343.90190820939461 0 343.90190820939461 -277.37319565276994 0 0 0 0 593.32915403832237 -119.89497020587805 0 -119.89497020587805 -639.29844203169341 0 0 0 0 -404.54517596265282 703.80485968232733 0 703.80485968232733 659.94177453714656 0 0 0 0 102.23615180229773 559.71963612933178 0 559.71963612933178 658.85248653447343 0 0 0 0 411.32793343235915 384.26555343448126 0 384.26555343448126 32.077457865441829 0 0 0 0 -670.3715747527865 -212.30216643220774 0 -212.30216643220774 480.32101357750071 0 0 0 0 96.451786871156912 1172.9523397537396 0 1172.9523397537396 1513.8029861398536 0 0 0 0 -464.63463690774233 -914.69087742497504 0 -914.69087742497504 3064.8366207856452 0 0 0 0 -372.65526205969451 330.75584891042308 0 330.75584891042308 540.15428928304755 0 0 0 0 -508.69550977393328 -296.57109596271766 0 -296.57109596271766 3335.2543217143975 0 0 0 0 -1.2765810033153742 -5.1083195377362642 0 -5.1083195377362642 25.634817868164816 0 0 0 0 1353.0341649732029 1489.3079185121187 0 1489.3079185121187 931.39540617179591 0 0 0 0 1.9275138183637972 -1.4191464844329786 0 -1.4191464844329786 7.1112173219955253 0 0 0 0 4.251358914754686 -4.6315105885078083 0 -4.6315105885078083 2480.3239045165828 0 0 0 0 1.7214239849714619 1.4035570343249901 0 1.4035570343249901 9.0133090295618672 0 0 0 0 -158.04943245787194 918.89803322690568 0 918.89803322690568 1778.4055759360199 0 0 0 0 -115.34544119225232 1450.5193227677883 0 1450.5193227677883 2496.1251594890127 0 0 0 0 -145.52205134930261 930.31727776436855 0 930.31727776436855 1675.8197047951253 0 0 0 0 206.58604279694504 545.29412758189937 0 545.29412758189937 1966.9619706436788 0 0 0 0 -137.68375420459839 676.94980664537798 0 676.94980664537798 2500.4405293484597 0 0 0 0 68.15769159209357 288.7816533512887 0 288.7816533512887 2182.3633254393208 0 0 0 0 149.92524911696401 378.40063742309212 0 378.40063742309212 1088.8693170971819 0 0 0 0 61.527490892821618 506.9038472793618 0 506.9038472793618 1666.2379257680777 0 0 0 0 253.02853570085477 107.49399789482777 0 107.49399789482777 2285.1341473462817 0 0 0 0 515.2598442933338 347.35604331205832 0 347.35604331205832 2499.4045415382498 0 0 0 0 206.80398967941568 560.58682300418877 0 560.58682300418877 2390.3298031942468 0 0 0 0 779.34849701024007 602.21229847147697 0 602.21229847147697 2273.7121384773091 0 0 0 0 1056.8204596780126 92.169321382759335 0 92.169321382759335 2272.1428534270817 0 0 0 0 815.34316227161389 1050.9156202368849 0 1050.9156202368849 479.48804092007049 0 0 0 0 19.458137867234313 736.55976272217231 0 736.55976272217231 2671.4823845320407 0 0 0 0 2.4615406224031973 4.5882610287585308 0 4.5882610287585308 12.248121928320131 0 0 0 0 62.933373946418385 41.929484428630531 0 41.929484428630531 2970.1485319566564 0 0 0 0 241.31482226058756 -1085.7016286581929 0 -1085.7016286581929 2069.8583122594609 0 0 0 0 48.795064788227592 150.88131305995557 0 150.88131305995557 270.11398806475336 0 0 0 0 1.3479215360948542 9.8787590705937873 0 9.8787590705937873 31.109944242044946 0 0 0 0 108.94886023826297 -164.09940888218989 0 -164.09940888218989 297.03107628764701 0 0 0 0 -217.46667072845685 83.134126214696153 0 83.134126214696153 147.85283202575374 0 0 0 0 243.4805355638521 -268.92102238156076 0 -268.92102238156076 1058.7031487730003 0 0 0 0 555.4933656577922 -535.29920203097208 0 -535.29920203097208 1273.6900376342164 0 0 0 0 105.35070589810974 -183.53641420277472 0 -183.53641420277472 1426.9798854604305 0 0 0 0 264.67456297943852 -177.59697248386874 0 -177.59697248386874 1343.1050636011714 0 0 0 0 0.56434665658216621 2.1275296249759208 0 2.1275296249759208 6.1860749597841789 0 0 0 0 129.2358283883118 -179.94325195389547 0 -179.94325195389547 146.87347556401801 0 0 0 0 218.13634954148193 -389.81049936362979 0 -389.81049936362979 1173.9358623058924 0 0 0 0 35.068663153330803 -534.06206836200727 0 -534.06206836200727 1331.0953742760757 0 0 0 0 1335.5196653111516 -404.97972439323348 0 -404.97972439323348 -853.55165715632029 0 0 0 0 0.8856945299425576 -3.3061307473646657 0 -3.3061307473646657 9.7508331328801887 0 0 0 0 -125.13635000989183 26.025001761063322 0 26.025001761063322 445.76465568193817 0 0 0 0 427.527109796697 93.597076538215333 0 93.597076538215333 1316.8233000566834 0 0 0 0 176.49600059129529 25.44437425589058 0 25.44437425589058 -115.35354247754731 0 0 0 0 -33.391185168297227 80.748722243952216 0 80.748722243952216 -6.6734239250145038 0 0 0 0 75.067080570703069 146.90747352664039 0 146.90747352664039 32.994131279556314 0 0 0 0 22.738111867926023 -29.569382562174724 0 -29.569382562174724 -25.680759495095117 0 0 0 0 61.027980569910255 21.712627340049949 0 21.712627340049949 -5.5094002393452683 0 0 0 0 163.72732967936878 -14.868413018551109 0 -14.868413018551109 -42.028437751388992 0 0 0 0 341.89081311206428 -143.68099088877352 0 -143.68099088877352 -40.526557134309769 0 0 0 0 -58.135130207769265 -49.136865402779222 0 -49.136865402779222 -11.683851583613432 0 0 0 0 1.2168266721178269 -5.8844796507179709 0 -5.8844796507179709 22.695598075820527 0 0 0 0 28.315432321463049 -55.469120238041796 0 -55.469120238041796 -120.3016289103839 0 0 0 0 -66.536469394471624 -196.33890238919776 0 -196.33890238919776 84.44909053117135 0 0 0 0 -3.0407923099291461 2.0931678946675945 0 2.0931678946675945 24.937376482335793 0 0 0 0 -12.037228383967147 15.005249224483123 0 15.005249224483123 24.804622010640742 0 0 0 0 -6.3115920778410404 0.36777754623047088 0 0.36777754623047088 19.609402192819687 0 0 0 0 5.5366409825762233 -3.5350118675560225 0 -3.5350118675560225 16.238716200126873 0 0 0 0 2.9426479233725331 1.8120867819416162 0 1.8120867819416162 37.22121478158806 0 0 0 0 -1.9023825908493637 -7.0376451679121885 0 -7.0376451679121885 20.262717943609672 0 0 0 0 -7.7568905401335542 -10.315172714921573 0 -10.315172714921573 32.960775777755771 0 0 0 0 -0.85500045212194986 7.0140285623947207 0 7.0140285623947207 31.584661978697596 0 0 0 0 -4.6483911739576769 -30.023684945083914 0 -30.023684945083914 97.184211230938672 0 0 0 0 -1.9982957614934804 36.675073009741027 0 36.675073009741027 37.662018972894657 0 0 0 0 -5.0016579465520294 -25.993759570566908 0 -25.993759570566908 62.151574361108942 0 0 0 0 -1.8787619669233777 33.855718565686402 0 33.855718565686402 91.69775214747915 0 0 0 0 -8.8164331394210365 -14.218904689430929 0 -14.218904689430929 38.99612332630204 0 0 0 0 38.280359387212457 -2.5514789916160225 0 -2.5514789916160225 -64.48260921362089 0 0 0 0 -26.941573778483757 29.204537872356013 0 29.204537872356013 0.14351123385131359 0 0 0 0 -1.7027738398315113 3.1650505898042951 0 3.1650505898042951 21.763501189758841 0 0 0 0 4.7793542801102831 8.4550400066073053 0 8.4550400066073053 15.92852252360899 0 0 0 0 76.001385531841038 -45.331929335814493 0 -45.331929335814493 -41.541705275813001 0 0 0 0 -1.0136278186102237 -3.2035752399501618 0 -3.2035752399501618 24.36034203243176 0 0 0 0 -100.61927723408701 35.798187804055488 0 35.798187804055488 175.98215943337709 0 0 0 0 5.439344797140734 -30.527402819112467 0 -30.527402819112467 18.942691210308112 0 0 0 0 -113.42888124542873 -51.378595303129259 0 -51.378595303129259 239.88376155501464 0 0 0 0 -149.19002409000132 126.97160519240424 0 126.97160519240424 5.8757863551545597 0 0 0 0 -0.045995459702713348 -3.6421066837379037 0 -3.6421066837379037 27.966123116728312 0 0 0 0 -3.5041662056716385 -7.6705967703126561 0 -7.6705967703126561 7.2361204332594014 0 0 0 0 21.288731929550067 -39.718012654047925 0 -39.718012654047925 -11.639696788493893 0 0 0 0 1.548378209567606 -1.114182202342846 0 -1.114182202342846 -0.422599170900952 0 0 0 0 -15.186245901775465 -213.65985344257206 0 -213.65985344257206 134.38501315610574 0 0 0 0 -132.99009551093664 -251.69841305361842 0 -251.69841305361842 325.70155831259035 0 0 0 0 45.921944779460091 96.408913219928763 0 96.408913219928763 225.6424757851928 0 0 0 0 158.40632335235728 -210.34998203089344 0 -210.34998203089344 294.95396135302144 0 0 0 0 170.9213241101572 -196.79753667641762 0 -196.79753667641762 37.804612811640254 0 0 0 0 177.09335283756297 -256.87477919476078 0 -256.87477919476078 23.635909880853433 0 0 0 0 150.52447305242634 -326.79500855979859 0 -326.79500855979859 280.82367391647131 0 0 0 0 290.82916193417356 -189.98120715693221 0 -189.98120715693221 72.596129899902735 0 0 0 0 280.74202966933302 -493.34003463808403 0 -493.34003463808403 414.48884739095956 0 0 0 0 -164.52862697899138 85.340595229714381 0 85.340595229714381 109.21943425238533 0 0 0 0 -0.034374277518111007 -1.2439684665746125 0 -1.2439684665746125 5.917691345738632 0 0 0 0 632.35539560508425 -439.70967635714987 0 -439.70967635714987 148.3444702012639 0 0 0 0 -151.63369548365884 -37.985241110043717 0 -37.985241110043717 61.329607944315285 0 0 0 0 -0.82445208142242898 -1.1102556608302443 0 -1.1102556608302443 16.373593787152373 0 0 0 0 -17.009553854413742 -139.18939460060574 0 -139.18939460060574 168.33045815489459 0 0 0 0 -0.082300977387560453 10.489732309500649 0 10.489732309500649 15.040050611991319 0 0 0 0 -799.83695286643547 271.25951644482848 0 271.25951644482848 593.23613437626045 0 0 0 0 -1.0781415300478829 1.288137924023383 0 1.288137924023383 19.855982840752802 0 0 0 0 -271.88677115941078 24.10208793709171 0 24.10208793709171 -51.418956252295175 0 0 0 0 -1110.9617308074314 31.764530804397509 0 31.764530804397509 722.99278927768319 0 0 0 0 765.95220113543996 -1041.1017725455968 0 -1041.1017725455968 1157.5264350758589 0 0 0 0 -38.440543617792741 259.77984889727668 0 259.77984889727668 898.67696796749078 0 0 0 0 11.653440361047274 -559.51943791340454 0 -559.51943791340454 1039.2596461712983 0 0 0 0 -47.320273163969091 59.723308658503811 0 59.723308658503811 2006.8424887565998 0 0 0 0 595.12470431116014 -601.96341107431726 0 -601.96341107431726 30.858675287599908 0 0 0 0 221.24740743631969 -333.17670365120284 0 -333.17670365120284 -147.3205431539609 0 0 0 0 314.33771033646826 -298.36012789771758 0 -298.36012789771758 -136.89764491863025 0 0 0 0 232.78930264809537 -383.14958499020577 0 -383.14958499020577 -152.26776726916614 0 0 0 0 -231.24529532920798 -174.93971112468353 0 -174.93971112468353 87.605140057507015 0 0 0 0 65.191911423039642 -409.3417618676358 0 -409.3417618676358 -80.668304978418746 0 0 0 0 3.0872756715161715 9.6940086696930514 0 9.6940086696930514 30.440130427116713 0 0 0 0 -167.21728026548169 -47.835822975141127 0 -47.835822975141127 32.756912592823937 0 0 0 0 113.03903127257217 -361.42855290276566 0 -361.42855290276566 919.63073980571789 0 0 0 0 126.71979560145223 -127.77917090931442 0 -127.77917090931442 126.67313734681375 0 0 0 0 8.6813047638680132 -249.86067925727548 0 -249.86067925727548 804.7379994473049 0 0 0 0 100.62463134034057 -611.16434223896158 0 -611.16434223896158 1376.015148298422 0 0 0 0 89.340317047348037 -347.09574612447432 0 -347.09574612447432 926.16124810202291 0 0 0 0 548.80570486840031 -1357.9185785293321 0 -1357.9185785293321 2400.6405953241629 0 0 0 0 -3.1469791992475393 -170.18917451164543 0 -170.18917451164543 2489.8269496348803 0 0 0 0 -241.50964403687155 -505.80221468764103 0 -505.80221468764103 2500.2281758174759 0 0 0 0 -312.02056039559102 -407.28911116122254 0 -407.28911116122254 2182.8259693230139 0 0 0 0 -414.45172786460819 -248.95703343756577 0 -248.95703343756577 2131.0157248943797 0 0 0 0 -484.57097168084414 -293.50776406260229 0 -293.50776406260229 2499.6701801449963 0 0 0 0 -456.09740813069601 -93.263651934141308 0 -93.263651934141308 2117.5476904325369 0 0 0 0 -279.94581347305763 -182.25899789143659 0 -182.25899789143659 1965.3007336251831 0 0 0 0 -265.94066067456106 -216.15724791367848 0 -216.15724791367848 1508.885110539537 0 0 0 0 -6.2769456081607586 -167.26858806421296 0 -167.26858806421296 885.86360582098132 0 0 0 0 -124.39921782525016 -348.83718890421369 0 -348.83718890421369 1379.6704660469113 0 0 0 0 -50.583894684768666 74.047167918706691 0 74.047167918706691 798.52817430378855 0 0 0 0 -92.295819329817732 122.0523725043422 0 122.0523725043422 1456.3046962486478 0 0 0 0 -2.3002799851975033 -0.9673396246407151 0 -0.9673396246407151 2.2245559620702409 0 0 0 0 -114.73595583308952 199.50397612822053 0 199.50397612822053 998.08624569254607 0 0 0 0 -39.380018099869289 36.756871950765344 0 36.756871950765344 945.75728824732505 0 0 0 0 -256.27249207680109 55.930499152418633 0 55.930499152418633 1789.7142864492453 0 0 0 0 -207.20950479671319 -26.261387357288186 0 -26.261387357288186 1362.5380178171145 0 0 0 0 -457.00302524401059 -94.223454795056114 0 -94.223454795056114 2188.079016000207 0 0 0 0 -442.70759553734814 36.896206221394095 0 36.896206221394095 2499.9627267747237 0 0 0 0 -324.72397005678209 103.96398863393188 0 103.96398863393188 2225.8221489358111 0 0 0 0 -288.30366908671067 116.59232908810736 0 116.59232908810736 1838.353383627189 0 0 0 0 -273.08808092373437 18.745480133469755 0 18.745480133469755 2470.4809476183 0 0 0 0 -254.5074452331757 49.475329008379049 0 49.475329008379049 2175.2884909586901 0 0 0 0 161.68556371987447 209.86167224390738 0 209.86167224390738 2499.8546339619224 0 0 0 0 85.716876405022191 315.90778940498421 0 315.90778940498421 2190.6810882351529 0 0 0 0 146.83434219166736 -121.88831075809867 0 -121.88831075809867 2770.9862760939359 0 0 0 0 -160.50110306562226 336.72623050534094 0 336.72623050534094 2284.1672954980349 0 0 0 0 144.89301550871676 726.19547057035379 0 726.19547057035379 1284.8187906726089 0 0 0 0 36.919245634774654 271.71801804842835 0 271.71801804842835 1557.4675138446182 0 0 0 0 -117.79045608551482 303.20613683876945 0 303.20613683876945 1596.1257917430485 0 0 0 0 161.89911798851409 400.04735823782175 0 400.04735823782175 745.39098664882476 0 0 0 0 443.65729028909027 312.05792775550435 0 312.05792775550435 325.16443699422052 0 0 0 0 61.117800415676982 315.68173463393396 0 315.68173463393396 1078.61276491631 0 0 0 0 100.80923217820552 11.057850594957017 0 11.057850594957017 -89.469908599072369 0 0 0 0 65.545972570069893 -166.02052261745121 0 -166.02052261745121 167.46993062989714 0 0 0 0 405.1297851568886 300.1996996370799 0 300.1996996370799 143.18940028885845 0 0 0 0 -132.13941588576424 185.02898558534071 0 185.02898558534071 655.99495593397842 0 0 0 0 125.33587603770422 34.485931800685648 0 34.485931800685648 -4.9734746148860722 0 0 0 0 1.9368021199940728 1.9931206921523383 0 1.9931206921523383 0.18783160854616199 0 0 0 0 3.8156669693636331 7.9998340892743727 0 7.9998340892743727 42.34776162941489 0 0 0 0 85.362164149611772 95.56063303623705 0 95.56063303623705 19.993779987657035 0 0 0 0 0.71208274829302809 -0.84263670959626324 0 -0.84263670959626324 -90.617128501015031 0 0 0 0 -28.574372231915859 48.342603288025202 0 48.342603288025202 24.250611057999777 0 0 0 0 1.7726165561298515 0.59397692272010261 0 0.59397692272010261 3.483992489582306 0 0 0 0 -8.352044332273767 28.636902839680261 0 28.636902839680261 33.873385141538165 0 0 0 0 -2.2344376367923671 2.8744544552266476 0 2.8744544552266476 3.5972645609333256 0 0 0 0 -0.59049278552646456 15.912165314835875 0 15.912165314835875 33.953580184906286 0 0 0 0 -5.2434819797287844 19.359893721470144 0 19.359893721470144 33.801881034603866 0 0 0 0 -132.96007753216026 -107.14449045161746 0 -107.14449045161746 59.136400165647501 0 0 0 0 30.912403106264605 -38.891386964540288 0 -38.891386964540288 72.419973550007853 0 0 0 0 -97.59692459106742 35.549758948742237 0 35.549758948742237 44.35119171772385 0 0 0 0 101.47809610389413 -90.800571949090227 0 -90.800571949090227 -30.777030269688112 0 0 0 0 -77.202696761161604 132.56329803065182 0 132.56329803065182 158.59341160288022 0 0 0 0 -93.914884027316816 -53.724877016979008 0 -53.724877016979008 27.111621720367111 0 0 0 0 123.72152139392654 56.041968675370299 0 56.041968675370299 24.726175276126469 0 0 0 0 37.25383212292104 30.165348870184971 0 30.165348870184971 126.67790385567241 0 0 0 0 114.90078058995047 20.415891170978284 0 20.415891170978284 74.491456967225531 0 0 0 0 1.6629695627018135 -0.96861390604992437 0 -0.96861390604992437 0.58510196766525269 0 0 0 0 194.70451807259872 14.500433909848653 0 14.500433909848653 -3.2396300048349076 0 0 0 0 88.90308994683835 84.755299009446389 0 84.755299009446389 134.83947306982009 0 0 0 0 28.580294700098079 -31.378931640050723 0 -31.378931640050723 52.894740432981052 0 0 0 0 40.526204497306367 32.623752688810782 0 32.623752688810782 99.444049018580699 0 0 0 0 15.14054047635625 8.7882276750369783 0 8.7882276750369783 130.2742715314962 0 0 0 0 10.072879451661265 60.443189966810678 0 60.443189966810678 118.87502341025538 0 0 0 0 46.674730732961848 91.534769835827319 0 91.534769835827319 104.0787023154553 0 0 0 0 -19.063244302263456 61.251545429622638 0 61.251545429622638 118.88029393707984 0 0 0 0 -65.811034211019432 55.056386520533124 0 55.056386520533124 99.227610484107572 0 0 0 0 71.727990819918887 65.235373767831334 0 65.235373767831334 60.531234692889484 0 0 0 0 99.280115156795432 78.201894896730664 0 78.201894896730664 32.752900764833612 0 0 0 0 -205.60004053526382 -78.610572038691316 0 -78.610572038691316 295.38177960418398 0 0 0 0 67.300725321661616 221.82742549797331 0 221.82742549797331 245.73282282824221 0 0 0 0 228.44113513890215 144.72596035874813 0 144.72596035874813 26.573162236084499 0 0 0 0 -45.833444874169345 43.459947993185779 0 43.459947993185779 104.87130679699112 0 0 0 0 -77.522151890976829 -154.54661140938879 0 -154.54661140938879 -98.105551948116045 0 0 0 0 -7.2439640371284213 -142.60744004345179 0 -142.60744004345179 609.80390164189885 0 0 0 0 -40.451348322571903 -18.828861848804081 0 -18.828861848804081 30.75748008557639 0 0 0 0 -6.41211108679527 -1.1567888477546404 0 -1.1567888477546404 2.1732182460969796 0 0 0 0 -11.381067643679195 3.8045220070377468 0 3.8045220070377468 9.7314419719892982 0 0 0 0 28.653374497044169 95.893795705811272 0 95.893795705811272 226.0588351741535 0 0 0 0 -13.982264652197046 22.652340277516487 0 22.652340277516487 45.274058404505922 0 0 0 0 -16.759019353624687 7.1146698915916602 0 7.1146698915916602 36.911894322212902 0 0 0 0 12.487851060415778 38.05556325161524 0 38.05556325161524 54.516899492746234 0 0 0 0 -16.694211459554719 20.855155901623171 0 20.855155901623171 64.874834978763829 0 0 0 0 -17.031272044224352 79.947290294356208 0 79.947290294356208 194.83951061892731 0 0 0 0 5.469950481158234 -1.8691815940370446 0 -1.8691815940370446 0.8161545609692169 0 0 0 0 14.933944515900748 13.560917611473997 0 13.560917611473997 115.27562938608025 0 0 0 0 -215.96149749233336 -55.341485723183723 0 -55.341485723183723 141.25112812549196 0 0 0 0 651.91135373003954 152.00966788921141 0 152.00966788921141 33.665597098064609 0 0 0 0 5.8208063301060413 -1.1324399134906713 0 -1.1324399134906713 0.51709508411243377 0 0 0 0 -411.87114319005968 302.18709537453651 0 302.18709537453651 633.65179204475135 0 0 0 0 316.52634274529919 252.74578144542829 0 252.74578144542829 132.05107951602258 0 0 0 0 -10.317639304607837 21.155718231289939 0 21.155718231289939 43.93858083129453 0 0 0 0 19.734270609883879 87.160034420643569 0 87.160034420643569 42.639210986708349 0 0 0 0 48.810593369004437 -163.94043244772183 0 -163.94043244772183 216.85434180541779 0 0 0 0 1.9224786834570828 2.5145351098963573 0 2.5145351098963573 3.1788345692848168 0 0 0 0 -126.24763567728678 -75.803423988567374 0 -75.803423988567374 -82.692707880916714 0 0 0 0 38.204012731115654 -100.38639509165296 0 -100.38639509165296 -79.051521694111216 0 0 0 0 -73.195821693069547 -52.931332564907279 0 -52.931332564907279 162.84958532149176 0 0 0 0 -33.021209180991377 4.9903101783111197 0 4.9903101783111197 117.06201729943132 0 0 0 0 -56.90109104007297 -1.6920058514951961 0 -1.6920058514951961 343.13395096832392 0 0 0 0 -149.71823910134071 79.665290580320288 0 79.665290580320288 217.79421223937243 0 0 0 0 0.7470710264754139 -2.2315210754144843 0 -2.2315210754144843 4.7038794691231942 0 0 0 0 -15.738298961302007 -31.824818680193857 0 -31.824818680193857 -170.33701139014738 0 0 0 0 -92.038232947620145 -221.81044221109914 0 -221.81044221109914 -72.777299807259624 0 0 0 0 192.44535117844538 417.74572994372056 0 417.74572994372056 176.27275617643318 0 0 0 0 107.59268914687345 -413.54579173069214 0 -413.54579173069214 581.32733005308546 0 0 0 0 -16.69589386098113 -10.708022402786504 0 -10.708022402786504 22.039869252931254 0 0 0 0 -21.401686917404732 29.601866083456116 0 29.601866083456116 79.061138994027715 0 0 0 0 -138.70827215669851 -93.314946630642226 0 -93.314946630642226 -0.98423948856361676 0 0 0 0 -407.25793162497393 -59.253343593897625 0 -59.253343593897625 1294.4467552810383 0 0 0 0 -392.66965603998597 90.026387124566099 0 90.026387124566099 308.44440871074039 0 0 0 0 -1.4587305851951022 3.7347724469429693 0 3.7347724469429693 13.670817294617564 0 0 0 0 -0.67807119250903458 13.598275823133456 0 13.598275823133456 42.62907429888925 0 0 0 0 69.095612081616991 -86.334096542403131 0 -86.334096542403131 44.553746673394926 0 0 0 0 -58.788498262350686 70.966345196173279 0 70.966345196173279 239.71438009013946 0 0 0 0 -34.339212133635556 5.2826215681179747 0 5.2826215681179747 65.927800128418312 0 0 0 0 -14.397015396689397 -13.197145303252 0 -13.197145303252 21.962001515901648 0 0 0 0 26.402907783273463 -8.0920100808689313 0 -8.0920100808689313 76.237207585047145 0 0 0 0 17.660134218384655 -23.957405862780433 0 -23.957405862780433 49.511853651989441 0 0 0 0 8.0975565392118369 21.241045675964415 0 21.241045675964415 65.803500832482314 0 0 0 0 -5.1782409727352388 -28.548315271153115 0 -28.548315271153115 5.9430404767190339 0 0 0 0 -24.261707946905517 14.516378257882025 0 14.516378257882025 34.295681505900575 0 0 0 0 2.0025314638447185 -5.639761665432161 0 -5.639761665432161 49.498078742013604 0 0 0 0 -8.9799685932271132 38.290041935837507 0 38.290041935837507 127.39157235873427 0 0 0 0 12.529735431046447 50.805274741560424 0 50.805274741560424 70.783683202156681 0 0 0 0 19.031335818524667 9.0409001900516159 0 9.0409001900516159 76.791062440013775 0 0 0 0 8.2310934657596135 36.684061446187116 0 36.684061446187116 117.28677916508605 0 0 0 0 15.832892125880676 15.099600391034983 0 15.099600391034983 172.7756736934316 0 0 0 0 66.412017764126631 6.3495430271650548 0 6.3495430271650548 128.68758066636656 0 0 0 0 1.9890584535121478 -0.28119440130795681 0 -0.28119440130795681 0.33283411556703868 0 0 0 0 10.318233790364673 30.135284882049746 0 30.135284882049746 134.73289064624259 0 0 0 0 1.2837682242744783 -0.46403854246307219 0 -0.46403854246307219 -2.4291565265708144 0 0 0 0 23.552709748352072 17.440814296909593 0 17.440814296909593 121.23657990214633 0 0 0 0 8.0136545270538591 22.279798919476889 0 22.279798919476889 138.6621529663098 0 0 0 0 4.7727192826818055 27.003766820342207 0 27.003766820342207 143.48904606080032 0 0 0 0 4.3083022903425672 9.2023848715980421 0 9.2023848715980421 148.82496273153447 0 0 0 0 7.9288831737193188 25.813164515043695 0 25.813164515043695 133.67755255355587 0 0 0 0 -35.716788915081054 15.179238923683442 0 15.179238923683442 118.7587196659988 0 0 0 0 1.9408149111554849 22.126943332252267 0 22.126943332252267 20.758317609274854 0 0 0 0 -0.042658896265265422 -0.47499240370041207 0 -0.47499240370041207 0.97461897768462791 0 0 0 0 -0.066253497163756947 25.285583618418968 0 25.285583618418968 163.12570753974433 0 0 0 0 1.4161838326878504 -1.9341850075459774 0 -1.9341850075459774 2.4291804482674308 0 0 0 0 -42.908077028458592 -36.364092582185549 0 -36.364092582185549 32.705281246024242 0 0 0 0 18.265113828583708 -5.2648619675201189 0 -5.2648619675201189 41.247348490160221 0 0 0 0 -39.167365880631678 -4.6264904740601196 0 -4.6264904740601196 51.647037791590265 0 0 0 0 2.0471951196015672 -2.6698973581615846 0 -2.6698973581615846 2.706550220148614 0 0 0 0 -73.704961791773258 -66.370640820299741 0 -66.370640820299741 -13.033315875247354 0 0 0 0 -31.24144507873234 -62.506343227916659 0 -62.506343227916659 -35.477220595345898 0 0 0 0 -13.274195077172635 -25.645604147175618 0 -25.645604147175618 -8.0776072690932779 0 0 0 0 -63.939574924070712 -23.446434525962104 0 -23.446434525962104 20.529133158532204 0 0 0 0 -44.988589944144906 -35.667522443969574 0 -35.667522443969574 -12.788060025748564 0 0 0 0 -9.0680059015534482 -3.5372449250044156 0 -3.5372449250044156 12.629037287606479 0 0 0 0 -19.652599951950265 1.8871319063364353 0 1.8871319063364353 -21.498092338442802 0 0 0 0 3.0972761939310658 8.5624709984840592 0 8.5624709984840592 6.2323018416245759 0 0 0 0 3.3207051693683525 -10.101457053842751 0 -10.101457053842751 -5.9199775278539164 0 0 0 0 3.020141506578363 -2.2182882542163611 0 -2.2182882542163611 -0.8015027810345785 0 0 0 0 24.303115620351747 -1.520218602143359 0 -1.520218602143359 3.7059326229536964 0 0 0 0 1.2570770534314306 6.7889315497559437 0 6.7889315497559437 15.150053089219 0 0 0 0 -17.938917896559019 -20.187627878174681 0 -20.187627878174681 -0.5457503709330922 0 0 0 0 -2.0966468043896782 15.251548083713715 0 15.251548083713715 2.299788394717325 0 0 0 0 -25.351841834916058 -2.6423688238864997 0 -2.6423688238864997 10.480746482799077 0 0 0 0 -0.28288771787416067 -18.932097306917058 0 -18.932097306917058 202.44029568434053 0 0 0 0 -13.514483670724985 10.766869934361239 0 10.766869934361239 159.32962789405428 0 0 0 0 0.46267390606442316 -0.73781412803496949 0 -0.73781412803496949 1.1046026560836282 0 0 0 0 4.5742306499509766 6.2695822641126142 0 6.2695822641126142 129.72647875544499 0 0 0 0 34.956990833519946 -19.017937983649517 0 -19.017937983649517 110.22046200491604 0 0 0 0 35.538136529551707 -26.254376425786177 0 -26.254376425786177 163.84168159888577 0 0 0 0 61.377247606539072 -16.217100312336697 0 -16.217100312336697 59.815938725230808 0 0 0 0 22.111885670749984 -14.478338481756509 0 -14.478338481756509 85.441303866522503 0 0 0 0 74.543727646874572 24.275374527289387 0 24.275374527289387 81.474204318510601 0 0 0 0 88.751803985959668 -10.295445977113559 0 -10.295445977113559 79.690115334450638 0 0 0 0 40.428365147592899 31.54155794043254 0 31.54155794043254 63.522430370750953 0 0 0 0 -22.060999829065494 -22.382416274904244 0 -22.382416274904244 84.838299614712014 0 0 0 0 145.77123693584235 -12.460942211895599 0 -12.460942211895599 43.055639307807724 0 0 0 0 36.706652461116462 -89.952310630836564 0 -89.952310630836564 123.18656822564662 0 0 0 0 46.435418347598841 -45.91377029490468 0 -45.91377029490468 0.49438797499203702 0 0 0 0 -58.896808417412728 -27.243024876948766 0 -27.243024876948766 227.04969639459887 0 0 0 0 90.707380484304508 -81.131476790687884 0 -81.131476790687884 163.15205093588884 0 0 0 0 -18.098804492283477 -1.0017576189165993 0 -1.0017576189165993 127.32487728319029 0 0 0 0 2.3656277584806844 -23.988560503166809 0 -23.988560503166809 119.28876752886754 0 0 0 0 -34.779301323611435 -14.132789590623361 0 -14.132789590623361 117.25676167976053 0 0 0 0 -57.244891753951322 -27.348402702940803 0 -27.348402702940803 98.082272698375164 0 0 0 0 -31.863049830996232 -23.933876399078144 0 -23.933876399078144 97.068334612617036 0 0 0 0 -1.0442810241328764 -0.43579109976778341 0 -0.43579109976778341 -1.6350791243625458 0 0 0 0 -21.615575929445697 -45.062637588307553 0 -45.062637588307553 75.59046032086917 0 0 0 0 -2.5188179401296793 -11.151346822458436 0 -11.151346822458436 67.206655814745318 0 0 0 0 6.2042838908141658 -11.29640230256399 0 -11.29640230256399 60.981075255818723 0 0 0 0 6.0339614050226373 3.6993261489151337 0 3.6993261489151337 101.90738203036744 0 0 0 0 -6.5858330782073011 -26.02611675312437 0 -26.02611675312437 63.296271145249193 0 0 0 0 0.67232591789314711 -12.867216418704629 0 -12.867216418704629 56.617176100315191 0 0 0 0 7.1641583819226184 -14.681683926490223 0 -14.681683926490223 43.709163909400104 0 0 0 0 16.719343210973193 -44.325755946087156 0 -44.325755946087156 40.389719784841873 0 0 0 0 3.2457672637154928 -23.300644551811274 0 -23.300644551811274 63.355924809096905 0 0 0 0 -1.5180793110571358 14.057239763926191 0 14.057239763926191 108.09962021666797 0 0 0 0 7.6538446452968074 -1.1677334250926066 0 -1.1677334250926066 13.496151702321782 0 0 0 0 14.661061714233625 -20.827165265711301 0 -20.827165265711301 39.458901700105343 0 0 0 0 -5.7372541131368724 -13.836066922235496 0 -13.836066922235496 57.022367663073453 0 0 0 0 -37.311705350619832 -69.468292959587416 0 -69.468292959587416 -89.771348731941544 0 0 0 0 -55.84916640840197 -66.410856665206666 0 -66.410856665206666 -14.530692479977006 0 0 0 0 -38.864112576148727 -108.70694115220977 0 -108.70694115220977 -45.785876354028005 0 0 0 0 -4.2159067674764117 -17.193743162063768 0 -17.193743162063768 66.388985355579166 0 0 0 0 -27.585508918770188 -26.30388145238976 0 -26.30388145238976 88.02520300996548 0 0 0 0 19.814412490474751 0.65191308354042121 0 0.65191308354042121 74.360560028595501 0 0 0 0 -279.22914891595258 -153.07267950728419 0 -153.07267950728419 52.714852857127227 0 0 0 0 -136.12144922160098 -234.44465494342148 0 -234.44465494342148 53.166713463026099 0 0 0 0 -46.414496719826957 -76.813014159106388 0 -76.813014159106388 -4.4445154031855054 0 0 0 0 278.70027269299976 -0.91531059907811141 0 -0.91531059907811141 -31.535465221109916 0 0 0 0 82.854398349264926 -376.99404796204544 0 -376.99404796204544 19.85721712927625 0 0 0 0 93.721253554803866 311.45918854875163 0 311.45918854875163 279.818480595859 0 0 0 0 441.23569355153148 -88.553638962999685 0 -88.553638962999685 134.30371789148194 0 0 0 0 202.75313499706022 6.8387059463566402 0 6.8387059463566402 99.958800716965925 0 0 0 0 -206.07568290034237 -214.59201530752853 0 -214.59201530752853 -120.53566583013162 0 0 0 0 -304.40771583438777 -2.3575516134515055 0 -2.3575516134515055 213.82592116179285 0 0 0 0 -3.9993728685000924 -1.1416155022129146 0 -1.1416155022129146 19.397734536796577 0 0 0 0 -207.72821723597391 0.61479591195529792 0 0.61479591195529792 107.79252096607524 0 0 0 0 -13.459496297651128 -19.12689528719784 0 -19.12689528719784 86.685417642995162 0 0 0 0 -6.3316667567025711 -25.524670194907401 0 -25.524670194907401 69.422928678181492 0 0 0 0 -91.746201847855446 -45.281787814896234 0 -45.281787814896234 113.11084175368887 0 0 0 0 8.2006407246918158 -21.560662141746839 0 -21.560662141746839 29.247984809457819 0 0 0 0 -101.54816007523263 -97.734098632087807 0 -97.734098632087807 48.15035368858662 0 0 0 0 -176.98489140666061 44.29932652493153 0 44.29932652493153 10.230891509709181 0 0 0 0 -9.1292483623365683 -37.824623558633903 0 -37.824623558633903 63.642469389451435 0 0 0 0 -21.784393527928611 -20.119124986520859 0 -20.119124986520859 23.12856724507543 0 0 0 0 -31.891022132775191 -14.731526223544279 0 -14.731526223544279 129.62460973728594 0 0 0 0 -4.6058225531645576 7.8756327507471724 0 7.8756327507471724 120.9910436561986 0 0 0 0 -4.7252765974506019 1.9971177312654618 0 1.9971177312654618 90.902542103463929 0 0 0 0 -24.834401053487056 -37.796284482243209 0 -37.796284482243209 72.95680271164747 0 0 0 0 -9.8484691394600077 -5.5068643934027932 0 -5.5068643934027932 104.51802517689066 0 0 0 0 -12.003775924948187 27.134641537832067 0 27.134641537832067 146.75408547987172 0 0 0 0 9.4796312183857339 34.03355187627858 0 34.03355187627858 119.76542438239267 0 0 0 0 19.971269247581674 21.332639642088907 0 21.332639642088907 129.51353763081352 0 0 0 0 -11.415869499437816 18.394878865634723 0 18.394878865634723 133.2435252215364 0 0 0 0 -0.88748299313493462 -0.80051908937157634 0 -0.80051908937157634 1.4094784137837806 0 0 0 0 16.543716937906765 46.311976467666682 0 46.311976467666682 134.87506398456753 0 0 0 0 6.463515622802106 45.533639762470557 0 45.533639762470557 150.44230933176732 0 0 0 0 -3.4284384626291171 41.483983446581988 0 41.483983446581988 149.67201274319814 0 0 0 0 -0.1681439756518639 -0.9980712779427634 0 -0.9980712779427634 2.0026510351478635 0 0 0 0 -53.56557262737374 -47.6133089525174 0 -47.6133089525174 -34.414002677556709 0 0 0 0 63.428571508858482 143.93211132327349 0 143.93211132327349 253.9917568053861 0 0 0 0 -69.867952041342505 2.7750219911031309 0 2.7750219911031309 -17.168574773517321 0 0 0 0 -34.232976227596453 3.7734509474075821 0 3.7734509474075821 -24.585703271615785 0 0 0 0 -111.02968572920099 -28.575329756626161 0 -28.575329756626161 -7.4278918871932547 0 0 0 0 -78.796203048768803 -99.438549464863172 0 -99.438549464863172 -138.64283452415839 0 0 0 0 -0.40725823309387454 -0.63135625971503373 0 -0.63135625971503373 0.69683359113832921 0 0 0 0 59.458581461124822 82.443769140052609 0 82.443769140052609 152.69079168240205 0 0 0 0 -3.6756141063617633 53.188294680105173 0 53.188294680105173 199.48736527854635 0 0 0 0 5.4350671188845467 91.291528086744165 0 91.291528086744165 311.18544351343007 0 0 0 0 -8.2227564195299578 27.926944484010164 0 27.926944484010164 196.27113312015717 0 0 0 0 -30.437801345404523 -35.396397186937975 0 -35.396397186937975 192.12135895497067 0 0 0 0 -2.5299100095965059 34.771294040067005 0 34.771294040067005 178.0521045873611 0 0 0 0 -20.765504390244246 25.158418557395635 0 25.158418557395635 173.79971999063127 0 0 0 0 33.850355688123273 -39.097078607968797 0 -39.097078607968797 12.987853273385554 0 0 0 0 -48.533957282742648 -17.886483114856674 0 -17.886483114856674 97.509025957475387 0 0 0 0 -3.4658074166070492 -21.203433221560772 0 -21.203433221560772 97.491331045257539 0 0 0 0 621.37990133632184 -19.922126875040703 0 -19.922126875040703 -397.05646240036913 0 0 0 0 -119.88107322960354 163.8079866688422 0 163.8079866688422 234.22997770245274 0 0 0 0 -7.9690305218601925 -23.00973820875258 0 -23.00973820875258 4.3920314031930232 0 0 0 0 -288.43516087876515 -219.6974040304267 0 -219.6974040304267 594.18047883536201 0 0 0 0 45.183740500805925 0.65854167910765682 0 0.65854167910765682 95.04400623339825 0 0 0 0 -46.533317485782618 -20.73804399509936 0 -20.73804399509936 99.548353587917518 0 0 0 0 61.513230653484925 -10.961438515483678 0 -10.961438515483678 -3.2871990804742381 0 0 0 0 -143.47950486832724 -222.0082408553717 0 -222.0082408553717 -2.2433477343583945 0 0 0 0 -2.8795692191053526 -26.85908715198363 0 -26.85908715198363 29.753467203412718 0 0 0 0 72.654918086660473 -129.09007588691111 0 -129.09007588691111 -269.21816796822895 0 0 0 0 8.1111962851669048 -3.9881566649378541 0 -3.9881566649378541 28.109597870958012 0 0 0 0 80.017889060130983 -52.449229259851563 0 -52.449229259851563 -211.15285632028463 0 0 0 0 110.63202645605634 192.24594515512217 0 192.24594515512217 901.06644759896153 0 0 0 0 -63.287630506264463 36.369973019702229 0 36.369973019702229 96.935918797033082 0 0 0 0 -10.820594924641858 -4.1882806397307881 0 -4.1882806397307881 82.529711812653332 0 0 0 0 -50.762211938133419 -56.551603747668196 0 -56.551603747668196 201.08511984818324 0 0 0 0 54.007071536281728 -100.48717640813993 0 -100.48717640813993 264.41363070014631 0 0 0 0 49.410998821571638 71.473899504624569 0 71.473899504624569 107.49503822920087 0 0 0 0 21.867904839276662 -82.0349239518182 0 -82.0349239518182 -61.491650893643964 0 0 0 0 11.578044095372434 -102.43630559267694 0 -102.43630559267694 160.50333415935529 0 0 0 0 30.082836442541122 -110.08688474225346 0 -110.08688474225346 11.097432697439217 0 0 0 0 9.9838678747122458 -7.3215029607727047 0 -7.3215029607727047 14.074283154754085 0 0 0 0 -12.561900157658897 -56.911221988755642 0 -56.911221988755642 75.18522139011111 0 0 0 0 -0.066798361050698529 -125.01441412583928 0 -125.01441412583928 331.9170650246233 0 0 0 0 -22.565839048854127 41.328246038968246 0 41.328246038968246 57.90610048254166 0 0 0 0 74.383345552234061 65.588485713458795 0 65.588485713458795 46.351755323943507 0 0 0 0 -1.0403507179442073 -5.0398407422881064 0 -5.0398407422881064 68.681231563372421 0 0 0 0 -66.75069201002583 0.42260898269159952 0 0.42260898269159952 71.929067564364232 0 0 0 0 -31.19854457252157 -7.0965614798406023 0 -7.0965614798406023 76.925595037151652 0 0 0 0 -1.4310725595101346 4.5624147527960304 0 4.5624147527960304 46.461160074002692 0 0 0 0 -0.3273297394653516 -0.064355818460782643 0 -0.064355818460782643 0.14079034723563666 0 0 0 0 -2.9347334749571132 3.0095159406482708 0 3.0095159406482708 50.286631419039622 0 0 0 0 -0.10225204174427155 -0.0052934301440217268 0 -0.0052934301440217268 0.11757711881035604 0 0 0 0 -3.1313936993335432 2.5680028639544616 0 2.5680028639544616 44.617249147682742 0 0 0 0 3.3008898433130405 4.5583978221111465 0 4.5583978221111465 28.105645253461262 0 0 0 0 0.015396987319801181 4.0595495310282059 0 4.0595495310282059 24.762299963709665 0 0 0 0 -3.1050252079101615 0.36541554723953595 0 0.36541554723953595 37.291546279155227 0 0 0 0 0.072489856574574699 -0.045824584775971289 0 -0.045824584775971289 0.11931276313654493 0 0 0 0 27.255308963893327 -47.981560066014936 0 -47.981560066014936 82.373555561954163 0 0 0 0 197.84010047023392 -56.791776903919526 0 -56.791776903919526 12.747829226074828 0 0 0 0 162.73223428741275 150.29037721847544 0 150.29037721847544 14.914303108460444 0 0 0 0 -199.8778358361422 -229.6262345461364 0 -229.6262345461364 513.52183757700732 0 0 0 0 -106.58545181307289 74.734526760850713 0 74.734526760850713 64.376936227294209 0 0 0 0 -63.541206820883616 -62.224850077160227 0 -62.224850077160227 -21.870105787922512 0 0 0 0 -138.67821966040617 -42.335896325461363 0 -42.335896325461363 48.675729114071146 0 0 0 0 -21.950606605633766 -39.021348925612983 0 -39.021348925612983 -50.728379369514187 0 0 0 0 -3.9030705724837613 0.23720156611241805 0 0.23720156611241805 4.5147896932491429 0 0 0 0 -59.285953157419954 54.567162886145525 0 54.567162886145525 -40.420035822840873 0 0 0 0 -168.12122342729856 95.549082952886238 0 95.549082952886238 94.878371065035935 0 0 0 0 -1.6488866882677398 -0.28151664326216519 0 -0.28151664326216519 4.7651929390478074 0 0 0 0 -33.389937481660581 -17.409203616211016 0 -17.409203616211016 47.478338733127202 0 0 0 0 -14.106740046893787 -6.9968133096914187 0 -6.9968133096914187 40.19496462951787 0 0 0 0 -32.521021031686814 -20.739066082984209 0 -20.739066082984209 60.026172612793744 0 0 0 0 -5.5339059941876059 -11.285479343217553 0 -11.285479343217553 48.734281196108157 0 0 0 0 -14.878237143416754 74.805618207603402 0 74.805618207603402 21.279209962696768 0 0 0 0 -5.8395099472015772 -17.713501742353401 0 -17.713501742353401 31.404969323535624 0 0 0 0 -32.500595881878866 -33.05736035310747 0 -33.05736035310747 28.060123764633317 0 0 0 0 -13.873863176081988 -5.3958381854327229 0 -5.3958381854327229 14.441635712258213 0 0 0 0 3.8112419064233443 -5.3100880992181487 0 -5.3100880992181487 -0.86700090223578741 0 0 0 0 -47.802394298932086 -4.2752599414016004 0 -4.2752599414016004 48.735945726934006 0 0 0 0 -4.6582282100018801 1.9106134538033075 0 1.9106134538033075 28.578614762896905 0 0 0 0 -49.549786583570494 -21.390583406144287 0 -21.390583406144287 27.488627029732015 0 0 0 0 -15.735099088612401 -32.558852539288637 0 -32.558852539288637 -1.9651678140071454 0 0 0 0 -17.925947354411335 -20.468663216113782 0 -20.468663216113782 27.873432553882594 0 0 0 0 -30.940047072453581 -24.118184555030894 0 -24.118184555030894 22.338528712101834 0 0 0 0 -12.201632433581835 -14.95919674092147 0 -14.95919674092147 9.431356766426461 0 0 0 0 4.6946435655362189 -15.071285549924957 0 -15.071285549924957 20.788539268883625 0 0 0 0 -4.0769927590505022 -7.3439495179208976 0 -7.3439495179208976 16.639005073092846 0 0 0 0 0.7626930196809667 -4.1245343011360092 0 -4.1245343011360092 -2.6661746695317561 0 0 0 0 -2.5648925307889474 0.74731910958448111 0 0.74731910958448111 13.438336541110615 0 0 0 0 -18.067281189276343 10.957578405674212 0 10.957578405674212 87.287988315307302 0 0 0 0 -1.7824333391986742 7.9181004710819991 0 7.9181004710819991 37.124298249310584 0 0 0 0 11.149250820567971 -13.161559020200457 0 -13.161559020200457 21.275202484204783 0 0 0 0 -0.63344519972101299 0.51829778960887296 0 0.51829778960887296 3.4074778174187372 0 0 0 0 -52.55760952023229 -11.170135152889998 0 -11.170135152889998 42.724353061850707 0 0 0 0 -0.62399055268542725 -79.213889321603347 0 -79.213889321603347 46.702212520380272 0 0 0 0 -0.55940485187878153 -76.691014760825055 0 -76.691014760825055 129.60870214697206 0 0 0 0 -5.2453753434418742 -5.4428731159353347 0 -5.4428731159353347 8.9110548669714262 0 0 0 0 -7.3598950273587889 -3.3210159710615699 0 -3.3210159710615699 96.708411606589834 0 0 0 0 -4.1860976480049956 -12.373128303684126 0 -12.373128303684126 49.90387023244034 0 0 0 0 -38.276128756346225 -10.146302448054485 0 -10.146302448054485 120.53811879719433 0 0 0 0 -0.15572119213894897 -16.379525439391806 0 -16.379525439391806 54.583419491169821 0 0 0 0 10.745047170583348 41.606971152654296 0 41.606971152654296 73.035859826137312 0 0 0 0 -45.076326702263032 42.815494840499014 0 42.815494840499014 180.09143363921612 0 0 0 0 -0.52155494904129185 1.4574875350895837 0 1.4574875350895837 -0.65934073397423276 0 0 0 0 -13.728606255226623 45.14870439421793 0 45.14870439421793 163.86356384726241 0 0 0 0 -55.867273713715804 19.600566417895607 0 19.600566417895607 180.02411375161319 0 0 0 0 -152.85383002295748 31.138354837428778 0 31.138354837428778 187.30358513510146 0 0 0 0 8.3897132905974363 -14.265758593925092 0 -14.265758593925092 23.034755670600475 0 0 0 0 -47.332225546934239 -5.6787811416506884 0 -5.6787811416506884 41.711061998677906 0 0 0 0 -29.506950142197638 -107.90040991724527 0 -107.90040991724527 -154.28653765108538 0 0 0 0 -131.19862477825609 -15.639947276966268 0 -15.639947276966268 -60.803347283828771 0 0 0 0 -99.819212228475408 -97.670293994990061 0 -97.670293994990061 17.133644415735034 0 0 0 0 -2.2075543901805394 4.6541218053512239 0 4.6541218053512239 19.439348774320266 0 0 0 0 -18.420257774067068 -86.475712744191696 0 -86.475712744191696 -115.02326494503359 0 0 0 0 -0.3003222662360745 -1.8548822176055069 0 -1.8548822176055069 6.7158969987491872 0 0 0 0 5.7031251196420385 -36.354714737470204 0 -36.354714737470204 62.776879704055318 0 0 0 0 -22.85338998877404 -34.866746682098892 0 -34.866746682098892 26.108444967525429 0 0 0 0 -31.427925649302239 -35.609191570685653 0 -35.609191570685653 63.88551536873274 0 0 0 0 8.7155255726936502 -77.276982360707734 0 -77.276982360707734 46.307888530311175 0 0 0 0 8.6648522612213021 -16.635736849401198 0 -16.635736849401198 29.307917308413323 0 0 0 0 -32.826262051818048 -86.383364316956431 0 -86.383364316956431 136.50689403845172 0 0 0 0 -73.793529067175314 -192.56719999019333 0 -192.56719999019333 -135.0934668420814 0 0 0 0 8.571193358844539 2.0074160559888696 0 2.0074160559888696 -2.2161909048227244 0 0 0 0 -0.89693874151384989 -22.303881109670328 0 -22.303881109670328 -1.2906231772140018 0 0 0 0 36.867697886644635 -22.503482149895717 0 -22.503482149895717 -10.608705645165173 0 0 0 0 -0.13296014168425552 -0.029498472125496278 0 -0.029498472125496278 0.068486975833462083 0 0 0 0 -2.6782558392719409 1.3824256888838136 0 1.3824256888838136 72.859046962095817 0 0 0 0 -34.334616828823812 -15.632427566561091 0 -15.632427566561091 8.9069927320524585 0 0 0 0 3.8614386266785345 -2.285342661823961 0 -2.285342661823961 43.354767847929907 0 0 0 0 1.9612194993583927 4.6783038782523363 0 4.6783038782523363 38.139420561525185 0 0 0 0 25.467359868058825 -20.67364579752757 0 -20.67364579752757 259.88332764268125 0 0 0 0 -0.50074412369125121 1.9543865214799325 0 1.9543865214799325 0.47673010638800406 0 0 0 0 146.53631349626158 74.288411332301621 0 74.288411332301621 83.963014271328575 0 0 0 0 -29.97628813446596 -21.501925729971845 0 -21.501925729971845 55.937211864657002 0 0 0 0 -159.58463628638944 -38.265787985608767 0 -38.265787985608767 499.90016527904663 0 0 0 0 -1.2375140321510447 -0.26490932178535331 0 -0.26490932178535331 5.3590594112432868 0 0 0 0 -130.11685911607168 311.04880502881861 0 311.04880502881861 -150.03294022919727 0 0 0 0 0.11213794335173879 0.99586491525496967 0 0.99586491525496967 1.85988972044143 0 0 0 0 -1.4554504826384971 -86.995087387538661 0 -86.995087387538661 229.1934828756639 0 0 0 0 116.80088124827964 -263.82324299844913 0 -263.82324299844913 469.74461062695173 0 0 0 0 -70.269864202259555 -50.963168716271866 0 -50.963168716271866 46.978774725037511 0 0 0 0 4.3106411427316011 -7.8489762240453942 0 -7.8489762240453942 13.271396600128639 0 0 0 0 36.390396506769321 -22.291840317491733 0 -22.291840317491733 -2.2923397693157312 0 0 0 0 -20.593006716819275 42.594271196136106 0 42.594271196136106 258.87233405374718 0 0 0 0 -89.565449143480976 152.35739837876463 0 152.35739837876463 143.70075268997607 0 0 0 0 -19.491829501463307 52.547627368014446 0 52.547627368014446 92.352514294965658 0 0 0 0 114.91695356046296 103.29400654473284 0 103.29400654473284 105.78928759397968 0 0 0 0 144.99352374125522 177.59026822823944 0 177.59026822823944 271.63622291920183 0 0 0 0 158.59098540125797 -88.920048372689052 0 -88.920048372689052 351.33628380168193 0 0 0 0 2.1470422017671482 -2.5816785764846699 0 -2.5816785764846699 4.205033021551202 0 0 0 0 32.892027048512176 197.18512666806055 0 197.18512666806055 48.167202378754155 0 0 0 0 28.864863336966351 -7.1494465720825247 0 -7.1494465720825247 147.78356621590501 0 0 0 0 70.65966692052757 34.184444136484672 0 34.184444136484672 179.0258229211031 0 0 0 0 214.00730596517792 -76.18260226755956 0 -76.18260226755956 136.45037459013474 0 0 0 0 -197.59172604330308 164.34625928080641 0 164.34625928080641 -34.982009785075206 0 0 0 0 -0.15828652334862547 2.6068708201698314 0 2.6068708201698314 4.703803603494265 0 0 0 0 -153.77886255738071 35.936767873354256 0 35.936767873354256 12.146582226247119 0 0 0 0 -109.67082730317554 -12.53679476344405 0 -12.53679476344405 131.42341159307762 0 0 0 0 -49.381912198335371 115.65604737550166 0 115.65604737550166 69.288642909523332 0 0 0 0 -124.16454802530836 38.70411656901706 0 38.70411656901706 30.048011005048465 0 0 0 0 10.688904125951925 48.812272855687297 0 48.812272855687297 73.941892450719024 0 0 0 0 -0.15573577081353959 2.6813000254083335 0 2.6813000254083335 6.8320060979399386 0 0 0 0 -119.65647655829413 33.387130239698308 0 33.387130239698308 15.910883921635104 0 0 0 0 0.12467307864178112 0.1653053812179337 0 0.1653053812179337 1.5347637722064746 0 0 0 0 28.044828819303198 -35.728032758182962 0 -35.728032758182962 25.883492179898894 0 0 0 0 4.7170633018973396 25.212266787684712 0 25.212266787684712 181.51530859959894 0 0 0 0 -4.4640391317532178 -66.473951551788559 0 -66.473951551788559 230.84031358733046 0 0 0 0 -4.2234916915693574 -75.826317874045344 0 -75.826317874045344 227.58916092493746 0 0 0 0 15.839900966325992 -61.713064868556103 0 -61.713064868556103 107.61090143696492 0 0 0 0 -7.6687380350119767 -43.357168302514765 0 -43.357168302514765 286.6070249012846 0 0 0 0 19.722908938695731 -49.651592640762829 0 -49.651592640762829 240.6447714401038 0 0 0 0 -14.601153449713156 -73.239883187254691 0 -73.239883187254691 277.50650592862803 0 0 0 0 -0.24627770455136519 0.96963391517473951 0 0.96963391517473951 0.80494689806252495 0 0 0 0 1.1409336593515178 -2.6372719079663511 0 -2.6372719079663511 28.195373993839894 0 0 0 0 4.0012595180793848 2.9696978019455855 0 2.9696978019455855 20.633062277265708 0 0 0 0 -0.016742917747379557 4.0419317528430838 0 4.0419317528430838 24.761074172320605 0 0 0 0 3.5405267448316504 -0.023238288955326425 0 -0.023238288955326425 9.6234446673552156 0 0 0 0 -4.3855151936379677 0.16087866760790348 0 0.16087866760790348 28.309270587554238 0 0 0 0 19.712175187459422 -49.940495806087711 0 -49.940495806087711 272.28160323896554 0 0 0 0 -0.094798865987840056 0.33125300725205875 0 0.33125300725205875 0.43673252291100795 0 0 0 0 0.00076703064467734117 -3.0220931752228353 0 -3.0220931752228353 219.06883914376158 0 0 0 0 23.084217945258334 -96.0771821650726 0 -96.0771821650726 138.96272742929432 0 0 0 0 7.3415674849369914 -7.3682410132532823 0 -7.3682410132532823 97.4954861885235 0 0 0 0 22.622320357712091 41.114207198161239 0 41.114207198161239 107.21202877309406 0 0 0 0 0.07844647801965042 7.9474785055790562 0 7.9474785055790562 71.748432117630728 0 0 0 0 18.639996160990123 -34.699471876057942 0 -34.699471876057942 25.452744490357873 0 0 0 0 0.19849158940073064 0.045762804775648647 0 0.045762804775648647 -0.074501356758219117 0 0 0 0 25.795656716306549 48.440838927490404 0 48.440838927490404 -18.314737318240077 0 0 0 0 -0.1736246303566773 61.424702256728779 0 61.424702256728779 123.39597697300633 0 0 0 0 -6.9829647405328572 42.978622677605017 0 42.978622677605017 138.82455775808194 0 0 0 0 -0.026740686469413449 18.529328324588278 0 18.529328324588278 118.8665105998607 0 0 0 0 -0.17229446731493558 -3.1582327469686646 0 -3.1582327469686646 9.3146271444606725 0 0 0 0 -157.68158088698701 -8.0835060054596397 0 -8.0835060054596397 24.056631708917848 0 0 0 0 -2.5780957148200816 -24.362752991228035 0 -24.362752991228035 8.310152292237035 0 0 0 0 -18.616058046551075 31.075406322881463 0 31.075406322881463 -6.5751182536441775 0 0 0 0 -0.3105394100942796 -0.83883269025088225 0 -0.83883269025088225 1.7664741003393658 0 0 0 0 0.1733928541089611 10.772295957671304 0 10.772295957671304 -9.5625708272709744 0 0 0 0 23.49758945373965 -30.56306466139722 0 -30.56306466139722 9.7703213481145212 0 0 0 0 117.89443417484421 67.101207835854439 0 67.101207835854439 78.480060639543808 0 0 0 0 50.307826047017201 -4.693443300864601 0 -4.693443300864601 -5.0746464205913071 0 0 0 0 -12.066663581361496 -42.104468796904257 0 -42.104468796904257 221.50831868479872 0 0 0 0 11.612217881728839 167.27194483476705 0 167.27194483476705 318.34700733373757 0 0 0 0 0.87804080096039172 110.75036958286 0 110.75036958286 262.3298957963998 0 0 0 0 49.318895543651422 -90.918884001313927 0 -90.918884001313927 5.7269423870020546 0 0 0 0 5.6609724855548436 -102.73715955863736 0 -102.73715955863736 194.80187580440543 0 0 0 0 0.09426501406372581 -0.52701116516019653 0 -0.52701116516019653 2.351851587945248 0 0 0 0 -68.101672853771333 174.92225821582724 0 174.92225821582724 330.54959695367143 0 0 0 0 -8.4319291771046387 37.795210928434244 0 37.795210928434244 182.4990699682603 0 0 0 0 -35.860352156432846 -17.425560557931021 0 -17.425560557931021 155.52303198422305 0 0 0 0 -34.154574827731864 -0.65659926235821331 0 -0.65659926235821331 317.83449388258668 0 0 0 0 -0.041642611510044461 1.0988290770292224 0 1.0988290770292224 130.54084641596637 0 0 0 0 -8.1388678787002107 5.452060079354851 0 5.452060079354851 50.43143987457006 0 0 0 0 0.048346800016518511 3.8490293874456256 0 3.8490293874456256 41.225036765732511 0 0 0 0 -11.69752909507887 0.53676165699653211 0 0.53676165699653211 45.108585604510154 0 0 0 0 13.710361045565392 -34.147379765316145 0 -34.147379765316145 68.442336978070671 0 0 0 0 3.8005540009507186 -9.2153973887980101 0 -9.2153973887980101 59.493076307480806 0 0 0 0 -20.040962913499428 27.002613480104628 0 27.002613480104628 42.164890328002002 0 0 0 0 8.8937051984772211 -12.234739222880307 0 -12.234739222880307 30.965480230064713 0 0 0 0 0.38639522187770081 -1.6302328465485871 0 -1.6302328465485871 5.0946336031828423 0 0 0 0 -42.737034000872654 -12.654909129292719 0 -12.654909129292719 7.8940682389657013 0 0 0 0 -78.737106299708131 -104.99883719977879 0 -104.99883719977879 48.617044806429476 0 0 0 0 -23.118162747256264 4.9203886204631999 0 4.9203886204631999 17.823689001888852 0 0 0 0 0.40684434583534479 25.03306203989996 0 25.03306203989996 -1.7271838765118446 0 0 0 0 -1.2924100425345992 10.842983903915808 0 10.842983903915808 -26.669140534948383 0 0 0 0 -0.27471341279034261 0.14203917806780453 0 0.14203917806780453 -0.015655301388676435 0 0 0 0 -1.3705213501136337 13.304902940630484 0 13.304902940630484 -1.5896993091591867 0 0 0 0 24.318962451043987 22.565703467225831 0 22.565703467225831 16.300229683001817 0 0 0 0 -0.88717829971707718 -0.22405044853917389 0 -0.22405044853917389 1.1345742287393961 0 0 0 0 -15.687919499201108 -1.6415245843090815 0 -1.6415245843090815 121.03825422225782 0 0 0 0 -7.0732377678706158 8.4181434134661686 0 8.4181434134661686 84.196417492173168 0 0 0 0 -14.227762878636035 11.671245686166003 0 11.671245686166003 91.577345341596811 0 0 0 0 -0.015616428892777616 0.66214385317653068 0 0.66214385317653068 69.721165196489892 0 0 0 0 -0.70467702816901312 19.144504116229655 0 19.144504116229655 22.35550712699478 0 0 0 0 -5.4117885399330348 -2.7166686904674862 0 -2.7166686904674862 34.241221088101156 0 0 0 0 26.102465406618791 -50.205891308574792 0 -50.205891308574792 90.413640708233288 0 0 0 0 0.58910176889681309 -0.47628978046193993 0 -0.47628978046193993 -0.23522894416863238 0 0 0 0 21.399250558560581 -52.671739355015234 0 -52.671739355015234 90.494668788756826 0 0 0 0 2.9047105265593274 -17.270125099848883 0 -17.270125099848883 75.631165759201394 0 0 0 0 -13.815506565424982 -27.288436990927949 0 -27.288436990927949 85.156010034072096 0 0 0 0 -10.754317587919758 -27.894393044232856 0 -27.894393044232856 98.683809395908611 0 0 0 0 -18.833169603046528 -26.146586204038613 0 -26.146586204038613 99.439534044024185 0 0 0 0 62.841817614229598 -80.288730198601115 0 -80.288730198601115 83.324760547660844 0 0 0 0 22.613399912095318 45.117470285958916 0 45.117470285958916 116.48724547365418 0 0 0 0 0.15724386934315415 -0.58902785559807569 0 -0.58902785559807569 1.2735262696432983 0 0 0 0 11.435193114061491 -15.855818053583789 0 -15.855818053583789 33.276477895073185 0 0 0 0 0.61638885162797896 -1.2166205001055772 0 -1.2166205001055772 0.65043121605489063 0 0 0 0 72.955099179270803 -22.957327639935102 0 -22.957327639935102 -100.00092220517035 0 0 0 0 -4.8374441415685396 22.603840399680848 0 22.603840399680848 12.378295480652014 0 0 0 0 -34.945222038422713 -96.427991983102402 0 -96.427991983102402 -15.048244322664686 0 0 0 0 0.47220517568743409 -2.331751393438914 0 -2.331751393438914 5.5129805018910361 0 0 0 0 13.480817417722221 37.374319930291676 0 37.374319930291676 49.270482143219851 0 0 0 0 156.56279057210418 29.30637523806945 0 29.30637523806945 12.584253973659997 0 0 0 0 27.638663786901503 38.81635992133306 0 38.81635992133306 -87.060435102301199 0 0 0 0 -27.287445776476297 27.902529778617463 0 27.902529778617463 29.261912452631805 0 0 0 0 -45.29550096092018 -17.342721132452425 0 -17.342721132452425 16.63967175428661 0 0 0 0 -86.272083733565438 -28.344131420009944 0 -28.344131420009944 73.103224947866693 0 0 0 0 -23.692906550487379 57.353973635281363 0 57.353973635281363 242.47143130936456 0 0 0 0 76.534385718126117 -237.77700103253665 0 -237.77700103253665 -2.305824927680078 0 0 0 0 1.3879091505935284 -1.6532399115442331 0 -1.6532399115442331 1.9082522037848832 0 0 0 0 57.371997369806138 -142.51617370978784 0 -142.51617370978784 -159.803784590742 0 0 0 0 61.056789163851477 305.66784084407846 0 305.66784084407846 387.09332503142741 0 0 0 0 41.266247012029453 -100.57890055991811 0 -100.57890055991811 473.68699640742852 0 0 0 0 -63.109015919294848 -257.97179169497394 0 -257.97179169497394 153.93578022914517 0 0 0 0 0.093315621666511417 -1.2913971038208274 0 -1.2913971038208274 3.2573565229771475 0 0 0 0 -105.1343880027938 -389.62952792969463 0 -389.62952792969463 -12.697397978947265 0 0 0 0 -248.47294639341391 -155.46889504602404 0 -155.46889504602404 37.629693309238064 0 0 0 0 0.0044166434580825698 -3.0902588557310082 0 -3.0902588557310082 7.6063475043808353 0 0 0 0 -112.07915649420471 -23.216970081757609 0 -23.216970081757609 -80.347643708691066 0 0 0 0 -100.77052269477451 -101.45138033501098 0 -101.45138033501098 338.72399397329718 0 0 0 0 -148.63489980677798 18.673218411968264 0 18.673218411968264 102.11291541892206 0 0 0 0 -127.23193763319792 49.96201600168024 0 49.96201600168024 49.196145821231767 0 0 0 0 59.93517015129305 127.81805385797634 0 127.81805385797634 487.55412287300715 0 0 0 0 140.46010460769537 -151.50232273848451 0 -151.50232273848451 347.42496029038739 0 0 0 0 181.56554938754005 -37.947643787116249 0 -37.947643787116249 95.667254766492988 0 0 0 0 126.81632468138744 -78.945850863006854 0 -78.945850863006854 162.89139412589429 0 0 0 0 60.37207670038913 60.419498827675852 0 60.419498827675852 111.52403910464636 0 0 0 0 144.6203253143733 -22.898426193700288 0 -22.898426193700288 203.68306544483858 0 0 0 0 127.24779521364545 16.860786297223058 0 16.860786297223058 171.96830981884705 0 0 0 0 134.99512821033932 35.766680762531905 0 35.766680762531905 160.97449279829016 0 0 0 0 -18.972515054595306 66.894310638905154 0 66.894310638905154 268.73834468206769 0 0 0 0 -18.840871207380474 68.48908050024329 0 68.48908050024329 210.17500724861384 0 0 0 0 -10.264726220929788 149.93182050749601 0 149.93182050749601 224.46029235583455 0 0 0 0 -135.92147865263769 -37.309241758974167 0 -37.309241758974167 130.81148630718235 0 0 0 0 -29.848468663037693 16.688068097031646 0 16.688068097031646 61.685501520338676 0 0 0 0 -80.007155903350849 70.409171918363427 0 70.409171918363427 222.21071035882778 0 0 0 0 7.0615038613460994 -11.885338973368206 0 -11.885338973368206 20.955163807136472 0 0 0 0 -42.61422299526248 25.856014658986169 0 25.856014658986169 149.08156630335725 0 0 0 0 58.303207648364378 108.4653189139608 0 108.4653189139608 135.47568159362709 0 0 0 0 -66.396783362336208 78.252920637738782 0 78.252920637738782 242.90878583936865 0 0 0 0 -34.054696836261314 53.891904608524783 0 53.891904608524783 254.39083681931515 0 0 0 0 -66.214461137037574 71.299442619078491 0 71.299442619078491 319.96899794183264 0 0 0 0 -45.367364035034825 5.510020239293226 0 5.510020239293226 278.06583899600446 0 0 0 0 44.473262030860496 -117.91873014791054 0 -117.91873014791054 167.94968344992958 0 0 0 0 -49.46492527431019 4.1179670761266607 0 4.1179670761266607 281.23069189998205 0 0 0 0 -15.551303836300804 2.9543143109694938 0 2.9543143109694938 166.67370336613021 0 0 0 0 -46.327291090628478 5.1787601328105666 0 5.1787601328105666 169.33617662433244 0 0 0 0 5.3977730362894825 -6.7045933671179512 0 -6.7045933671179512 6.5971460408638336 0 0 0 0 -6.367151072700608 -11.443096997045359 0 -11.443096997045359 115.4033456092111 0 0 0 0 4.3062360297726627 55.642215249328729 0 55.642215249328729 150.57027492314228 0 0 0 0 -76.807166824115768 -73.164666901009696 0 -73.164666901009696 -51.171532469321392 0 0 0 0 3.4754124695932571 -4.5678410648124412 0 -4.5678410648124412 4.9330318747948354 0 0 0 0 17.19413693350009 89.337412374279666 0 89.337412374279666 218.58061891524994 0 0 0 0 54.540364928365705 89.240732562186167 0 89.240732562186167 215.99347070312797 0 0 0 0 93.032615508279378 -36.342739624141359 0 -36.342739624141359 67.348137188026158 0 0 0 0 55.817659926653505 -67.893240530211187 0 -67.893240530211187 109.41308907543862 0 0 0 0 -10.669275931911777 7.0657775025740079 0 7.0657775025740079 112.14653325523885 0 0 0 0 18.458512405919919 -33.243532594264252 0 -33.243532594264252 171.5997982100198 0 0 0 0 -8.2241381307308075 11.049796030949437 0 11.049796030949437 106.956439773272 0 0 0 0 -227.36713293416096 -31.061114155756513 0 -31.061114155756513 226.34276791331649 0 0 0 0 -137.46845659181349 -22.642934357903869 0 -22.642934357903869 78.898063067812473 0 0 0 0 -10.371151081141443 8.9362392870532865 0 8.9362392870532865 98.950806173947427 0 0 0 0 -57.88462354524836 92.93873132630597 0 92.93873132630597 57.646016052967752 0 0 0 0 -174.12732672549282 240.83701999256664 0 240.83701999256664 165.22389572851444 0 0 0 0 370.10136543630131 251.67117646895531 0 251.67117646895531 103.26143361433788 0 0 0 0 1.7757923813609924 -4.4405237079713054 0 -4.4405237079713054 9.8355030822377216 0 0 0 0 -39.39684347516345 -36.87586803693921 0 -36.87586803693921 119.61150650576747 0 0 0 0 -26.335491369769443 253.01096409074671 0 253.01096409074671 539.09700339989649 0 0 0 0 -226.49979544928465 -364.52782573113655 0 -364.52782573113655 280.38256012931197 0 0 0 0 85.886294557156816 -273.92523563543455 0 -273.92523563543455 -164.77239985199412 0 0 0 0 -59.771036920067615 74.835943080161542 0 74.835943080161542 677.39576832094463 0 0 0 0 181.76680211251801 306.7257507375416 0 306.7257507375416 453.79037601470191 0 0 0 0 -7.6905335928991008 133.77105035760906 0 133.77105035760906 -478.55678167858059 0 0 0 0 3.2468544185866288 -4.4111288363245933 0 -4.4111288363245933 6.6325050879262619 0 0 0 0 64.86234111132012 -34.819926996988215 0 -34.819926996988215 -48.903060762066161 0 0 0 0 83.015261205335037 -317.69385993889227 0 -317.69385993889227 436.2093971518625 0 0 0 0 -9.806554963936069 -5.9850424595567411 0 -5.9850424595567411 92.329615772171366 0 0 0 0 333.32391989244843 -173.67562213205383 0 -173.67562213205383 -424.83537739042004 0 0 0 0 13.459281077044579 -97.061074729648681 0 -97.061074729648681 101.65607950170306 0 0 0 0 -4.0483052719361456 2.911869064282314 0 2.911869064282314 31.588957498669686 0 0 0 0 0.86497727298842619 93.561010482862002 0 93.561010482862002 -9.4447760079638101 0 0 0 0 -472.12396162969742 -239.01510074692487 0 -239.01510074692487 1325.6963075272215 0 0 0 0 449.98327964910641 60.898985698961042 0 60.898985698961042 -105.48072463378412 0 0 0 0 -49.799607915527304 -331.16448950845552 0 -331.16448950845552 471.80417294236577 0 0 0 0 -94.783037209019312 43.591064649397595 0 43.591064649397595 161.81721009370085 0 0 0 0 129.90959139421466 -13.070066108470201 0 -13.070066108470201 -19.886538520393515 0 0 0 0 20.053730286777864 -29.762996100878809 0 -29.762996100878809 19.534326565666561 0 0 0 0 -0.58709801121087679 0.11733405567564148 0 0.11733405567564148 4.1394416850052096 0 0 0 0 161.38303258492306 59.030560650160623 0 59.030560650160623 39.804151320553501 0 0 0 0 91.020508068922936 36.550873128904641 0 36.550873128904641 86.040552590751759 0 0 0 0 97.112887254119414 20.954545055672497 0 20.954545055672497 18.560750825075957 0 0 0 0 115.655924347569 53.375487288593376 0 53.375487288593376 63.783395220336388 0 0 0 0 78.942451305655595 38.720949013467362 0 38.720949013467362 74.202002564416034 0 0 0 0 92.997901463512676 48.437907835461829 0 48.437907835461829 74.671543472388294 0 0 0 0 29.930002254661304 2.8978145275905263 0 2.8978145275905263 206.22260573719177 0 0 0 0 65.86296048469876 -73.759568754624979 0 -73.759568754624979 120.61033670816687 0 0 0 0 56.804842477830789 -52.79612037325569 0 -52.79612037325569 88.960707362308312 0 0 0 0 73.757572073417577 -119.384266534169 0 -119.384266534169 378.42465117065876 0 0 0 0 125.5096025098419 124.86272417900091 0 124.86272417900091 211.70644317656115 0 0 0 0 1.4737290167608066 1.991693850683312 0 1.991693850683312 0.4167650320745917 0 0 0 0 48.208622756678778 -44.180013917521137 0 -44.180013917521137 135.75323227902845 0 0 0 0 110.87030582022453 -54.188895097326167 0 -54.188895097326167 86.941634650973356 0 0 0 0 68.873634012498769 -17.736221115485023 0 -17.736221115485023 67.196013163716998 0 0 0 0 65.979385412317924 -8.2637113121836592 0 -8.2637113121836592 60.001209831665619 0 0 0 0 46.830219107639095 13.548274270382535 0 13.548274270382535 59.697203049516247 0 0 0 0 76.309329454240924 1.1179026760942179 0 1.1179026760942179 62.440818146758829 0 0 0 0 88.392912501543833 5.0027934999561694 0 5.0027934999561694 33.612350587041874 0 0 0 0 76.354956488996777 -0.61330156999429164 0 -0.61330156999429164 31.577866800624179 0 0 0 0 86.791327424580231 -21.197676657764532 0 -21.197676657764532 51.255555423278565 0 0 0 0 90.553168164280578 1.4109210783644812 0 1.4109210783644812 34.214487524317519 0 0 0 0 42.776681695195293 -13.530511685934471 0 -13.530511685934471 35.104206756994245 0 0 0 0 90.693365599232038 -4.788731118180749 0 -4.788731118180749 16.015870954404818 0 0 0 0 0.97466045720264205 -1.9695131737879663 0 -1.9695131737879663 13.957190980931586 0 0 0 0 -9.27436669261715 18.312892818162254 0 18.312892818162254 33.478076494699053 0 0 0 0 42.327893679579404 7.3179716995276181 0 7.3179716995276181 18.918563136772718 0 0 0 0 -26.702549918732984 -3.5528703041927656 0 -3.5528703041927656 50.125462783911644 0 0 0 0 67.826164097743458 19.898300191982344 0 19.898300191982344 54.6524219220737 0 0 0 0 -8.5285477018078382 28.948866155849828 0 28.948866155849828 101.16366967183058 0 0 0 0 52.362487648744718 -8.2473897492709511 0 -8.2473897492709511 60.806821272395609 0 0 0 0 147.98128247459863 13.430352870280331 0 13.430352870280331 60.503158480241837 0 0 0 0 34.918877094897653 31.312785879061266 0 31.312785879061266 178.87170503812376 0 0 0 0 10.050573556200106 -18.91643634733191 0 -18.91643634733191 77.751854783535236 0 0 0 0 -30.170628430974375 11.119588706547802 0 11.119588706547802 66.911390270201082 0 0 0 0 -14.59326799772316 11.680011080869008 0 11.680011080869008 92.048016389664554 0 0 0 0 -60.530297907920612 -17.342666467433446 0 -17.342666467433446 74.38111451704026 0 0 0 0 -61.128869046057929 21.162892030874502 0 21.162892030874502 89.83723023319908 0 0 0 0 -7.8496010381354253 0.18351568935184304 0 0.18351568935184304 55.684848447674113 0 0 0 0 -6.4493943301931722 24.595484095389111 0 24.595484095389111 19.34841649174632 0 0 0 0 -40.945925237989286 57.007102071285772 0 57.007102071285772 63.029172642960475 0 0 0 0 -1.9569023733758932 8.1732560999224351 0 8.1732560999224351 3.0166665202511354 0 0 0 0 -45.141308347386712 20.19305996246203 0 20.19305996246203 69.196716398189892 0 0 0 0 -5.5538129765052613 -0.78552610144492263 0 -0.78552610144492263 62.417615493788816 0 0 0 0 -5.2901940754483157 0.47739007197773731 0 0.47739007197773731 57.864857983779046 0 0 0 0 -211.6901033523277 283.63946763719287 0 283.63946763719287 -176.81985072565658 0 0 0 0 -10.913585023311319 4.3016907840089154 0 4.3016907840089154 58.52681249030195 0 0 0 0 -14.237483810875347 -3.0166421854373766 0 -3.0166421854373766 28.160794097420876 0 0 0 0 56.660644081024657 22.743099208415515 0 22.743099208415515 -41.086644998504198 0 0 0 0 42.132406828786884 -1.6444601917264663 0 -1.6444601917264663 -26.028692854684778 0 0 0 0 -8.6012598491681729 31.534040788719722 0 31.534040788719722 22.028202251545736 0 0 0 0 -5.8136856031309225 5.340957367228178 0 5.340957367228178 50.787623319626334 0 0 0 0 -35.397148861686219 86.108881640488107 0 86.108881640488107 -40.869623254593805 0 0 0 0 -5.9985176928584458 7.4417018338465937 0 7.4417018338465937 9.2045309857246309 0 0 0 0 -20.025122018480033 3.1952013230475131 0 3.1952013230475131 37.743546878511552 0 0 0 0 -14.244514846206584 -9.5120565093493497 0 -9.5120565093493497 63.150705504740472 0 0 0 0 -4.4994605808979751 5.4066393986883128 0 5.4066393986883128 27.791788584694643 0 0 0 0 -10.185345767013228 2.6829433893893366 0 2.6829433893893366 40.694534696582281 0 0 0 0 -11.879786103688289 5.5941531639109598 0 5.5941531639109598 39.673365923954407 0 0 0 0 -27.922196251096466 11.086296198514901 0 11.086296198514901 25.351046817344468 0 0 0 0 -20.065202419995895 12.021818119509639 0 12.021818119509639 67.648886849048139 0 0 0 0 1.1039768469963747 -15.001904272819957 0 -15.001904272819957 37.942333968611251 0 0 0 0 -26.362825706299191 10.755152402503882 0 10.755152402503882 20.60330685909139 0 0 0 0 -6.5261742456987122 -2.4141461412109493 0 -2.4141461412109493 19.068535634713044 0 0 0 0 -36.565081101438473 16.092371610472014 0 16.092371610472014 90.506261335041188 0 0 0 0 3.3260527886353692 -3.5757585737954187 0 -3.5757585737954187 25.241838254683131 0 0 0 0 15.738518165529968 -32.71876005922968 0 -32.71876005922968 38.586476650978739 0 0 0 0 8.9912564710439256 -30.24630121824157 0 -30.24630121824157 67.356476499087876 0 0 0 0 36.574326273675979 -40.612365492979734 0 -40.612365492979734 42.971929241368343 0 0 0 0 9.0476290566105035 -29.951879652884372 0 -29.951879652884372 58.762833864137065 0 0 0 0 -1.1553928146604449 -31.668880097735382 0 -31.668880097735382 79.203744141872448 0 0 0 0 24.125080777525 -42.124268553874572 0 -42.124268553874572 68.394165016226907 0 0 0 0 -2.2219889462467108 -20.11707254092471 0 -20.11707254092471 61.821551642980921 0 0 0 0 -13.174184051361408 -13.296993694693811 0 -13.296993694693811 76.447951018359163 0 0 0 0 -36.016143599776115 11.69239282408671 0 11.69239282408671 63.633290168050735 0 0 0 0 -22.512847358885665 -23.229225116996531 0 -23.229225116996531 114.62575340661715 0 0 0 0 21.260627179737639 -39.716949282519636 0 -39.716949282519636 81.561775657595717 0 0 0 0 70.811461620072805 -85.152247166406596 0 -85.152247166406596 137.35266560248783 0 0 0 0 37.930624382304359 6.8322914441723697 0 6.8322914441723697 55.052205054234946 0 0 0 0 139.66137230254071 -0.72824018853498274 0 -0.72824018853498274 55.528072697998141 0 0 0 0 24.482031290084706 -46.414211515002535 0 -46.414211515002535 83.601525589366247 0 0 0 0 21.236512719312309 -33.339785109253654 0 -33.339785109253654 83.236056097652181 0 0 0 0 80.711640136518326 -35.367665493569802 0 -35.367665493569802 44.256496206304291 0 0 0 0 25.477294050668206 -20.615573886544553 0 -20.615573886544553 40.564050550099637 0 0 0 0 33.787870278818446 -26.227412261378049 0 -26.227412261378049 24.591772624065925 0 0 0 0 12.482926622360537 -7.9505774995377578 0 -7.9505774995377578 51.164617462180104 0 0 0 0 6.85607919530662 -5.9389581888435714 0 -5.9389581888435714 114.62530698563933 0 0 0 0 28.205835741924602 -7.4457770786975743 0 -7.4457770786975743 49.509787592018256 0 0 0 0 -0.26886768229314839 55.397603078796237 0 55.397603078796237 85.069090951106773 0 0 0 0 -44.889549519731986 -21.947061735285388 0 -21.947061735285388 73.016071689013188 0 0 0 0 -19.245409148797535 -24.177695442282129 0 -24.177695442282129 68.452267840362765 0 0 0 0 -41.009687442043813 -3.9546851979503117 0 -3.9546851979503117 -44.552355623171024 0 0 0 0 0.092722893351649072 -0.01236658952302605 0 -0.01236658952302605 0.10146061920030292 0 0 0 0 -44.777742166716735 -23.931746004302113 0 -23.931746004302113 10.841987623702153 0 0 0 0 -39.330410942839478 -23.114098644840851 0 -23.114098644840851 10.470247114863014 0 0 0 0 -39.473719648557051 -58.158519737643118 0 -58.158519737643118 -35.050476341719332 0 0 0 0 8.7252730471487894 -10.249699751973822 0 -10.249699751973822 -14.776198918523733 0 0 0 0 7.1935138229378524 -7.5408843862070967 0 -7.5408843862070967 8.9136673609697823 0 0 0 0 35.221894342551877 -17.874052367518743 0 -17.874052367518743 -7.4594218683196232 0 0 0 0 3.2724627588812334 -1.4822029549858513 0 -1.4822029549858513 -0.058903897351740397 0 0 0 0 15.96094311790398 -13.84907228656084 0 -13.84907228656084 -6.2278934454825503 0 0 0 0 49.579000140729249 -2.7466057271085447 0 -2.7466057271085447 -30.53395048983657 0 0 0 0 -15.526450672845385 -67.383214672430768 0 -67.383214672430768 9.7639746063650819 0 0 0 0 -40.793941187371729 -33.214533543457947 0 -33.214533543457947 93.735813303530449 0 0 0 0 9.2657697942493087 12.713463532745664 0 12.713463532745664 15.640815741125152 0 0 0 0 2.8881139916279608 58.55993975790625 0 58.55993975790625 126.89539888645595 0 0 0 0 1.0685078306639211 0.052626793401074679 0 0.052626793401074679 -0.59522764126737115 0 0 0 0 -24.026049024919416 -21.629985751940694 0 -21.629985751940694 41.543469546959386 0 0 0 0 -30.518098092118635 -72.986521142272977 0 -72.986521142272977 -14.498088998348976 0 0 0 0 12.504082188283974 27.96917905772716 0 27.96917905772716 41.905956173985032 0 0 0 0 -24.788154352520678 16.116910228469351 0 16.116910228469351 49.632969161983056 0 0 0 0 0.55531402858802492 0.83178517544905262 0 0.83178517544905262 28.94701652745303 0 0 0 0 -6.1358125444562006 3.3628392045466171 0 3.3628392045466171 34.91582069963988 0 0 0 0 -1.093284040557772 2.1016409533304596 0 2.1016409533304596 9.7143693848450994 0 0 0 0 -18.806308660557761 -1.9892359433506499 0 -1.9892359433506499 48.428045195360028 0 0 0 0 -1.1030079653436222 -1.3727931673676697 0 -1.3727931673676697 40.655166537923947 0 0 0 0 -6.5184784873995749 1.0315869052965851 0 1.0315869052965851 29.515132608552761 0 0 0 0 -11.138102141941669 2.8081127069287959 0 2.8081127069287959 33.195812475344283 0 0 0 0 -2.0735227873995168 1.9676859626760006 0 1.9676859626760006 11.209233134556811 0 0 0 0 -21.231094672998324 16.56874749225608 0 16.56874749225608 82.699297933973867 0 0 0 0 0.14664935391390177 0.32169265947922554 0 0.32169265947922554 -1.3239908751478282 0 0 0 0 -29.468528420105059 56.7146283996899 0 56.7146283996899 165.64211903403339 0 0 0 0 -77.404674534970951 -66.143121399483789 0 -66.143121399483789 0.15623755112756044 0 0 0 0 -43.584930339651578 -18.959983011576696 0 -18.959983011576696 81.913488974954817 0 0 0 0 -56.852121189200716 -66.383479456220812 0 -66.383479456220812 166.98469705365824 0 0 0 0 -50.093837354137321 2.4897847100037325 0 2.4897847100037325 82.354638735734625 0 0 0 0 -47.223055051769869 0.86590563056415704 0 0.86590563056415704 69.666283587343059 0 0 0 0 -35.085258839088596 17.084971548072645 0 17.084971548072645 66.218387029224687 0 0 0 0 -38.909504047492618 -4.4680160302377772 0 -4.4680160302377772 50.826912398348213 0 0 0 0 -33.526833403330443 0.71942589415994007 0 0.71942589415994007 55.691157326062239 0 0 0 0 -39.993312025910654 -4.4652806595695438 0 -4.4652806595695438 51.169376797195582 0 0 0 0 -43.231451442031656 -11.990428816052372 0 -11.990428816052372 49.551160160975996 0 0 0 0 -31.047541934132511 -21.860319112976867 0 -21.860319112976867 37.826195747838938 0 0 0 0 -17.217710074439083 -2.6488751032266009 0 -2.6488751032266009 45.157449809310492 0 0 0 0 -6.1459631408996325 -5.1854257663306811 0 -5.1854257663306811 46.43854681133945 0 0 0 0 -4.4952544951691493 -11.687604734979686 0 -11.687604734979686 38.919746469924576 0 0 0 0 -36.317147564701827 1.9602474437706405 0 1.9602474437706405 59.986905277124606 0 0 0 0 -22.009845690907241 -13.997679904743563 0 -13.997679904743563 46.835921469522873 0 0 0 0 -16.265714983621102 2.8966284739847197 0 2.8966284739847197 60.209019224252472 0 0 0 0 -1.5172889459208543 6.3669736038381517 0 6.3669736038381517 1.3977458647113963 0 0 0 0 -2.5468676252976366 34.417108567042305 0 34.417108567042305 42.364639227715088 0 0 0 0 -34.834053153625518 -2.1420391421270324 0 -2.1420391421270324 44.819712693570182 0 0 0 0 -32.517591217945665 35.540269931047078 0 35.540269931047078 60.97538512047322 0 0 0 0 -0.44671678547197047 0.031542352318886913 0 0.031542352318886913 46.478239936312121 0 0 0 0 -29.243539063787466 17.711266208178131 0 17.711266208178131 79.579249919916037 0 0 0 0 -2.1961077862127478 -3.3687427542348942 0 -3.3687427542348942 54.634310394643592 0 0 0 0 -45.185276687503119 3.3864256118358753 0 3.3864256118358753 28.296962157983216 0 0 0 0 -3.7153459063630967 -2.486211697073653 0 -2.486211697073653 41.511305828487167 0 0 0 0 -66.590443063898192 -10.606189041492598 0 -10.606189041492598 78.376106001625885 0 0 0 0 -52.836536526472628 4.372037978930166 0 4.372037978930166 21.924450534046628 0 0 0 0 0.13134237209153765 -16.443346779707703 0 -16.443346779707703 25.99508291773833 0 0 0 0 -5.3323627662084849 5.0580946933358524 0 5.0580946933358524 26.98516747319934 0 0 0 0 5.291914024547979 -29.247178043007189 0 -29.247178043007189 33.989673937808902 0 0 0 0 -37.629539323021163 -4.8317175028496422 0 -4.8317175028496422 31.664307781495154 0 0 0 0 5.435845954019614 -6.4695295691647061 0 -6.4695295691647061 10.906245251690052 0 0 0 0 127.14223505932478 -80.590613908339947 0 -80.590613908339947 20.171101272164378 0 0 0 0 -32.238693422434039 -10.562166961528419 0 -10.562166961528419 49.001077814478776 0 0 0 0 -30.562438860088321 -4.490266632186831 0 -4.490266632186831 46.849358347244561 0 0 0 0 -35.193681075721145 -10.492910361528629 0 -10.492910361528629 44.415653531377757 0 0 0 0 -29.741831334534538 -5.4478411813379353 0 -5.4478411813379353 43.047617435280699 0 0 0 0 -30.953111400904675 -14.98001543009741 0 -14.98001543009741 29.606813407008303 0 0 0 0 -8.7458747433819894 11.421217697068641 0 11.421217697068641 1.1572701556651737 0 0 0 0 156.40788471301755 -21.831247294496279 0 -21.831247294496279 132.17376853479072 0 0 0 0 0.68143286786450186 0.69152889431062903 0 0.69152889431062903 0.94470372147844728 0 0 0 0 77.099568193542041 -307.48064786422765 0 -307.48064786422765 -274.49805956002092 0 0 0 0 -10.070630262284965 51.245270620143856 0 51.245270620143856 35.021896259859204 0 0 0 0 -57.845760933610109 11.44040410814705 0 11.44040410814705 86.624080565321492 0 0 0 0 -55.895072347389942 -1.6118946285496349 0 -1.6118946285496349 30.573750040028244 0 0 0 0 -10.557494943065137 4.2312770795133474 0 4.2312770795133474 27.003127199626761 0 0 0 0 -1.9707308482409016 -4.5287148826848664 0 -4.5287148826848664 31.294502481158304 0 0 0 0 -3.3534959929994024 0.66566659526866978 0 0.66566659526866978 26.012220791094137 0 0 0 0 -0.86487202255845474 -1.5920737974668242 0 -1.5920737974668242 2.8092136174566633 0 0 0 0 15.157775946201014 -36.884725359196182 0 -36.884725359196182 25.514853088039672 0 0 0 0 -6.3803532847068709 -21.819334077095846 0 -21.819334077095846 -9.6390088657281012 0 0 0 0 -21.81559614321759 -4.5777967360572802 0 -4.5777967360572802 20.779520863412472 0 0 0 0 -0.74783717808520356 1.9167612604421507 0 1.9167612604421507 0.45423469027082319 0 0 0 0 1.5025938474847931 -7.7811839605206448 0 -7.7811839605206448 38.724239730414951 0 0 0 0 -5.8070300808329618 4.3852295402872983 0 4.3852295402872983 27.21586485862548 0 0 0 0 -2.3807063023319976 0.66971376364303126 0 0.66971376364303126 27.3743604019119 0 0 0 0 20.344121149408636 149.50960160482646 0 149.50960160482646 314.9675511698224 0 0 0 0 -5.7065753661217968 0.47537235416530166 0 0.47537235416530166 27.280135141406618 0 0 0 0 -37.837975905672607 -40.379917069803923 0 -40.379917069803923 77.064308840657759 0 0 0 0 -25.988832935037266 63.995820810487203 0 63.995820810487203 113.15977426472818 0 0 0 0 -54.058089172347508 3.7083476703046472 0 3.7083476703046472 147.64610336489568 0 0 0 0 -53.820046835418687 -7.7373240406640207 0 -7.7373240406640207 64.958999136142666 0 0 0 0 -40.137898544913817 7.9313450929680585 0 7.9313450929680585 63.110528301906015 0 0 0 0 -39.732578025341724 12.812293125127326 0 12.812293125127326 86.255799161423056 0 0 0 0 -32.805526271480964 15.250775191039793 0 15.250775191039793 65.711406554830319 0 0 0 0 -35.784594631130602 15.678188561756542 0 15.678188561756542 63.758786088073975 0 0 0 0 -15.183333708477704 25.411523951763229 0 25.411523951763229 56.696966504881857 0 0 0 0 -26.546549789441713 14.679190695169382 0 14.679190695169382 47.070477609056979 0 0 0 0 -32.589165253439489 27.347638080485922 0 27.347638080485922 57.844041951189865 0 0 0 0 -32.962715319842573 24.564891588874161 0 24.564891588874161 66.265287624337361 0 0 0 0 0.13852292359720675 4.394113007069266 0 4.394113007069266 0.18453512288434126 0 0 0 0 13.619765037327454 56.119738716524807 0 56.119738716524807 39.412406727758935 0 0 0 0 -78.781306838903674 -119.96773777680937 0 -119.96773777680937 876.95201311045093 0 0 0 0 49.815415580468198 107.59263977811133 0 107.59263977811133 -361.89174709960935 0 0 0 0 20.288748363502918 -34.923657520188954 0 -34.923657520188954 41.715584471952752 0 0 0 0 22.969501874226353 -19.784692908448051 0 -19.784692908448051 39.761298239202006 0 0 0 0 21.610802548078027 -23.243008362411274 0 -23.243008362411274 31.987615972830099 0 0 0 0 20.118065982866028 -25.592249176228506 0 -25.592249176228506 35.304553784182644 0 0 0 0 19.779474815777121 -38.602685605839724 0 -38.602685605839724 15.639897817076417 0 0 0 0 26.908664319280433 -43.585279684717534 0 -43.585279684717534 -18.804423166951892 0 0 0 0 32.544101815877184 -23.310661675692245 0 -23.310661675692245 22.985115946285077 0 0 0 0 31.777012677958737 -17.516517251026016 0 -17.516517251026016 0.63867246232257457 0 0 0 0 -129.96537257488308 -21.59022152567195 0 -21.59022152567195 250.44968899308151 0 0 0 0 5.374939586802455 -2.8936500975160016 0 -2.8936500975160016 0.87514001783279127 0 0 0 0 -20.079893581947545 167.53530653681082 0 167.53530653681082 301.31875872398632 0 0 0 0 43.451300388946038 48.594860597844672 0 48.594860597844672 -4.461620678921463 0 0 0 0 53.812308914319146 66.162988286410837 0 66.162988286410837 -82.698207739173085 0 0 0 0 -136.67324004717375 57.330667446494772 0 57.330667446494772 363.21616638667365 0 0 0 0 0.72488692239081942 0.6671148606487094 0 0.6671148606487094 -0.83048807902871147 0 0 0 0 15.003399900455406 28.912961066918797 0 28.912961066918797 155.22780698540009 0 0 0 0 92.231199202608209 -48.628045862387353 0 -48.628045862387353 25.57133651485492 0 0 0 0 53.794692355833831 -36.060897050319909 0 -36.060897050319909 124.02570534685947 0 0 0 0 90.358640008082148 108.34766708794268 0 108.34766708794268 148.66166356288522 0 0 0 0 10.920397479561544 -9.0108535525496762 0 -9.0108535525496762 12.591392662764179 0 0 0 0 -23.891299874501783 26.63957693066186 0 26.63957693066186 76.564618030115525 0 0 0 0 11.599615920629731 -24.524608631247247 0 -24.524608631247247 32.636415390970797 0 0 0 0 -0.09387460879952414 32.886009700967406 0 32.886009700967406 71.904997128578543 0 0 0 0 -11.580428254379513 34.07314706571924 0 34.07314706571924 73.445419471034256 0 0 0 0 -7.5544568575533049 -6.2811800839117495 0 -6.2811800839117495 50.149910963446018 0 0 0 0 -3.0270449650910969 1.6916077393793927 0 1.6916077393793927 15.40604547512379 0 0 0 0 26.58187330814053 5.3519542202575394 0 5.3519542202575394 51.52834256409551 0 0 0 0 -47.765753651689465 22.083451095631972 0 22.083451095631972 105.91512232997047 0 0 0 0 12.266592853708062 11.662328089751099 0 11.662328089751099 59.686391388320772 0 0 0 0 8.2592604111359833 21.092795004111395 0 21.092795004111395 63.597513331042137 0 0 0 0 17.180757739807632 -56.448482917348883 0 -56.448482917348883 43.571027196969226 0 0 0 0 -60.468940430515431 -31.696892541287525 0 -31.696892541287525 52.564692180687416 0 0 0 0 18.871527290003087 1.1196213511539099 0 1.1196213511539099 29.362314159938251 0 0 0 0 30.89068154369852 -21.241029921475274 0 -21.241029921475274 11.83875173855813 0 0 0 0 1.6195303127568863 7.9772809677632353 0 7.9772809677632353 11.501351910853785 0 0 0 0 17.422636968381994 17.665320045874978 0 17.665320045874978 18.551956649588647 0 0 0 0 72.340950465897549 -20.238723019818281 0 -20.238723019818281 10.482583445416822 0 0 0 0 6.4610268431770237 -94.683911275484206 0 -94.683911275484206 52.08916907836101 0 0 0 0 35.252187470752233 22.138820169177052 0 22.138820169177052 49.362413741713681 0 0 0 0 0.6793438661221316 0.15710825097127668 0 0.15710825097127668 -0.34503331210488319 0 0 0 0 0.66529840249450345 1.1929319622947219 0 1.1929319622947219 8.1387446544834816 0 0 0 0 -0.94330552160283787 8.0438653505393631 0 8.0438653505393631 40.614694583702658 0 0 0 0 3.8865131244174336 -8.1260468666405359 0 -8.1260468666405359 21.015632380869647 0 0 0 0 -1.046067899714302 5.3641885572480135 0 5.3641885572480135 13.762214777695178 0 0 0 0 -1.428680323605322 2.7651309012284049 0 2.7651309012284049 20.2795031803754 0 0 0 0 -3.6431824475339454 5.1498218413125869 0 5.1498218413125869 15.932398621236644 0 0 0 0 294.04521246442346 -318.60930154451125 0 -318.60930154451125 -290.40635480421042 0 0 0 0 0.77732765912696777 4.0204182321231201 0 4.0204182321231201 20.848593327162234 0 0 0 0 3.915627912393802 6.0610871083501934 0 6.0610871083501934 39.382190686013928 0 0 0 0 0.34878824653799967 -2.1969209703445642 0 -2.1969209703445642 6.477015908171488 0 0 0 0 3.0324469187578416 2.544195146670063 0 2.544195146670063 16.900161394918541 0 0 0 0 -0.66087796752968586 -2.4988883128593216 0 -2.4988883128593216 5.1369037420502508 0 0 0 0 1.2322278050551176 6.0268744526229057 0 6.0268744526229057 21.789629482886085 0 0 0 0 4.5985209089794807 2.3741354960093304 0 2.3741354960093304 25.546374810966881 0 0 0 0 2.9038302300941723 11.988480628329853 0 11.988480628329853 35.32422097471499 0 0 0 0 0.25698659404042701 4.5760866234777495 0 4.5760866234777495 34.689204823185719 0 0 0 0 4.3827955429096619 7.0062513707525795 0 7.0062513707525795 35.352561446950858 0 0 0 0 8.9236618234288017 -20.477344414208801 0 -20.477344414208801 34.058396596708917 0 0 0 0 -0.057302750032384608 1.3670781522957753 0 1.3670781522957753 6.5385904358814599 0 0 0 0 21.006875696415591 -5.5813357461174746 0 -5.5813357461174746 19.680257293206523 0 0 0 0 -5.9702927556563736 -28.110701868592514 0 -28.110701868592514 31.386030191584496 0 0 0 0 2.4090872211154419 2.6928041099927214 0 2.6928041099927214 35.618219416392094 0 0 0 0 2.5288642580807021 3.9066946425999447 0 3.9066946425999447 14.674082218100409 0 0 0 0 2.0477919592888156 7.9250868232702487 0 7.9250868232702487 34.426036472556007 0 0 0 0 0.76485595683880092 6.57966024983034 0 6.57966024983034 42.786833419653703 0 0 0 0 -8.5221597640838809 4.407405043786639 0 4.407405043786639 69.683249336914741 0 0 0 0 0.65049544583894203 10.131645211594247 0 10.131645211594247 10.856236518164266 0 0 0 0 0.45378320234382086 3.4912992176913766 0 3.4912992176913766 24.264880359951093 0 0 0 0 -11.762087535163118 8.6996341577705607 0 8.6996341577705607 64.736946032895503 0 0 0 0 -2.0370751976856938 -0.03013479594277868 0 -0.03013479594277868 56.747330224196659 0 0 0 0 -1.4091831880025438 15.388476925767463 0 15.388476925767463 65.160268965526484 0 0 0 0 -14.816850817170234 11.100427015469904 0 11.100427015469904 65.956314603544342 0 0 0 0 -0.15337113414943815 5.5821577103597519 0 5.5821577103597519 45.319080933761143 0 0 0 0 -6.7222775723057566 20.759051873928911 0 20.759051873928911 59.909680480545376 0 0 0 0 2.2677599911084734 10.77189163706084 0 10.77189163706084 0.79057086011644984 0 0 0 0 -4.1050232530633366 21.561335515929386 0 21.561335515929386 69.447431434235114 0 0 0 0 -1.3399402860495684 32.526469642849406 0 32.526469642849406 111.58472995359625 0 0 0 0 -7.5560887724927852 21.402130617062539 0 21.402130617062539 69.642003893506626 0 0 0 0 3.4309996481206326 9.3735764988523442 0 9.3735764988523442 41.334947038647442 0 0 0 0 27.72915956666111 24.255096909544591 0 24.255096909544591 11.125858796865941 0 0 0 0 3.9203824968059635 10.730792481550189 0 10.730792481550189 4.2703659756104209 0 0 0 0 1.295309430532825 7.7590947514108848 0 7.7590947514108848 27.618389731673233 0 0 0 0 -6.0267074586786968 5.0272402396649056 0 5.0272402396649056 26.805911146794529 0 0 0 0 -1.95538227832603 2.3819241005389813 0 2.3819241005389813 28.591454343324017 0 0 0 0 -26.142892857941902 18.773404080457112 0 18.773404080457112 11.6871879598948 0 0 0 0 -28.918293563805207 26.662369582852989 0 26.662369582852989 40.036740486015333 0 0 0 0 -32.174956290648737 -2.1358022063541284 0 -2.1358022063541284 41.521404323233583 0 0 0 0 -20.893471207520889 -16.55411455554713 0 -16.55411455554713 -10.490720416375552 0 0 0 0 -33.45167764771476 -1.67473646698636 0 -1.67473646698636 60.947243561768119 0 0 0 0 -32.109420702639461 29.469076231214785 0 29.469076231214785 2.8156340785935754 0 0 0 0 -9.0198776745528448 41.585652590798418 0 41.585652590798418 53.533244635931624 0 0 0 0 3.1882013510567049 -27.72614510657877 0 -27.72614510657877 43.96976347196869 0 0 0 0 0.74195790589021859 -3.4268199229134133 0 -3.4268199229134133 37.410498374967915 0 0 0 0 -28.260965815764848 17.500550547720195 0 17.500550547720195 93.311960445007571 0 0 0 0 31.748770403520666 0.72723620499527897 0 0.72723620499527897 33.825916019515716 0 0 0 0 1.3484767037534766 -3.0689492991587031 0 -3.0689492991587031 36.08050316617846 0 0 0 0 3.090844739826025 -9.1869678676848707 0 -9.1869678676848707 39.550534435355075 0 0 0 0 -29.926315809104381 -3.7392527581105242 0 -3.7392527581105242 43.675188762936159 0 0 0 0 -4.0486520683969154 1.4332154296397164 0 1.4332154296397164 14.188699293019324 0 0 0 0 -2.7683201577325995 -6.8725854268409847 0 -6.8725854268409847 14.451303762960348 0 0 0 0 -4.7875279885789723 6.9781755680863427 0 6.9781755680863427 22.717979504306669 0 0 0 0 -12.176474621111993 -6.849345323855232 0 -6.849345323855232 52.897302051442239 0 0 0 0 -0.67802046031681584 3.0158867157765599 0 3.0158867157765599 26.723143388706376 0 0 0 0 -22.555173606047902 -23.341129470616579 0 -23.341129470616579 78.827651740306464 0 0 0 0 7.4260826475801878 -20.915220863804279 0 -20.915220863804279 60.346461709399591 0 0 0 0 -34.657122641749083 -14.730538010209784 0 -14.730538010209784 76.307321818050696 0 0 0 0 7.3935280062962399 -36.652214307083213 0 -36.652214307083213 130.80799212318379 0 0 0 0 1.7255898185827583 0.057173806115898174 0 0.057173806115898174 0.20528270651108471 0 0 0 0 3.6397210620871192 14.21413133713213 0 14.21413133713213 -1.7081903539874475 0 0 0 0 -58.648572266001338 65.389338948734803 0 65.389338948734803 131.02589840467408 0 0 0 0 -1.7597966715156872 -12.369490506483999 0 -12.369490506483999 47.678637351062207 0 0 0 0 -3.783100684862311 -0.027121361757792783 0 -0.027121361757792783 34.717381530936791 0 0 0 0 1.1792501350869316 -5.8102852642477956 0 -5.8102852642477956 25.555278403759985 0 0 0 0 -20.944863450885631 19.413055135142486 0 19.413055135142486 0.37537601233634632 0 0 0 0 1.4609911872391024 -1.6719475120532934 0 -1.6719475120532934 38.120657082326943 0 0 0 0 -21.449532545115115 24.607090238037927 0 24.607090238037927 10.224845691157498 0 0 0 0 -4.7700921907248528 4.4699511707654551 0 4.4699511707654551 22.615223936873633 0 0 0 0 7.0491051184506501 -13.71498056917811 0 -13.71498056917811 24.392916592026626 0 0 0 0 -5.7955534342414579 5.4187892971891287 0 5.4187892971891287 67.762356984257877 0 0 0 0 -10.537793672673956 -8.3117164459326887 0 -8.3117164459326887 90.523123185657823 0 0 0 0 40.538966514765022 -114.96657596363821 0 -114.96657596363821 121.104246618037 0 0 0 0 -150.32008433209376 -6.6469842705409974 0 -6.6469842705409974 155.10586131014861 0 0 0 0 1.1607767306200796 -0.20492927948760098 0 -0.20492927948760098 3.8923013066618353 0 0 0 0 -36.848325348984673 -26.347290513818734 0 -26.347290513818734 -16.66865119569411 0 0 0 0 28.20384854361555 71.022626015095739 0 71.022626015095739 68.250728166654881 0 0 0 0 -57.031253765985106 123.75632576147291 0 123.75632576147291 103.31640792438702 0 0 0 0 -143.60152735653469 105.2180517244924 0 105.2180517244924 264.2951694468502 0 0 0 0 -122.5849479760823 63.578855941879738 0 63.578855941879738 235.04477783366747 0 0 0 0 -26.267193704462422 -24.620915941421117 0 -24.620915941421117 30.304396059116698 0 0 0 0 -84.166845002745276 35.396250090579997 0 35.396250090579997 34.721909794730891 0 0 0 0 -24.003093454504167 45.4555548618373 0 45.4555548618373 -42.725787283226964 0 0 0 0 -1.6890310993142743 -0.92945754109804568 0 -0.92945754109804568 4.3559875103960337 0 0 0 0 -22.823591688194149 32.726346026029205 0 32.726346026029205 12.444557359482133 0 0 0 0 -40.24196744431493 -7.788193415486603 0 -7.788193415486603 58.23224677122198 0 0 0 0 0.13027831382661773 -0.13903703000588052 0 -0.13903703000588052 0.176107145445485 0 0 0 0 -15.171687959694122 23.903570898648468 0 23.903570898648468 83.458706736390013 0 0 0 0 -2.8261724442770486 -7.9833740562171442 0 -7.9833740562171442 52.864961881828719 0 0 0 0 -10.892906594104403 -4.577953562795301 0 -4.577953562795301 49.334371581382584 0 0 0 0 5.7921644028360504 8.3831868313500308 0 8.3831868313500308 54.159269633804797 0 0 0 0 3.808146095643286 -7.2640117391638341 0 -7.2640117391638341 45.888406753729214 0 0 0 0 11.749768863862631 8.4679819322245748 0 8.4679819322245748 52.675765792810125 0 0 0 0 24.016710600638113 30.264345775271067 0 30.264345775271067 80.726168573499308 0 0 0 0 17.850425949110164 8.4615792511394829 0 8.4615792511394829 50.387339375243755 0 0 0 0 21.551441671179663 16.376781001265044 0 16.376781001265044 -5.8790180532778322 0 0 0 0 40.48262707566176 -6.0609674615843687 0 -6.0609674615843687 165.93216091005888 0 0 0 0 24.904553774870433 57.426666960669536 0 57.426666960669536 137.40776228367758 0 0 0 0 22.370528277218884 49.132557294417779 0 49.132557294417779 93.713693362427875 0 0 0 0 25.53465113620733 30.34109312518558 0 30.34109312518558 106.34242705165525 0 0 0 0 5.7133805564657223 38.917574995444738 0 38.917574995444738 131.14729401723889 0 0 0 0 18.25625933651304 39.806013349167188 0 39.806013349167188 130.44051018404207 0 0 0 0 -12.71277141723084 29.671076837272267 0 29.671076837272267 137.42019485361379 0 0 0 0 8.1509566228580184 39.938219896692317 0 39.938219896692317 119.36727361958765 0 0 0 0 -12.781367903720408 11.682597321007052 0 11.682597321007052 163.28991863159172 0 0 0 0 -0.15646198800784106 34.331664314198861 0 34.331664314198861 149.43254601597437 0 0 0 0 46.707702980000711 -0.47447560911678011 0 -0.47447560911678011 111.91183625946724 0 0 0 0 15.809228889614239 28.507341059808823 0 28.507341059808823 91.806032926968328 0 0 0 0 15.43300567093539 15.82439209344011 0 15.82439209344011 85.995465773659816 0 0 0 0 14.175322487495521 26.682919738799683 0 26.682919738799683 100.04728045943557 0 0 0 0 19.438087190883067 9.7106162876953022 0 9.7106162876953022 61.377738783470704 0 0 0 0 16.935595927258987 13.636905576429854 0 13.636905576429854 102.46446664120231 0 0 0 0 -10.138935215107066 -4.8422849018097622 0 -4.8422849018097622 76.688794287889323 0 0 0 0 -15.201448358882391 3.2724553460648167 0 3.2724553460648167 104.40786412983653 0 0 0 0 -7.066779597213027 1.5017372273505316 0 1.5017372273505316 75.594073388754623 0 0 0 0 -0.011551412066984392 7.758196875674912 0 7.758196875674912 86.880175634018087 0 0 0 0 6.6752547294048501 7.2056624151628057 0 7.2056624151628057 83.28947769656952 0 0 0 0 4.9002356630446027 13.854100118025599 0 13.854100118025599 72.798162284714635 0 0 0 0 19.70626206977866 7.3277946560410783 0 7.3277946560410783 75.659949293985846 0 0 0 0 0.01735898634605626 3.0821709610318067 0 3.0821709610318067 80.744755990159319 0 0 0 0 8.8969311740555703 -0.76312241957384686 0 -0.76312241957384686 78.824632733005274 0 0 0 0 23.977679832986443 23.091556298691103 0 23.091556298691103 67.319094703096198 0 0 0 0 10.617146576573653 17.30970111314673 0 17.30970111314673 66.916037150319426 0 0 0 0 9.444149488030817 5.7651345339691034 0 5.7651345339691034 63.724317409411015 0 0 0 0 21.23116334517951 11.394234238150602 0 11.394234238150602 45.466138832256547 0 0 0 0 23.665078475492301 -15.641282919106743 0 -15.641282919106743 63.668513666227227 0 0 0 0 18.259480682001723 4.2795901952904387 0 4.2795901952904387 4.8960188389464747 0 0 0 0 15.395651654294866 -31.282430668645247 0 -31.282430668645247 131.06433640631803 0 0 0 0 0.23016367317694605 -0.22220249460271191 0 -0.22220249460271191 0.24049120735493545 0 0 0 0 8.265428964379586 -10.359852514862723 0 -10.359852514862723 79.980261655469803 0 0 0 0 13.282051185069465 -20.070889098888074 0 -20.070889098888074 98.611906596008339 0 0 0 0 -1.2288875931196914 -8.6805820948211476 0 -8.6805820948211476 106.20090629400875 0 0 0 0 -1.2892188989811393 -4.9981599754755734 0 -4.9981599754755734 96.796999921294628 0 0 0 0 -0.00061895986526440492 -5.7482369316858239 0 -5.7482369316858239 97.233595557125227 0 0 0 0 8.6019145978722058 -8.0960841613232333 0 -8.0960841613232333 96.901407625613501 0 0 0 0 -0.0081422642942901319 -4.8607939896064636 0 -4.8607939896064636 96.25148683610314 0 0 0 0 -7.4670111430780111 -9.0479576843986251 0 -9.0479576843986251 104.47125545585732 0 0 0 0 -9.1864261871863455 10.002333809634365 0 10.002333809634365 77.967789642993012 0 0 0 0 10.337658179719515 -34.561012455200398 0 -34.561012455200398 129.09090006794213 0 0 0 0 -1.8444858840278835 -12.259185061107473 0 -12.259185061107473 105.57389632518607 0 0 0 0 3.0154982636114163 -40.563019427093877 0 -40.563019427093877 199.82939165079733 0 0 0 0 81.748535882942917 -36.671667211556269 0 -36.671667211556269 105.7490490860946 0 0 0 0 -10.744968226021456 -26.617303808030556 0 -26.617303808030556 173.02051961374673 0 0 0 0 17.060601767986519 32.002622753836476 0 32.002622753836476 134.70624046199373 0 0 0 0 -21.384547583092896 -9.28892194222135 0 -9.28892194222135 121.5218020136017 0 0 0 0 -20.956324661584375 0.19951802246214356 0 0.19951802246214356 68.396505408654775 0 0 0 0 -25.520126755076305 22.792211281164782 0 22.792211281164782 71.517065965901566 0 0 0 0 -43.953299592819072 9.6279944318166599 0 9.6279944318166599 85.510680998850148 0 0 0 0 -18.676111088996802 4.6959866646720911 0 4.6959866646720911 79.075242185019306 0 0 0 0 10.822717679235867 13.615314194545135 0 13.615314194545135 80.6303632997151 0 0 0 0 1.1190972559882226 24.486963424573332 0 24.486963424573332 54.899202189339121 0 0 0 0 -22.693303149875767 -10.302211148396509 0 -10.302211148396509 15.741716803051531 0 0 0 0 -28.842327717831672 7.6488920852425508 0 7.6488920852425508 58.376128052965214 0 0 0 0 2.0529966340956127 -9.9793436226864287 0 -9.9793436226864287 36.895913111551636 0 0 0 0 0.3538230682817089 -0.38509308947126897 0 -0.38509308947126897 0.34152176730871986 0 0 0 0 13.021849754102536 -7.9171366496657356 0 -7.9171366496657356 36.671066442722804 0 0 0 0 1.7076694621683401 11.434548922657996 0 11.434548922657996 81.093448000447097 0 0 0 0 -10.34582026528642 13.897455382247813 0 13.897455382247813 70.613098122996121 0 0 0 0 -3.4702479319915795 2.7708248174851295 0 2.7708248174851295 8.7542205404018603 0 0 0 0 -9.5963195441390781 23.397350000406618 0 23.397350000406618 173.57216453094838 0 0 0 0 56.561593587098287 -49.416615970265582 0 -49.416615970265582 61.156473323971568 0 0 0 0 36.049022083117507 -62.365000570424797 0 -62.365000570424797 98.991841972758039 0 0 0 0 12.16421670368527 -11.626865322632739 0 -11.626865322632739 35.481701901394445 0 0 0 0 -13.168841066360073 -9.3309531758790172 0 -9.3309531758790172 105.93438348769632 0 0 0 0 7.5903411191627352 -19.324809260632321 0 -19.324809260632321 28.335687572627439 0 0 0 0 -6.3437621982129713 -25.467429625660316 0 -25.467429625660316 77.026561545129653 0 0 0 0 5.9533260271182371 -4.7933386203767441 0 -4.7933386203767441 45.937957501624624 0 0 0 0 -1.8671903717486202 2.7382572725327918 0 2.7382572725327918 46.548688196564228 0 0 0 0 7.6578523235448301 -4.2604498226764917 0 -4.2604498226764917 42.819223650525601 0 0 0 0 -1.474454258731539 3.7620572394405798 0 3.7620572394405798 25.469688078748558 0 0 0 0 3.4982994418933231 17.057596556664066 0 17.057596556664066 59.848024211254597 0 0 0 0 3.1713219307468989 17.492140620982127 0 17.492140620982127 73.908593599358937 0 0 0 0 -5.560213639884843 16.841425482465347 0 16.841425482465347 36.849660284563676 0 0 0 0 -4.1328308602971902 6.0647296959414234 0 6.0647296959414234 69.370802801848185 0 0 0 0 -4.2281922598913297 5.4465191329763911 0 5.4465191329763911 68.683677406650531 0 0 0 0 -7.5566245462598545 11.251060244065229 0 11.251060244065229 81.445894783530093 0 0 0 0 -3.3952460477585191 9.239128584120408 0 9.239128584120408 64.041681192089527 0 0 0 0 -10.680728581913087 -8.7743471083143643 0 -8.7743471083143643 42.561647457868304 0 0 0 0 -15.893403415333978 -11.262174619446796 0 -11.262174619446796 40.144938958798093 0 0 0 0 -22.404359817178829 -19.223223808387957 0 -19.223223808387957 42.722943317662612 0 0 0 0 -6.9360200357481041 21.293482118991939 0 21.293482118991939 37.816442195264642 0 0 0 0 -0.87729566604184583 0.24595279863387987 0 0.24595279863387987 74.770916545430737 0 0 0 0 -6.1693352824613612 6.4487066189676625 0 6.4487066189676625 72.971833925450483 0 0 0 0 11.705003549180219 -14.77123005834784 0 -14.77123005834784 44.919558346730241 0 0 0 0 -13.530851128078677 -0.93426650371355002 0 -0.93426650371355002 13.1758571076263 0 0 0 0 -6.7781340660453679 -11.345694833056768 0 -11.345694833056768 44.67450448132513 0 0 0 0 -20.334576899827368 -8.9183775875337119 0 -8.9183775875337119 44.415736110053331 0 0 0 0 -9.2616711890803352 -1.725915317667952 0 -1.725915317667952 24.48585486360561 0 0 0 0 -5.365828558614794 -18.201739917627833 0 -18.201739917627833 77.876999314416935 0 0 0 0 -5.0633112941504805 -29.508101072519196 0 -29.508101072519196 44.283502721178479 0 0 0 0 -9.6725436072674711 -59.840029470004055 0 -59.840029470004055 23.274326114029819 0 0 0 0 -95.688314342991035 -36.505337586674308 0 -36.505337586674308 141.99913264651695 0 0 0 0 -1.9716459810269207 -23.828387467236112 0 -23.828387467236112 76.496988110786177 0 0 0 0 -18.089882113826206 -23.043413612370728 0 -23.043413612370728 90.973609850231696 0 0 0 0 -17.871898493088338 13.155884164976328 0 13.155884164976328 39.906720502629753 0 0 0 0 -17.626969180132619 -25.982232356084069 0 -25.982232356084069 109.51951289573185 0 0 0 0 25.472064530357784 -36.563798945903045 0 -36.563798945903045 41.926512088754748 0 0 0 0 135.17097044935508 -94.756394833482773 0 -94.756394833482773 74.262259893763712 0 0 0 0 29.27648792638729 198.07520838569462 0 198.07520838569462 402.35278144089534 0 0 0 0 0.74238481439873993 -0.39445452233584177 0 -0.39445452233584177 -0.090453301425071686 0 0 0 0 63.047002448448438 36.703033992820565 0 36.703033992820565 94.892005922876706 0 0 0 0 -22.7930983624492 2.865115674896515 0 2.865115674896515 179.02962601069157 0 0 0 0 -95.59077729247565 53.491105293423971 0 53.491105293423971 153.72007788995325 0 0 0 0 0.70276415862752017 -29.105312608369989 0 -29.105312608369989 74.966790026015516 0 0 0 0 -57.904767176146379 -150.70885059782267 0 -150.70885059782267 89.202308227557978 0 0 0 0 -132.53405301579096 -202.09899655865775 0 -202.09899655865775 78.75982511921768 0 0 0 0 0.97609788507361372 77.619543963435717 0 77.619543963435717 77.557858320080413 0 0 0 0 -155.36707387187471 -24.058968367246052 0 -24.058968367246052 209.11418475326354 0 0 0 0 -47.188095814385633 -98.853592526113061 0 -98.853592526113061 256.20949771668165 0 0 0 0 -100.77643895666097 -181.89187238985869 0 -181.89187238985869 -21.450932024876238 0 0 0 0 -46.152223748639699 35.148016957116852 0 35.148016957116852 104.56023124014973 0 0 0 0 2.5297331327076762 -0.48538239885127643 0 -0.48538239885127643 0.46931057942837917 0 0 0 0 -277.8351368549811 377.07350785078523 0 377.07350785078523 355.27940565846632 0 0 0 0 368.38385727257992 -194.10557142533162 0 -194.10557142533162 44.086506943262464 0 0 0 0 12.466271526172022 -146.10464103831725 0 -146.10464103831725 135.04421863118705 0 0 0 0 -51.990222294674822 -45.191234948364126 0 -45.191234948364126 193.85531949886013 0 0 0 0 11.770323831062342 -68.170828130871769 0 -68.170828130871769 59.834890994725583 0 0 0 0 60.843017828996039 -74.549188688446009 0 -74.549188688446009 17.557467457484563 0 0 0 0 68.792019795862871 -23.659187189640988 0 -23.659187189640988 5.5755544508324419 0 0 0 0 65.232709924119263 -32.596663844031127 0 -32.596663844031127 -16.662506479765398 0 0 0 0 55.653578643437868 -5.4066334287258542 0 -5.4066334287258542 -22.076816008069727 0 0 0 0 69.629582631918311 -26.936591159724685 0 -26.936591159724685 -54.312064361573903 0 0 0 0 42.515298621714464 -67.47809518666827 0 -67.47809518666827 -28.69012973634085 0 0 0 0 45.699419064892936 -160.66365122920183 0 -160.66365122920183 23.993768883531629 0 0 0 0 44.296815263450981 -144.7906965894378 0 -144.7906965894378 -110.79013057675866 0 0 0 0 60.778870830932874 -72.52480043420411 0 -72.52480043420411 -46.044495336826003 0 0 0 0 0.12949524515310173 -30.487362302177353 0 -30.487362302177353 69.970883529144089 0 0 0 0 30.644452824471045 -51.069709731481701 0 -51.069709731481701 142.27873316012023 0 0 0 0 31.152627889176074 -34.272445009428679 0 -34.272445009428679 -123.29421138690304 0 0 0 0 -77.496450519776772 -28.178974686043603 0 -28.178974686043603 -39.484427354486343 0 0 0 0 38.724691996472757 -62.08562389136182 0 -62.08562389136182 -38.351279075708362 0 0 0 0 -89.640074582555371 -142.8978282407669 0 -142.8978282407669 -77.958003925728917 0 0 0 0 0.17816319698284033 2.1673974633226614 0 2.1673974633226614 22.150296290867889 0 0 0 0 -14.917746748374157 -16.988458123903115 0 -16.988458123903115 97.8603049230951 0 0 0 0 -17.165354399427997 -19.776085904642628 0 -19.776085904642628 175.64462995407121 0 0 0 0 -38.671654226442797 -18.707997878551794 0 -18.707997878551794 102.23633862221754 0 0 0 0 -9.148887610881502 -29.250413928547459 0 -29.250413928547459 105.04408099790771 0 0 0 0 1.2581911002216657 6.7421947812387089 0 6.7421947812387089 95.24459055477837 0 0 0 0 -13.634767220510184 -16.220677177993593 0 -16.220677177993593 97.657037319341271 0 0 0 0 12.674055743098506 -40.235587921398292 0 -40.235587921398292 69.689361564049705 0 0 0 0 25.36712175629691 -10.759702054052013 0 -10.759702054052013 52.221302652078066 0 0 0 0 49.740343623850094 -2.4765920530553558 0 -2.4765920530553558 23.744329554546312 0 0 0 0 15.903222889505741 4.930737228384487 0 4.930737228384487 53.213042499363837 0 0 0 0 4.4295190056072897 17.306188923406125 0 17.306188923406125 58.004034642650822 0 0 0 0 -4.2569677400942965 -19.710867318978217 0 -19.710867318978217 53.999132154131871 0 0 0 0 70.505271655970546 22.468165711611675 0 22.468165711611675 74.755000694037335 0 0 0 0 -23.388196578670204 -44.243086244221786 0 -44.243086244221786 -18.547087633437059 0 0 0 0 -61.098028126887584 24.91022450382161 0 24.91022450382161 19.763976540803469 0 0 0 0 14.493189930430162 10.005734586543213 0 10.005734586543213 36.077873853362235 0 0 0 0 -24.714370463199884 -0.50999509870916881 0 -0.50999509870916881 36.285492981506025 0 0 0 0 6.4620552004726051 17.366529623174301 0 17.366529623174301 49.257155670413113 0 0 0 0 41.946200083893928 29.881015694537609 0 29.881015694537609 28.690674306383698 0 0 0 0 57.650808781273554 11.509403359616385 0 11.509403359616385 14.137297000404942 0 0 0 0 27.848616128467256 19.627832582494648 0 19.627832582494648 35.257329544372624 0 0 0 0 74.525205682755768 40.258742678235649 0 40.258742678235649 13.983395812308117 0 0 0 0 90.248136441527095 -1.2121296511807031 0 -1.2121296511807031 48.539715624247037 0 0 0 0 37.5965225095606 9.8845563752720409 0 9.8845563752720409 59.184771025861664 0 0 0 0 13.188414406065931 39.67573582703676 0 39.67573582703676 9.9331802653796331 0 0 0 0 -7.3451122790756926 22.975818780190821 0 22.975818780190821 11.034878121570387 0 0 0 0 -19.276405358579723 51.509630746433004 0 51.509630746433004 -57.141224418080128 0 0 0 0 77.990614578913664 -140.29652751199683 0 -140.29652751199683 -121.33500551589583 0 0 0 0 1.2738663933025975 0.070097770179306185 0 0.070097770179306185 -1.0550452888524209 0 0 0 0 -170.97425798853965 219.79515777798247 0 219.79515777798247 174.29183286117313 0 0 0 0 32.462143678778375 23.499991072138073 0 23.499991072138073 -103.03742495829374 0 0 0 0 39.019002813271072 21.21871072763679 0 21.21871072763679 -41.122214327239817 0 0 0 0 130.01782828995601 11.681947106388179 0 11.681947106388179 58.686679436447776 0 0 0 0 53.242342813002324 -47.199110913757067 0 -47.199110913757067 24.568117970211006 0 0 0 0 54.698644250249345 -44.593461721123276 0 -44.593461721123276 -52.763134998595888 0 0 0 0 -0.24625861775637148 -1.5009643420787118 0 -1.5009643420787118 12.008528768113811 0 0 0 0 12.877529144076259 -30.988316784465216 0 -30.988316784465216 26.365206851152472 0 0 0 0 -1.0608819022073712 -6.3768696815113088 0 -6.3768696815113088 8.9318465807157068 0 0 0 0 1.7029641504858191 -1.5227664480131908 0 -1.5227664480131908 12.373394808107101 0 0 0 0 83.800441115954072 -85.57548303510373 0 -85.57548303510373 159.49334966640936 0 0 0 0 -50.678840921375013 245.14316499680035 0 245.14316499680035 -91.506595381188617 0 0 0 0 -62.900302275441391 -34.463727596115632 0 -34.463727596115632 69.738514417612578 0 0 0 0 -3.9455033331398681 -70.613249241791436 0 -70.613249241791436 -69.196753322014047 0 0 0 0 -32.603688177753156 -28.555389262630797 0 -28.555389262630797 33.427561203636742 0 0 0 0 60.824694403150716 -67.574958314397009 0 -67.574958314397009 49.613785572334791 0 0 0 0 34.855258082805449 -2.3607610367885172 0 -2.3607610367885172 107.4632346034191 0 0 0 0 89.507846014334064 -64.277326898698902 0 -64.277326898698902 109.99991890725596 0 0 0 0 81.531351247087514 -38.529757603519556 0 -38.529757603519556 146.86967366523004 0 0 0 0 35.90696006896178 -37.194071481968422 0 -37.194071481968422 102.79852805508472 0 0 0 0 96.906218444622027 -7.5992328672044778 0 -7.5992328672044778 5.0939134749337427 0 0 0 0 49.564055984692459 -12.023294944229974 0 -12.023294944229974 9.6278462992854656 0 0 0 0 89.071077938795497 26.950795934849793 0 26.950795934849793 15.709537281823032 0 0 0 0 86.619290319962602 -18.385759400797724 0 -18.385759400797724 50.90047762188351 0 0 0 0 161.17783234264425 -51.423915435273102 0 -51.423915435273102 53.637188650687108 0 0 0 0 117.07842671147228 13.919932878479358 0 13.919932878479358 44.628324601881104 0 0 0 0 29.842804267994325 124.97823382052297 0 124.97823382052297 376.3435217056014 0 0 0 0 -64.866608570243983 -235.60037541940306 0 -235.60037541940306 72.875527764443632 0 0 0 0 39.31282277054197 -112.57210476439786 0 -112.57210476439786 309.84686164553978 0 0 0 0 1.2317665287835524 -1.0321328100839673 0 -1.0321328100839673 1.019693212259714 0 0 0 0 235.90348391977386 -69.37620657043999 0 -69.37620657043999 55.893040781762693 0 0 0 0 186.02721690754424 -155.99264859649736 0 -155.99264859649736 159.7923175383612 0 0 0 0 -65.023897210718133 -244.64610698656361 0 -244.64610698656361 199.32789411752901 0 0 0 0 23.910600998551672 -16.189383539912114 0 -16.189383539912114 234.02484730544438 0 0 0 0 69.858914072916377 61.960966838095032 0 61.960966838095032 131.84049111987997 0 0 0 0 -37.023215041029289 -76.324679521437929 0 -76.324679521437929 135.64543527232672 0 0 0 0 -51.378260703188971 -21.778137352776412 0 -21.778137352776412 -106.05345664624087 0 0 0 0 -34.451654450223032 -22.347412944737698 0 -22.347412944737698 -108.82502919237641 0 0 0 0 -21.127082958059418 -91.465407141397009 0 -91.465407141397009 -38.053546952738543 0 0 0 0 -0.37000528759015161 -26.96918867592386 0 -26.96918867592386 32.184030825934329 0 0 0 0 -17.17273023186408 -54.717722204362872 0 -54.717722204362872 -20.948729108054977 0 0 0 0 40.506928622198188 -54.908636963657045 0 -54.908636963657045 -163.89172955154572 0 0 0 0 5.7886319573159497 -30.871679432742795 0 -30.871679432742795 36.549557085186102 0 0 0 0 76.891329293594936 -262.25683620676682 0 -262.25683620676682 235.36943483595445 0 0 0 0 -16.999904079823864 -70.305133357888735 0 -70.305133357888735 4.1923061093959859 0 0 0 0 1.1021778308145258 -94.493493300355112 0 -94.493493300355112 -49.614358693012036 0 0 0 0 4.4927889866889927 -29.14057372993193 0 -29.14057372993193 -25.654959283287099 0 0 0 0 -15.293627637930967 -61.545947555010116 0 -61.545947555010116 86.052633285644333 0 0 0 0 11.676995304113916 -53.641334397150786 0 -53.641334397150786 -20.929375648142241 0 0 0 0 -19.874244276492846 -75.435574229333724 0 -75.435574229333724 115.08635075637721 0 0 0 0 32.359103101804067 -59.270499800462858 0 -59.270499800462858 113.27889867108388 0 0 0 0 -7.0386099664124231 10.34159602003092 0 10.34159602003092 53.550601314052983 0 0 0 0 9.9429499919046975 -71.141469057640279 0 -71.141469057640279 285.89080709147674 0 0 0 0 0.51887955250856521 -27.400844556646007 0 -27.400844556646007 93.198624927121273 0 0 0 0 149.5689891273023 -42.625674465714837 0 -42.625674465714837 35.384471234153352 0 0 0 0 225.15878894190746 50.713116930350225 0 50.713116930350225 127.71897916622447 0 0 0 0 132.17621914387928 19.728408474678872 0 19.728408474678872 284.22164856668678 0 0 0 0 170.75842351824195 -194.96714979477883 0 -194.96714979477883 296.08696196211531 0 0 0 0 -68.16095610191087 19.233222472743364 0 19.233222472743364 124.81042944415822 0 0 0 0 139.65073830720451 -33.644005446838491 0 -33.644005446838491 -337.68816106880331 0 0 0 0 1.1963969651528492 -1.4556380504776172 0 -1.4556380504776172 -2.5022786027963271 0 0 0 0 18.444283425124922 -60.275717970003825 0 -60.275717970003825 103.52588047686913 0 0 0 0 -12.278901647064458 -111.4351786669904 0 -111.4351786669904 -4.6451769994509959 0 0 0 0 10.392254302779293 -44.470810426277239 0 -44.470810426277239 66.810316131576656 0 0 0 0 15.30410922263809 -16.484105771107352 0 -16.484105771107352 50.839804831646688 0 0 0 0 5.7126060493737683 -16.675376075076699 0 -16.675376075076699 14.374741232826064 0 0 0 0 27.718499534632883 -55.816212822028319 0 -55.816212822028319 22.05847140388596 0 0 0 0 21.510864474310438 2.0523118268520193 0 2.0523118268520193 47.704521761694195 0 0 0 0 10.913365960664267 -15.795642571103876 0 -15.795642571103876 17.969261275555798 0 0 0 0 9.8985631804644072 -56.108274883677723 0 -56.108274883677723 15.492446463934812 0 0 0 0 16.02569502618644 2.7387688011908722 0 2.7387688011908722 19.751599179816594 0 0 0 0 4.2092843515369918 -13.726468476957166 0 -13.726468476957166 9.3067318128924104 0 0 0 0 28.641227143381911 -15.134300892910687 0 -15.134300892910687 -14.012325717019849 0 0 0 0 9.1980203491611974 -10.537897287253145 0 -10.537897287253145 -5.1671601144589658 0 0 0 0 -10.693273519500508 2.295702918250754 0 2.295702918250754 -11.810509751781865 0 0 0 0 -6.529317027727302 2.4038329930372129 0 2.4038329930372129 6.0721021852514241 0 0 0 0 33.420309544444081 -20.278659570965829 0 -20.278659570965829 59.033352330240632 0 0 0 0 37.732688183001301 -43.295891273986854 0 -43.295891273986854 47.007037574314381 0 0 0 0 33.953982108238449 2.3947544334646409 0 2.3947544334646409 1.2058319464631495 0 0 0 0 8.6207700411882797 3.4636673775294184 0 3.4636673775294184 25.45335588810849 0 0 0 0 97.392939308903578 -26.950641110055585 0 -26.950641110055585 23.94753803738422 0 0 0 0 75.278358464111989 -126.86695573423458 0 -126.86695573423458 166.43387125793288 0 0 0 0 151.71183921023646 -19.874972904042806 0 -19.874972904042806 27.308541199759929 0 0 0 0 25.821132573058094 -47.526130174514947 0 -47.526130174514947 129.79865890815381 0 0 0 0 0.93011323310374827 -0.10437114051237728 0 -0.10437114051237728 -0.081797572950414121 0 0 0 0 23.321758960714988 247.1584787086158 0 247.1584787086158 -55.337571019001189 0 0 0 0 -77.364312050136732 188.61586399260523 0 188.61586399260523 144.55489776442846 0 0 0 0 98.672921636840783 131.12188333915765 0 131.12188333915765 110.10786417298186 0 0 0 0 72.839189152146218 135.53169715838521 0 135.53169715838521 344.46414477813232 0 0 0 0 115.37320236095729 140.66961630309743 0 140.66961630309743 -309.46228055611391 0 0 0 0 -8.7314749568099614 31.4609500939805 0 31.4609500939805 32.211923560862488 0 0 0 0 20.599339856190454 -40.712229588458285 0 -40.712229588458285 86.388611207501526 0 0 0 0 40.446410465890494 31.012768755233992 0 31.012768755233992 15.777958804152149 0 0 0 0 43.781111784980141 3.9928109299693233 0 3.9928109299693233 -49.569008516231406 0 0 0 0 -53.736011346119028 -41.83289376918114 0 -41.83289376918114 -1.4073198702280934 0 0 0 0 -52.268820865918315 26.928102095696886 0 26.928102095696886 87.518681160632696 0 0 0 0 1.1902890221327684 1.0078840816693457 0 1.0078840816693457 6.0640405177811374 0 0 0 0 -64.853271655273147 16.238044288224046 0 16.238044288224046 65.309779462080769 0 0 0 0 6.9731902543626347 15.414603483255632 0 15.414603483255632 46.911212927927409 0 0 0 0 -8.1257154051788802 0.49173382432854851 0 0.49173382432854851 17.063646668028014 0 0 0 0 -1.4250144256216446 -1.1038822585718862 0 -1.1038822585718862 15.869078262447289 0 0 0 0 -19.700181594750575 -2.4225497193729097 0 -2.4225497193729097 27.701980905434539 0 0 0 0 -3.7099705215443208 -1.3381114423579206 0 -1.3381114423579206 16.994397142179302 0 0 0 0 -0.84921536269737663 2.8679060779268255 0 2.8679060779268255 27.406163417016558 0 0 0 0 -76.416926698146199 -16.04261989448969 0 -16.04261989448969 38.353846196961968 0 0 0 0 47.918791624991172 -540.65616921936453 0 -540.65616921936453 -13.567819572406734 0 0 0 0 -43.796284618922073 -1.9947705307349679 0 -1.9947705307349679 28.894951298832893 0 0 0 0 -38.278559367614434 -29.754554514980555 0 -29.754554514980555 29.584851647432515 0 0 0 0 -11.956309175786373 -19.521908072903898 0 -19.521908072903898 33.833838238759199 0 0 0 0 -11.856917784687539 -19.265898812456726 0 -19.265898812456726 22.5218121312937 0 0 0 0 6.2657159813625185 -1.2846823510117247 0 -1.2846823510117247 79.573625769753562 0 0 0 0 8.916381219763025 -17.293987295746774 0 -17.293987295746774 25.111848525404639 0 0 0 0 28.984740890236935 -30.327988223927605 0 -30.327988223927605 22.983669675406418 0 0 0 0 6.0100427538302483 -6.1199287782073952 0 -6.1199287782073952 4.6701521231443621 0 0 0 0 -6.7302479774971289 -13.769935055510359 0 -13.769935055510359 6.70303940165104 0 0 0 0 10.598891198170122 -25.115310903243426 0 -25.115310903243426 14.12843502862961 0 0 0 0 -7.2995980065134063 -4.8973418816094636 0 -4.8973418816094636 3.0458835792160244 0 0 0 0 -3.1584230429253282 -3.5537635473254738 0 -3.5537635473254738 -2.108285934733189 0 0 0 0 -6.4231035961665839 -19.501921583132571 0 -19.501921583132571 11.331484042922966 0 0 0 0 -22.217659168135469 -15.441344897099043 0 -15.441344897099043 22.206571177546721 0 0 0 0 -3.1581946612291425 -5.9088361126471654 0 -5.9088361126471654 11.528117372932542 0 0 0 0 -3.2318030498833261 3.3073183194439224 0 3.3073183194439224 8.1954007895511154 0 0 0 0 -1.7887958264311976 4.4639781241272658 0 4.4639781241272658 23.315505191618286 0 0 0 0 0.14154169311655096 -1.7970108492208965 0 -1.7970108492208965 18.747336749662281 0 0 0 0 -2.3942372373562648 8.6988588708409225 0 8.6988588708409225 38.699658665558673 0 0 0 0 0.42722302483718977 -0.18002696828362019 0 -0.18002696828362019 -0.19237400599507737 0 0 0 0 7.4128074742275203 -6.4522672200746456 0 -6.4522672200746456 0.81608005345287893 0 0 0 0 -3.1877000186259465 -7.4376264438869839 0 -7.4376264438869839 0.88424388102430385 0 0 0 0 -5.4248009872772123 -5.5855080320276542 0 -5.5855080320276542 -0.55837103824490697 0 0 0 0 -2.4720492807819028 -15.805001974105835 0 -15.805001974105835 38.928515179861378 0 0 0 0 0.36669086794063332 -7.8195241054363578 0 -7.8195241054363578 16.528942113100129 0 0 0 0 -3.6023534578393992 -6.5122077795531368 0 -6.5122077795531368 28.573881517029804 0 0 0 0 -1.963484177249029 -8.3823374302883167 0 -8.3823374302883167 29.290029413075899 0 0 0 0 -2.8280262224277761 1.9002296361158528 0 1.9002296361158528 9.9910669341216334 0 0 0 0 -0.15946414690530464 -8.2653943627168189 0 -8.2653943627168189 4.8824369938318881 0 0 0 0 -6.1283144695694318 -0.93800199221004732 0 -0.93800199221004732 17.272046802783734 0 0 0 0 -1.2394155373279143 0.45196367743919019 0 0.45196367743919019 11.890871501633285 0 0 0 0 -32.354126165448861 20.217349355913939 0 20.217349355913939 7.0054352304832719 0 0 0 0 -12.429898077746657 13.51075942053285 0 13.51075942053285 -12.816214683705766 0 0 0 0 -6.0254396156697112 -9.5215096602842095 0 -9.5215096602842095 13.033234952281418 0 0 0 0 -0.51178503460019442 -0.54911830608140377 0 -0.54911830608140377 4.5780388171593565 0 0 0 0 -7.9317672477018277 18.949847480774224 0 18.949847480774224 -7.7551472442064551 0 0 0 0 11.721299624200128 1.2792291747646232 0 1.2792291747646232 5.387667849789068 0 0 0 0 -10.122720900216109 35.126342703001683 0 35.126342703001683 3.8429910390586883 0 0 0 0 -9.4858304813365066 -9.9823208286379668 0 -9.9823208286379668 11.78273912507575 0 0 0 0 1.0105525365429457 -0.72452937082061908 0 -0.72452937082061908 10.529369262305408 0 0 0 0 -0.85227059098982938 4.2670574233758085 0 4.2670574233758085 17.67343000675703 0 0 0 0 2.2596815855467867 0.44153205941256601 0 0.44153205941256601 -7.7112212160573108 0 0 0 0 0.2506550894031534 5.3856176322587999 0 5.3856176322587999 9.8512864107633504 0 0 0 0 1.9677160448366564 4.8724049597180255 0 4.8724049597180255 4.780255926915606 0 0 0 0 -1.4614367313336842 0.38497834305292145 0 0.38497834305292145 10.277987592984353 0 0 0 0 1.6230215505092929 14.10069620028662 0 14.10069620028662 -20.204652168940811 0 0 0 0 44.394761862636187 53.473288206831057 0 53.473288206831057 61.392312799212959 0 0 0 0 1.1575922473721434 1.5007629933867248 0 1.5007629933867248 1.2134273109650877 0 0 0 0 -14.187719451962948 2.9167618510282409 0 2.9167618510282409 31.242695257271407 0 0 0 0 -24.174942759311307 -5.3698665002448251 0 -5.3698665002448251 85.858520851354115 0 0 0 0 -29.468471814785516 27.207146095097414 0 27.207146095097414 138.15771435955321 0 0 0 0 6.9960509603770333 7.6098326817773341 0 7.6098326817773341 11.125697298142768 0 0 0 0 7.3497263067965832 -4.9735263273360033 0 -4.9735263273360033 -18.268451633244695 0 0 0 0 1.6256117056107087 -4.6056837563678528 0 -4.6056837563678528 12.094809637783328 0 0 0 0 -37.366857038334274 11.8890782206945 0 11.8890782206945 22.135159876357648 0 0 0 0 13.217979140555599 35.47703996819655 0 35.47703996819655 31.490481071654358 0 0 0 0 0.70818684794994624 17.862126544674538 0 17.862126544674538 -34.596086634934181 0 0 0 0 -0.14357625324703704 0.68635204738022537 0 0.68635204738022537 2.1977262625694198 0 0 0 0 0.10304586435275809 0.80498021660070407 0 0.80498021660070407 1.9284889205309952 0 0 0 0 1.0820191550933487 6.144799377909294 0 6.144799377909294 -34.972368111004471 0 0 0 0 -27.769512644565111 16.860782497868058 0 16.860782497868058 6.6763785257207928 0 0 0 0 8.6512632105495868 14.161258079799154 0 14.161258079799154 -5.2551124883320881 0 0 0 0 -10.953089838367305 31.13649783290748 0 31.13649783290748 -19.894140460299695 0 0 0 0 16.503442517296207 -7.3520246641492122 0 -7.3520246641492122 7.9599333284189697 0 0 0 0 8.5171133224630466 6.6472749909371487 0 6.6472749909371487 2.8349779278942151 0 0 0 0 24.103475902349601 7.9149494311932358 0 7.9149494311932358 -6.2492965844940045 0 0 0 0 0.092257755389187679 0.29051563053248941 0 0.29051563053248941 1.31217310252255 0 0 0 0 31.343390089476202 -2.4352145791324347 0 -2.4352145791324347 7.7393570374515548 0 0 0 0 41.137570985933053 38.14830296062064 0 38.14830296062064 49.926196052263549 0 0 0 0 0.46176234878566902 -6.557127359254082 0 -6.557127359254082 107.68848917780929 0 0 0 0 0.26421158817105805 -0.70989427375907432 0 -0.70989427375907432 -0.26602180529226871 0 0 0 0 6.8203045467662378 -2.4148640537741812 0 -2.4148640537741812 6.2719001397344982 0 0 0 0 3.402537190587168 -24.429421675615686 0 -24.429421675615686 5.7586480643876712 0 0 0 0 -17.288421262525844 -18.677127329869109 0 -18.677127329869109 7.5737662213396106 0 0 0 0 -0.1346200736281169 -1.3963691869360373 0 -1.3963691869360373 9.83250241597149 0 0 0 0 -1.4443033161333005 15.0327573410068 0 15.0327573410068 32.815483710139233 0 0 0 0 1.7618876681144684 -0.67533246911261813 0 -0.67533246911261813 20.212979117117357 0 0 0 0 1.3167333201645306 4.0482210986956488 0 4.0482210986956488 13.665440121915708 0 0 0 0 -0.43249049758996261 -3.6172331829717219 0 -3.6172331829717219 15.874188212704624 0 0 0 0 9.1811272969116544 1.3349875730236818 0 1.3349875730236818 12.227871349658017 0 0 0 0 3.4200641113766324 9.0714637286801008 0 9.0714637286801008 2.3785818476462737 0 0 0 0 1.8892040608625393 6.0691816265934904 0 6.0691816265934904 13.457916542858584 0 0 0 0 -13.810543684131517 18.318526798529092 0 18.318526798529092 3.9094341000600252 0 0 0 0 -15.619759611441964 4.3453006521408497 0 4.3453006521408497 19.245563865813892 0 0 0 0 -5.5683747451221279 -1.8265994291941752 0 -1.8265994291941752 22.620519873223202 0 0 0 0 -0.88294417714678275 1.2994465722877067 0 1.2994465722877067 16.227740416581582 0 0 0 0 -6.0599903056217954 4.9750502690658323 0 4.9750502690658323 15.897457391005446 0 0 0 0 1.0309482246329935 4.239362193222405 0 4.239362193222405 22.900068124952668 0 0 0 0 1.901734212462884 1.3965022173724719 0 1.3965022173724719 17.282811541765113 0 0 0 0 2.6356022938989554 -2.3804205786636885 0 -2.3804205786636885 17.706528143109608 0 0 0 0 -1.1035256721880344 0.18354571845707213 0 0.18354571845707213 16.280984838365228 0 0 0 0 -2.5917532082257821 -1.2511240514832025 0 -1.2511240514832025 18.493297355507821 0 0 0 0 -0.43800005445336865 0.83564638874668162 0 0.83564638874668162 17.737329083676741 0 0 0 0 -0.90789893094760998 -0.82992715677394813 0 -0.82992715677394813 17.077821315433539 0 0 0 0 0.79487410389272384 2.0760789697499007 0 2.0760789697499007 8.8817436201709761 0 0 0 0 -4.316875767500278 8.2681601103213325 0 8.2681601103213325 57.007848514642774 0 0 0 0 -3.571025319303974 12.830813610856538 0 12.830813610856538 24.312813769267194 0 0 0 0 -2.4199634194146711 1.7418974225784041 0 1.7418974225784041 46.875609729886492 0 0 0 0 -1.1515522510869687 9.8638764899110356 0 9.8638764899110356 32.680229931705981 0 0 0 0 -2.2610904377788756 -0.80470433887967374 0 -0.80470433887967374 29.093769518756744 0 0 0 0 -0.81175748269015457 10.432123275892081 0 10.432123275892081 43.875128311417939 0 0 0 0 -8.5856634043466329 2.3694844943420321 0 2.3694844943420321 55.118265698620235 0 0 0 0 -2.8625283554827092 3.1035681925022018 0 3.1035681925022018 7.8811618212665797 0 0 0 0 -9.9319046350174176 6.4666953017404012 0 6.4666953017404012 55.81724376876582 0 0 0 0 -2.6295145826319803 -2.8390057066804042 0 -2.8390057066804042 34.934922273404069 0 0 0 0 -0.7395422446863904 7.5124479132764463 0 7.5124479132764463 67.605779805046041 0 0 0 0 15.934167524678287 16.097899512746153 0 16.097899512746153 42.141210120829783 0 0 0 0 -7.5907252002713399 -3.0518609992746857 0 -3.0518609992746857 32.953344343317042 0 0 0 0 -2.0171117471746811 -1.8366281683356647 0 -1.8366281683356647 25.9661788619851 0 0 0 0 -2.5294653995933913 3.4231477584326058 0 3.4231477584326058 54.194217966796714 0 0 0 0 0.1484366825824992 1.2066336438841674 0 1.2066336438841674 8.0801929787899489 0 0 0 0 -7.5727712270735701 -4.7638649895839578 0 -4.7638649895839578 9.19886321974273 0 0 0 0 -4.3335558840367412 14.108429392599646 0 14.108429392599646 72.707970456945986 0 0 0 0 -16.627747123552012 -0.092073846055882314 0 -0.092073846055882314 20.515770121230162 0 0 0 0 -15.043334729276921 15.527171957568498 0 15.527171957568498 75.69190832866957 0 0 0 0 -2.4826840317309156 2.0573772463131732 0 2.0573772463131732 9.5310594118945478 0 0 0 0 6.9342795314820478 15.56436668757442 0 15.56436668757442 36.557102545855741 0 0 0 0 -13.132654337896383 -18.946325111544866 0 -18.946325111544866 -3.6088715628284262 0 0 0 0 -25.826557233167478 2.1929850535234436 0 2.1929850535234436 40.71655315393491 0 0 0 0 0.72357616175479045 -0.93156186501506255 0 -0.93156186501506255 0.99837867849883111 0 0 0 0 -54.109613055928094 -105.73218263465606 0 -105.73218263465606 -66.446791863956605 0 0 0 0 -12.854890881162419 1.2339390085453488 0 1.2339390085453488 -29.127779312433631 0 0 0 0 -48.734612848819324 -31.150385638178705 0 -31.150385638178705 63.480493838938855 0 0 0 0 -2.5436809430143255 18.67107225954814 0 18.67107225954814 39.127521257308231 0 0 0 0 33.227470574171093 24.401842653674976 0 24.401842653674976 32.958144015534344 0 0 0 0 -26.079942115084577 4.0472207573689047 0 4.0472207573689047 51.490964167845959 0 0 0 0 2.5837036948560126 -0.61254758786708408 0 -0.61254758786708408 33.276113380539755 0 0 0 0 -14.91174279218194 7.5393065881535222 0 7.5393065881535222 32.084820378117001 0 0 0 0 -8.3112283497721258 8.3672281444812953 0 8.3672281444812953 26.722677792458001 0 0 0 0 -3.9810441375718097 4.8319673459735712 0 4.8319673459735712 37.22007098678985 0 0 0 0 -0.1452075018811616 2.911104407752056 0 2.911104407752056 9.5302139776120498 0 0 0 0 -2.6091540410743619 -9.0850752226360783 0 -9.0850752226360783 48.674168802780059 0 0 0 0 3.1111103507828375 -5.8241483363763109 0 -5.8241483363763109 44.739214971094043 0 0 0 0 -26.149019537664572 4.282592945099168 0 4.282592945099168 47.749140744019542 0 0 0 0 -6.7560750305669899 -23.713682641438936 0 -23.713682641438936 75.39279383147732 0 0 0 0 -23.748644417747983 -26.452493322980445 0 -26.452493322980445 1.9359035783851368 0 0 0 0 -51.795475659315343 -2.4347385705405031 0 -2.4347385705405031 2.8913315119607432 0 0 0 0 18.57208531062588 26.018463253160007 0 26.018463253160007 -3.9927647550211987 0 0 0 0 5.2538749286275186 -4.8010344617403149 0 -4.8010344617403149 13.993831555374832 0 0 0 0 16.552546821970282 -28.029714225387579 0 -28.029714225387579 45.871846501824621 0 0 0 0 3.4432750369277301 -10.060391099210847 0 -10.060391099210847 29.983016331440012 0 0 0 0 43.055329021681189 -61.119070432041781 0 -61.119070432041781 74.476407351779926 0 0 0 0 4.4558726989002935 -22.872931540143327 0 -22.872931540143327 121.42382065106358 0 0 0 0 -1.7505880064861641 -4.5348488080734199 0 -4.5348488080734199 11.277489675238812 0 0 0 0 -0.71165531982485053 -0.7714044246163283 0 -0.7714044246163283 6.0840430578501028 0 0 0 0 -0.67889613086424561 -9.4321469684796284 0 -9.4321469684796284 18.308853631115198 0 0 0 0 -77.868939026719545 -9.2965152653296173 0 -9.2965152653296173 95.056489717941076 0 0 0 0 1.8748528847147554 -22.067952575772097 0 -22.067952575772097 80.809110117241289 0 0 0 0 48.025000386371175 -11.771726361635956 0 -11.771726361635956 -9.4370986196322519 0 0 0 0 13.167284648508712 10.208211350188321 0 10.208211350188321 33.444169319038338 0 0 0 0 -11.088466039411742 20.041328384371809 0 20.041328384371809 86.908097095264566 0 0 0 0 7.2649430304252292 3.9368102313110285 0 3.9368102313110285 58.426801034427626 0 0 0 0 -3.9787924892997495 -6.9446464553790861 0 -6.9446464553790861 2.2835499069728549 0 0 0 0 -28.922619125621168 -2.172590184101864 0 -2.172590184101864 76.697380078027436 0 0 0 0 -1.8057876862610076 0.14787499308614116 0 0.14787499308614116 -0.51508243386930896 0 0 0 0 2.777071686096491 -12.495599432291556 0 -12.495599432291556 23.379755120509799 0 0 0 0 14.978924350690704 -24.409686716468059 0 -24.409686716468059 4.0815344093389285 0 0 0 0 -31.042875684701585 -25.212242109315412 0 -25.212242109315412 27.200870707063586 0 0 0 0 -0.61966028982481447 0.25580428080458972 0 0.25580428080458972 0.071268755539147577 0 0 0 0 -26.450588101815441 -12.109861224178871 0 -12.109861224178871 0.56525650221374235 0 0 0 0 1.9832124959365887 -2.9957390268012247 0 -2.9957390268012247 3.1685185762091663 0 0 0 0 -27.535117091038956 -63.734563334233826 0 -63.734563334233826 -40.056020260682089 0 0 0 0 -52.743580263125523 -10.681812117743902 0 -10.681812117743902 10.928518272485235 0 0 0 0 -18.497985847887151 -27.848019190825198 0 -27.848019190825198 19.386033763694286 0 0 0 0 25.647789699747136 76.928682258590925 0 76.928682258590925 158.63621693294044 0 0 0 0 -7.0462459341079011 20.32871838905703 0 20.32871838905703 137.36980058358404 0 0 0 0 -9.5449815163324274 16.013170475907827 0 16.013170475907827 108.55455017280838 0 0 0 0 25.508885618234302 26.855497432420666 0 26.855497432420666 91.668645033350913 0 0 0 0 3.0575856799291614 6.4190763239821536 0 6.4190763239821536 70.112439871281822 0 0 0 0 11.931830710634131 40.868551332794596 0 40.868551332794596 112.34567475843141 0 0 0 0 4.4963267125105402 -4.8070730039219285 0 -4.8070730039219285 3.1457265123068154 0 0 0 0 20.736349006082037 23.577438775115297 0 23.577438775115297 73.924212655554584 0 0 0 0 11.959552591423744 14.414437173560145 0 14.414437173560145 70.661599965340429 0 0 0 0 -10.444324771035099 -1.611854477218003 0 -1.611854477218003 79.547526016752272 0 0 0 0 3.5462165776534675 21.651016009865998 0 21.651016009865998 86.348121691913548 0 0 0 0 -5.5943044490999227 -9.2752717991991176 0 -9.2752717991991176 37.943567452832212 0 0 0 0 -9.4601105946343864 2.6390354997549821 0 2.6390354997549821 71.752924423552031 0 0 0 0 -14.646972690520485 -20.231693021297275 0 -20.231693021297275 35.000174485405296 0 0 0 0 -13.971164983255676 -6.4155866223381963 0 -6.4155866223381963 38.388718694128329 0 0 0 0 -23.050501344033364 -16.52101014476284 0 -16.52101014476284 35.892201506523634 0 0 0 0 -17.024464086297485 -8.4466791860777448 0 -8.4466791860777448 51.146764240780612 0 0 0 0 -12.668354853152778 -7.0474636423291486 0 -7.0474636423291486 29.95512143905944 0 0 0 0 -30.141805146275146 10.688896219508024 0 10.688896219508024 25.091944170304942 0 0 0 0 -13.008661351836054 0.9762375857258121 0 0.9762375857258121 20.522843635815661 0 0 0 0 -15.162468666952009 -7.0208976478461409 0 -7.0208976478461409 30.3011752424718 0 0 0 0 -13.990474480226794 -3.9914514369074823 0 -3.9914514369074823 34.307993113558041 0 0 0 0 -12.599865345234321 -11.993074287842319 0 -11.993074287842319 38.236180351284929 0 0 0 0 -5.9170517871993979 -3.0200066006109409 0 -3.0200066006109409 26.921907381081837 0 0 0 0 -18.262614901571851 -1.5976562309933797 0 -1.5976562309933797 47.721402287112141 0 0 0 0 2.2793720306954128 0.44891175113116333 0 0.44891175113116333 47.783317151963615 0 0 0 0 -8.3482003091230581 -13.642042349094481 0 -13.642042349094481 52.874043818134851 0 0 0 0 20.671570678776789 16.083165563954935 0 16.083165563954935 75.25946385898169 0 0 0 0 -15.904185641095864 12.980515042688239 0 12.980515042688239 77.386224260906602 0 0 0 0 -49.415800782441693 -7.6858422852892545 0 -7.6858422852892545 94.423640166585756 0 0 0 0 73.297875461296599 64.699628852725255 0 64.699628852725255 110.99623466250341 0 0 0 0 -9.8977666450774944 13.835369643494815 0 13.835369643494815 28.623312905063642 0 0 0 0 -30.800958068922228 46.066779468352252 0 46.066779468352252 6.4378191380128555 0 0 0 0 -21.595408242168105 -4.3975384514451434 0 -4.3975384514451434 60.06049902495397 0 0 0 0 13.727978774125404 24.564523779041338 0 24.564523779041338 -0.80648855057734181 0 0 0 0 0.58469451260246252 -5.5594555568347062 0 -5.5594555568347062 12.880687714254279 0 0 0 0 -47.058112718683788 7.8411569484642314 0 7.8411569484642314 28.92747005396086 0 0 0 0 -21.685681209005224 40.601280778330874 0 40.601280778330874 -30.635519427087274 0 0 0 0 -1.7870739442511607 -0.86345214847217733 0 -0.86345214847217733 7.8947033262547111 0 0 0 0 24.834816218996423 -13.249763232801342 0 -13.249763232801342 36.863193701072305 0 0 0 0 3.9104507323013991 -5.5177963607584388 0 -5.5177963607584388 64.051352179041714 0 0 0 0 -8.1385515386468796 27.051411203245607 0 27.051411203245607 52.762110139690776 0 0 0 0 -14.952270829977351 -30.461547993585555 0 -30.461547993585555 112.04322317231345 0 0 0 0 34.91398754888678 -14.572702227496848 0 -14.572702227496848 117.08264003623299 0 0 0 0 -11.798625958192133 -77.54119160485061 0 -77.54119160485061 74.179725033398427 0 0 0 0 -6.6670866129677036 2.6312112361620521 0 2.6312112361620521 9.1545011047623461 0 0 0 0 -9.9046697696558113 -1.5314221981989249 0 -1.5314221981989249 41.146853265270238 0 0 0 0 -15.553735108496245 12.596081223848458 0 12.596081223848458 30.79827467424434 0 0 0 0 -16.314411684122881 16.598072665592213 0 16.598072665592213 29.473793392739026 0 0 0 0 -16.185124955390165 10.325603052453516 0 10.325603052453516 38.956828868424054 0 0 0 0 -9.3475942040648476 4.8996620282337062 0 4.8996620282337062 28.25754465006321 0 0 0 0 -14.284643390529999 7.5573952517498633 0 7.5573952517498633 19.628659321646097 0 0 0 0 -21.435128640229777 9.5386748197270208 0 9.5386748197270208 30.827636524569243 0 0 0 0 -9.1394041766957059 -3.0991746316562327 0 -3.0991746316562327 10.712537308296312 0 0 0 0 -15.835530338641547 7.7389250883570639 0 7.7389250883570639 30.32885529674968 0 0 0 0 -15.507790415344516 -5.2482975008133508 0 -5.2482975008133508 34.853011643273931 0 0 0 0 -23.765083134218912 16.280437972392974 0 16.280437972392974 20.655510683776811 0 0 0 0 -19.147197209044535 5.4766361226163589 0 5.4766361226163589 26.407280062694483 0 0 0 0 -14.467306796903586 -2.0770575109454512 0 -2.0770575109454512 23.126711206852633 0 0 0 0 -23.784858828839788 14.560775005418691 0 14.560775005418691 9.2653204095113324 0 0 0 0 -46.759447342400108 8.931723729134319 0 8.931723729134319 42.551490711013003 0 0 0 0 -23.663521143633716 14.265227046264044 0 14.265227046264044 22.675642108573811 0 0 0 0 -20.217088332787171 3.7865133763807535 0 3.7865133763807535 32.0566182213297 0 0 0 0 -19.422850892591669 6.4458201580637251 0 6.4458201580637251 11.565765378632932 0 0 0 0 -30.014156192477458 3.3101921299821697 0 3.3101921299821697 23.444850799765845 0 0 0 0 -31.65853250762666 -1.3259499284467893 0 -1.3259499284467893 18.450252900307532 0 0 0 0 -134.36415832480634 8.2077120623107476 0 8.2077120623107476 113.26093220035 0 0 0 0 -107.36226270785664 -173.82206584866071 0 -173.82206584866071 199.81971123182302 0 0 0 0 11.319251874082511 -33.017397415427695 0 -33.017397415427695 52.211600884627842 0 0 0 0 9.7761677765438435 -23.640578876314976 0 -23.640578876314976 6.238778660474054 0 0 0 0 -6.6080568467127705 -1.6236029638748732 0 -1.6236029638748732 39.777947625152592 0 0 0 0 -101.78437020156935 116.59449300239066 0 116.59449300239066 191.23484218341036 0 0 0 0 165.64818772515162 143.79169560744413 0 143.79169560744413 89.059895336293266 0 0 0 0 140.86874752685708 -98.12185822151514 0 -98.12185822151514 48.083813799865311 0 0 0 0 1.8267953873589988 -3.1540832674542383 0 -3.1540832674542383 0.76580573961975063 0 0 0 0 -27.633605757575879 16.718592306388018 0 16.718592306388018 102.60366742262522 0 0 0 0 -83.129188194206563 -31.869068334115582 0 -31.869068334115582 82.21863268242123 0 0 0 0 7.6723827444919266 50.18218739260692 0 50.18218739260692 35.874093081452884 0 0 0 0 -0.090301340688483833 32.30745424962879 0 32.30745424962879 40.958341189190833 0 0 0 0 77.933771621901542 65.754678016906837 0 65.754678016906837 137.61518962791888 0 0 0 0 -4.6815944174943667 17.152843911749372 0 17.152843911749372 32.455164556377568 0 0 0 0 -0.15084827099087761 97.53963021754862 0 97.53963021754862 134.37455705745379 0 0 0 0 -11.788443628935966 140.74293272860086 0 140.74293272860086 254.21773889566248 0 0 0 0 -173.45213337199675 -254.81641783032683 0 -254.81641783032683 131.29803328379785 0 0 0 0 4.7388701313403772 -3.9634353799629025 0 -3.9634353799629025 55.028167147691875 0 0 0 0 -26.385650854543655 6.2939427714954945 0 6.2939427714954945 53.587676472731346 0 0 0 0 -19.597661848233656 -6.9642234989278222 0 -6.9642234989278222 132.51761971745145 0 0 0 0 -9.842221661025178 -32.230268480269842 0 -32.230268480269842 110.75179639875569 0 0 0 0 7.0566967609254334 4.2918633552890242 0 4.2918633552890242 134.61449395588397 0 0 0 0 25.843817474499019 -14.538697216312357 0 -14.538697216312357 118.89230105650131 0 0 0 0 17.196284239601937 -41.311778969395164 0 -41.311778969395164 134.17299008040027 0 0 0 0 -23.550786487041137 -30.235492183090173 0 -30.235492183090173 195.01376733012876 0 0 0 0 1.3343676259801382 1.6063676419678572 0 1.6063676419678572 -0.58614420849669813 0 0 0 0 -26.29536248649606 -27.186258147232365 0 -27.186258147232365 40.144711283781362 0 0 0 0 15.299375766864159 -20.491634384523422 0 -20.491634384523422 73.033677641120448 0 0 0 0 -0.72996385102851491 -7.5572577622624522 0 -7.5572577622624522 111.55412105369578 0 0 0 0 -1.4176053281470331 -16.925386113810532 0 -16.925386113810532 117.31318414170528 0 0 0 0 -10.976662078264781 -4.1612821097496635 0 -4.1612821097496635 102.54457548245409 0 0 0 0 3.0814181164193926 1.6938317878631963 0 1.6938317878631963 0.46680728406453831 0 0 0 0 404.39278994728011 -8.8154685297195101 0 -8.8154685297195101 20.861593513956905 0 0 0 0 -38.190845568334225 6.2793591665176791 0 6.2793591665176791 141.51243352264464 0 0 0 0 -35.956093533201965 34.126890125056889 0 34.126890125056889 94.891414744179201 0 0 0 0 41.161378924380074 33.999406369653116 0 33.999406369653116 44.529627803403855 0 0 0 0 6.3702650226223341 8.0193943798167311 0 8.0193943798167311 108.61932566156065 0 0 0 0 10.817056367957775 -11.568896693603165 0 -11.568896693603165 110.34308967895049 0 0 0 0 32.316568007799106 -49.930707042283757 0 -49.930707042283757 125.21366298149587 0 0 0 0 29.898400604150083 9.0635500596545171 0 9.0635500596545171 85.424261774705883 0 0 0 0 -8.0501068592411684 -12.769205961436455 0 -12.769205961436455 81.460603540766897 0 0 0 0 -55.19799732571505 38.122680630233845 0 38.122680630233845 85.319825521070015 0 0 0 0 19.892300588629951 -5.2641324937885656 0 -5.2641324937885656 64.364762805084865 0 0 0 0 -38.136664009925539 30.924789966889875 0 30.924789966889875 45.016964878561339 0 0 0 0 -16.208469983438135 17.168740672133936 0 17.168740672133936 25.706943265759037 0 0 0 0 -31.554343012822244 54.616758818216567 0 54.616758818216567 5.6081738235297962 0 0 0 0 -1.3410537473618565 1.9778742655559398 0 1.9778742655559398 0.65778761002267139 0 0 0 0 -13.778442894274008 -11.719734412006801 0 -11.719734412006801 15.674859093276609 0 0 0 0 -24.604867201274203 -18.835551517456452 0 -18.835551517456452 26.089855882382835 0 0 0 0 -100.96311278334332 -71.181801041108201 0 -71.181801041108201 -24.141358634944481 0 0 0 0 13.556652044653987 -10.925990002952155 0 -10.925990002952155 7.853551848078645 0 0 0 0 40.616246901613067 -237.03799101532422 0 -237.03799101532422 -248.62418717284913 0 0 0 0 219.17724509236359 -9.6983090047542646 0 -9.6983090047542646 -226.21669434386888 0 0 0 0 -135.46691641828033 39.629247229567682 0 39.629247229567682 33.360855261456891 0 0 0 0 95.867802654911429 -32.047395012104971 0 -32.047395012104971 30.242997014076536 0 0 0 0 -15.135549269174902 -3.8068228290676984 0 -3.8068228290676984 77.433843990733294 0 0 0 0 88.712958330641868 -80.732449232354156 0 -80.732449232354156 97.979182092552946 0 0 0 0 190.39868220415337 -111.26648821625349 0 -111.26648821625349 -205.54421118584287 0 0 0 0 19.520913750499858 57.383040701963182 0 57.383040701963182 -102.31841184716541 0 0 0 0 168.49845744421498 -221.18464348590146 0 -221.18464348590146 47.411228419143299 0 0 0 0 57.678341508819358 -77.01792212451619 0 -77.01792212451619 136.12497897163121 0 0 0 0 26.708775217084622 -111.53291752707628 0 -111.53291752707628 451.41360397079916 0 0 0 0 26.352470164129954 -45.123584966579074 0 -45.123584966579074 128.09223094141862 0 0 0 0 71.376938715018696 -78.257061179247103 0 -78.257061179247103 91.377641544062499 0 0 0 0 73.158966329947361 -88.660271480282972 0 -88.660271480282972 112.8414173428464 0 0 0 0 -5.056837706599083 -95.961572125655948 0 -95.961572125655948 -113.04197470739018 0 0 0 0 7.078822233112037 -4.7486191024505899 0 -4.7486191024505899 3.0027542016682816 0 0 0 0 10.579424369980643 -8.2641882005864318 0 -8.2641882005864318 -107.23175496448835 0 0 0 0 -28.876617864656509 -78.235401488789648 0 -78.235401488789648 -12.15826506448002 0 0 0 0 31.995753731628611 17.250731624280888 0 17.250731624280888 -3.4244443923657855 0 0 0 0 36.294439716997658 -80.545972098103448 0 -80.545972098103448 -173.26469520429964 0 0 0 0 -36.86444772313007 -11.572461296687834 0 -11.572461296687834 -108.19713300922376 0 0 0 0 44.401575566110296 -22.630828102399391 0 -22.630828102399391 -232.70112698888624 0 0 0 0 -0.67039645557767003 2.102533224771868 0 2.102533224771868 2.1079600179589555 0 0 0 0 85.678608630580129 -157.91419820449482 0 -157.91419820449482 291.63872628434547 0 0 0 0 2.0106253528070006 0.039487185579922368 0 0.039487185579922368 -0.6094404780244389 0 0 0 0 -423.28938220986856 -194.90427136651124 0 -194.90427136651124 411.2197638555881 0 0 0 0 678.01360322488654 -127.41077894196496 0 -127.41077894196496 64.740845712665759 0 0 0 0 66.639568018998034 155.35755911788874 0 155.35755911788874 116.51156301153242 0 0 0 0 13.424252651704592 110.59996344753745 0 110.59996344753745 417.46489980987462 0 0 0 0 -100.49087725250092 -75.035981165950034 0 -75.035981165950034 263.98826988477231 0 0 0 0 -52.090722439566434 -33.924585181503062 0 -33.924585181503062 268.08503807390662 0 0 0 0 20.410612404587425 -17.032589393135652 0 -17.032589393135652 263.60398732328031 0 0 0 0 -16.888215649790027 0.1932463216708129 0 0.1932463216708129 248.20856428136904 0 0 0 0 -2.0820580915647326 3.0736974728961357 0 3.0736974728961357 1.8257298785474205 0 0 0 0 -2.1590166846990542 -13.210126461615801 0 -13.210126461615801 19.847076328330786 0 0 0 0 -2.5151494193942701 2.5977530897099044 0 2.5977530897099044 0.78717258813391666 0 0 0 0 -8.1063930926006833 -45.028814379415053 0 -45.028814379415053 210.4529401092841 0 0 0 0 -24.968545423934529 -8.317156893950596 0 -8.317156893950596 50.85193676650988 0 0 0 0 -14.473512493090652 -27.331771266337455 0 -27.331771266337455 -1.1711831273059943 0 0 0 0 10.056711591633757 -0.095301918821860454 0 -0.095301918821860454 9.9610793065730832 0 0 0 0 -71.34940936341502 -49.641325041458003 0 -49.641325041458003 -32.941725481774483 0 0 0 0 65.821407881206142 -43.581700958517104 0 -43.581700958517104 -73.444476809394473 0 0 0 0 11.258445201539024 -8.3041814957454534 0 -8.3041814957454534 5.6705071549545991 0 0 0 0 8.3643321304298297 -116.04276673167988 0 -116.04276673167988 -191.91556331510583 0 0 0 0 -67.486509923592166 44.368424521602719 0 44.368424521602719 -88.601485031595075 0 0 0 0 73.162344050417687 5.9967557584986935 0 5.9967557584986935 -88.562106800303809 0 0 0 0 -132.10288828489956 -80.18022511691197 0 -80.18022511691197 -17.719258722834638 0 0 0 0 13.715137840998068 42.274274522598716 0 42.274274522598716 -2.7866568351018941 0 0 0 0 -25.753788346319652 -104.71290086577756 0 -104.71290086577756 -22.659751780889565 0 0 0 0 24.649889050433103 43.200218230372229 0 43.200218230372229 9.846108107152304 0 0 0 0 2.9478093180387503 1.2396803317260243 0 1.2396803317260243 -1.6184716291762697 0 0 0 0 -11.568682823743188 55.073147025192156 0 55.073147025192156 82.101561522995326 0 0 0 0 9.928426015174848 -2.3645597441005748 0 -2.3645597441005748 1.2337916443138681 0 0 0 0 10.757747704171109 -0.78851913581695854 0 -0.78851913581695854 -1.1041778296634241 0 0 0 0 2.0821581303074908 24.642836758184785 0 24.642836758184785 1.8270609710216377 0 0 0 0 13.828677874092136 52.584852844246143 0 52.584852844246143 3.5676800180335704 0 0 0 0 7.9636560652124073 -3.6195918465293886 0 -3.6195918465293886 3.9574914118921001 0 0 0 0 40.103429558396783 4.4520255023853679 0 4.4520255023853679 6.2541094574698946 0 0 0 0 -2.886007423533556 -59.13208206184936 0 -59.13208206184936 -0.61143168059061281 0 0 0 0 20.870115012323822 2.3612118802684563 0 2.3612118802684563 22.104459005113313 0 0 0 0 3.2430818964036234 9.282292984617925 0 9.282292984617925 27.665985820369315 0 0 0 0 7.4934295725482603 -4.7318362578676201 0 -4.7318362578676201 4.9384575053652533 0 0 0 0 -21.227700697586442 25.584452711329504 0 25.584452711329504 45.445406774750154 0 0 0 0 5.8833529676548473 -4.7032539886200624 0 -4.7032539886200624 3.2522589037527041 0 0 0 0 45.177265963201535 -3.8478075358807473 0 -3.8478075358807473 -21.431767477401081 0 0 0 0 2.1220377342707537 -2.6119139115294612 0 -2.6119139115294612 2.9394093025925727 0 0 0 0 25.994285924848782 4.791929497891033 0 4.791929497891033 3.8432135942966852 0 0 0 0 76.397274222192806 72.467300955773453 0 72.467300955773453 104.39826895966326 0 0 0 0 -22.756302186733251 5.7772719716867869 0 5.7772719716867869 10.05903221321023 0 0 0 0 75.237130714862005 65.275585913086616 0 65.275585913086616 60.145064293103133 0 0 0 0 52.667144779287014 59.756693960489429 0 59.756693960489429 93.418265749241982 0 0 0 0 64.764262421246713 49.105069046574499 0 49.105069046574499 42.470984383278847 0 0 0 0 47.541015158179789 60.383728471284485 0 60.383728471284485 66.785609352145912 0 0 0 0 55.037093521210409 54.002332695030418 0 54.002332695030418 68.205285731071854 0 0 0 0 49.676015394925344 61.730661768877326 0 61.730661768877326 65.40527731610382 0 0 0 0 43.208631415154287 61.97096040614997 0 61.97096040614997 66.916032016173631 0 0 0 0 48.002530060769914 67.334097333582577 0 67.334097333582577 64.89346195122198 0 0 0 0 48.73375498615178 60.034595853405335 0 60.034595853405335 60.476597894026781 0 0 0 0 30.234231878283026 53.161816584994085 0 53.161816584994085 60.023664405423915 0 0 0 0 36.385694996971324 64.492960099820266 0 64.492960099820266 78.785994446829136 0 0 0 0 33.779558185081214 70.537044870925456 0 70.537044870925456 64.869906701256696 0 0 0 0 2.4731344392148458 47.852350985322119 0 47.852350985322119 100.33308639570896 0 0 0 0 31.806780968345834 33.176950770704025 0 33.176950770704025 43.457293285871856 0 0 0 0 43.055971444730858 38.175192630287711 0 38.175192630287711 48.505505276706572 0 0 0 0 4.5332746533823798 -2.2818994668508026 0 -2.2818994668508026 5.387638599798855 0 0 0 0 43.430544113911765 46.153324276237981 0 46.153324276237981 57.898043060919008 0 0 0 0 7.7220433315817694 0.8490609880590867 0 0.8490609880590867 -0.1471144095968171 0 0 0 0 -25.620488473643263 54.6041051166128 0 54.6041051166128 36.602368957934232 0 0 0 0 -137.5806756156112 41.412490731839625 0 41.412490731839625 54.847825071768057 0 0 0 0 5.180326681509996 7.9217348418860638 0 7.9217348418860638 14.886399072784116 0 0 0 0 61.848116953382942 56.075908946651907 0 56.075908946651907 43.891714664358915 0 0 0 0 60.665383978137925 120.18431503541979 0 120.18431503541979 153.63085771199258 0 0 0 0 148.11771143106625 73.078257876000862 0 73.078257876000862 11.297240494237485 0 0 0 0 66.892615794462017 -16.301968404716717 0 -16.301968404716717 -29.646010610053054 0 0 0 0 54.987819204499829 50.518407975351693 0 50.518407975351693 30.690147363092365 0 0 0 0 86.062961641106824 19.039737368710348 0 19.039737368710348 44.718227592470612 0 0 0 0 68.861905778692744 32.088944323550095 0 32.088944323550095 55.041387672963538 0 0 0 0 68.477239017408408 29.665914715292274 0 29.665914715292274 46.98441334396648 0 0 0 0 83.672591599392263 36.610671364456209 0 36.610671364456209 26.603636775867926 0 0 0 0 44.239140353819039 26.753441940348239 0 26.753441940348239 48.066345112473755 0 0 0 0 25.474551376815725 201.88310184315014 0 201.88310184315014 70.083142949804824 0 0 0 0 4.4972109599831391 29.148885291099806 0 29.148885291099806 52.698797827346873 0 0 0 0 -30.562525529339041 3.6070104085420098 0 3.6070104085420098 -39.197051613664371 0 0 0 0 5.3164574465789496 4.3280080868887296 0 4.3280080868887296 -8.0925130309274422 0 0 0 0 13.209513076727035 10.436300047562327 0 10.436300047562327 119.62303328646476 0 0 0 0 131.5513230995075 127.78842209738832 0 127.78842209738832 45.467870921231224 0 0 0 0 9.9391271457789117 50.729237753732377 0 50.729237753732377 14.648426996412127 0 0 0 0 11.017999351889511 37.805068330358544 0 37.805068330358544 3.9803892244772312 0 0 0 0 3.2170537126800696 1.447191387620669 0 1.447191387620669 11.036801225047469 0 0 0 0 49.870483208205769 -8.7267012863021591 0 -8.7267012863021591 69.626782242481681 0 0 0 0 1.4177580269862986 3.3977469381250227 0 3.3977469381250227 11.829283087097961 0 0 0 0 14.331218098591535 53.523464543227192 0 53.523464543227192 173.23414339880946 0 0 0 0 126.82146641278268 80.277257474356702 0 80.277257474356702 79.574245330362828 0 0 0 0 22.656644287771996 34.710728542880133 0 34.710728542880133 193.92871764008487 0 0 0 0 -60.357036558476466 66.810756841139664 0 66.810756841139664 153.17834008614227 0 0 0 0 11.56607897938505 4.5569631172720353 0 4.5569631172720353 -13.572696123037041 0 0 0 0 40.606778335661375 90.435706961922733 0 90.435706961922733 92.510156321934119 0 0 0 0 78.050334048511104 59.050747391379446 0 59.050747391379446 48.845283200244012 0 0 0 0 -4.1484138259002066 20.555779231774977 0 20.555779231774977 169.20144213609422 0 0 0 0 9.1068644873648736 14.396281743249347 0 14.396281743249347 23.778083445231459 0 0 0 0 7.5970710777568122 7.0905538442278697 0 7.0905538442278697 17.817966450271193 0 0 0 0 3.2727480061180163 -2.0428918017167987 0 -2.0428918017167987 29.044412826607747 0 0 0 0 -57.391417297356384 -38.267641707374423 0 -38.267641707374423 112.73915060852596 0 0 0 0 6.2244076397364552 -0.51452551946567837 0 -0.51452551946567837 19.250501891867316 0 0 0 0 8.0441473335295051 -11.906325581113251 0 -11.906325581113251 17.152783325835337 0 0 0 0 5.8405473557291305 -1.0540242697683055 0 -1.0540242697683055 6.0063122591391078 0 0 0 0 -28.78836942146836 4.2217108054037453 0 4.2217108054037453 46.942439197613567 0 0 0 0 6.7982729828688662 4.2847744578207312 0 4.2847744578207312 20.806210146423837 0 0 0 0 6.5585793599763562 4.2218013939652792 0 4.2218013939652792 11.765891773823142 0 0 0 0 9.2815701826127484 2.9863356906548724 0 2.9863356906548724 5.9237227183732983 0 0 0 0 1.7557824449140753 7.8858070925125503 0 7.8858070925125503 35.194387217472467 0 0 0 0 29.004219844290219 22.34999157994389 0 22.34999157994389 12.489013843260182 0 0 0 0 6.4568851273106702 12.289119628925619 0 12.289119628925619 23.036815869003476 0 0 0 0 5.6932241698814323 5.5256654854965745 0 5.5256654854965745 6.5357511642578174 0 0 0 0 9.1406582772611689 5.9591802400938683 0 5.9591802400938683 7.0466348581585443 0 0 0 0 15.735785752151969 -5.1435809776849055 0 -5.1435809776849055 34.309061713636765 0 0 0 0 34.874289255836629 -4.5110916932098917 0 -4.5110916932098917 3.39166117331024 0 0 0 0 8.9469601248374566 10.519673583928924 0 10.519673583928924 3.8771123073372777 0 0 0 0 14.584086347819721 11.712641345071461 0 11.712641345071461 83.454514560600728 0 0 0 0 7.0118036204585223 16.321844330363092 0 16.321844330363092 10.039245242132893 0 0 0 0 7.1341063581112394 20.924169204248756 0 20.924169204248756 10.544271699431192 0 0 0 0 10.014645011367699 29.520733257766103 0 29.520733257766103 28.392153371156745 0 0 0 0 9.5114101646294955 79.470416210862055 0 79.470416210862055 88.919523989970912 0 0 0 0 -6.7691386582839641 2.4974070737465013 0 2.4974070737465013 26.715653442961901 0 0 0 0 7.0470853120805259 20.845426647221757 0 20.845426647221757 14.574082277034904 0 0 0 0 -0.60981271718835295 12.977113465681597 0 12.977113465681597 19.247669663753754 0 0 0 0 2.8506201914115081 14.851331236233818 0 14.851331236233818 36.655123676595394 0 0 0 0 1.9130128414008141 15.613701757622039 0 15.613701757622039 37.276334051994127 0 0 0 0 -7.9235536326077636 9.3714405518094281 0 9.3714405518094281 44.295453511458618 0 0 0 0 -7.8534206619135798 5.7744576971835553 0 5.7744576971835553 34.156419595213208 0 0 0 0 -8.2158070223422328 6.2147632347032413 0 6.2147632347032413 44.138877028039133 0 0 0 0 -82.699231033420801 10.49562852615054 0 10.49562852615054 61.010193738417911 0 0 0 0 -2.4683303428992076 12.049812782032859 0 12.049812782032859 31.160020269609504 0 0 0 0 -5.6615126175373192 4.4984159959170169 0 4.4984159959170169 32.541481716145199 0 0 0 0 -6.5915426317998733 3.4075432514314805 0 3.4075432514314805 41.082287250280828 0 0 0 0 -3.0918844955526588 10.363505032262491 0 10.363505032262491 35.542292631399903 0 0 0 0 -13.052692991972064 1.1538534939571559 0 1.1538534939571559 19.251560032275698 0 0 0 0 8.4637477451497034 12.302988483791978 0 12.302988483791978 44.922545985192471 0 0 0 0 -13.839140873524684 2.2723001204212778 0 2.2723001204212778 37.394801608869784 0 0 0 0 -3.7825411279825403 7.5570410066884506 0 7.5570410066884506 41.022275247976722 0 0 0 0 -14.479813784611451 2.3352598480378219 0 2.3352598480378219 37.451215905541176 0 0 0 0 -9.5815413127001303 -1.1818372529297463 0 -1.1818372529297463 24.85676506244063 0 0 0 0 50.453559186586062 -106.42016834019159 0 -106.42016834019159 8.6290072987903841 0 0 0 0 -14.34269541988624 2.9426361286023166 0 2.9426361286023166 37.289385315121763 0 0 0 0 -17.597161379907 4.5258539592343325 0 4.5258539592343325 28.979468877610913 0 0 0 0 -13.792422148583228 2.8316526834605611 0 2.8316526834605611 37.276577312411746 0 0 0 0 -6.606694581011177 3.7253527201515997 0 3.7253527201515997 25.12502700246776 0 0 0 0 -4.7161386712793103 0.18367947759702474 0 0.18367947759702474 33.123657471880506 0 0 0 0 -7.1903586576997869 7.7529535895239228 0 7.7529535895239228 28.701603501863779 0 0 0 0 -5.0714313087921141 -0.56062802940687106 0 -0.56062802940687106 47.243417736885021 0 0 0 0 -12.265526864567164 1.8917898636500468 0 1.8917898636500468 45.704883457228561 0 0 0 0 -11.084606067505547 0.13720897132475329 0 0.13720897132475329 42.062933584233178 0 0 0 0 -11.709695899123574 0.62648939485529809 0 0.62648939485529809 26.944898201532851 0 0 0 0 -12.666980215160152 7.8615640532211728 0 7.8615640532211728 29.986779583119642 0 0 0 0 -11.372835384742302 6.2127918978421803 0 6.2127918978421803 36.547619190672776 0 0 0 0 12.861230531470937 31.310537715589817 0 31.310537715589817 86.953038956467935 0 0 0 0 -5.3045100047088356 1.6337686532837967 0 1.6337686532837967 22.47222385416331 0 0 0 0 -13.34114172905544 -3.9673370263056533 0 -3.9673370263056533 26.752489393197234 0 0 0 0 5.6073280187341084 18.093914359287055 0 18.093914359287055 37.656001042098524 0 0 0 0 -10.788748358966131 2.9003296298260466 0 2.9003296298260466 40.29474437817953 0 0 0 0 35.688084183410638 70.686173433886893 0 70.686173433886893 92.738868972188357 0 0 0 0 35.139908811810528 35.069398755178554 0 35.069398755178554 42.693292246376359 0 0 0 0 -0.34366631024879979 -2.1697936847765451 0 -2.1697936847765451 2.2446544877604406 0 0 0 0 -3.1142936398151662 -3.4457072094198309 0 -3.4457072094198309 23.143813188394095 0 0 0 0 45.387454184743547 -4.6748517908126814 0 -4.6748517908126814 46.63469338302275 0 0 0 0 -25.385273181167577 7.6631856991998575 0 7.6631856991998575 109.6994418861359 0 0 0 0 -17.936006424100604 -3.8797831359967225 0 -3.8797831359967225 24.115287277729699 0 0 0 0 -12.160637936145577 -7.9765719619681477 0 -7.9765719619681477 35.8376291558925 0 0 0 0 14.779427540745019 5.6387499030797699 0 5.6387499030797699 29.978223767044256 0 0 0 0 -14.190661737020603 -5.3602456188197278 0 -5.3602456188197278 35.409476115272994 0 0 0 0 -9.1190867298159901 28.566862413028048 0 28.566862413028048 102.54114529634262 0 0 0 0 -2.2843895084165524 85.577270190640775 0 85.577270190640775 21.861965104551473 0 0 0 0 -11.75582345960629 2.8724701075643679 0 2.8724701075643679 44.680519732659377 0 0 0 0 -10.204071595851474 4.9898418021184625 0 4.9898418021184625 42.246443079976416 0 0 0 0 -9.2671681311978773 12.050701311537523 0 12.050701311537523 57.955700208636699 0 0 0 0 -14.950206036945019 -0.86589763710526313 0 -0.86589763710526313 51.348171765771212 0 0 0 0 -12.988376686037782 3.4212423082208261 0 3.4212423082208261 50.289988503725908 0 0 0 0 -15.587241453261868 -2.6669609251102884 0 -2.6669609251102884 51.483515409997949 0 0 0 0 -14.137842866781739 -6.3346763961726538 0 -6.3346763961726538 52.347450256064803 0 0 0 0 -15.046188712773528 -0.099636730444217392 0 -0.099636730444217392 62.073439710635057 0 0 0 0 1.0444658747269591 3.8842866069644852 0 3.8842866069644852 12.071522127934879 0 0 0 0 -12.514441828503664 -9.2680356924344096 0 -9.2680356924344096 37.376367148764984 0 0 0 0 -6.3370791976603869 1.6185662825728286 0 1.6185662825728286 45.20483462617176 0 0 0 0 -8.6337092383705567 -1.1632679312442633 0 -1.1632679312442633 54.0185560050395 0 0 0 0 -15.627320032315311 -2.2571359214693985 0 -2.2571359214693985 54.527826207667204 0 0 0 0 -15.837213289509371 -6.0574347181499135 0 -6.0574347181499135 58.667616650700438 0 0 0 0 -13.297214628542974 -3.2534808832408544 0 -3.2534808832408544 49.550184147763503 0 0 0 0 -8.5744293756077621 -10.359618594515357 0 -10.359618594515357 37.017941122150269 0 0 0 0 -14.477064542654418 -5.5909451828472356 0 -5.5909451828472356 48.718083022117753 0 0 0 0 -6.3819009432099847 3.9111250221794762 0 3.9111250221794762 59.529918787071438 0 0 0 0 -14.312813590171572 -10.925695303288194 0 -10.925695303288194 54.595038932046464 0 0 0 0 -10.58882186210478 -9.6043486488397818 0 -9.6043486488397818 37.787951535435667 0 0 0 0 -2.9541815479850584 0.70685448604035628 0 0.70685448604035628 45.847325574433171 0 0 0 0 -3.3409979614764893 6.3612285923718446 0 6.3612285923718446 48.22266088532831 0 0 0 0 -10.455390406334715 -3.160931420517727 0 -3.160931420517727 49.695990143061863 0 0 0 0 -26.894419758612599 17.709538204431151 0 17.709538204431151 40.335998367177396 0 0 0 0 5.7697394195895413 -44.142099406684792 0 -44.142099406684792 74.243619549906725 0 0 0 0 -17.445352876349716 33.504103532708541 0 33.504103532708541 -14.436479764071919 0 0 0 0 -36.994636809409712 59.872195632457078 0 59.872195632457078 -6.7134897751529934 0 0 0 0 15.636863589721543 -9.0507494096323171 0 -9.0507494096323171 69.625782995077316 0 0 0 0 -35.159528086259343 -7.7795480512540962 0 -7.7795480512540962 73.757930757310532 0 0 0 0 -12.846086201349408 -37.328470930674484 0 -37.328470930674484 75.06761390970496 0 0 0 0 -1.4067730208962637 0.97184213679138765 0 0.97184213679138765 11.102292558843992 0 0 0 0 -32.752445648358844 77.22148448309963 0 77.22148448309963 65.094438685901196 0 0 0 0 6.913133505966929 -7.4505366089891325 0 -7.4505366089891325 16.259487919254006 0 0 0 0 -23.159001462068773 74.333446842638295 0 74.333446842638295 196.03928906531155 0 0 0 0 -0.76181648398666368 13.569904495875736 0 13.569904495875736 54.001005529459817 0 0 0 0 11.464718087831898 16.955155361754805 0 16.955155361754805 90.003225376722185 0 0 0 0 -12.541319994931257 -7.5525266332226693 0 -7.5525266332226693 63.251331240995569 0 0 0 0 -4.5520928274390826 18.798466935576471 0 18.798466935576471 80.634306191497515 0 0 0 0 -5.0625127514734061 -0.81806328463038369 0 -0.81806328463038369 27.250720293419999 0 0 0 0 -5.8780665863364447 7.0927678561058656 0 7.0927678561058656 80.600992483985465 0 0 0 0 2.0936565543861434 7.9197721395321423 0 7.9197721395321423 72.398968013848844 0 0 0 0 -9.7772896907758877 -9.1325932174459687 0 -9.1325932174459687 52.001354799547542 0 0 0 0 20.121362873167527 13.688300201379207 0 13.688300201379207 50.077563271899635 0 0 0 0 -8.6962538055157097 -4.7790718329033979 0 -4.7790718329033979 58.62496323860978 0 0 0 0 -11.25084472717338 -3.4813408491580864 0 -3.4813408491580864 11.47933720998266 0 0 0 0 33.470550987658498 -15.034635996978068 0 -15.034635996978068 88.869555024102738 0 0 0 0 -8.5407812667988257 -7.1639641924980761 0 -7.1639641924980761 32.889570789557617 0 0 0 0 -5.8920727964559774 3.937072218333924 0 3.937072218333924 56.976502411274964 0 0 0 0 3.626869461043043 20.656595638325143 0 20.656595638325143 70.43948878952142 0 0 0 0 -1.1086075764907681 -2.4299039122047663 0 -2.4299039122047663 18.857297008206615 0 0 0 0 -11.374775006142954 131.68671777248164 0 131.68671777248164 47.932813350369543 0 0 0 0 30.173233045873531 10.509600857792975 0 10.509600857792975 170.75937358189913 0 0 0 0 -38.158584353265724 -6.0653030853691234 0 -6.0653030853691234 -1.7764265818495915 0 0 0 0 45.996072909966188 25.289995685783651 0 25.289995685783651 -1.4309005892619808 0 0 0 0 -22.421861374290522 4.9277908462979099 0 4.9277908462979099 20.557464978894735 0 0 0 0 -34.095609549422036 -9.856502680216181 0 -9.856502680216181 133.65284162395437 0 0 0 0 -29.659611100472148 29.690633413069918 0 29.690633413069918 101.12843855443134 0 0 0 0 -38.101264031930896 -29.316180364437969 0 -29.316180364437969 110.05524814627461 0 0 0 0 -1.0245967019768898 -0.91514697484989682 0 -0.91514697484989682 1.886265273694228 0 0 0 0 -35.994161524105493 -19.723119133392174 0 -19.723119133392174 112.54630441170684 0 0 0 0 -36.312260254656849 3.0751231778558576 0 3.0751231778558576 64.288162999197993 0 0 0 0 59.441588065312317 102.84637461711918 0 102.84637461711918 100.7450666862095 0 0 0 0 3.2849103412127079 65.509441602425568 0 65.509441602425568 80.01346401673436 0 0 0 0 -16.592526447791897 39.089267233122428 0 39.089267233122428 82.837133417200221 0 0 0 0 -44.957807593007146 46.114708493472335 0 46.114708493472335 116.29741326100702 0 0 0 0 -75.457441346312407 22.232168309174995 0 22.232168309174995 119.54089396101972 0 0 0 0 -61.957420244803416 32.209802668520069 0 32.209802668520069 205.97472838338035 0 0 0 0 -68.199496589822616 11.155268809402969 0 11.155268809402969 135.08623164474284 0 0 0 0 -23.972952658655686 -20.89549835552225 0 -20.89549835552225 28.247487113070747 0 0 0 0 -15.013479778238775 -73.816201275581989 0 -73.816201275581989 143.18368282760093 0 0 0 0 6.5950549958920419 62.50165270507182 0 62.50165270507182 5.0110032450602375 0 0 0 0 -19.670562480615445 72.657841319760792 0 72.657841319760792 147.7870034583907 0 0 0 0 -76.624109115600731 2.260399779529962 0 2.260399779529962 68.481442319242433 0 0 0 0 -27.189711078214145 51.254332057443662 0 51.254332057443662 95.460413042032997 0 0 0 0 -85.335666360482662 -43.735641564200023 0 -43.735641564200023 31.509124198254085 0 0 0 0 -4.0996445571945088 5.3300301726885664 0 5.3300301726885664 44.469142505138961 0 0 0 0 -4.5553600909161673 6.9331281026084355 0 6.9331281026084355 48.988408008433453 0 0 0 0 -15.659231241487305 50.834101301611099 0 50.834101301611099 135.94638101744795 0 0 0 0 -20.912404555343073 71.796162601571268 0 71.796162601571268 73.092250105090898 0 0 0 0 -87.233972587192966 45.044233781847197 0 45.044233781847197 116.44447695572035 0 0 0 0 -59.336025357837116 30.556486128204597 0 30.556486128204597 91.125887367175892 0 0 0 0 -176.89593008444626 10.199595886972929 0 10.199595886972929 88.266420488460199 0 0 0 0 -139.16054693719479 107.11595690164995 0 107.11595690164995 62.606491363936811 0 0 0 0 15.195014117520714 44.546865088810137 0 44.546865088810137 50.470410091076701 0 0 0 0 54.942372352766597 -92.595288392381462 0 -92.595288392381462 61.851986950786966 0 0 0 0 22.865288952432621 86.011791338916794 0 86.011791338916794 -80.231013393183275 0 0 0 0 56.902288731786484 -65.92471277581285 0 -65.92471277581285 -69.824138764979864 0 0 0 0 -134.17219868162874 6.8217255115725663 0 6.8217255115725663 124.58990622016108 0 0 0 0 -0.079829549267689259 19.811783983331189 0 19.811783983331189 53.018436152279634 0 0 0 0 -6.9592692215555978 -0.55947156146955468 0 -0.55947156146955468 -0.30672205236307482 0 0 0 0 -17.631542566686946 23.611746281398382 0 23.611746281398382 14.476927333773801 0 0 0 0 -13.651968815661462 16.78498024142732 0 16.78498024142732 -1.4510153230688445 0 0 0 0 -2.5048159538201658 -0.7384389779096745 0 -0.7384389779096745 0.096871082458084734 0 0 0 0 -28.098514847476736 64.072078860641568 0 64.072078860641568 -104.99877138986358 0 0 0 0 -112.47428558265779 98.0494115852768 0 98.0494115852768 25.192422536717459 0 0 0 0 -42.019786457429177 22.8171170582591 0 22.8171170582591 15.085857550245237 0 0 0 0 -64.336421282419792 4.9147141416751765 0 4.9147141416751765 78.617242954851463 0 0 0 0 -75.352181558509074 26.952868666961649 0 26.952868666961649 53.263136286579993 0 0 0 0 -75.319688629122538 24.888790249174235 0 24.888790249174235 82.648987905452032 0 0 0 0 -33.016648496136895 34.255578609368058 0 34.255578609368058 70.829811453878392 0 0 0 0 -15.964836475309198 26.13912486280401 0 26.13912486280401 44.669657406920123 0 0 0 0 -85.59583409713899 30.537523215202917 0 30.537523215202917 75.127628147647101 0 0 0 0 -6.5202156950320722 8.8477362701853046 0 8.8477362701853046 41.783840067653131 0 0 0 0 -100.69904226188328 7.228192515529372 0 7.228192515529372 84.138100579454544 0 0 0 0 -69.889883314329609 -0.85577325051417574 0 -0.85577325051417574 56.10578326256109 0 0 0 0 -87.577420197513433 8.9569198844269948 0 8.9569198844269948 62.590559445425242 0 0 0 0 -180.06943035531532 58.973669093197401 0 58.973669093197401 67.364707711720257 0 0 0 0 -172.84781094139953 93.294131320887971 0 93.294131320887971 21.804108921882417 0 0 0 0 -116.67154742828768 -10.82320271006256 0 -10.82320271006256 82.314886491642937 0 0 0 0 -148.47134541904825 47.46430450841558 0 47.46430450841558 56.243494413748039 0 0 0 0 -5.5734116732416705 7.9701349309503486 0 7.9701349309503486 9.1823545314864372 0 0 0 0 5.1482060831183043 2.8637575756396196 0 2.8637575756396196 13.10253381990978 0 0 0 0 -171.98926786918491 16.27482765659181 0 16.27482765659181 15.157811129227412 0 0 0 0 5.8593599729711308 -33.444710340889664 0 -33.444710340889664 11.555080533837099 0 0 0 0 7.224124926042073 -13.463847757334415 0 -13.463847757334415 28.879278035812135 0 0 0 0 7.3409092695456248 -1.8654186722557924 0 -1.8654186722557924 -8.6033776211565964 0 0 0 0 29.152913941281398 -54.414211648307173 0 -54.414211648307173 28.996602741592596 0 0 0 0 36.600933169013615 -16.839440570600345 0 -16.839440570600345 -8.4835175385096164 0 0 0 0 -95.514499255353599 11.497639406095033 0 11.497639406095033 -35.875371169162463 0 0 0 0 -59.240900000863803 -24.614607891052401 0 -24.614607891052401 67.637335652339516 0 0 0 0 -41.257929245139167 -13.074475860808889 0 -13.074475860808889 52.242847212775359 0 0 0 0 -40.168228310274571 -10.503860135183459 0 -10.503860135183459 50.282279903060953 0 0 0 0 -42.007987730105015 -25.884845367059825 0 -25.884845367059825 24.698816235873892 0 0 0 0 -51.197906629063255 -12.14312258460086 0 -12.14312258460086 57.557498042935549 0 0 0 0 -38.941154101423308 -11.39632779888052 0 -11.39632779888052 50.406592503755746 0 0 0 0 -36.211417260380586 1.3737199605384376 0 1.3737199605384376 68.638986472702527 0 0 0 0 -41.930025619806202 -1.9205849226555074 0 -1.9205849226555074 74.593583393483641 0 0 0 0 -47.147180886020578 0.38115647782888118 0 0.38115647782888118 76.114537772271433 0 0 0 0 -46.043150545406434 13.552178090212465 0 13.552178090212465 85.614455671911855 0 0 0 0 -46.060753644771466 10.841588681824305 0 10.841588681824305 61.841296924558264 0 0 0 0 -24.027507523489476 -4.3835324036799648 0 -4.3835324036799648 53.492953250333812 0 0 0 0 -29.253264153520831 13.828121419121999 0 13.828121419121999 55.397844479397008 0 0 0 0 -5.985090960738944 -63.555501261948166 0 -63.555501261948166 100.45005487577509 0 0 0 0 -4.6320807490595852 15.271175432180009 0 15.271175432180009 45.954480506640316 0 0 0 0 -51.014300771546687 19.725213641474056 0 19.725213641474056 68.032410927933597 0 0 0 0 -53.346981551039505 42.821999226652679 0 42.821999226652679 49.471358318343846 0 0 0 0 -3.8206659627808222 30.16676006151738 0 30.16676006151738 32.669144319625957 0 0 0 0 -6.6088320429557825 29.771382434159023 0 29.771382434159023 62.555194964515522 0 0 0 0 30.606990040400888 47.666303075542601 0 47.666303075542601 69.468871781729831 0 0 0 0 4.0401012726132421 16.476741096747901 0 16.476741096747901 80.539413228658304 0 0 0 0 -23.259996075206345 17.609299654530332 0 17.609299654530332 62.979948414841601 0 0 0 0 -16.914586724452647 31.878154299303333 0 31.878154299303333 93.764943781792681 0 0 0 0 66.675074593072964 41.463692124938461 0 41.463692124938461 88.244913103037106 0 0 0 0 45.778426829371483 54.659425432882472 0 54.659425432882472 99.410823369438731 0 0 0 0 32.678401632749001 39.197392379618577 0 39.197392379618577 82.521912540589256 0 0 0 0 27.279222096217609 41.039766514846633 0 41.039766514846633 106.3030130675852 0 0 0 0 46.697056872235862 25.557803715073533 0 25.557803715073533 98.981205431494558 0 0 0 0 56.615052203056578 50.631226511265595 0 50.631226511265595 143.59748706701794 0 0 0 0 61.099323768509592 -9.1791416956075409 0 -9.1791416956075409 143.79903575946628 0 0 0 0 49.646311178786618 -9.2904930247705124 0 -9.2904930247705124 152.06509394084924 0 0 0 0 18.257291062515378 2.5130642334133881 0 2.5130642334133881 108.82035409329779 0 0 0 0 42.836489124552259 17.358186324246503 0 17.358186324246503 114.00413725193903 0 0 0 0 32.48909388208358 -21.62178515222422 0 -21.62178515222422 125.61109967096286 0 0 0 0 53.805082904097617 -8.4512519550435172 0 -8.4512519550435172 123.000059790862 0 0 0 0 85.070705903007308 -53.010256221424243 0 -53.010256221424243 160.94075500734471 0 0 0 0 105.35518048416199 -57.379504747153078 0 -57.379504747153078 137.2267124548689 0 0 0 0 -15.375859996540385 2.2423095703734361 0 2.2423095703734361 87.07701551747482 0 0 0 0 -32.123764629326843 14.469914766351849 0 14.469914766351849 93.829589111164751 0 0 0 0 -3.6462185740633686 23.107723957334656 0 23.107723957334656 113.26944093651764 0 0 0 0 -11.478967754894938 11.97105499852546 0 11.97105499852546 96.752339785147342 0 0 0 0 30.377166494610265 -5.4303523407352259 0 -5.4303523407352259 88.210810878189477 0 0 0 0 -37.248840815206677 -19.987736755077094 0 -19.987736755077094 86.8976275043633 0 0 0 0 -45.456390051305789 -8.4278692467432847 0 -8.4278692467432847 70.964376835225266 0 0 0 0 -76.869467263379192 -47.702124565572831 0 -47.702124565572831 64.467181620797419 0 0 0 0 -42.257112908408999 -8.9324691136048386 0 -8.9324691136048386 63.874947121556033 0 0 0 0 -26.821631661671745 -32.858147560004909 0 -32.858147560004909 100.93034369772795 0 0 0 0 61.754101074774553 -8.7195449565851959 0 -8.7195449565851959 69.721066418907867 0 0 0 0 11.409659026288637 -51.550679266891166 0 -51.550679266891166 109.04912679011795 0 0 0 0 -22.125019631564101 1.4318262600995695 0 1.4318262600995695 28.169382509122443 0 0 0 0 139.36177705360751 -94.424981937827397 0 -94.424981937827397 42.157086180392071 0 0 0 0 36.204805723597019 -56.584845691392729 0 -56.584845691392729 65.696210167841855 0 0 0 0 6.9525052701683308 -111.89988182801608 0 -111.89988182801608 13.523431837103317 0 0 0 0 -69.424399409508396 -70.418909385722372 0 -70.418909385722372 34.766798960539745 0 0 0 0 -132.14819295121106 -34.1535659779056 0 -34.1535659779056 14.396000698124226 0 0 0 0 -40.005856159063569 -7.2235873099311902 0 -7.2235873099311902 -153.46717313777845 0 0 0 0 128.68286195791927 -75.149115382649143 0 -75.149115382649143 142.35212179897462 0 0 0 0 101.68278582628228 -75.023857501612611 0 -75.023857501612611 153.17270009105232 0 0 0 0 135.07797370966659 -108.54907436723988 0 -108.54907436723988 171.94802154197259 0 0 0 0 82.303296631014973 -64.86576132875507 0 -64.86576132875507 133.53900343890382 0 0 0 0 111.98957263483732 -46.139563811599487 0 -46.139563811599487 104.71062390569932 0 0 0 0 118.33839057237992 -123.49457429474478 0 -123.49457429474478 207.87965773481665 0 0 0 0 134.17111345751539 -57.653654708371505 0 -57.653654708371505 120.78706671250438 0 0 0 0 151.62004414765318 -133.65485081526913 0 -133.65485081526913 156.96367133376225 0 0 0 0 142.32583324306671 -101.93288885825859 0 -101.93288885825859 226.3626780191189 0 0 0 0 148.74722286610091 -147.10026361644486 0 -147.10026361644486 252.51916908032399 0 0 0 0 127.56903470504307 -122.34858701351777 0 -122.34858701351777 223.00109212739699 0 0 0 0 141.70791652315165 -95.043232566982624 0 -95.043232566982624 186.84028136245433 0 0 0 0 165.97923616660705 -25.800764865762176 0 -25.800764865762176 458.77257978959278 0 0 0 0 133.41581283439632 54.733079115150758 0 54.733079115150758 623.53043525166686 0 0 0 0 115.11927530534922 -107.42239830188373 0 -107.42239830188373 394.06038723553138 0 0 0 0 100.47245396524045 -49.563268629710365 0 -49.563268629710365 487.90645360679628 0 0 0 0 104.29786961190621 -80.544384713561158 0 -80.544384713561158 366.00952362439784 0 0 0 0 120.69143028252307 -132.03669228595868 0 -132.03669228595868 301.56393695567021 0 0 0 0 126.91231920169587 -102.39932985262317 0 -102.39932985262317 345.14697021279062 0 0 0 0 90.303013006314245 -136.69849121139669 0 -136.69849121139669 395.09044409544003 0 0 0 0 90.215133687318001 -111.70119569300927 0 -111.70119569300927 539.51137634344559 0 0 0 0 11.65216171092527 -64.476072008217216 0 -64.476072008217216 707.49878583893405 0 0 0 0 109.89954376980093 -57.634505266573115 0 -57.634505266573115 499.49390527972719 0 0 0 0 57.4392065484044 -82.572309704642976 0 -82.572309704642976 516.5190715360568 0 0 0 0 -45.325695967451566 -160.91857032363077 0 -160.91857032363077 581.96853314945429 0 0 0 0 140.42011295675343 -215.22887003857977 0 -215.22887003857977 356.997747928428 0 0 0 0 136.89102056884357 -177.86133903877163 0 -177.86133903877163 179.09368448640816 0 0 0 0 87.500615707126826 -412.52977987910936 0 -412.52977987910936 584.0528772651578 0 0 0 0 -45.230742196432502 -140.83549512941369 0 -140.83549512941369 862.72972422345083 0 0 0 0 6.4454073797904954 2.7375646833197607 0 2.7375646833197607 649.42955777242241 0 0 0 0 2.6244863335950868 -0.35373609614543966 0 -0.35373609614543966 -120.12333143005867 0 0 0 0 -3.7711135375820017 -6.8641612580605678 0 -6.8641612580605678 -2.6728000411243076 0 0 0 0 -5.5567144210806418 43.813439898349316 0 43.813439898349316 757.06063776080919 0 0 0 0 -11.320555807950768 -69.328039910938969 0 -69.328039910938969 -131.3977534827518 0 0 0 0 -30.346636171124374 -391.17897484871355 0 -391.17897484871355 768.58798992704396 0 0 0 0 -0.50681626511777722 -10.89705244358629 0 -10.89705244358629 740.96800576328224 0 0 0 0 -31.78171053523613 -35.130654519223867 0 -35.130654519223867 -111.57878293775775 0 0 0 0 214.6159902820541 401.22971018130193 0 401.22971018130193 202.59198157503579 0 0 0 0 60.029615302165439 -31.150363990240294 0 -31.150363990240294 527.96108602279674 0 0 0 0 -1.6003794869869599 1.9510187597292283 0 1.9510187597292283 3.2339931225157983 0 0 0 0 8.1194149121737382 75.642137820326525 0 75.642137820326525 690.03901944218524 0 0 0 0 -77.10798174135698 33.444994115295231 0 33.444994115295231 1282.1013827624956 0 0 0 0 118.82407307073959 -277.7868436373351 0 -277.7868436373351 -301.87093191233771 0 0 0 0 4.1970592074316633 -2.774903736294938 0 -2.774903736294938 1.9512432110145266 0 0 0 0 112.88970104685495 -380.410482766526 0 -380.410482766526 30.747178925779053 0 0 0 0 2.2553235173526027 -3.7606931020823176 0 -3.7606931020823176 -3.0252517718257401 0 0 0 0 114.84179849474617 -410.2507023136809 0 -410.2507023136809 933.53012547475191 0 0 0 0 284.55852697398836 -96.514173973405832 0 -96.514173973405832 274.43741658345425 0 0 0 0 48.434812583293933 -66.318532311140643 0 -66.318532311140643 565.34566629415349 0 0 0 0 320.69053073584598 -468.69692571984729 0 -468.69692571984729 449.28854690153639 0 0 0 0 -27.102898178055511 -207.89072778587843 0 -207.89072778587843 623.930745544822 0 0 0 0 74.044205978702621 -136.02992613915058 0 -136.02992613915058 444.265457130458 0 0 0 0 86.500949279847077 -29.664512241702596 0 -29.664512241702596 434.56702464923092 0 0 0 0 45.439243746793068 -51.637685723124378 0 -51.637685723124378 453.30840487573255 0 0 0 0 35.165705674015044 -90.142403637093594 0 -90.142403637093594 360.69760235970125 0 0 0 0 22.271385817059127 28.344585114495658 0 28.344585114495658 409.37874894950801 0 0 0 0 46.629949968940764 127.93381042675355 0 127.93381042675355 362.30469264347926 0 0 0 0 3.0785457888964682 -1.1009007903897379 0 -1.1009007903897379 -0.97255283409948134 0 0 0 0 18.532485980150781 25.049180174893536 0 25.049180174893536 290.86324503966262 0 0 0 0 9.57357490923863 13.006835309612143 0 13.006835309612143 279.83960850903986 0 0 0 0 81.249874842244282 -77.254967570445615 0 -77.254967570445615 387.0478193919248 0 0 0 0 79.682293904088766 21.636055428887175 0 21.636055428887175 259.65920781549335 0 0 0 0 81.592795606050387 -1.7055338242421385 0 -1.7055338242421385 294.43573150570137 0 0 0 0 26.632962816250355 57.455524618841991 0 57.455524618841991 264.39234346757758 0 0 0 0 26.90487818929487 68.036370885127099 0 68.036370885127099 249.96338803094795 0 0 0 0 25.000581424446509 67.681053990333339 0 67.681053990333339 258.01424838562525 0 0 0 0 17.702516545959924 36.8356017733513 0 36.8356017733513 284.58614857777752 0 0 0 0 15.408545125053703 82.117355812731958 0 82.117355812731958 197.81416001949128 0 0 0 0 59.450209256370812 10.059528384194437 0 10.059528384194437 89.569459856208823 0 0 0 0 60.793595967855836 -1.2782283318704231 0 -1.2782283318704231 184.85405835294478 0 0 0 0 -0.67104636679164997 -5.0211942638470646 0 -5.0211942638470646 217.79308376100357 0 0 0 0 3.3273459593885453 5.2887966764971441 0 5.2887966764971441 6.2288158489904397 0 0 0 0 63.405572415359188 -36.049235853955963 0 -36.049235853955963 5.282608411075671 0 0 0 0 55.559402140646526 -77.27761438075936 0 -77.27761438075936 70.521318649246041 0 0 0 0 27.261315891996194 54.423867613134405 0 54.423867613134405 28.485170582121555 0 0 0 0 0.51925912774417471 -0.1345073214376562 0 -0.1345073214376562 0.088911996513114211 0 0 0 0 6.7637656684216836 -32.040671479650655 0 -32.040671479650655 123.85303954655001 0 0 0 0 -2.6724433007971129 1.4968985295359971 0 1.4968985295359971 27.986329443981049 0 0 0 0 8.2478864944134784 -12.473626961626426 0 -12.473626961626426 18.27873700421739 0 0 0 0 -54.466611367267433 -50.2770807955294 0 -50.2770807955294 16.827220637264872 0 0 0 0 -14.392768914938131 -20.596063393795532 0 -20.596063393795532 35.445841156786628 0 0 0 0 -54.879814646531486 -56.137159192621766 0 -56.137159192621766 24.566459125872576 0 0 0 0 -49.554625805641081 -53.896493062882655 0 -53.896493062882655 9.7820806763647852 0 0 0 0 -85.02047587024208 -112.37477344424167 0 -112.37477344424167 -62.334708422180483 0 0 0 0 9.9943932603573522 -8.3785299922155616 0 -8.3785299922155616 6.8776911277106887 0 0 0 0 -51.888593698423392 -45.358848018626304 0 -45.358848018626304 3.7459019264156268 0 0 0 0 -0.34570100624744415 -1.3468026628596066 0 -1.3468026628596066 3.578201305668756 0 0 0 0 64.799665046351151 40.708745421783533 0 40.708745421783533 67.826186729362234 0 0 0 0 -73.122383884052397 58.415055168291474 0 58.415055168291474 52.250249963623901 0 0 0 0 -84.611575368013291 35.757733656550954 0 35.757733656550954 125.21127012183115 0 0 0 0 -74.102399527283524 19.062125647377798 0 19.062125647377798 133.82264163806394 0 0 0 0 -36.316162503271698 -0.030850867486151401 0 -0.030850867486151401 108.75990332982838 0 0 0 0 -76.56649709443991 3.3684024294343544 0 3.3684024294343544 82.881386047190972 0 0 0 0 -17.854376905962908 -38.341575937335165 0 -38.341575937335165 136.3172079897704 0 0 0 0 -42.50316142893098 -25.446069065268603 0 -25.446069065268603 220.76643011147462 0 0 0 0 -55.419346147252327 26.943396799948459 0 26.943396799948459 82.18705166268046 0 0 0 0 -10.530512876988389 6.7954571356425895 0 6.7954571356425895 93.120475104354313 0 0 0 0 -68.684010139923998 -24.287747667094663 0 -24.287747667094663 145.11034891315285 0 0 0 0 -137.76238694955646 132.83970210937241 0 132.83970210937241 -10.635874784842599 0 0 0 0 -112.64870187864744 13.156240878259268 0 13.156240878259268 125.81011664128891 0 0 0 0 -384.40378032248373 -872.12323038854493 0 -872.12323038854493 895.66471308185646 0 0 0 0 17.741173035339671 -203.99646275324267 0 -203.99646275324267 -261.80004361682404 0 0 0 0 -288.91410381408059 186.24232225620653 0 186.24232225620653 1128.130188983562 0 0 0 0 9.26351141460691 161.95414912212982 0 161.95414912212982 482.64916040349635 0 0 0 0 6.5512136657060047 -3.2658986760545261 0 -3.2658986760545261 1.7846915287403533 0 0 0 0 -29.984045050413442 -163.14035576295464 0 -163.14035576295464 561.98456550695846 0 0 0 0 108.61168429809754 -162.02861960290329 0 -162.02861960290329 -397.78877918789658 0 0 0 0 4.3645754433093131 3.1213441917590643 0 3.1213441917590643 -1.3362993672480012 0 0 0 0 141.43107931150962 -53.809881506064812 0 -53.809881506064812 -420.22438620018147 0 0 0 0 -453.45523417870754 126.23340194157936 0 126.23340194157936 -108.83424850056963 0 0 0 0 12.119220276479819 -9.9703023575943917 0 -9.9703023575943917 7.2407585269544654 0 0 0 0 125.7797015881988 -577.64964091109505 0 -577.64964091109505 78.865715069663565 0 0 0 0 0.33241986948723934 22.254929248683766 0 22.254929248683766 217.4853146695641 0 0 0 0 40.086082143339809 92.666944825876271 0 92.666944825876271 341.38167308314587 0 0 0 0 -69.949439949545194 -77.464822083477429 0 -77.464822083477429 414.62307849183344 0 0 0 0 -8.7040445530055877 -127.12033251751382 0 -127.12033251751382 161.424190546918 0 0 0 0 -57.869508260430848 -78.877454884130657 0 -78.877454884130657 246.47097044606562 0 0 0 0 38.064317932093218 -16.355044999130769 0 -16.355044999130769 239.29550411388846 0 0 0 0 -68.119846678418156 -18.54568403414828 0 -18.54568403414828 290.03378540211997 0 0 0 0 -68.714008636466133 -39.557091906828646 0 -39.557091906828646 320.37785931770304 0 0 0 0 -111.22963742679349 -247.75845856171145 0 -247.75845856171145 137.5621442075244 0 0 0 0 -52.438157839540509 -115.8008226549864 0 -115.8008226549864 107.54575976652632 0 0 0 0 95.056560926287602 43.59788573206788 0 43.59788573206788 310.90703234390094 0 0 0 0 -77.952283042559088 10.528602742755311 0 10.528602742755311 387.58927358480651 0 0 0 0 -199.95426075132082 -155.97593098112793 0 -155.97593098112793 346.36873164219287 0 0 0 0 57.37780512109839 102.77432154514281 0 102.77432154514281 120.99368059936478 0 0 0 0 3.9908320780713336 -0.086581354019461543 0 -0.086581354019461543 -0.54270328892148711 0 0 0 0 48.379462612287625 -116.9984812006569 0 -116.9984812006569 343.03068514913684 0 0 0 0 49.266440001433693 -55.400987211904066 0 -55.400987211904066 257.84523915455247 0 0 0 0 146.5824573288437 -98.684326176582545 0 -98.684326176582545 276.78604298025857 0 0 0 0 23.100790636485726 -65.732545036704323 0 -65.732545036704323 254.24455462222068 0 0 0 0 47.512344538173238 -55.754361997835986 0 -55.754361997835986 221.01955360923239 0 0 0 0 8.1430604328088521 -50.742270309458945 0 -50.742270309458945 227.04178312722797 0 0 0 0 24.740637711509407 -40.36029274622706 0 -40.36029274622706 172.13584095306032 0 0 0 0 -23.346537267098938 -27.536606970557841 0 -27.536606970557841 238.34763213373571 0 0 0 0 -23.193935621477067 -43.853056163757628 0 -43.853056163757628 174.85684082311127 0 0 0 0 -14.688865025713312 -15.778758309669684 0 -15.778758309669684 141.0185595184048 0 0 0 0 -47.251432859000488 -6.3665791057701426 0 -6.3665791057701426 175.69551255224576 0 0 0 0 -73.371847091699237 12.669232489891328 0 12.669232489891328 141.20989283060544 0 0 0 0 -36.703182734730945 -28.840941792427657 0 -28.840941792427657 139.11988734788429 0 0 0 0 -3.9479743862448231 -12.361658187464855 0 -12.361658187464855 143.29568046092754 0 0 0 0 8.4790833584374923 -47.678146460554672 0 -47.678146460554672 174.707749074807 0 0 0 0 -21.77954362927062 -34.061879466019718 0 -34.061879466019718 182.96137103489309 0 0 0 0 84.655844958675971 -41.826230984333051 0 -41.826230984333051 164.71148869526405 0 0 0 0 36.824032821050423 -40.308890619764497 0 -40.308890619764497 170.35261492205791 0 0 0 0 108.83300651432711 -60.47579922875309 0 -60.47579922875309 164.26357712100071 0 0 0 0 80.402057764997153 -55.318532432438587 0 -55.318532432438587 187.54571680992831 0 0 0 0 160.93051711640169 -20.456556638357142 0 -20.456556638357142 202.52866930505479 0 0 0 0 35.071925768597339 -41.021664118958142 0 -41.021664118958142 237.3022741770601 0 0 0 0 30.931328964300064 -60.684549470187449 0 -60.684549470187449 227.03497578734505 0 0 0 0 24.098646182773336 -64.209216361889048 0 -64.209216361889048 265.85255347139173 0 0 0 0 50.977649409887604 -97.265165685384403 0 -97.265165685384403 281.69008279820264 0 0 0 0 6.9102024656867798 -79.721301661722464 0 -79.721301661722464 310.70408714794212 0 0 0 0 36.624633295746094 -70.670534558067175 0 -70.670534558067175 164.94180650102317 0 0 0 0 47.242733165912796 -66.281701279825938 0 -66.281701279825938 343.30819654754669 0 0 0 0 50.423398731348243 -41.00122935832951 0 -41.00122935832951 162.83634993695887 0 0 0 0 27.551225772300995 -124.34741828781898 0 -124.34741828781898 309.4944428912786 0 0 0 0 58.143189438876789 -5.0657364854159823 0 -5.0657364854159823 329.84310336839189 0 0 0 0 71.01140598709685 36.810178535502928 0 36.810178535502928 419.68804822981292 0 0 0 0 1.6004909385466917 -1.0901581186468281 0 -1.0901581186468281 0.57983441554574711 0 0 0 0 89.069421021794312 -104.63039494490931 0 -104.63039494490931 58.594408911512801 0 0 0 0 -5.6349234630828278 35.49836090926874 0 35.49836090926874 39.666635149465947 0 0 0 0 60.891724006236302 43.50510429900487 0 43.50510429900487 122.11637699772291 0 0 0 0 75.38186993886498 30.756620145961506 0 30.756620145961506 110.89197963972038 0 0 0 0 71.031764849215733 50.625147933859807 0 50.625147933859807 174.92652705945875 0 0 0 0 117.90647956145732 -81.2761931567901 0 -81.2761931567901 173.39091269422534 0 0 0 0 67.213218997651538 -47.267044016513864 0 -47.267044016513864 247.75958814192836 0 0 0 0 151.8364912654888 -84.347393040756288 0 -84.347393040756288 185.68754218030608 0 0 0 0 103.92806526003756 -79.775579891469533 0 -79.775579891469533 174.52265045965032 0 0 0 0 119.16229083451663 -67.481149618368363 0 -67.481149618368363 182.61956062346144 0 0 0 0 104.99069435475957 -75.808320201880633 0 -75.808320201880633 171.12867911457124 0 0 0 0 115.25799173210197 -85.253280312376774 0 -85.253280312376774 157.73396261622656 0 0 0 0 118.29008362823993 -93.922283680479268 0 -93.922283680479268 178.62352414933503 0 0 0 0 118.81268753495414 -98.448143951137354 0 -98.448143951137354 174.36687576507211 0 0 0 0 113.94116565397042 -85.867691048590586 0 -85.867691048590586 172.9414801854582 0 0 0 0 77.00410367285258 -79.659105221991013 0 -79.659105221991013 204.84740223826157 0 0 0 0 95.629060202759092 -81.203044240235613 0 -81.203044240235613 173.53270408230583 0 0 0 0 58.300068745466888 -57.332716514501044 0 -57.332716514501044 203.82532124958789 0 0 0 0 77.779126644416635 -62.734809193007095 0 -62.734809193007095 185.50081263478205 0 0 0 0 57.396797493010794 -39.926335055734455 0 -39.926335055734455 184.50280665842729 0 0 0 0 72.541215654633788 -78.38848580550075 0 -78.38848580550075 232.4110219737031 0 0 0 0 73.234436197988543 -77.620733670194568 0 -77.620733670194568 225.17737630068086 0 0 0 0 108.00940286695447 -102.31951722617896 0 -102.31951722617896 208.67232558187607 0 0 0 0 110.18711169779658 -92.729768912873624 0 -92.729768912873624 252.43492206111841 0 0 0 0 92.098989282403522 -110.16688562701711 0 -110.16688562701711 276.80767946737251 0 0 0 0 77.820852972973171 -83.882409866386297 0 -83.882409866386297 311.17439309451947 0 0 0 0 81.667434783824888 -100.91938789959022 0 -100.91938789959022 385.03397755150218 0 0 0 0 75.917410172119162 -63.025396684576663 0 -63.025396684576663 278.50073291771696 0 0 0 0 34.239302501436896 -50.09310246703626 0 -50.09310246703626 332.59133380854291 0 0 0 0 39.159500294414102 -70.892281646959418 0 -70.892281646959418 386.98219659526512 0 0 0 0 37.145402342473744 0.13449524545831082 0 0.13449524545831082 485.57065738010897 0 0 0 0 34.668446683545881 22.862718262187627 0 22.862718262187627 334.63046170610687 0 0 0 0 104.22166700441937 -63.287907447902626 0 -63.287907447902626 357.15319951390484 0 0 0 0 -9.2047321136744422 -2.9014067491962816 0 -2.9014067491962816 9.1857119956391458 0 0 0 0 74.331205289388663 97.511457247775979 0 97.511457247775979 310.0013845121648 0 0 0 0 25.584277000237762 20.862334671382087 0 20.862334671382087 340.55488335224254 0 0 0 0 40.414179880001029 142.48887906703476 0 142.48887906703476 288.90526519158038 0 0 0 0 52.276712917873283 115.81189283210824 0 115.81189283210824 138.8430327537526 0 0 0 0 9.6938298785453298 71.983453040330915 0 71.983453040330915 189.82340637038396 0 0 0 0 15.42043785611304 52.252253483938148 0 52.252253483938148 242.511238338162 0 0 0 0 13.436845714968854 55.712173198138998 0 55.712173198138998 247.49292277982204 0 0 0 0 9.5367899073526132 22.901177489940892 0 22.901177489940892 218.3983229501282 0 0 0 0 9.1589066619293362 23.992484536770462 0 23.992484536770462 220.46761570796843 0 0 0 0 16.670233163872126 -1.554780356491392 0 -1.554780356491392 302.46267120008361 0 0 0 0 28.865396768087976 -26.386817771384813 0 -26.386817771384813 254.64388272629276 0 0 0 0 39.040105682784599 -36.051304196695128 0 -36.051304196695128 263.62217729606346 0 0 0 0 30.773175208826615 -26.602784289073952 0 -26.602784289073952 246.71942568610393 0 0 0 0 16.861057347296992 1.3442131872106984 0 1.3442131872106984 195.3195639720102 0 0 0 0 -0.092049107529419416 24.749710862581196 0 24.749710862581196 172.97489720199519 0 0 0 0 -7.2601054061815375 17.3795974202867 0 17.3795974202867 184.3043122386789 0 0 0 0 9.5678688085586145 1.9320895870848744 0 1.9320895870848744 207.3708642882284 0 0 0 0 0.76068142714666465 40.608499294487956 0 40.608499294487956 186.43289724298666 0 0 0 0 -2.0289503273315859 30.666594740550863 0 30.666594740550863 170.57067122589615 0 0 0 0 8.267674929171335 55.887901032983791 0 55.887901032983791 162.59788164171005 0 0 0 0 -2.4552951384630433 34.740087479939575 0 34.740087479939575 125.05511456995373 0 0 0 0 15.977851559383453 52.760276204707225 0 52.760276204707225 149.54033990634252 0 0 0 0 -35.90088396465444 14.144442253045327 0 14.144442253045327 130.97669020658032 0 0 0 0 -69.079628614316789 26.847695401584133 0 26.847695401584133 177.85869381441807 0 0 0 0 -14.036618869570702 39.320913014846155 0 39.320913014846155 157.22960414189004 0 0 0 0 -22.295196231199952 29.003360405156855 0 29.003360405156855 156.22045106404585 0 0 0 0 -12.80865447932365 41.440828361802232 0 41.440828361802232 172.14383064461799 0 0 0 0 -60.295325042668992 35.182160815670613 0 35.182160815670613 177.03458362257152 0 0 0 0 -47.697076098643265 42.944277801891076 0 42.944277801891076 173.59464393392773 0 0 0 0 -34.725601868445665 44.356278138845482 0 44.356278138845482 168.17087502009963 0 0 0 0 -23.941648594415256 37.708890344834344 0 37.708890344834344 171.70976246454302 0 0 0 0 -9.2147400063358873 19.021687560976716 0 19.021687560976716 178.47696303113116 0 0 0 0 -23.280335755201122 37.173058824546843 0 37.173058824546843 165.32616618981046 0 0 0 0 -3.4696783114140999 17.533155490109493 0 17.533155490109493 173.02258997497256 0 0 0 0 -10.828244614805499 34.069608074248663 0 34.069608074248663 147.83330556929286 0 0 0 0 -18.286540430795867 30.959016433682336 0 30.959016433682336 154.0413065096127 0 0 0 0 7.5069805979801458 6.2939263962643963 0 6.2939263962643963 141.65820775612156 0 0 0 0 33.788001657433597 -22.134246585799701 0 -22.134246585799701 149.14048457704666 0 0 0 0 5.1374866263299737 8.0040317464872714 0 8.0040317464872714 157.22702307211512 0 0 0 0 23.472759191263549 -11.009225492800397 0 -11.009225492800397 174.08395939783441 0 0 0 0 25.936585244499838 -10.561398911293509 0 -10.561398911293509 167.84421041127462 0 0 0 0 35.761390892886993 -37.555825592557085 0 -37.555825592557085 214.34321885814188 0 0 0 0 54.792656384079237 -45.454899283313352 0 -45.454899283313352 180.59510394557674 0 0 0 0 32.550690701012627 -20.419807002117523 0 -20.419807002117523 160.4606848155654 0 0 0 0 60.130704327310923 -44.902189788092983 0 -44.902189788092983 169.34236662184412 0 0 0 0 66.983313017963155 -58.854498506207165 0 -58.854498506207165 176.34472604773327 0 0 0 0 68.813542683431194 -41.405999988984263 0 -41.405999988984263 155.33985895515798 0 0 0 0 37.648925959268126 -35.498525158614939 0 -35.498525158614939 174.18494510337314 0 0 0 0 40.479034197452847 -35.757138205072351 0 -35.757138205072351 140.99305235690736 0 0 0 0 8.0682496642643855 -1.9552485392359813 0 -1.9552485392359813 147.18772436021573 0 0 0 0 -17.432708541608008 11.152774889274951 0 11.152774889274951 120.30365698223704 0 0 0 0 -11.736777496115792 -28.726296957895102 0 -28.726296957895102 133.90525332923789 0 0 0 0 10.969058461144414 -9.031254575435014 0 -9.031254575435014 148.02244346569569 0 0 0 0 -25.327809175344782 4.4183699133434402 0 4.4183699133434402 106.36322143635698 0 0 0 0 -59.579451775179223 23.687771435706054 0 23.687771435706054 110.7859536983924 0 0 0 0 -160.59021362056501 50.090417657446778 0 50.090417657446778 118.90763332276765 0 0 0 0 -82.208452310645953 -12.560755499178867 0 -12.560755499178867 53.789672795250226 0 0 0 0 -73.715814643866906 11.663282916730168 0 11.663282916730168 122.82794123323492 0 0 0 0 -108.12782978374344 73.888786590928248 0 73.888786590928248 73.573058366408759 0 0 0 0 -182.44613169003878 26.794972800191317 0 26.794972800191317 139.23532290065305 0 0 0 0 -75.54113178444095 23.153424556007849 0 23.153424556007849 113.9708697746355 0 0 0 0 -36.791324071476993 42.794764894502805 0 42.794764894502805 95.844727532872639 0 0 0 0 -29.571855233023598 -7.9148730414271995 0 -7.9148730414271995 92.34302689593278 0 0 0 0 -11.677660277022369 26.554997457389618 0 26.554997457389618 125.80679832399744 0 0 0 0 3.478505340758602 -11.386246188397308 0 -11.386246188397308 128.24729805438801 0 0 0 0 -26.960296404392011 20.090682989714878 0 20.090682989714878 132.87331429385813 0 0 0 0 -17.503387332444618 37.630201476835282 0 37.630201476835282 122.23606245566407 0 0 0 0 -36.063051855997401 52.300758713721734 0 52.300758713721734 145.70781580555013 0 0 0 0 -40.649130076536494 40.749265808612108 0 40.749265808612108 119.89284203522402 0 0 0 0 -47.048289851220034 48.06607482193067 0 48.06607482193067 114.18683557677299 0 0 0 0 -31.255838750221301 75.092800768975394 0 75.092800768975394 135.25652821333279 0 0 0 0 -35.670820947669199 69.990994880064136 0 69.990994880064136 130.45914871931745 0 0 0 0 -39.845290145571198 66.32120434701028 0 66.32120434701028 168.37151927471473 0 0 0 0 -35.316488310998182 55.795418516144252 0 55.795418516144252 141.75991383044311 0 0 0 0 -66.099499496367798 56.619690262401946 0 56.619690262401946 213.33370282461692 0 0 0 0 -64.442557110065536 82.291820488278972 0 82.291820488278972 170.84581565170538 0 0 0 0 -51.631179839283504 109.84257778767915 0 109.84257778767915 230.09332067236755 0 0 0 0 -109.74489606387579 56.535063119541519 0 56.535063119541519 261.48141577427305 0 0 0 0 -40.096331101617579 113.80819409433116 0 113.80819409433116 140.49485478132556 0 0 0 0 -131.66464964439137 78.736366086636281 0 78.736366086636281 336.33339376717049 0 0 0 0 -119.40484286474953 28.653430370882916 0 28.653430370882916 205.4790850546633 0 0 0 0 -104.80253086475386 25.537551326018729 0 25.537551326018729 189.00065611690843 0 0 0 0 -70.821974971807322 23.52918785809652 0 23.52918785809652 172.80112156119867 0 0 0 0 20.17628207249254 206.20740637792733 0 206.20740637792733 275.2215024798893 0 0 0 0 124.96458857676043 112.290984815093 0 112.290984815093 35.522232883857214 0 0 0 0 -17.73306521741597 -93.97644437114559 0 -93.97644437114559 -4.1013039200988715 0 0 0 0 5.2356509725515625 15.310583390260526 0 15.310583390260526 88.966646939501459 0 0 0 0 -336.2724603722354 220.04463512572556 0 220.04463512572556 562.04322401598438 0 0 0 0 -76.953788729920234 52.696921389845556 0 52.696921389845556 136.90616976815727 0 0 0 0 -155.57549151044617 144.60854922143366 0 144.60854922143366 207.81074913177144 0 0 0 0 -18.624686623632968 11.449265550190942 0 11.449265550190942 37.254040498927594 0 0 0 0 -430.24159415515351 -202.40278702302385 0 -202.40278702302385 39.509189894159135 0 0 0 0 -56.785588782044215 -15.450657807983589 0 -15.450657807983589 74.453710816505918 0 0 0 0 -63.481501697126077 -3.4362930326224159 0 -3.4362930326224159 64.147467607542694 0 0 0 0 -0.64239987985092739 44.32888869396902 0 44.32888869396902 94.575381340058811 0 0 0 0 -99.765446305920307 7.433251169286109 0 7.433251169286109 135.15164412181184 0 0 0 0 -100.16763688524043 18.479917014987223 0 18.479917014987223 112.25435720559835 0 0 0 0 -133.68108078986734 20.977640250184777 0 20.977640250184777 139.62051545885697 0 0 0 0 -158.65394773843764 -31.521519217936657 0 -31.521519217936657 109.72556008592073 0 0 0 0 -17.7792410683669 19.584773409354966 0 19.584773409354966 100.83806140320371 0 0 0 0 -3.7637848665839098 14.028865754619734 0 14.028865754619734 105.37435441627142 0 0 0 0 -78.172874761670982 -7.1734346622500169 0 -7.1734346622500169 119.31001593356268 0 0 0 0 19.083014088121217 73.101054756364647 0 73.101054756364647 98.596273750736145 0 0 0 0 -138.2439978719508 -48.631199516341439 0 -48.631199516341439 109.56630021147521 0 0 0 0 6.3756084394645223 -5.6712072151680957 0 -5.6712072151680957 32.356856473226301 0 0 0 0 -136.75542830308495 84.29537718931897 0 84.29537718931897 188.89545986447047 0 0 0 0 67.438897810112451 62.410365273543931 0 62.410365273543931 112.66091691533074 0 0 0 0 -42.178153941647906 60.237968138288124 0 60.237968138288124 123.41301692788329 0 0 0 0 12.233362914462759 38.929502212717125 0 38.929502212717125 112.05855902326584 0 0 0 0 16.452047522997432 17.653199697474975 0 17.653199697474975 119.92757987289224 0 0 0 0 1.7479407237547253 0.36627771744701931 0 0.36627771744701931 19.903929755503629 0 0 0 0 -147.75606339882643 -29.752876356451907 0 -29.752876356451907 131.71885413123528 0 0 0 0 -4.0429136586912264 -1.1812989605308779 0 -1.1812989605308779 36.051252987107176 0 0 0 0 -87.399677821980731 77.39774523720871 0 77.39774523720871 76.099235479796334 0 0 0 0 -97.204746090190383 95.265393392780425 0 95.265393392780425 50.335091091214053 0 0 0 0 -9.7082482467031461 10.337074472949514 0 10.337074472949514 99.823175775306865 0 0 0 0 21.725518920015702 -13.90098136679444 0 -13.90098136679444 91.263304961172253 0 0 0 0 -5.3207147536684261 -3.7181483291897166 0 -3.7181483291897166 70.461803120573677 0 0 0 0 0.080740961895906738 -0.61228417118307732 0 -0.61228417118307732 0.92912810501267984 0 0 0 0 -4.2681278451401568 11.273194102168418 0 11.273194102168418 68.616123918663106 0 0 0 0 -9.6413823073877438 1.7728300650123856 0 1.7728300650123856 65.348187625266291 0 0 0 0 -8.6043197315847237 7.077193022976644 0 7.077193022976644 68.141901536699152 0 0 0 0 -10.483331658639713 15.632717157785009 0 15.632717157785009 81.787976285177137 0 0 0 0 2.6947837819216147 13.564495830150008 0 13.564495830150008 39.328951849089208 0 0 0 0 -13.947867409779008 7.1888111554526404 0 7.1888111554526404 76.576569528784603 0 0 0 0 76.994034096867836 16.244077774090329 0 16.244077774090329 78.112655246688519 0 0 0 0 31.787314563652785 -25.791819227736596 0 -25.791819227736596 299.41708411170839 0 0 0 0 -18.059950724152344 -14.141114768278094 0 -14.141114768278094 13.967149858754325 0 0 0 0 -164.76758054781283 -149.32582405071844 0 -149.32582405071844 26.474652481050725 0 0 0 0 204.53834847475014 -45.436582569525854 0 -45.436582569525854 -29.531836193520576 0 0 0 0 78.782673580821211 174.65053395064751 0 174.65053395064751 196.48801875697609 0 0 0 0 4.5538291026185558 -8.3670666978439456 0 -8.3670666978439456 9.9957984938704953 0 0 0 0 -0.46057097987068119 24.53190100833308 0 24.53190100833308 111.8992490898363 0 0 0 0 124.4717096981426 72.794577152436432 0 72.794577152436432 124.06934687593457 0 0 0 0 -9.0351401204238755 5.6709900356499929 0 5.6709900356499929 111.85938350302604 0 0 0 0 -51.247775763567915 45.767153936161776 0 45.767153936161776 179.87975549932889 0 0 0 0 -14.09095235263203 13.27536422135563 0 13.27536422135563 71.281608530558515 0 0 0 0 -27.320623877438265 6.2376883142678707 0 6.2376883142678707 25.102150550537772 0 0 0 0 -16.678115816280069 17.276900371231022 0 17.276900371231022 65.399857293501555 0 0 0 0 -19.090494996029854 -8.3497631936189691 0 -8.3497631936189691 29.398705197001931 0 0 0 0 -1.5687584903560663 -0.39954113570578187 0 -0.39954113570578187 37.049465621495806 0 0 0 0 -36.547190309145662 35.743314174675106 0 35.743314174675106 128.8251288957108 0 0 0 0 -113.30959684941809 12.781201722842525 0 12.781201722842525 159.61471333452664 0 0 0 0 0.98854764150550789 6.005704965697702 0 6.005704965697702 2.0581144886085347 0 0 0 0 142.53835549253654 84.925781055524567 0 84.925781055524567 -183.05531179699756 0 0 0 0 -43.673049531040306 33.583916706167656 0 33.583916706167656 87.467903549317271 0 0 0 0 -18.293018413025955 29.172661925667796 0 29.172661925667796 87.907786781502963 0 0 0 0 -3.0638228338633162 25.035502081244868 0 25.035502081244868 89.632780381217856 0 0 0 0 -108.40037791253417 -25.880727164604195 0 -25.880727164604195 107.91480381063593 0 0 0 0 -99.062072538932625 -3.6551669163072802 0 -3.6551669163072802 159.16432578358854 0 0 0 0 -151.85998321158695 -48.421598200744484 0 -48.421598200744484 101.6526677242191 0 0 0 0 -109.06378385461585 13.391438614683466 0 13.391438614683466 25.764634074446803 0 0 0 0 -159.0648699540925 18.730387885312666 0 18.730387885312666 222.79851381472872 0 0 0 0 -213.71046492847745 142.41099201084944 0 142.41099201084944 -125.06354838117113 0 0 0 0 -73.714388738620073 -35.194536456290734 0 -35.194536456290734 -80.435546110698851 0 0 0 0 -155.5490237419458 -69.364407649733948 0 -69.364407649733948 53.808950507060217 0 0 0 0 -293.64256598534848 81.653527021999253 0 81.653527021999253 38.093045688543498 0 0 0 0 -1.3555520497549338 1.1146217018529487 0 1.1146217018529487 9.8312253375748746 0 0 0 0 -52.117827111672959 16.463276431801745 0 16.463276431801745 82.061136454167354 0 0 0 0 -52.108462475762281 13.53584112079534 0 13.53584112079534 15.064787098146553 0 0 0 0 -91.97339195599875 75.794589868147852 0 75.794589868147852 77.337219828781599 0 0 0 0 -6.4113452971816134 6.6008348054320223 0 6.6008348054320223 39.81212978638122 0 0 0 0 -144.79704054826016 54.909832068079595 0 54.909832068079595 73.48112219990162 0 0 0 0 -95.526921730295726 48.906537977283733 0 48.906537977283733 33.279347170885217 0 0 0 0 -76.843593244039766 46.40508911183133 0 46.40508911183133 47.984658278973257 0 0 0 0 -4.3517822383102063 10.06576768349519 0 10.06576768349519 39.146245346658702 0 0 0 0 -30.053694196966717 69.962973711540599 0 69.962973711540599 52.867915088214431 0 0 0 0 -41.51110287937081 12.996772088641592 0 12.996772088641592 22.511849807720864 0 0 0 0 -5.176801181687436 1.5299607867618743 0 1.5299607867618743 42.881282784870464 0 0 0 0 -15.519098782139508 12.736083482117465 0 12.736083482117465 62.039486162984758 0 0 0 0 -10.365719777555796 10.416261003606451 0 10.416261003606451 62.876569709027535 0 0 0 0 -5.9553373331449109 -1.6534809853154258 0 -1.6534809853154258 17.383575680820641 0 0 0 0 -5.3146817362694492 0.010113781603649841 0 0.010113781603649841 50.744489401877217 0 0 0 0 -2.1476244747959763 11.939022938165881 0 11.939022938165881 22.976686838931442 0 0 0 0 0.11258396690583372 4.5187564773445832 0 4.5187564773445832 20.971473978183738 0 0 0 0 -27.487192560788856 11.127671466808351 0 11.127671466808351 26.361349518205316 0 0 0 0 -16.854855919688479 27.767933608249155 0 27.767933608249155 62.488975521652719 0 0 0 0 -17.408072997467116 12.323999146017741 0 12.323999146017741 15.974651567175897 0 0 0 0 -142.37387170706143 -25.968017651905484 0 -25.968017651905484 -206.59636241387489 0 0 0 0 -187.54541058261429 -45.12760988691025 0 -45.12760988691025 -100.41378598464871 0 0 0 0 -411.74259176110718 -157.93439651828976 0 -157.93439651828976 163.2525561810312 0 0 0 0 -26.744024167811403 65.775182826774653 0 65.775182826774653 48.201104951231173 0 0 0 0 -15.790468729069858 18.206316419190898 0 18.206316419190898 22.20433509237364 0 0 0 0 -8.5302725538320576 13.277261575461683 0 13.277261575461683 16.831652270046025 0 0 0 0 -12.351751280143343 14.351345938877822 0 14.351345938877822 -0.94498122558922404 0 0 0 0 -46.391612960186649 88.208851873578169 0 88.208851873578169 79.004761216383486 0 0 0 0 30.875557182424018 65.936148039909313 0 65.936148039909313 48.161974086319447 0 0 0 0 141.21476760157111 108.97293722082213 0 108.97293722082213 57.586213417054751 0 0 0 0 4.6493655412904218 94.201457437020281 0 94.201457437020281 128.40000443402096 0 0 0 0 -2.7358866891463549 55.226905341105521 0 55.226905341105521 63.418521075714125 0 0 0 0 -7.5165296528957697 26.70710665119077 0 26.70710665119077 42.967437890893052 0 0 0 0 -2.5884695281129098 45.726425831972847 0 45.726425831972847 97.425786239200534 0 0 0 0 39.795472264267119 23.771659459560396 0 23.771659459560396 103.65547472964136 0 0 0 0 6.7689844843412175 20.714413368033092 0 20.714413368033092 89.416305990647743 0 0 0 0 -43.217862463033271 -8.6847143602080905 0 -8.6847143602080905 71.277217843726248 0 0 0 0 -29.79745579262817 20.547625999495722 0 20.547625999495722 132.43663093963255 0 0 0 0 49.71177909265225 82.451678471154992 0 82.451678471154992 78.814730204660918 0 0 0 0 24.801290904086272 74.338495729304668 0 74.338495729304668 145.36263663327213 0 0 0 0 24.762521904671303 64.040045204342732 0 64.040045204342732 91.64721975609973 0 0 0 0 24.192269255273914 51.278419272086012 0 51.278419272086012 125.82218299109445 0 0 0 0 67.867886693411492 66.461680890718526 0 66.461680890718526 91.737852355660607 0 0 0 0 -20.198592525274719 7.5983429262835518 0 7.5983429262835518 5.9117225464227214 0 0 0 0 -25.79992791199993 18.047763947377746 0 18.047763947377746 94.20873028688402 0 0 0 0 -119.60867910203433 -203.68597125528686 0 -203.68597125528686 -135.90346644559895 0 0 0 0 -5.8015024065032925 -0.41308452328139111 0 -0.41308452328139111 0.44970885573674479 0 0 0 0 -113.38737025698265 -58.40074178773375 0 -58.40074178773375 -74.22361857019132 0 0 0 0 -16.819764894491072 -145.74553004748736 0 -145.74553004748736 -185.30070112206295 0 0 0 0 20.807532585103672 94.482028583045121 0 94.482028583045121 110.32281411035638 0 0 0 0 -15.46377268240902 0.97767020090868861 0 0.97767020090868861 7.9165239048083684 0 0 0 0 29.485645279716579 60.272449611800425 0 60.272449611800425 117.43122394063175 0 0 0 0 -10.988839410710213 -4.9679260702727319 0 -4.9679260702727319 -81.908068950154757 0 0 0 0 45.492771153283684 20.855845372103431 0 20.855845372103431 94.520820701369303 0 0 0 0 -118.94372930783538 -150.12494981252144 0 -150.12494981252144 50.736081808661766 0 0 0 0 156.5310131402739 -61.569677591960499 0 -61.569677591960499 -114.62299556590278 0 0 0 0 362.89331712397734 -81.596359313020457 0 -81.596359313020457 -0.21602995152284166 0 0 0 0 412.40868063629432 276.82694782126725 0 276.82694782126725 133.54354436909944 0 0 0 0 452.22762925817125 617.92534398424186 0 617.92534398424186 -654.55622371051231 0 0 0 0 -138.4764313097362 -148.63666316278022 0 -148.63666316278022 537.91198677996363 0 0 0 0 201.44736442170233 549.15580797573602 0 549.15580797573602 446.08726013462729 0 0 0 0 6.1382108427619242 5.6253523654880189 0 5.6253523654880189 4.5858954111100338 0 0 0 0 740.68107549429567 76.015122765073102 0 76.015122765073102 -587.05868155921689 0 0 0 0 -400.05823939456542 205.82977686001141 0 205.82977686001141 220.45239685484739 0 0 0 0 1179.0434528073542 1300.27055434981 0 1300.27055434981 732.81279239729338 0 0 0 0 9.4511085164439432 4.7204086224123643 0 4.7204086224123643 4.3449842252995055 0 0 0 0 1474.0523803200124 15.550866100670987 0 15.550866100670987 -284.67478273216693 0 0 0 0 -271.63339100619112 -122.47514821758159 0 -122.47514821758159 2492.49681181509 0 0 0 0 169.24114807716342 75.397918864115127 0 75.397918864115127 -83.84209739335347 0 0 0 0 17.048221093107884 13.588956429407943 0 13.588956429407943 14.15745649172646 0 0 0 0 -177.19387323157025 218.00689886788678 0 218.00689886788678 -45.330649937131966 0 0 0 0 124.68127461995368 228.56483627073749 0 228.56483627073749 -152.3562421999668 0 0 0 0 332.44536052872957 177.9298276052923 0 177.9298276052923 78.669900498582138 0 0 0 0 -111.66976290087584 -41.422744231048455 0 -41.422744231048455 2482.8030356335621 0 0 0 0 4.5773247188868735 2.8139279747079069 0 2.8139279747079069 3.4484639626201243 0 0 0 0 1.2458324328888961 -2.6863190294490753 0 -2.6863190294490753 15.159994435597341 0 0 0 0 1123.9454206914445 -912.2225957252158 0 -912.2225957252158 293.03493740085833 0 0 0 0 -0.38468280306413682 -0.65515406608799154 0 -0.65515406608799154 -4.4441948626833039 0 0 0 0 267.56780075886576 122.67234858809206 0 122.67234858809206 65.562566501866968 0 0 0 0 -18.414424557659459 21.262561341512992 0 21.262561341512992 15.929291406300763 0 0 0 0 7.7109606986178143 19.091355127968864 0 19.091355127968864 22.817387978559154 0 0 0 0 512.43265689034729 146.2929008429237 0 146.2929008429237 -4.6677872370128171 0 0 0 0 0.44594321586298591 2.5555297587672356 0 2.5555297587672356 23.206862411268503 0 0 0 0 -2.5457718469599273 12.186121822776343 0 12.186121822776343 27.717793162599108 0 0 0 0 -8.6451175234380742 24.860731452481559 0 24.860731452481559 24.875281484448351 0 0 0 0 -10.567323943382462 14.063119363394435 0 14.063119363394435 23.171682362324646 0 0 0 0 -17.646438096240445 16.104941105253602 0 16.104941105253602 31.530299121142889 0 0 0 0 5.035666299582588 19.607165707108912 0 19.607165707108912 13.663930875040677 0 0 0 0 -90.732250393401955 138.44866525783073 0 138.44866525783073 -79.14475424223906 0 0 0 0 -519.42045490380917 27.101251776989102 0 27.101251776989102 406.49558331437947 0 0 0 0 -33.305742272800728 15.33795850116212 0 15.33795850116212 21.376620396935323 0 0 0 0 -0.65567306977159745 17.199807668065354 0 17.199807668065354 20.16859646213517 0 0 0 0 -1.3839299660492994 5.2036371607703273 0 5.2036371607703273 22.555879012680791 0 0 0 0 -30.943892416182962 8.0706218547857134 0 8.0706218547857134 24.93348223574867 0 0 0 0 -2.5720583121873517 11.487311948169236 0 11.487311948169236 21.836374057045759 0 0 0 0 -11.125615982809848 19.016761794603553 0 19.016761794603553 11.666919858253095 0 0 0 0 -2.1741790433742381 4.405191755577107 0 4.405191755577107 21.109673821472825 0 0 0 0 69.482384592988353 238.28725490711804 0 238.28725490711804 -28.849046135207573 0 0 0 0 2.1410100145092841 8.3804628046951706 0 8.3804628046951706 11.803438062993024 0 0 0 0 -78.275261813937561 129.44348071322565 0 129.44348071322565 787.19344097020803 0 0 0 0 -34.24223087346212 -256.58889330073725 0 -256.58889330073725 163.51925774734627 0 0 0 0 1.3589589615953139 9.4692465671851629 0 9.4692465671851629 17.10497585075143 0 0 0 0 2.3285537696671241 139.10598828467562 0 139.10598828467562 211.04560814271099 0 0 0 0 -18.796184087935444 19.063264852155044 0 19.063264852155044 26.251580826778081 0 0 0 0 -8.7091308159090204 12.239030580811232 0 12.239030580811232 12.744600004822132 0 0 0 0 -2.0542823997727604 5.3038465316619678 0 5.3038465316619678 10.329288969545189 0 0 0 0 542.9946312182102 -929.48901649670688 0 -929.48901649670688 1237.0126832205315 0 0 0 0 84.717111405660944 -238.83553306870817 0 -238.83553306870817 290.13901850153525 0 0 0 0 -218.71986102912072 -730.4102414601457 0 -730.4102414601457 1622.8168024103852 0 0 0 0 446.77930051480229 -1998.8535703370608 0 -1998.8535703370608 2495.4888795577499 0 0 0 0 -141.20463343321677 -915.00068306376579 0 -915.00068306376579 2029.9013893067313 0 0 0 0 -337.1226162290958 -175.28705722338054 0 -175.28705722338054 1707.6785876175454 0 0 0 0 58.534705290371377 -647.36000422853272 0 -647.36000422853272 1094.1196913984713 0 0 0 0 -111.30932196271533 -757.33726080040151 0 -757.33726080040151 2454.0577262825282 0 0 0 0 -163.70523437601059 517.37385255889967 0 517.37385255889967 1723.1729940987498 0 0 0 0 -171.19142265348867 -671.54334346723226 0 -671.54334346723226 2501.0172602734528 0 0 0 0 420.32302128029585 -898.59767399277735 0 -898.59767399277735 2226.889224234179 0 0 0 0 626.2833987556312 -511.81636061957397 0 -511.81636061957397 2499.0897488271739 0 0 0 0 1.0312312572329498 2.8346794853059833 0 2.8346794853059833 12.914030359065691 0 0 0 0 112.79137746876938 -149.55955832307154 0 -149.55955832307154 31.385699144620958 0 0 0 0 152.01740695681866 478.14599449085108 0 478.14599449085108 337.5863120544891 0 0 0 0 258.25619414763651 175.28409662194827 0 175.28409662194827 274.18950955108085 0 0 0 0 -79.024284255665549 -262.90474830419771 0 -262.90474830419771 802.01227156473033 0 0 0 0 173.82997268947236 -91.644892635611541 0 -91.644892635611541 352.05320218350244 0 0 0 0 -221.97757564624084 161.23966867103809 0 161.23966867103809 354.52138599728676 0 0 0 0 -75.386117135434688 71.62476504868755 0 71.62476504868755 -57.087972873589024 0 0 0 0 129.19598969782322 -142.18332639915116 0 -142.18332639915116 -115.61787038924376 0 0 0 0 -31.324415874090732 0.85174967178318184 0 0.85174967178318184 -297.65808566445776 0 0 0 0 -1.4081887886511801 1.0865478028253932 0 1.0865478028253932 2.923549310991902 0 0 0 0 5.6812167876614694 89.318395923781281 0 89.318395923781281 -117.42629826774646 0 0 0 0 9.356151480854237 -20.552636666147009 0 -20.552636666147009 24.172169609524644 0 0 0 0 13.97164088735019 24.96349481757926 0 24.96349481757926 300.10236572948816 0 0 0 0 192.93966433546385 -39.959266230589947 0 -39.959266230589947 16.516590865183389 0 0 0 0 36.988558445415023 -81.649360632326477 0 -81.649360632326477 246.33838248267602 0 0 0 0 42.657605348734535 16.47223938309935 0 16.47223938309935 79.546394521058119 0 0 0 0 16.484783415666215 2.3048671300789465 0 2.3048671300789465 343.71046049386268 0 0 0 0 135.69909650321461 -17.070761550305861 0 -17.070761550305861 314.61172173098316 0 0 0 0 84.769470335900706 1.1854912801538831 0 1.1854912801538831 593.66687175749621 0 0 0 0 150.66579349848797 -76.053153223755771 0 -76.053153223755771 197.1182749370472 0 0 0 0 122.85302315284522 -82.658656834865269 0 -82.658656834865269 461.83873862906466 0 0 0 0 185.45731696561919 -103.93924498092508 0 -103.93924498092508 149.03389623496878 0 0 0 0 74.796659233733848 -32.583708983116594 0 -32.583708983116594 150.23564558785756 0 0 0 0 189.86901979718945 -89.562674640880118 0 -89.562674640880118 16.386182690732312 0 0 0 0 184.90894247803038 -56.615938820707015 0 -56.615938820707015 189.4240943414793 0 0 0 0 126.81319376614687 52.131609785381897 0 52.131609785381897 121.58611293770764 0 0 0 0 61.521158478043361 -8.3627040458039801 0 -8.3627040458039801 217.01783347401488 0 0 0 0 70.176970717910763 53.501906371009483 0 53.501906371009483 189.10563290480241 0 0 0 0 267.24460680470054 -47.100472955598434 0 -47.100472955598434 173.96795677134696 0 0 0 0 204.15150793177287 -225.09972753246166 0 -225.09972753246166 410.83208728014733 0 0 0 0 71.320691749071898 -117.97003962973304 0 -117.97003962973304 329.94866072533932 0 0 0 0 1.6749404318469185 -0.624856028326918 0 -0.624856028326918 -0.45259749252032755 0 0 0 0 19.916648118232956 165.00486805623268 0 165.00486805623268 -146.37913666410304 0 0 0 0 6.6083835722383721 -76.47858638233194 0 -76.47858638233194 41.931410092477108 0 0 0 0 3.5702556564479284 -1.8818040770570565 0 -1.8818040770570565 -1.6340173677167797 0 0 0 0 49.751055175740021 -174.71053601836252 0 -174.71053601836252 383.49486598728072 0 0 0 0 9.6807514980986014 73.56545642207243 0 73.56545642207243 -163.62294730991539 0 0 0 0 44.456369827739081 3.716351348105718 0 3.716351348105718 -117.86760501350045 0 0 0 0 -0.77398280806050934 62.618519903827519 0 62.618519903827519 -139.65386470806516 0 0 0 0 3.4237486507117865 -49.417877843269707 0 -49.417877843269707 15.93165622477818 0 0 0 0 -16.065395335296898 50.781844599875058 0 50.781844599875058 97.879061864599635 0 0 0 0 16.200484128044081 -53.263781031615508 0 -53.263781031615508 -136.5612919136147 0 0 0 0 70.643497644248782 14.759545449843245 0 14.759545449843245 -81.033330866420073 0 0 0 0 5.7263997988677602 -7.8246984296404207 0 -7.8246984296404207 -78.707760140865048 0 0 0 0 30.014167573151553 -12.049400782250984 0 -12.049400782250984 -111.46033426288795 0 0 0 0 37.643937758547509 -13.925803719448595 0 -13.925803719448595 -114.91629940849566 0 0 0 0 -1.9972691660043438 31.373233188232462 0 31.373233188232462 32.189609799605932 0 0 0 0 19.449595525830773 13.295626265781721 0 13.295626265781721 40.1684115799344 0 0 0 0 9.3053525146003722 -43.650273125847434 0 -43.650273125847434 -25.79405178388015 0 0 0 0 33.717132233331654 337.88847762817227 0 337.88847762817227 740.06204803780338 0 0 0 0 9.577797816533689 108.30193131369992 0 108.30193131369992 250.71537870748034 0 0 0 0 138.10910023704901 68.153009758247208 0 68.153009758247208 -22.494326100020984 0 0 0 0 -88.582126912317904 60.010269190878262 0 60.010269190878262 407.83092867319874 0 0 0 0 -86.753281252695842 78.882204673443539 0 78.882204673443539 272.92769058278259 0 0 0 0 -42.038691500805442 -16.030640715541949 0 -16.030640715541949 294.9046598086843 0 0 0 0 -2.7202323288822754 -45.259671989143044 0 -45.259671989143044 180.67162858681036 0 0 0 0 18.18595712487614 -92.804690727140041 0 -92.804690727140041 348.618465890577 0 0 0 0 101.9066624521742 -54.100675674588729 0 -54.100675674588729 492.09563444338914 0 0 0 0 -93.86013516021228 -7.2977359385822638 0 -7.2977359385822638 508.51325333355135 0 0 0 0 -92.901957269651163 -42.933305061738395 0 -42.933305061738395 518.72308757354858 0 0 0 0 -51.361740263135857 -10.75696102990878 0 -10.75696102990878 389.54286770221916 0 0 0 0 -50.441499191597792 -30.655616576342169 0 -30.655616576342169 683.18648617157851 0 0 0 0 -148.18245452183874 -157.05955054417336 0 -157.05955054417336 912.09164317207933 0 0 0 0 -232.27966376631389 -62.893227094197755 0 -62.893227094197755 524.34940850611974 0 0 0 0 -153.81246270667077 21.02739652955438 0 21.02739652955438 295.21605178058417 0 0 0 0 -451.38558443822211 1107.1980403646094 0 1107.1980403646094 271.5685157592543 0 0 0 0 8.4728250947947608 12.287773811023875 0 12.287773811023875 12.882072687617502 0 0 0 0 -361.72832711865362 288.32421523959465 0 288.32421523959465 233.85488136207914 0 0 0 0 -390.32973818696456 16.035352948250733 0 16.035352948250733 512.60270770659645 0 0 0 0 -558.484458457291 -439.07991313389334 0 -439.07991313389334 2497.5647963692518 0 0 0 0 -545.92795165957261 58.053532861807071 0 58.053532861807071 586.45897663382857 0 0 0 0 -535.58664056437271 868.0149116113862 0 868.0149116113862 2496.4276919890731 0 0 0 0 415.73413065834376 880.39669182579041 0 880.39669182579041 695.4954405429462 0 0 0 0 319.15148333025871 486.30866879841415 0 486.30866879841415 -406.02716198923099 0 0 0 0 4.1465971455429687 5.6895628416960502 0 5.6895628416960502 8.0936351440508432 0 0 0 0 -153.97727796471932 795.47127404918774 0 795.47127404918774 2492.5204720518714 0 0 0 0 -416.06698221376661 201.06126870093499 0 201.06126870093499 2501.0448597653117 0 0 0 0 -249.34790968900143 451.66889837543499 0 451.66889837543499 1344.1818829395174 0 0 0 0 134.58899492601097 142.39675518390155 0 142.39675518390155 655.07310657480321 0 0 0 0 -18.746531321233249 73.612686052962545 0 73.612686052962545 1141.2500036876377 0 0 0 0 11.130421148748681 110.84290406021142 0 110.84290406021142 930.49943902836276 0 0 0 0 52.681233869215362 -94.97066367682055 0 -94.97066367682055 495.38219226841738 0 0 0 0 71.703658058172081 -183.7040084687336 0 -183.7040084687336 560.05690006413352 0 0 0 0 87.855545677533271 -107.87464411297117 0 -107.87464411297117 699.35110706396699 0 0 0 0 37.869051377897847 -120.31900067043762 0 -120.31900067043762 695.64304595758267 0 0 0 0 64.8628740125165 -25.085321356154964 0 -25.085321356154964 757.55757527409924 0 0 0 0 -1.1850658236041909 -131.26654174133228 0 -131.26654174133228 936.48117030448839 0 0 0 0 -4.7072921408391579 -145.31436309446701 0 -145.31436309446701 887.63101160548422 0 0 0 0 -113.42184131527279 -48.428220153252596 0 -48.428220153252596 1041.9793958571775 0 0 0 0 -50.372636843311817 -376.49954556408784 0 -376.49954556408784 1392.1402408987801 0 0 0 0 -116.13458272231554 -47.485718793858496 0 -47.485718793858496 1491.7572278503944 0 0 0 0 -346.78522045252402 -55.170142619514991 0 -55.170142619514991 1498.2262469568486 0 0 0 0 -389.34238707907878 -601.55009502273811 0 -601.55009502273811 2500.0169906283418 0 0 0 0 -320.1474425716728 -156.0700811306574 0 -156.0700811306574 1690.3312649059667 0 0 0 0 -66.490648354865669 -658.7827306751899 0 -658.7827306751899 1159.3315800877731 0 0 0 0 -65.981977742846837 -501.8353490921827 0 -501.8353490921827 451.82928096523756 0 0 0 0 -1.7416229580980218 -2.7334238219568587 0 -2.7334238219568587 6.1232748387361262 0 0 0 0 352.52845718635655 -1425.8482303229155 0 -1425.8482303229155 2495.8667133373183 0 0 0 0 664.26729168421048 -447.97953140339467 0 -447.97953140339467 433.60056987301141 0 0 0 0 -51.903226116706136 -115.80077802701312 0 -115.80077802701312 906.31689250055479 0 0 0 0 -677.36324600410364 469.03186036609941 0 469.03186036609941 1904.9168487002462 0 0 0 0 -745.62486785345186 22.47388109031931 0 22.47388109031931 2542.6367194720706 0 0 0 0 -564.14378800641975 324.47887337420275 0 324.47887337420275 1924.6367844467841 0 0 0 0 1358.8155548856678 -164.86801257433399 0 -164.86801257433399 2497.0464119473968 0 0 0 0 26.333485071044127 -1142.998785875908 0 -1142.998785875908 3065.7266031930922 0 0 0 0 1.6006996636184299 -5.325278969419597 0 -5.325278969419597 13.560669091203042 0 0 0 0 464.90441606584437 -924.02866260819803 0 -924.02866260819803 295.60542092392143 0 0 0 0 646.51371450144131 -632.53256849518448 0 -632.53256849518448 -299.12395312127239 0 0 0 0 -221.73036598696723 487.59560340474809 0 487.59560340474809 377.82364082503591 0 0 0 0 233.75154114767116 -593.39259284398122 0 -593.39259284398122 -270.22451963062667 0 0 0 0 -640.8272783811077 -548.87823838255417 0 -548.87823838255417 -71.029775976569908 0 0 0 0 2.0897503735671847 -9.5042765106053295 0 -9.5042765106053295 23.111234541821009 0 0 0 0 -177.89230899990827 170.36884998337828 0 170.36884998337828 346.16406243852862 0 0 0 0 -703.0283624408371 -360.36889530803307 0 -360.36889530803307 292.37365961054218 0 0 0 0 -339.68804200107394 -57.130720923105628 0 -57.130720923105628 1021.0667680058998 0 0 0 0 -1.3379928179026022 -1.5312016090182983 0 -1.5312016090182983 4.59635153739399 0 0 0 0 965.74093363958116 -932.86702353993712 0 -932.86702353993712 550.48734110240241 0 0 0 0 500.47264517549519 -162.98368709145461 0 -162.98368709145461 1085.3980338094361 0 0 0 0 378.2351525492835 484.51665783147149 0 484.51665783147149 502.8767351210364 0 0 0 0 393.86648935720592 -386.67680672836309 0 -386.67680672836309 632.59304651484081 0 0 0 0 58.698446737235827 -203.49138512546642 0 -203.49138512546642 817.1664527460274 0 0 0 0 313.1381326539256 36.198278521717157 0 36.198278521717157 876.93882251279456 0 0 0 0 164.99038984547678 -219.2049942407948 0 -219.2049942407948 787.24362855544587 0 0 0 0 241.22062819114041 -60.3943827028545 0 -60.3943827028545 -33.37461760631686 0 0 0 0 209.41102956196019 -247.77786722376686 0 -247.77786722376686 368.36761216214882 0 0 0 0 68.235319320982612 -121.28940272012824 0 -121.28940272012824 366.01491573924 0 0 0 0 154.38162151461989 -34.625855741145415 0 -34.625855741145415 -77.088879199797248 0 0 0 0 -24.016919509248709 57.991646101212609 0 57.991646101212609 50.948565723740785 0 0 0 0 -53.081567349296975 19.18018455513095 0 19.18018455513095 6.2984647227767709 0 0 0 0 -1.4688262123413178 -2.2547838531114928 0 -2.2547838531114928 10.613489763180066 0 0 0 0 0.67338031850380276 -0.79503820214207455 0 -0.79503820214207455 3.9416986388359962 0 0 0 0 107.03672520356022 -295.97410557077717 0 -295.97410557077717 258.71714773822305 0 0 0 0 -67.260637434961723 322.39698457193407 0 322.39698457193407 84.329667327956699 0 0 0 0 52.576317750443422 127.25145323927538 0 127.25145323927538 207.17162571632434 0 0 0 0 -354.00526412979451 176.01333567490261 0 176.01333567490261 469.2149080803718 0 0 0 0 1.3868990958226184 -4.2395385646110864 0 -4.2395385646110864 9.4211653371785715 0 0 0 0 -335.61483366194994 246.26937702775527 0 246.26937702775527 326.61913731983088 0 0 0 0 -287.44989908377136 100.802210479648 0 100.802210479648 455.47733174747168 0 0 0 0 -299.7297418862845 28.374695375318048 0 28.374695375318048 570.8104637709414 0 0 0 0 -105.3149305851299 20.065961929513627 0 20.065961929513627 198.84896278227683 0 0 0 0 90.082356063817883 181.08968627884767 0 181.08968627884767 194.46216564104702 0 0 0 0 -18.681549960989514 -8.7197597051892899 0 -8.7197597051892899 30.159349282871517 0 0 0 0 -6.1342836022664553 -0.40518349267344822 0 -0.40518349267344822 3.6270671668886623 0 0 0 0 16.688725408337177 -13.338204326923886 0 -13.338204326923886 21.067727007992318 0 0 0 0 -0.33819308645983215 -3.9631084366627571 0 -3.9631084366627571 9.8251811390595698 0 0 0 0 8.3567346412821379 -22.482973546930054 0 -22.482973546930054 26.774419329342663 0 0 0 0 39.819739859691595 -2.2516089900333327 0 -2.2516089900333327 -3.6751846700717579 0 0 0 0 84.310756362958003 -59.495198828784737 0 -59.495198828784737 30.469551413043519 0 0 0 0 171.95600643327407 -102.66975594226005 0 -102.66975594226005 48.155382715423798 0 0 0 0 0.90388790145276277 -1.4147449652526829 0 -1.4147449652526829 3.5082627129822246 0 0 0 0 44.302256584847214 78.203919131178509 0 78.203919131178509 73.667371079241292 0 0 0 0 14.423328748415315 78.895645812134944 0 78.895645812134944 180.91899162217032 0 0 0 0 -1.4907552932453143 -0.51925421941086825 0 -0.51925421941086825 140.92437584574748 0 0 0 0 49.395500111764875 41.539503940952613 0 41.539503940952613 51.949096286817166 0 0 0 0 -0.94229260488870181 0.27346704998667271 0 0.27346704998667271 -0.14516444032696357 0 0 0 0 -3.5887021156145833 -0.10061909780645895 0 -0.10061909780645895 3.5360313074867902 0 0 0 0 -14.756750912853647 -14.790451222374372 0 -14.790451222374372 84.94687642064946 0 0 0 0 31.494452910485364 4.6338839547041744 0 4.6338839547041744 0.07616782490595142 0 0 0 0 -420.52962686934256 39.779418832991723 0 39.779418832991723 71.304194777720113 0 0 0 0 0.73379378773801951 -11.135115517678242 0 -11.135115517678242 53.107072900664583 0 0 0 0 -228.30791081881921 64.162353918849476 0 64.162353918849476 -32.487059683493499 0 0 0 0 -424.20212948449557 16.871133310686673 0 16.871133310686673 330.81153549312148 0 0 0 0 47.537433449424782 47.080983799909518 0 47.080983799909518 29.390942282945616 0 0 0 0 -85.027900613946713 -47.060133020262583 0 -47.060133020262583 9.5894962684085385 0 0 0 0 -141.44021102233432 11.057657034654767 0 11.057657034654767 13.128203166074741 0 0 0 0 -106.96053355465199 -53.331845465018887 0 -53.331845465018887 -36.083771468489516 0 0 0 0 -109.37991447995614 -48.305523569665638 0 -48.305523569665638 93.471402414292243 0 0 0 0 -392.79664651316079 29.647482544176228 0 29.647482544176228 113.76626680685376 0 0 0 0 -452.93173377033088 -72.308589633393581 0 -72.308589633393581 173.59259996928449 0 0 0 0 1.3667942685964714 -11.324318921159005 0 -11.324318921159005 51.292325128676893 0 0 0 0 -224.92396854043318 69.497946768086763 0 69.497946768086763 -26.696526589316591 0 0 0 0 -168.15141630879373 -27.023278727742422 0 -27.023278727742422 84.813744836106949 0 0 0 0 4.320598510146695 -82.213719167353361 0 -82.213719167353361 107.2421307834111 0 0 0 0 -78.003369721109323 20.063252838543804 0 20.063252838543804 18.876784463618378 0 0 0 0 -1.4288363459092848 0.44918226172736742 0 0.44918226172736742 -0.15620741295664312 0 0 0 0 3.8316830566159865 -60.577417017897965 0 -60.577417017897965 117.78863827154744 0 0 0 0 35.117660090753702 -77.260306255866567 0 -77.260306255866567 30.950159418815474 0 0 0 0 -349.79072682545257 -112.03568785807431 0 -112.03568785807431 1.7107686762518437 0 0 0 0 -630.94833677009296 -26.715271994720581 0 -26.715271994720581 236.75399211687841 0 0 0 0 -153.05656214332919 172.91340059973177 0 172.91340059973177 152.48711834116455 0 0 0 0 -425.98877181467276 90.43582442043072 0 90.43582442043072 59.626694537792446 0 0 0 0 -367.28737932430863 -15.217613096645664 0 -15.217613096645664 200.42395505475062 0 0 0 0 -275.58123168554494 -324.70474133789867 0 -324.70474133789867 35.376701104799622 0 0 0 0 848.65738672844861 -77.382710793412585 0 -77.382710793412585 -33.784964542164047 0 0 0 0 -424.24379125626956 26.746588871051273 0 26.746588871051273 726.64085181270752 0 0 0 0 65.558891075379677 -547.36452806616194 0 -547.36452806616194 342.71879403555522 0 0 0 0 216.2026001164821 -340.45890763878504 0 -340.45890763878504 -64.98250809945057 0 0 0 0 192.63879032103614 -295.41831520047572 0 -295.41831520047572 -140.55247478331967 0 0 0 0 -184.55448742704721 -321.92532525847582 0 -321.92532525847582 141.10673564472654 0 0 0 0 -328.74301411838087 -316.23410999197949 0 -316.23410999197949 58.146726569612838 0 0 0 0 -511.09696380106288 -149.08729568944614 0 -149.08729568944614 71.423797052625559 0 0 0 0 2.5302971580082385 -14.533392940976668 0 -14.533392940976668 48.928797611034682 0 0 0 0 -214.56645749349968 -255.86355504186679 0 -255.86355504186679 20.271145447370145 0 0 0 0 -314.13893898799415 -231.01401165410198 0 -231.01401165410198 36.822996431003958 0 0 0 0 1.0797468718194523 -283.32058774358666 0 -283.32058774358666 -23.267266955743253 0 0 0 0 -553.24190077206413 -214.94249167272028 0 -214.94249167272028 93.320244324644591 0 0 0 0 -363.94335701602154 -40.645136251678196 0 -40.645136251678196 -152.3898723450784 0 0 0 0 -398.29604135965178 -253.82952198668499 0 -253.82952198668499 -99.300968307895801 0 0 0 0 -291.26505060337286 -179.33503982232082 0 -179.33503982232082 33.03970361442407 0 0 0 0 -306.1739986021812 -117.14233761819514 0 -117.14233761819514 23.616347446040891 0 0 0 0 -290.82141071363003 -71.150136983206266 0 -71.150136983206266 -127.44146735713002 0 0 0 0 -2.3933020655016231 2.5998537386069387 0 2.5998537386069387 1.2179793726849866 0 0 0 0 -537.98881067249044 -152.97641139331154 0 -152.97641139331154 115.7056552667691 0 0 0 0 -316.60378294540101 -149.08122246247785 0 -149.08122246247785 39.549184857292857 0 0 0 0 -268.1146064025682 -7.9826501411869231 0 -7.9826501411869231 73.827597876173968 0 0 0 0 -390.32578587511159 -11.69778775269242 0 -11.69778775269242 95.487538252436934 0 0 0 0 25.782952389799732 -40.900880020939439 0 -40.900880020939439 -24.359527512726345 0 0 0 0 -145.83452595327844 -52.502755211111435 0 -52.502755211111435 35.299529227097082 0 0 0 0 -262.24326245057159 -60.909449430212817 0 -60.909449430212817 55.341091672496987 0 0 0 0 17.71305918219889 -64.42040044197347 0 -64.42040044197347 -27.289381815293382 0 0 0 0 -142.61857877028734 -74.312577677166701 0 -74.312577677166701 6.5822778996443958 0 0 0 0 -123.48155633844362 -119.40859779224775 0 -119.40859779224775 -12.954286245707408 0 0 0 0 -124.62885087604423 -104.64733715575676 0 -104.64733715575676 19.617731975456991 0 0 0 0 -52.108207374447716 -43.673759914765469 0 -43.673759914765469 93.057889456091289 0 0 0 0 -37.825741493170995 -106.14366835636793 0 -106.14366835636793 -64.009652228403866 0 0 0 0 45.806704560550088 -123.36071104754592 0 -123.36071104754592 -20.529769829510769 0 0 0 0 129.89177986105651 -119.02382083853445 0 -119.02382083853445 111.04964972441303 0 0 0 0 -257.97699411966914 -217.10282399060088 0 -217.10282399060088 26.414528573404823 0 0 0 0 -537.09507435377316 24.675054029881721 0 24.675054029881721 16.208969870436704 0 0 0 0 -464.0301757593312 -107.0395642634594 0 -107.0395642634594 113.84839197557631 0 0 0 0 41.369094730931693 -71.119627995833071 0 -71.119627995833071 -5.4094636844556589 0 0 0 0 -538.57554086554285 -242.35657347936649 0 -242.35657347936649 254.84149854934185 0 0 0 0 -13.951655158094049 152.5796501215583 0 152.5796501215583 470.49150961511441 0 0 0 0 96.011803750932785 -15.58798413702516 0 -15.58798413702516 581.3910624573673 0 0 0 0 14.476591086939379 -193.80566582478195 0 -193.80566582478195 -198.44684760497466 0 0 0 0 -77.08799457526554 -75.524130084844273 0 -75.524130084844273 -132.76770614042152 0 0 0 0 109.22824149497455 -15.925840771949424 0 -15.925840771949424 -59.394136675438858 0 0 0 0 -89.315946663058185 -209.03065910213718 0 -209.03065910213718 -23.769580901567679 0 0 0 0 -731.28231877415851 -251.08730430523428 0 -251.08730430523428 -129.71207810139458 0 0 0 0 -2.9087215526988244 -4.3944442540865261 0 -4.3944442540865261 46.21416320149298 0 0 0 0 -67.645047090886692 -174.71288427536456 0 -174.71288427536456 29.635014272887929 0 0 0 0 -864.15181968293848 -48.432982508983514 0 -48.432982508983514 314.66281133643133 0 0 0 0 1.0325454057287557 -9.0813557950701398 0 -9.0813557950701398 37.773402023362927 0 0 0 0 293.43834804551494 84.073148269668309 0 84.073148269668309 -132.28730833991676 0 0 0 0 35.667126656799319 -125.6179117356769 0 -125.6179117356769 -220.21094008404179 0 0 0 0 797.93002291888081 -432.89102857946091 0 -432.89102857946091 296.37179677787572 0 0 0 0 -201.27748364275115 -286.02031621067999 0 -286.02031621067999 1805.2383834539414 0 0 0 0 -180.00539741833529 41.622865142200681 0 41.622865142200681 1093.89321536433 0 0 0 0 13.635072461028088 934.05766957186165 0 934.05766957186165 1761.2674233333873 0 0 0 0 749.69775807522365 -577.05956802966648 0 -577.05956802966648 821.0393292192166 0 0 0 0 1.1558192539415142 -3.0478430479673966 0 -3.0478430479673966 16.704003479558466 0 0 0 0 359.80513233998397 -30.948512934179234 0 -30.948512934179234 2607.3583880208571 0 0 0 0 1198.3364864164046 426.9432234068463 0 426.9432234068463 2500.9972474057467 0 0 0 0 -530.77631712118409 -39.198199721620767 0 -39.198199721620767 2942.960980789524 0 0 0 0 291.51291568624674 -779.09122741133206 0 -779.09122741133206 2177.1117389168467 0 0 0 0 -231.49630937605122 481.38096476242708 0 481.38096476242708 1711.0319125970545 0 0 0 0 48.756927319746922 350.76367084124286 0 350.76367084124286 193.25348514147925 0 0 0 0 -502.5910790181992 515.31861745754577 0 515.31861745754577 2499.9057019898964 0 0 0 0 -466.74892958044256 227.85702903253241 0 227.85702903253241 1789.104092127729 0 0 0 0 -444.25898991259675 -2.9586512496271098 0 -2.9586512496271098 2499.4401191658289 0 0 0 0 226.53585712477624 -219.89618086481232 0 -219.89618086481232 574.73126533316463 0 0 0 0 198.88618166854815 -557.00762639654749 0 -557.00762639654749 1630.0342625841877 0 0 0 0 -209.46015173280784 22.482419830892468 0 22.482419830892468 2619.0365822165477 0 0 0 0 -96.270332681627991 -52.115550735128636 0 -52.115550735128636 1844.6939864183068 0 0 0 0 1119.5656356005923 -284.84294020611742 0 -284.84294020611742 2500.0639248819552 0 0 0 0 843.90534341005252 -174.4438871405473 0 -174.4438871405473 3340.7512756886135 0 0 0 0 377.2138281442451 531.38250406196676 0 531.38250406196676 2500.8450841766844 0 0 0 0 4.7879095753191603 -6.6946596392060123 0 -6.6946596392060123 9.9579359879313287 0 0 0 0 440.24467465739724 1117.0260749790141 0 1117.0260749790141 3481.9314428137473 0 0 0 0 462.16901743257608 -1092.5521509971441 0 -1092.5521509971441 1985.3913549908712 0 0 0 0 405.09969846759714 -541.77156313390515 0 -541.77156313390515 -212.38318037746649 0 0 0 0 300.48379521420316 -17.331411950034635 0 -17.331411950034635 111.81511548963499 0 0 0 0 267.59143590371923 -82.023592961495524 0 -82.023592961495524 586.73747543060244 0 0 0 0 -89.533631293484177 167.04251830040175 0 167.04251830040175 172.29196183819113 0 0 0 0 144.7992585172276 143.42765774914915 0 143.42765774914915 118.7662223935842 0 0 0 0 266.07133287816941 19.621757551532028 0 19.621757551532028 61.699601494690796 0 0 0 0 238.81898676225455 29.49133521577096 0 29.49133521577096 222.54516574306626 0 0 0 0 301.05153382957548 5.3826631231140709 0 5.3826631231140709 59.830147859345743 0 0 0 0 201.72996554339923 -25.889384873556082 0 -25.889384873556082 354.44522223836975 0 0 0 0 216.56618754230584 29.082046780489691 0 29.082046780489691 91.860434820437604 0 0 0 0 80.058914205509552 105.58177005835296 0 105.58177005835296 932.29686787885294 0 0 0 0 373.8134773588165 -31.513377022527493 0 -31.513377022527493 237.98424335859454 0 0 0 0 320.36420139816187 -185.629586660737 0 -185.629586660737 414.34004140349134 0 0 0 0 -197.91310641328664 85.076509400911164 0 85.076509400911164 1822.8728371820271 0 0 0 0 -472.38000703481265 -53.646076604030895 0 -53.646076604030895 2499.5861238272482 0 0 0 0 -371.28848046515338 135.98222050029881 0 135.98222050029881 1972.9394867124829 0 0 0 0 -369.77161243306159 128.10727701952783 0 128.10727701952783 1834.1253295014503 0 0 0 0 152.63394812770309 707.7747356725904 0 707.7747356725904 1636.9300882647467 0 0 0 0 -195.46730608531331 528.01457132563519 0 528.01457132563519 2499.4101514906324 0 0 0 0 -113.49045570248774 351.3150604489274 0 351.3150604489274 2495.6278002503514 0 0 0 0 152.71261665064745 509.80879400110643 0 509.80879400110643 1598.7906138340149 0 0 0 0 425.27757014090582 957.06472543904215 0 957.06472543904215 1843.9509014840405 0 0 0 0 -145.02050559537969 -170.74356796756092 0 -170.74356796756092 -20.193771164376813 0 0 0 0 11.197209501683556 -18.984933453541863 0 -18.984933453541863 22.685749530346762 0 0 0 0 -53.900950114466468 10.053931820847538 0 10.053931820847538 123.76903217843483 0 0 0 0 15.722763104722617 28.193202362451302 0 28.193202362451302 89.021465085888849 0 0 0 0 -49.924992515511804 -86.568079953673532 0 -86.568079953673532 17.775389300637471 0 0 0 0 -90.290537617051086 -44.06681465296424 0 -44.06681465296424 88.406982930379627 0 0 0 0 -24.496284640454178 4.1209837348196743 0 4.1209837348196743 95.395287924955937 0 0 0 0 -38.769526266018715 195.40510460794394 0 195.40510460794394 960.1332761123922 0 0 0 0 -21.467620568180678 118.7790282592905 0 118.7790282592905 956.08825656664681 0 0 0 0 16.59090356320446 -26.165488457134906 0 -26.165488457134906 28.221231681226485 0 0 0 0 -22.901958390599418 267.44216134732187 0 267.44216134732187 1181.0545821458509 0 0 0 0 79.292788257266693 30.395721799461171 0 30.395721799461171 989.4764311907893 0 0 0 0 -79.260479384691024 265.33076667272871 0 265.33076667272871 761.55756814935739 0 0 0 0 4.1067520966917073 -13.907364548731493 0 -13.907364548731493 70.20127638901613 0 0 0 0 -3.4148528253463155 -29.078193276949605 0 -29.078193276949605 40.614300645859657 0 0 0 0 211.40348660719519 -137.73281324037089 0 -137.73281324037089 27.270584049296303 0 0 0 0 14.357259138627114 -53.814641254277376 0 -53.814641254277376 -6.6971872848625935 0 0 0 0 3.3415652557951399 0.51625675737071219 0 0.51625675737071219 1.2536287670834128 0 0 0 0 20.206838243216151 -29.493844681995888 0 -29.493844681995888 33.101664548988957 0 0 0 0 4.0837336225364194 -0.58481563995567321 0 -0.58481563995567321 -0.82823012471655488 0 0 0 0 58.35067377339125 149.71815839128521 0 149.71815839128521 518.09590024928912 0 0 0 0 -130.5384140529078 -135.47117273971526 0 -135.47117273971526 1285.9827644204925 0 0 0 0 -56.426217075438899 -170.03296366175709 0 -170.03296366175709 718.29259654633279 0 0 0 0 59.946130635463049 107.24434677977843 0 107.24434677977843 1096.5920824404748 0 0 0 0 -8.6469157924401081 13.131842206172585 0 13.131842206172585 50.174869022045229 0 0 0 0 20.817382164937726 41.469245543108627 0 41.469245543108627 -32.634302761591243 0 0 0 0 9.4342879718518589 -0.58180447260929213 0 -0.58180447260929213 32.033085465576733 0 0 0 0 0.13932341903886292 5.6915618329108195 0 5.6915618329108195 9.9575652552740621 0 0 0 0 36.040215706726713 -5.9162186281444065 0 -5.9162186281444065 77.949503304724203 0 0 0 0 7.2537899936687609 -20.160373173235712 0 -20.160373173235712 73.84121497787055 0 0 0 0 -1.1302863943302892 -3.6618501564034247 0 -3.6618501564034247 32.900019816599269 0 0 0 0 -5.5532268506523881 3.3631191271959793 0 3.3631191271959793 51.297633612291435 0 0 0 0 -9.816958847693968 8.6903384382167133 0 8.6903384382167133 39.360596615762915 0 0 0 0 -18.634489120533544 1.0725671597901965 0 1.0725671597901965 43.745153832423966 0 0 0 0 -21.441483371952927 -13.481875032106473 0 -13.481875032106473 34.955343025023467 0 0 0 0 -3.9272334506217002 -0.3329206081971563 0 -0.3329206081971563 7.8062485373571917 0 0 0 0 9.8687542385216851 -14.422025142191796 0 -14.422025142191796 4.7353448951202779 0 0 0 0 -9.0930597907208721 -9.6492905527247785 0 -9.6492905527247785 35.000107266023406 0 0 0 0 -14.517441925861931 -25.174870827433551 0 -25.174870827433551 84.978575376237131 0 0 0 0 5.5792028812670651 -24.476240604069062 0 -24.476240604069062 93.704993330258276 0 0 0 0 9.0010951280701192 -15.949293932418186 0 -15.949293932418186 87.980977829063704 0 0 0 0 -2.2565573421206864 -4.7003170517937178 0 -4.7003170517937178 94.706633829502607 0 0 0 0 -9.3702213499418576 -8.0288550070508791 0 -8.0288550070508791 94.699933811603842 0 0 0 0 -44.562146908084287 -28.54515760401955 0 -28.54515760401955 85.5003010250839 0 0 0 0 -11.753547062736061 -7.876295302938388 0 -7.876295302938388 95.895937460369169 0 0 0 0 -15.365164028883555 -2.756638217051659 0 -2.756638217051659 98.643692297135203 0 0 0 0 -7.003938858420014 14.721301324741091 0 14.721301324741091 110.58948636459172 0 0 0 0 37.533919786126717 11.906399877051626 0 11.906399877051626 89.169768520414436 0 0 0 0 2.8787458046176653 3.3571579315566851 0 3.3571579315566851 90.192093956590725 0 0 0 0 33.811013100060109 -8.8161830123144682 0 -8.8161830123144682 78.482524337585346 0 0 0 0 -0.6139387904067366 28.168456117995497 0 28.168456117995497 55.534840648090338 0 0 0 0 -8.0669263024346947 27.445572553127931 0 27.445572553127931 78.771471286430085 0 0 0 0 -33.259653461891958 12.805911321640451 0 12.805911321640451 40.842908736640311 0 0 0 0 3.0252875634223457 9.7966590091977537 0 9.7966590091977537 83.976075108039367 0 0 0 0 -5.4210900332304792 23.506648122474722 0 23.506648122474722 49.626715112026567 0 0 0 0 -18.224771753297581 1.8434774187420544 0 1.8434774187420544 31.498439074159251 0 0 0 0 -8.6691628113285333 156.49037805282023 0 156.49037805282023 5.6538196995679755 0 0 0 0 78.904307355419235 -97.249208347513559 0 -97.249208347513559 115.62534102217251 0 0 0 0 180.71249404128343 67.402207778714001 0 67.402207778714001 19.767904766285938 0 0 0 0 0.32733847721246012 -0.010361480930374256 0 -0.010361480930374256 3.8769615370325852 0 0 0 0 187.83679200394977 -14.913335050137903 0 -14.913335050137903 -7.7119486610980061 0 0 0 0 215.91043286974286 -29.797649729795467 0 -29.797649729795467 -20.262374705424008 0 0 0 0 206.25766236371211 -48.492102000459909 0 -48.492102000459909 -40.503954569001507 0 0 0 0 170.14674365182543 -70.965003883784448 0 -70.965003883784448 -24.286903028515553 0 0 0 0 29.825969020262779 -69.028502142609227 0 -69.028502142609227 -19.579105061802693 0 0 0 0 155.28988871999263 -39.140283203607396 0 -39.140283203607396 -40.854235205779332 0 0 0 0 154.31499868068698 -35.289050503266481 0 -35.289050503266481 -10.166594416179578 0 0 0 0 251.31520240921446 -21.560797895058386 0 -21.560797895058386 -31.016480626767589 0 0 0 0 24.713328933830375 -88.041684116591114 0 -88.041684116591114 -2.4850801099964883 0 0 0 0 104.78632268056433 -27.467377652751566 0 -27.467377652751566 -8.2199906729838403 0 0 0 0 154.07807596959731 -88.857357817149023 0 -88.857357817149023 66.764024090781277 0 0 0 0 219.16891842618077 -7.6514943627807952 0 -7.6514943627807952 69.510770851542475 0 0 0 0 249.25043073997824 1.1071817667798314 0 1.1071817667798314 -8.5030831202020636 0 0 0 0 202.57251857493202 54.411712230876219 0 54.411712230876219 46.918068927057902 0 0 0 0 15.820099801529068 26.047918229144216 0 26.047918229144216 102.44135451707552 0 0 0 0 37.941505854344982 4.7582557123032529 0 4.7582557123032529 79.03763780160989 0 0 0 0 123.48598410352247 49.118074597783561 0 49.118074597783561 83.724729997462418 0 0 0 0 125.90019253647642 12.230007704896764 0 12.230007704896764 36.465086104839429 0 0 0 0 184.27951664432021 -16.25698164359801 0 -16.25698164359801 27.842280438402668 0 0 0 0 132.01554666098991 -29.453554971672929 0 -29.453554971672929 27.653407930662098 0 0 0 0 174.19819716019799 -72.8424854332834 0 -72.8424854332834 48.159677781291975 0 0 0 0 97.724954306662084 -44.145161075573924 0 -44.145161075573924 69.645314674451583 0 0 0 0 57.445930337060872 8.8509380477453306 0 8.8509380477453306 77.289915532776149 0 0 0 0 23.957577735317045 -18.386683116641507 0 -18.386683116641507 126.4446197233965 0 0 0 0 111.32497284016927 -60.392464066791035 0 -60.392464066791035 82.363002682918705 0 0 0 0 108.67928075929007 -72.840526148787831 0 -72.840526148787831 48.999400245687866 0 0 0 0 198.16791319793947 -159.1941517250325 0 -159.1941517250325 131.71087031894695 0 0 0 0 213.65907329125102 -71.86877396348666 0 -71.86877396348666 24.87930879625128 0 0 0 0 195.82923668097061 -52.691906878849295 0 -52.691906878849295 -19.992242973516113 0 0 0 0 199.15158605312399 -59.55663816215565 0 -59.55663816215565 -7.5811350891708571 0 0 0 0 182.59569497477992 -83.564630555946678 0 -83.564630555946678 20.500732088161385 0 0 0 0 140.95677880843914 -13.979911271559104 0 -13.979911271559104 -41.808599832424079 0 0 0 0 199.81195627587266 -58.712633963057669 0 -58.712633963057669 -36.761121860777962 0 0 0 0 421.51923787342776 -234.19575782268839 0 -234.19575782268839 144.59142471684299 0 0 0 0 270.78481214911392 130.60615601044947 0 130.60615601044947 159.63264000912022 0 0 0 0 -134.00576201811577 -129.40028422148771 0 -129.40028422148771 450.15653708681475 0 0 0 0 -141.6086044625813 -179.34928111331647 0 -179.34928111331647 105.42904597180677 0 0 0 0 369.94678321826427 -285.30446719726217 0 -285.30446719726217 122.22812398582937 0 0 0 0 231.68532295363156 39.887368162910661 0 39.887368162910661 -69.856131026655021 0 0 0 0 104.0667580366071 17.921566004388296 0 17.921566004388296 45.401511051783018 0 0 0 0 132.60532838769404 42.472850093800844 0 42.472850093800844 20.848077893568188 0 0 0 0 436.08184800307379 147.79052024338057 0 147.79052024338057 50.863159274118516 0 0 0 0 36.936791227295657 119.01758024862261 0 119.01758024862261 232.12805060164101 0 0 0 0 54.791058580628032 48.432759256498684 0 48.432759256498684 469.56889631225931 0 0 0 0 5.4855888816637179 -1.6049319980772907 0 -1.6049319980772907 -0.5324140197502345 0 0 0 0 92.181652991207557 -167.84662746628419 0 -167.84662746628419 486.29583551635733 0 0 0 0 95.754595704340673 -123.54265222615606 0 -123.54265222615606 248.06597529025748 0 0 0 0 8.5385236176143735 53.892777566121367 0 53.892777566121367 149.41845868646215 0 0 0 0 24.178970054831552 -61.781765833848112 0 -61.781765833848112 196.26591393259969 0 0 0 0 45.463437816549913 -19.403277171050831 0 -19.403277171050831 102.01208512344601 0 0 0 0 30.006493530326452 -22.554483384198647 0 -22.554483384198647 80.807907179429094 0 0 0 0 18.347694453828126 69.379009227416645 0 69.379009227416645 54.461680348963 0 0 0 0 3.7723064491176235 30.525088739337171 0 30.525088739337171 63.294570488940508 0 0 0 0 -17.409768892199111 10.907688354109496 0 10.907688354109496 90.957359319894749 0 0 0 0 18.069858246367403 27.150529646562063 0 27.150529646562063 93.428008690230854 0 0 0 0 17.144249353771556 43.444619976020476 0 43.444619976020476 49.884594426563126 0 0 0 0 1.543063406000996 10.048000660309338 0 10.048000660309338 8.3588425300556111 0 0 0 0 -27.91086355883931 16.775643044820754 0 16.775643044820754 82.208242240438267 0 0 0 0 -1.4508393365027654 4.6235645830675693 0 4.6235645830675693 44.659955740349346 0 0 0 0 6.5412045989576839 -3.5185092970470091 0 -3.5185092970470091 13.986873299137567 0 0 0 0 -16.548854288795106 13.433730117055347 0 13.433730117055347 52.142706605907733 0 0 0 0 -12.66594827288634 4.1297077032668312 0 4.1297077032668312 48.647150714172312 0 0 0 0 -9.3241481828211725 2.4388336281909755 0 2.4388336281909755 56.29466018955128 0 0 0 0 -8.0444756214375275 12.039207677942613 0 12.039207677942613 37.638557757283706 0 0 0 0 -11.597502849556905 14.252671895839491 0 14.252671895839491 33.17788742941881 0 0 0 0 -1.0824340392310727 -0.66820874132991293 0 -0.66820874132991293 18.773640296803407 0 0 0 0 -9.3603640725809782 6.880331903379556 0 6.880331903379556 79.759054145150003 0 0 0 0 -0.30389309414385934 22.034221747388074 0 22.034221747388074 80.94669147049558 0 0 0 0 -8.5149290671490903 3.0156069351857546 0 3.0156069351857546 37.750055872439304 0 0 0 0 65.97242352131434 -27.902193178306334 0 -27.902193178306334 89.691106879501604 0 0 0 0 -4.1602787036954396 16.388476181731676 0 16.388476181731676 66.835307334578829 0 0 0 0 -7.7098280304244327 11.4953437282511 0 11.4953437282511 52.915145264974853 0 0 0 0 -3.8655058754038993 -3.2648612575654496 0 -3.2648612575654496 5.055933699576542 0 0 0 0 136.60257082342196 16.084009798021725 0 16.084009798021725 19.680446053345804 0 0 0 0 -11.19714383679252 10.264297895577329 0 10.264297895577329 56.153256442534257 0 0 0 0 -10.056687457044973 10.944820201566472 0 10.944820201566472 52.796379604124922 0 0 0 0 -2.8942964733030578 5.7112699640085793 0 5.7112699640085793 53.771607148119074 0 0 0 0 -144.97110048515708 -142.898907641812 0 -142.898907641812 317.07915377513382 0 0 0 0 -0.24507896669729234 14.935538169482243 0 14.935538169482243 63.271241067741357 0 0 0 0 -126.24502872280846 -204.85744721293486 0 -204.85744721293486 138.40903210252577 0 0 0 0 -3.8357384362501912 21.545873693727476 0 21.545873693727476 46.246029155456007 0 0 0 0 163.48261685092757 -67.226077868069751 0 -67.226077868069751 -117.42575504859656 0 0 0 0 155.37349760560846 -51.910741063434216 0 -51.910741063434216 42.01535259544616 0 0 0 0 -12.912554524135059 11.508394284078804 0 11.508394284078804 38.675343663930853 0 0 0 0 190.97738954193721 3.9122748328936723 0 3.9122748328936723 -6.3948435031306872 0 0 0 0 15.018183449052231 -89.730451869570061 0 -89.730451869570061 217.89121441966199 0 0 0 0 12.436636381878543 109.68792485616905 0 109.68792485616905 228.30486829787696 0 0 0 0 -28.082891056259768 -13.486960415488284 0 -13.486960415488284 84.820233063459455 0 0 0 0 -21.870843522758605 -3.1602440437745827 0 -3.1602440437745827 101.8301507372687 0 0 0 0 -85.544069981222492 75.754138245889408 0 75.754138245889408 98.459916183943278 0 0 0 0 -10.628195595664693 5.8424044836356188 0 5.8424044836356188 88.38309433137465 0 0 0 0 -19.380550709908107 0.52718717334028042 0 0.52718717334028042 88.777606159754214 0 0 0 0 -0.8776201577418874 17.47907674508815 0 17.47907674508815 45.65745492678252 0 0 0 0 -12.950125153852696 -5.7678573186258291 0 -5.7678573186258291 66.395958782723028 0 0 0 0 -11.834559892547359 5.6787850959934048 0 5.6787850959934048 15.452721069279676 0 0 0 0 1.0154078561793085 33.174975401001575 0 33.174975401001575 67.465036691428395 0 0 0 0 -1.522774143458264 8.3326223645799473 0 8.3326223645799473 36.939530059753451 0 0 0 0 36.008646741660414 203.50387071724253 0 203.50387071724253 -130.88859195858822 0 0 0 0 20.383549456485298 42.28349895800784 0 42.28349895800784 59.752996156945301 0 0 0 0 -10.998648049374651 41.853045199496592 0 41.853045199496592 79.184300605265889 0 0 0 0 0.29351248934881369 39.661393561269506 0 39.661393561269506 -8.0458931943257994 0 0 0 0 -11.37007872291997 -11.137956782098627 0 -11.137956782098627 84.37480088187931 0 0 0 0 48.880961750713823 -23.097437190905111 0 -23.097437190905111 20.219119547109585 0 0 0 0 -80.196042776703138 1.7291099741984226 0 1.7291099741984226 60.682233410647314 0 0 0 0 -2.914421926859518 23.254858047012959 0 23.254858047012959 36.282790376997994 0 0 0 0 -91.10556548142813 -63.979745114000252 0 -63.979745114000252 159.50082472720624 0 0 0 0 -80.624990025727016 -27.947007408078065 0 -27.947007408078065 82.190756846408476 0 0 0 0 -400.41590372844075 224.63267543582333 0 224.63267543582333 117.14602819049469 0 0 0 0 -2.0640078859939308 94.272846071438835 0 94.272846071438835 -28.492710678696312 0 0 0 0 6.2458235319065549 29.865574292804027 0 29.865574292804027 39.220301846952097 0 0 0 0 2.5585007159246125 -0.6644830787759588 0 -0.6644830787759588 1.5387367675802466 0 0 0 0 -55.128890601529974 -69.620694317200105 0 -69.620694317200105 -2.25124569239415 0 0 0 0 28.470171679327905 -32.490839492005762 0 -32.490839492005762 109.26312137505738 0 0 0 0 -72.854425537302177 -43.126794926041839 0 -43.126794926041839 -8.1697310103627387 0 0 0 0 -78.275623563677982 -62.00261656730072 0 -62.00261656730072 84.677292269509053 0 0 0 0 -57.075949739787575 -83.195598553127638 0 -83.195598553127638 19.395083237723156 0 0 0 0 -55.973291732344478 -38.44774939324634 0 -38.44774939324634 9.7952679677400738 0 0 0 0 -18.783783914302489 13.701102594404801 0 13.701102594404801 59.922134017695498 0 0 0 0 2.5952250043509784 0.53252617501851773 0 0.53252617501851773 -1.3848943658418165 0 0 0 0 26.278363551976781 45.1627801276627 0 45.1627801276627 188.75300560249889 0 0 0 0 27.699783641492559 53.25807208961487 0 53.25807208961487 121.20426521408081 0 0 0 0 5.3800632663335364 34.93498114166141 0 34.93498114166141 71.600849690614268 0 0 0 0 14.977283902218005 24.849930779386341 0 24.849930779386341 61.847290561363479 0 0 0 0 27.50573667426579 41.959045021074417 0 41.959045021074417 72.592646238656016 0 0 0 0 3.8155123423680379 18.288366160973965 0 18.288366160973965 113.64645312738867 0 0 0 0 11.0390599266957 24.439564662105113 0 24.439564662105113 40.507114237887436 0 0 0 0 3.481786317742066 7.8514411653146681 0 7.8514411653146681 2.7903248793808331 0 0 0 0 -0.6899242160702288 -3.6677566712885081 0 -3.6677566712885081 19.941216153328625 0 0 0 0 7.9101411631315539 19.191573219680492 0 19.191573219680492 20.927186545015672 0 0 0 0 0.86056494089234548 19.676575233563199 0 19.676575233563199 34.487420087214559 0 0 0 0 -1.187622382572187 6.3580794885817795 0 6.3580794885817795 15.285507179000689 0 0 0 0 4.0728165149452487 15.837850736225292 0 15.837850736225292 22.347241321459506 0 0 0 0 9.1331854372456291 36.076431746776507 0 36.076431746776507 61.48121120194628 0 0 0 0 0.86056494090098568 19.676575233548647 0 19.676575233548647 34.487420087229111 0 0 0 0 -3.2647154376031722 22.409183451833087 0 22.409183451833087 37.915240585323772 0 0 0 0 15.656521064562185 29.634841662278632 0 29.634841662278632 67.827979079796933 0 0 0 0 0.86056494089234548 19.676575233563199 0 19.676575233563199 34.487420087234568 0 0 0 0 5.1175354038618934 32.216295890852052 0 32.216295890852052 49.315138067351654 0 0 0 0 -5.4814387440270185 10.046951953658159 0 10.046951953658159 10.147145436809183 0 0 0 0 0.44922146692488241 12.114293191138131 0 12.114293191138131 76.578386020893959 0 0 0 0 1.4745055942348699 17.599070172582287 0 17.599070172582287 71.280247430870077 0 0 0 0 -9.7028073794731426 13.405076926748734 0 13.405076926748734 70.187241464183899 0 0 0 0 -14.8093386075372 20.376056762037479 0 20.376056762037479 76.525018518877914 0 0 0 0 -8.5975196632635971 21.875559671978408 0 21.875559671978408 76.425361888977932 0 0 0 0 -6.4742402067009834 2.1407494404338649 0 2.1407494404338649 81.876577097718837 0 0 0 0 -10.078438647976157 8.4527694085500116 0 8.4527694085500116 106.51666223815118 0 0 0 0 -7.0319409092276146 -1.079587605308916 0 -1.079587605308916 104.24808203028078 0 0 0 0 -7.4742802773578205 -0.41515761017762998 0 -0.41515761017762998 121.08345327660209 0 0 0 0 -11.584490628510139 -3.4598923146568268 0 -3.4598923146568268 117.73086874841829 0 0 0 0 -9.7039793299063604 -5.1017975216491322 0 -5.1017975216491322 117.1857385665935 0 0 0 0 -12.48431331187237 -5.3676426841084321 0 -5.3676426841084321 122.3434318614818 0 0 0 0 -9.7591529790561253 -3.9724223336525029 0 -3.9724223336525029 122.54579684985947 0 0 0 0 -6.6127030946504419 -5.4532481840142282 0 -5.4532481840142282 121.08017100365396 0 0 0 0 -3.3693993861406852 -2.079638795403298 0 -2.079638795403298 118.63473163146409 0 0 0 0 -5.4723901343377293 -7.549342993319442 0 -7.549342993319442 122.38962479461043 0 0 0 0 -8.4689483278932585 -6.0287340987670177 0 -6.0287340987670177 123.76350971766806 0 0 0 0 -1.0502027937325238 -3.3378477909391222 0 -3.3378477909391222 122.26307205329067 0 0 0 0 2.9558666058419476 -7.4506611897304538 0 -7.4506611897304538 123.973847121566 0 0 0 0 10.37453729437766 -2.7910311200466822 0 -2.7910311200466822 122.47003661289637 0 0 0 0 -1.5596850084780272 -6.6647744686833903 0 -6.6647744686833903 125.63058380494476 0 0 0 0 -0.39217015154508772 5.6113988714132574 0 5.6113988714132574 123.37654511515575 0 0 0 0 7.2443617437629655 -2.5325045877580123 0 -2.5325045877580123 129.04664289864013 0 0 0 0 -0.91828399080532108 2.1970710961177247 0 2.1970710961177247 107.04324868375261 0 0 0 0 3.4451831351943838 22.309744548190793 0 22.309744548190793 89.636469652461528 0 0 0 0 -7.3449548498399508 2.1893560358475952 0 2.1893560358475952 108.41616401958163 0 0 0 0 8.1222301580410203 22.381900092725118 0 22.381900092725118 117.10959459077276 0 0 0 0 12.627846872287591 9.1578773597502732 0 9.1578773597502732 155.70933237753343 0 0 0 0 32.692487679940314 3.8335109417712374 0 3.8335109417712374 156.99990232649725 0 0 0 0 38.620855513711831 -4.8150172078821925 0 -4.8150172078821925 128.86136251861171 0 0 0 0 19.864459816524686 -2.0221416482236236 0 -2.0221416482236236 142.50002691889676 0 0 0 0 33.995635690905829 3.8659852104628953 0 3.8659852104628953 137.69186814132263 0 0 0 0 16.355136579594728 4.8052923286231817 0 4.8052923286231817 129.40221349854255 0 0 0 0 25.297209685701091 -5.5396670600530342 0 -5.5396670600530342 124.83831319027013 0 0 0 0 10.234696189667375 -3.3700317540060496 0 -3.3700317540060496 127.042939439365 0 0 0 0 27.060708958051691 -0.82107117439591093 0 -0.82107117439591093 121.96346658830589 0 0 0 0 14.468358221922244 -1.5943684007434058 0 -1.5943684007434058 122.24418923276062 0 0 0 0 33.68474007500572 -4.879300655949919 0 -4.879300655949919 123.34108545680647 0 0 0 0 24.671319829762524 -0.41398314026127991 0 -0.41398314026127991 127.76819141278975 0 0 0 0 44.24257161566311 -0.37984302436962025 0 -0.37984302436962025 122.84143756656204 0 0 0 0 42.377162427925214 -3.3637917423184263 0 -3.3637917423184263 122.78410940476169 0 0 0 0 39.768102688728504 2.6392969720818655 0 2.6392969720818655 113.25503684014257 0 0 0 0 13.235876274575276 12.204519461971358 0 12.204519461971358 110.49239075682272 0 0 0 0 13.57819295344234 -19.840901075440343 0 -19.840901075440343 137.24598906864412 0 0 0 0 44.763110752181092 6.1499041151528218 0 6.1499041151528218 96.280629695538664 0 0 0 0 48.97715820517692 37.571334592243147 0 37.571334592243147 175.96997153799748 0 0 0 0 33.675936694147822 16.451875125725564 0 16.451875125725564 179.12907144881319 0 0 0 0 35.134347362718017 -1.3193954510788899 0 -1.3193954510788899 142.24392355038435 0 0 0 0 29.436931714702951 -1.2359600886193221 0 -1.2359600886193221 157.95717049131053 0 0 0 0 57.080887492933471 3.3355883506883401 0 3.3355883506883401 139.87604019404171 0 0 0 0 53.185582147369132 21.487494436310953 0 21.487494436310953 150.22952951640036 0 0 0 0 46.493759763066919 16.76984377662302 0 16.76984377662302 147.55661910682102 0 0 0 0 57.446565781503523 -5.3447690153698204 0 -5.3447690153698204 159.8978891687002 0 0 0 0 89.828409127590021 20.220054115779931 0 20.220054115779931 146.62114753881178 0 0 0 0 62.303977818147359 43.359592871547648 0 43.359592871547648 157.60711354622617 0 0 0 0 68.40230716476799 46.461305599797925 0 46.461305599797925 138.97949602613153 0 0 0 0 -2.0085125500836511 32.20034259872773 0 32.20034259872773 68.695065012008854 0 0 0 0 2.848101901148425 15.84894615408848 0 15.84894615408848 58.460150752296613 0 0 0 0 -6.8840399642252521 23.92594790860494 0 23.92594790860494 54.843348457325192 0 0 0 0 4.6562195143405916 29.92447965606334 0 29.92447965606334 63.234033208107576 0 0 0 0 8.6164619011851755 32.435421788060921 0 32.435421788060921 97.454890512934071 0 0 0 0 16.629852980070609 21.090821432400844 0 21.090821432400844 90.452880047927465 0 0 0 0 7.0573702254896489 37.197557460116514 0 37.197557460116514 82.988891670611338 0 0 0 0 62.400245949584132 77.777316552193952 0 77.777316552193952 48.231371338111785 0 0 0 0 24.774500668386736 49.058481875312282 0 49.058481875312282 130.71654035932806 0 0 0 0 -4.3255041974827115 1.4998853403734103 0 1.4998853403734103 7.0865365323267824 0 0 0 0 12.587686745574615 24.663001522800187 0 24.663001522800187 76.854104519065004 0 0 0 0 30.137430559822405 21.55875935738095 0 21.55875935738095 75.36949864878261 0 0 0 0 3.2275130031841854 18.568100484852039 0 18.568100484852039 77.249117701794603 0 0 0 0 15.7808896612637 25.761183113980223 0 25.761183113980223 70.571376381274604 0 0 0 0 13.693618551838775 9.0781613627511888 0 9.0781613627511888 62.671357874562091 0 0 0 0 14.532578546323506 21.992008875587373 0 21.992008875587373 89.09209015466331 0 0 0 0 -8.5603546037557976 16.573251609450381 0 16.573251609450381 64.583343826692726 0 0 0 0 -9.2831240196434237 9.5595379007563679 0 9.5595379007563679 41.660391650206293 0 0 0 0 -0.57768091148866407 11.055268101989601 0 11.055268101989601 39.904975807534541 0 0 0 0 -16.421109156607372 8.9324597818394977 0 8.9324597818394977 55.814207316965621 0 0 0 0 -5.3879552567329876 10.146612842171237 0 10.146612842171237 21.613361022110723 0 0 0 0 -14.729385787802471 28.005910665879128 0 28.005910665879128 34.067181199643528 0 0 0 0 -0.10269994962391138 25.506372873176588 0 25.506372873176588 44.28217827276967 0 0 0 0 -2.9741583270405272 5.5416868957545375 0 5.5416868957545375 31.082949558443033 0 0 0 0 -1.6486856484017096 26.535871183816198 0 26.535871183816198 45.327635409463255 0 0 0 0 1.5500936767056133 20.532300789682147 0 20.532300789682147 28.921312465586354 0 0 0 0 -11.462553418340235 34.308283447528538 0 34.308283447528538 45.172936066188413 0 0 0 0 3.2954879164445172 18.053815011681124 0 18.053815011681124 31.324681873298687 0 0 0 0 -28.154137281172154 33.681910816181698 0 33.681910816181698 30.113101044327777 0 0 0 0 -22.084491891331027 38.173943179186608 0 38.173943179186608 55.922139927261014 0 0 0 0 1.2219145809602878 14.08579946662212 0 14.08579946662212 65.497742787527386 0 0 0 0 -4.9995085918544975 13.732318152299328 0 13.732318152299328 37.138195683353928 0 0 0 0 10.60993496735739 4.0966670499547035 0 4.0966670499547035 65.000563877649256 0 0 0 0 19.632735039064073 -10.426665262646566 0 -10.426665262646566 84.56607186794281 0 0 0 0 10.795120834254931 22.340889884860189 0 22.340889884860189 50.635314881234081 0 0 0 0 -4.3630658583508382 17.673338330657675 0 17.673338330657675 25.392558219844972 0 0 0 0 -10.483687809165417 3.2713053852712619 0 3.2713053852712619 100.09763201950409 0 0 0 0 -2.9100183067981789 6.9849417064178851 0 6.9849417064178851 73.361032721426454 0 0 0 0 -6.0225249063346951 -2.8008453642978566 0 -2.8008453642978566 64.514688253093482 0 0 0 0 -1.1527951306716488 -7.171243429700553 0 -7.171243429700553 97.599647494615056 0 0 0 0 -8.4179682067835699 -2.4424533900291863 0 -2.4424533900291863 98.025267809687648 0 0 0 0 -8.8920292364966169 -9.5054168566857697 0 -9.5054168566857697 118.03418765612878 0 0 0 0 0.65771041841264832 -18.010408846857899 0 -18.010408846857899 124.23315030345111 0 0 0 0 -3.6266551261085676 -5.2018120887587429 0 -5.2018120887587429 98.494235940470389 0 0 0 0 -9.3716076350386288 -6.4918970146900392 0 -6.4918970146900392 129.93827514486475 0 0 0 0 2.3297810334233873 -3.0245735241333023 0 -3.0245735241333023 125.00166503293076 0 0 0 0 -10.383874464323071 -2.8787739428880741 0 -2.8787739428880741 121.04339482414798 0 0 0 0 65.749173923103172 -34.819754789248691 0 -34.819754789248691 28.923617526277667 0 0 0 0 -0.85529043057252974 1.7122178561679107 0 1.7122178561679107 5.7408574497907807 0 0 0 0 18.805686793899213 -45.792303558177082 0 -45.792303558177082 157.86712464448647 0 0 0 0 6.3028797423214655 -8.5996479459427064 0 -8.5996479459427064 87.354815434817283 0 0 0 0 2.1626498948546669 3.4313019971668837 0 3.4313019971668837 149.57505783108536 0 0 0 0 25.938702137080384 -4.4600447725379126 0 -4.4600447725379126 139.05157019401668 0 0 0 0 20.706941592384737 -16.3983201592564 0 -16.3983201592564 219.61591702938313 0 0 0 0 -12.926041618678255 66.982831554533277 0 66.982831554533277 110.71842515173921 0 0 0 0 7.1412084908615157 6.7062071895934423 0 6.7062071895934423 50.301075042003504 0 0 0 0 -5.8055109333208748 16.269413991725742 0 16.269413991725742 -17.848625132275629 0 0 0 0 28.268808244656611 -58.044096552854171 0 -58.044096552854171 184.79908167319809 0 0 0 0 2.1034729128958922 3.6182969387130655 0 3.6182969387130655 -3.9149940231972948 0 0 0 0 -10.138800860510857 31.113116801151094 0 31.113116801151094 24.287046362590743 0 0 0 0 2.8228808232555025 47.210368590751386 0 47.210368590751386 53.009625727778484 0 0 0 0 2.6872463716697084 46.865290048956012 0 46.865290048956012 63.345819283688797 0 0 0 0 -0.3807904704386551 13.867193415319065 0 13.867193415319065 31.673807609595769 0 0 0 0 -1.7350666562531458 36.367909240892914 0 36.367909240892914 29.295198710664408 0 0 0 0 -13.364706519537549 16.523605585814948 0 16.523605585814948 19.073627885518363 0 0 0 0 14.683088759735611 39.829103276997557 0 39.829103276997557 57.730435762103298 0 0 0 0 -2.2631765861754878 7.3301457787837094 0 7.3301457787837094 9.8445359839554527 0 0 0 0 -8.6430606984049128 31.595119544735411 0 31.595119544735411 43.148149023778238 0 0 0 0 8.1854119627403179 20.827706377608592 0 20.827706377608592 31.782913225226366 0 0 0 0 -4.9431886719790867 10.686163912376514 0 10.686163912376514 69.291071914311033 0 0 0 0 -0.59606360159373484 18.161277094038368 0 18.161277094038368 20.806999804985068 0 0 0 0 0.50290225458030591 23.051448773841457 0 23.051448773841457 44.761089133571659 0 0 0 0 2.6661688734493509 16.167906380247587 0 16.167906380247587 30.230515186109187 0 0 0 0 -0.66319545707463678 18.8107434028569 0 18.8107434028569 23.402537231245905 0 0 0 0 -0.46220647449490571 14.36880440404002 0 14.36880440404002 39.335616156477045 0 0 0 0 19.190790686300431 31.696288023697434 0 31.696288023697434 88.689550135470199 0 0 0 0 -6.4872358834575721 -1.769378138060727 0 -1.769378138060727 38.171000306698431 0 0 0 0 0.64328161723324229 15.096251831238078 0 15.096251831238078 33.404518822488171 0 0 0 0 1.9083076950113806 17.52871731840391 0 17.52871731840391 35.472131347705798 0 0 0 0 -52.573248534700724 27.487459460342393 0 27.487459460342393 62.263250661487518 0 0 0 0 875.04464920574355 -399.04177018651035 0 -399.04177018651035 -581.79086906451084 0 0 0 0 -74.997029540479616 11.92042995322754 0 11.92042995322754 60.893263946692059 0 0 0 0 1.7153202191579009 5.4379548243737528 0 5.4379548243737528 13.086604837037532 0 0 0 0 -117.10252668186195 354.95690946559944 0 354.95690946559944 123.73581306502865 0 0 0 0 -145.99615400297125 295.73965381206483 0 295.73965381206483 500.30293145931682 0 0 0 0 3.5299643043866924 30.466366067635629 0 30.466366067635629 57.698332675749597 0 0 0 0 -10.564139388168314 19.922450685319404 0 19.922450685319404 152.91303096909348 0 0 0 0 -60.437660532082191 26.564423980593574 0 26.564423980593574 56.564186976449776 0 0 0 0 -31.892903251191001 -11.802203215128316 0 -11.802203215128316 107.80709935717186 0 0 0 0 -53.138891842925432 37.552916184908781 0 37.552916184908781 23.137986351885502 0 0 0 0 -61.797848736557626 60.524281817842166 0 60.524281817842166 110.62202955425509 0 0 0 0 -17.414966186560036 23.804240819746497 0 23.804240819746497 136.31547619304729 0 0 0 0 1.8644914873900689 49.215713511408467 0 49.215713511408467 30.447042714456074 0 0 0 0 -71.311714287994164 30.80552174407876 0 30.80552174407876 34.315665821414996 0 0 0 0 0.88133565865175267 15.465293811897661 0 15.465293811897661 30.039850710443535 0 0 0 0 -74.801120368866577 101.61680528111674 0 101.61680528111674 15.58821180339848 0 0 0 0 1.259773138732271 13.751156969050498 0 13.751156969050498 26.084316633510753 0 0 0 0 -39.775927106069503 112.75458687688047 0 112.75458687688047 -46.178948049392147 0 0 0 0 -1.7493590864391777 14.918497180448416 0 14.918497180448416 21.785485266709909 0 0 0 0 -1.4872021347636597 14.134920247123297 0 14.134920247123297 31.09686740094109 0 0 0 0 2.2980393093178009 12.669672702085791 0 12.669672702085791 27.164437890015506 0 0 0 0 -27.989180134912317 61.111198430559284 0 61.111198430559284 43.841342176233411 0 0 0 0 -10.122770249389418 61.172123568707519 0 61.172123568707519 -62.36277223311572 0 0 0 0 -37.92958967265281 43.080745101926823 0 43.080745101926823 12.172178768438243 0 0 0 0 -12.464435660839172 36.269535322233423 0 36.269535322233423 -5.7520196106579533 0 0 0 0 47.902108886946735 8.4162884407378442 0 8.4162884407378442 6.8806408949881188 0 0 0 0 44.835572837792824 59.373204589750685 0 59.373204589750685 -0.94764476797945463 0 0 0 0 28.312014410787356 32.267341916676742 0 32.267341916676742 119.28588734011373 0 0 0 0 69.786829355673717 -19.641685913106357 0 -19.641685913106357 81.602543507158771 0 0 0 0 41.738252048396134 14.652443677816109 0 14.652443677816109 24.134100308867175 0 0 0 0 -65.038614478750162 -3.0512720675376386 0 -3.0512720675376386 41.367052867164603 0 0 0 0 0.50750922738964732 -28.516198471892835 0 -28.516198471892835 25.695810485533002 0 0 0 0 0.05273412868083413 0.13046556406773058 0 0.13046556406773058 0.82199823364743096 0 0 0 0 76.075426542041271 40.775786550114162 0 40.775786550114162 44.047597627856248 0 0 0 0 -70.053636504361975 -0.79343732771042141 0 -0.79343732771042141 104.79459725361914 0 0 0 0 -34.967544946556728 -39.498713247490286 0 -39.498713247490286 84.09278388915709 0 0 0 0 52.922386809386509 -6.4005205661128457 0 -6.4005205661128457 50.517166924973253 0 0 0 0 -80.436895180221541 62.832388141819195 0 62.832388141819195 135.05158673171064 0 0 0 0 103.33733306406521 -28.926768923676718 0 -28.926768923676718 104.83238446969051 0 0 0 0 52.6475361126368 -8.9946688993053101 0 -8.9946688993053101 97.81062911437607 0 0 0 0 25.78352671598293 -29.240397657637885 0 -29.240397657637885 176.93488130371907 0 0 0 0 127.79931200674821 63.597004475254096 0 63.597004475254096 157.50840408161253 0 0 0 0 35.739687673556091 338.52751302867011 0 338.52751302867011 375.9228960185996 0 0 0 0 -234.39587677154054 261.35398410781067 0 261.35398410781067 24.242574512126041 0 0 0 0 34.301345518658081 58.364905746495538 0 58.364905746495538 158.82841611288103 0 0 0 0 62.137170054111209 10.458544432187296 0 10.458544432187296 230.38850799821125 0 0 0 0 81.505197061058425 0.048630161105108982 0 0.048630161105108982 108.31534987482652 0 0 0 0 74.138251218216396 92.097782866217614 0 92.097782866217614 295.15572118876855 0 0 0 0 6.9819146339119129 -59.782646249019962 0 -59.782646249019962 271.03558551705703 0 0 0 0 20.882274029967675 -51.224179930083636 0 -51.224179930083636 275.23847966656274 0 0 0 0 -4.7077396133715297 -29.314245148967895 0 -29.314245148967895 497.6657731465308 0 0 0 0 -2.4394091472193082 4.6217788652917395 0 4.6217788652917395 1.6802012321051436 0 0 0 0 76.338775813428583 -61.00440186779305 0 -61.00440186779305 391.14107057749339 0 0 0 0 -58.150995489385764 298.4530271004113 0 298.4530271004113 -460.25018420273494 0 0 0 0 -71.301647495270231 50.975077793359958 0 50.975077793359958 -6.8388353765667489 0 0 0 0 -97.535851058492213 251.15554751957748 0 251.15554751957748 -80.755135883327966 0 0 0 0 43.634527116369071 191.31268977140553 0 191.31268977140553 -186.67504315743753 0 0 0 0 -124.90243531691733 42.592687793014164 0 42.592687793014164 -125.89774719158913 0 0 0 0 -100.3434168797906 19.266751115557042 0 19.266751115557042 865.51740922542888 0 0 0 0 -0.057778267547127005 1.2614838034539568 0 1.2614838034539568 0.31792793405077913 0 0 0 0 196.98610964379776 469.71610959775194 0 469.71610959775194 -876.76763638761577 0 0 0 0 -137.27556040542152 -26.472613335251253 0 -26.472613335251253 135.10631652581083 0 0 0 0 -12.859867383852972 -80.487482093942162 0 -80.487482093942162 289.49467936735164 0 0 0 0 1.7843398327694735 2.1257292112626476 0 2.1257292112626476 2.3451480795836908 0 0 0 0 -0.34032872041558782 34.073053546937068 0 34.073053546937068 358.06306385792504 0 0 0 0 58.495485110140891 109.79303315361221 0 109.79303315361221 308.86055313945417 0 0 0 0 143.07604077582781 67.012162410447786 0 67.012162410447786 214.61249274790089 0 0 0 0 94.766320552138694 -24.736461584063477 0 -24.736461584063477 109.382789625025 0 0 0 0 -23.45044848858538 -72.409109297977921 0 -72.409109297977921 217.87305529272317 0 0 0 0 -6.5050231453442393 65.713800585123408 0 65.713800585123408 290.03001234851354 0 0 0 0 20.096536274921277 -12.472143150932766 0 -12.472143150932766 299.36158751618541 0 0 0 0 33.640117671610938 33.829935733182367 0 33.829935733182367 242.9543045162618 0 0 0 0 11.354543280927373 13.317390254852398 0 13.317390254852398 226.36197844885788 0 0 0 0 219.3945917826444 99.205476186306441 0 99.205476186306441 1.0649219012240678 0 0 0 0 -41.593645112587353 -74.24777489041935 0 -74.24777489041935 463.72331725218237 0 0 0 0 76.805528018159634 179.9441685254551 0 179.9441685254551 349.73331691956355 0 0 0 0 -39.171845534068439 222.92199726865908 0 222.92199726865908 369.31971195806955 0 0 0 0 6.6041246783980938 -151.75280657270707 0 -151.75280657270707 393.28068233721342 0 0 0 0 -122.31273265363399 -14.894224923716706 0 -14.894224923716706 184.50737551523252 0 0 0 0 -71.643285114308298 1.1356508355820552 0 1.1356508355820552 97.55256654077678 0 0 0 0 -147.04513167498047 151.71121675529139 0 151.71121675529139 178.14532810399214 0 0 0 0 -73.026710493954198 118.77069401205813 0 118.77069401205813 77.274279781852329 0 0 0 0 -110.59824383079172 175.25453375302209 0 175.25453375302209 -56.179178759411116 0 0 0 0 -136.01052689433959 156.18323183717439 0 156.18323183717439 92.12831170536333 0 0 0 0 -148.28137997469366 67.179560102271637 0 67.179560102271637 62.225330738947378 0 0 0 0 -113.61680421026688 138.25477178055235 0 138.25477178055235 51.66072684029848 0 0 0 0 -173.19325062954425 94.992618270268395 0 94.992618270268395 65.954541194033084 0 0 0 0 -260.91573809067995 -24.234241260065915 0 -24.234241260065915 78.134534537147374 0 0 0 0 -178.96735942434975 68.338631579437333 0 68.338631579437333 68.447412417914137 0 0 0 0 -135.58535265375872 -86.880618404674351 0 -86.880618404674351 10.162590236492179 0 0 0 0 -56.078869931369354 -220.31614677147468 0 -220.31614677147468 -251.38800336166605 0 0 0 0 -141.88398931331915 56.586717872935424 0 56.586717872935424 32.480193513575159 0 0 0 0 -210.0892359377408 -185.18416611566954 0 -185.18416611566954 64.77686298289882 0 0 0 0 -1.2881175002336307 -10.129446949603373 0 -10.129446949603373 44.333479391877447 0 0 0 0 -3.7670401294538474 -0.091426733390285619 0 -0.091426733390285619 7.9669131441501175 0 0 0 0 39.068748258071537 -88.376818719536914 0 -88.376818719536914 135.40316655802758 0 0 0 0 -84.589419172952205 -192.71387473449528 0 -192.71387473449528 656.92113041829725 0 0 0 0 -91.415311142272003 -89.852242992155425 0 -89.852242992155425 165.98597132459145 0 0 0 0 305.96194496909811 673.82464478951579 0 673.82464478951579 781.82861111167858 0 0 0 0 85.328532339642834 198.31607231568262 0 198.31607231568262 482.01017489281276 0 0 0 0 -2.5014901810129837 -1.0398413567158631 0 -1.0398413567158631 11.392782085203059 0 0 0 0 275.62325649359718 -255.45096089470576 0 -255.45096089470576 253.24281072350277 0 0 0 0 -669.98378214451805 457.23056402442307 0 457.23056402442307 1103.7842807113966 0 0 0 0 -704.42040679184788 228.7082669116258 0 228.7082669116258 1219.5445798488627 0 0 0 0 -36.196555275088031 -164.81244342867467 0 -164.81244342867467 1.2885762715378348 0 0 0 0 1.3575690456571152 -2.2210641253383949 0 -2.2210641253383949 0.74610318717641455 0 0 0 0 -385.39679370659428 -42.217570186301145 0 -42.217570186301145 722.19813103094157 0 0 0 0 -34.804843547436576 -307.5754276059547 0 -307.5754276059547 750.92301494573167 0 0 0 0 -48.35774713934461 110.05297575574605 0 110.05297575574605 472.2981639142875 0 0 0 0 -35.375804394381703 -179.47745979740637 0 -179.47745979740637 260.77525216968758 0 0 0 0 -56.522486268199827 -64.993895732069006 0 -64.993895732069006 521.70062158775772 0 0 0 0 -7.0270493349838663 6.4364540161909973 0 6.4364540161909973 1.8722088228354345 0 0 0 0 -15.996910055380368 209.46133389862393 0 209.46133389862393 -295.88330234045816 0 0 0 0 -59.257316893842187 83.758788892913799 0 83.758788892913799 -105.49999740129647 0 0 0 0 51.685959373235164 58.854456667564591 0 58.854456667564591 221.70243865259522 0 0 0 0 -54.714918188460331 62.784609985228144 0 62.784609985228144 -13.165185227954225 0 0 0 0 -100.29167054784369 46.563260464675295 0 46.563260464675295 13.78736683785155 0 0 0 0 -112.16046826725233 91.532561435879416 0 91.532561435879416 -25.51409202637933 0 0 0 0 -110.71111661542682 56.189784572361532 0 56.189784572361532 9.3562619808371892 0 0 0 0 -13.507265072842607 4.0891771468135056 0 4.0891771468135056 10.094585417759932 0 0 0 0 297.93372621169243 102.32740004760853 0 102.32740004760853 -43.442046664385998 0 0 0 0 63.228663210799368 47.892853697834653 0 47.892853697834653 -1.3482923682313412 0 0 0 0 -36.992935946643343 60.719195833968115 0 60.719195833968115 10.591916045435937 0 0 0 0 29.121871302571577 142.46128731717545 0 142.46128731717545 -112.39193644505576 0 0 0 0 10.993849927023462 93.142807388860092 0 93.142807388860092 -207.32794403238222 0 0 0 0 74.472619274773038 24.390895747974355 0 24.390895747974355 -12.154383198489086 0 0 0 0 -32.216733786244916 -30.315613085782388 0 -30.315613085782388 33.386193705782716 0 0 0 0 0.048965580295918319 0.55033468633889981 0 0.55033468633889981 1.8486608772716409 0 0 0 0 -0.034725016809693005 51.61655356996198 0 51.61655356996198 202.73681838012271 0 0 0 0 -12.354414351212199 10.425877285342722 0 10.425877285342722 264.51644027364455 0 0 0 0 102.76280153634862 -66.113270867601386 0 -66.113270867601386 129.91485252253915 0 0 0 0 100.68552226431969 147.48285627372388 0 147.48285627372388 157.5948765782523 0 0 0 0 -47.41038061797974 91.602309128735214 0 91.602309128735214 100.91589394325274 0 0 0 0 -19.398515429944155 -25.232406335417181 0 -25.232406335417181 87.985733057885227 0 0 0 0 -80.063431398252774 13.895680167555838 0 13.895680167555838 94.522780343773775 0 0 0 0 -118.90940792758227 -6.0033844107092591 0 -6.0033844107092591 75.446615927663515 0 0 0 0 -62.112341578462406 -0.07922551958472468 0 -0.07922551958472468 -7.3076799152622698 0 0 0 0 -105.05447638544911 51.536068692978006 0 51.536068692978006 20.646156165232242 0 0 0 0 -108.08167925299658 111.18791920358217 0 111.18791920358217 -51.009537178528262 0 0 0 0 -139.81726173345351 -9.043021838486311 0 -9.043021838486311 -12.216211612743791 0 0 0 0 -119.82118607174914 40.358300396270351 0 40.358300396270351 61.571396036655642 0 0 0 0 -98.146451607448626 -20.773860017085099 0 -20.773860017085099 -14.870154056450701 0 0 0 0 -56.842774456278221 66.683387330092955 0 66.683387330092955 -210.58345069587085 0 0 0 0 -93.417498557859744 79.015906860367977 0 79.015906860367977 -134.02461051628052 0 0 0 0 -119.47924291406298 16.12031832235516 0 16.12031832235516 -2.6317711901356233 0 0 0 0 -98.046284852718827 -19.407490796627826 0 -19.407490796627826 -154.00773827728699 0 0 0 0 256.78977170834696 -475.41637827658269 0 -475.41637827658269 -680.43031372054247 0 0 0 0 5.5976064532049197 7.3481767723599489 0 7.3481767723599489 7.3366528392374164 0 0 0 0 -104.92324174247892 121.01676677641808 0 121.01676677641808 102.15618248596729 0 0 0 0 -111.58649731331388 -95.874041605493403 0 -95.874041605493403 396.93439470899466 0 0 0 0 -325.50662844587168 -308.65774931872875 0 -308.65774931872875 207.71557264128933 0 0 0 0 334.7960571473468 -67.378771851077545 0 -67.378771851077545 -78.823266414459795 0 0 0 0 -300.40578623358738 -21.05818284993893 0 -21.05818284993893 314.07962640843471 0 0 0 0 113.71021886412018 -81.958751187092275 0 -81.958751187092275 137.01286887271999 0 0 0 0 19.055939504007483 -311.02399832854098 0 -311.02399832854098 408.49813962452754 0 0 0 0 0.94032418909626614 0.94360284283195028 0 0.94360284283195028 1.5054823942316489 0 0 0 0 -115.59059313274554 169.81310141619178 0 169.81310141619178 -126.34173654334154 0 0 0 0 -91.328974311420438 27.692208433320047 0 27.692208433320047 10.276866152416915 0 0 0 0 -50.460026131163303 123.7200224039334 0 123.7200224039334 -21.978339897148544 0 0 0 0 -198.68904647297825 142.28042110717797 0 142.28042110717797 -24.103177911376406 0 0 0 0 67.227958722123276 -57.960050182358827 0 -57.960050182358827 38.436684511820204 0 0 0 0 -168.56766111783395 30.591507125143835 0 30.591507125143835 -95.408623014620389 0 0 0 0 71.642780448830081 -122.52213428745381 0 -122.52213428745381 172.16572767717298 0 0 0 0 14.420969743899605 -49.187262362298497 0 -49.187262362298497 267.03071830434783 0 0 0 0 12.859103128158381 -61.984025660138286 0 -61.984025660138286 189.36215667822398 0 0 0 0 0.084477745731305287 0.85352409610717928 0 0.85352409610717928 1.975121398189799 0 0 0 0 2.32887290056442 -136.98742587707238 0 -136.98742587707238 4.6981388058920857 0 0 0 0 24.816081529890198 -24.712568997769267 0 -24.712568997769267 192.53450069631799 0 0 0 0 1.6171381448516122 4.1785152910130421 0 4.1785152910130421 4.477112100728732 0 0 0 0 51.817516476462515 6.859097180844401 0 6.859097180844401 8.2361259798781248 0 0 0 0 51.241148398228944 33.856371409329199 0 33.856371409329199 0.66811983533261809 0 0 0 0 -21.837012002200936 27.560759122556192 0 27.560759122556192 31.528512160097307 0 0 0 0 21.028968227468795 42.580738926663798 0 42.580738926663798 0.99051259561383631 0 0 0 0 26.772066127972721 15.899153058198863 0 15.899153058198863 7.7214289068488142 0 0 0 0 -4.2641108211950511 2.9320167865260487 0 2.9320167865260487 2.4128302037739502 0 0 0 0 -5.0413316794766478 2.5431914123800823 0 2.5431914123800823 7.6083202488518396 0 0 0 0 -3.6290345419087657 6.882553018015642 0 6.882553018015642 10.256437065341743 0 0 0 0 -3.4861409862012351 4.5465558785072062 0 4.5465558785072062 11.803021165789687 0 0 0 0 -33.765855596001529 124.10637556267466 0 124.10637556267466 100.77139942388749 0 0 0 0 -1.2064445267512276 3.1276841365126415 0 3.1276841365126415 6.4239315407101287 0 0 0 0 29.069897608860174 25.956180828758079 0 25.956180828758079 -93.544199618932907 0 0 0 0 0.2069146652482976 0.57875709881451698 0 0.57875709881451698 5.9992139423542596 0 0 0 0 -77.945686773545091 -121.65836585404759 0 -121.65836585404759 -78.964602158244816 0 0 0 0 0.31881549934333053 3.4185690892880558 0 3.4185690892880558 9.0068972433899148 0 0 0 0 486.20262854517034 29.928081563281012 0 29.928081563281012 -418.10864586167736 0 0 0 0 -37.536783535363156 -20.694832751949434 0 -20.694832751949434 -6.9208072824112605 0 0 0 0 141.9993072603931 261.65807574268547 0 261.65807574268547 302.09614551550476 0 0 0 0 1.8771925568920493 2.6630853053026158 0 2.6630853053026158 3.2566666242816211 0 0 0 0 -142.27963970623648 184.43230538574426 0 184.43230538574426 390.2516925012751 0 0 0 0 -9.0561381279002831 199.68777047556068 0 199.68777047556068 -163.30899187560499 0 0 0 0 -80.321637428053066 -28.65649804288114 0 -28.65649804288114 458.10318323376123 0 0 0 0 33.059394067049794 -207.6392398441667 0 -207.6392398441667 319.30117541071377 0 0 0 0 -69.503411426778399 147.78120867962571 0 147.78120867962571 -78.291054577697651 0 0 0 0 0.0054366183066545653 8.0995680500891467 0 8.0995680500891467 1.110284834925551 0 0 0 0 -26.534539909766259 24.042249354621163 0 24.042249354621163 12.928262413019183 0 0 0 0 -0.18485213051707527 0.43791311328763349 0 0.43791311328763349 5.4505731079047166 0 0 0 0 -7.718532585727889 6.9338627442302823 0 6.9338627442302823 4.6809778167662444 0 0 0 0 -5.9879562301183995 8.4658173301577335 0 8.4658173301577335 2.4840084796451265 0 0 0 0 -0.0094029530376398499 5.704919737578166 0 5.704919737578166 3.72176621660401 0 0 0 0 -0.22636333034865427 -0.60512616462096958 0 -0.60512616462096958 1.7378325231502174 0 0 0 0 -3.5883437332920893 2.4703564649062173 0 2.4703564649062173 8.3004734506830573 0 0 0 0 -3.2358085133134864 2.4853023551950173 0 2.4853023551950173 17.456771735312941 0 0 0 0 -2.8046608021602424 1.7390861162712099 0 1.7390861162712099 15.023973331575689 0 0 0 0 0.057965406597310906 1.1730421038162113 0 1.1730421038162113 14.489017875281974 0 0 0 0 -0.67520101525487775 3.3508399550569266 0 3.3508399550569266 16.168901335986448 0 0 0 0 -8.6330614740019254 -6.7258363955311324 0 -6.7258363955311324 27.642469367026933 0 0 0 0 -5.926124069246705 5.2368309942639826 0 5.2368309942639826 20.18233369076188 0 0 0 0 0.020669454850003544 4.8290508725294785 0 4.8290508725294785 13.05172558425329 0 0 0 0 -3.0859679880637714 1.5769474371081742 0 1.5769474371081742 13.830894771614112 0 0 0 0 -0.54741661550911058 0.79696751693263757 0 0.79696751693263757 13.848656903102324 0 0 0 0 -3.5692779271632844 1.382565890729893 0 1.382565890729893 15.15628630646097 0 0 0 0 -3.429316258460176 0.69268797044060193 0 0.69268797044060193 12.410457945909002 0 0 0 0 366.86959730142246 481.69983601002605 0 481.69983601002605 629.56502804762567 0 0 0 0 -2.6604710285301048 1.0347629330245809 0 1.0347629330245809 6.5984014352476947 0 0 0 0 -0.81147266231652315 0.33302216078469371 0 0.33302216078469371 3.4584840357970847 0 0 0 0 -348.3372550562579 -448.34039901092183 0 -448.34039901092183 2484.9923026943579 0 0 0 0 -0.82872598747682058 2.2271165354764388 0 2.2271165354764388 2.2950147420991414 0 0 0 0 -0.73011626332322643 1085.7637405102419 0 1085.7637405102419 2494.4260519879608 0 0 0 0 1.2313177786251062 1.3780910890200175 0 1.3780910890200175 1821.1890870137759 0 0 0 0 0.06434957608289682 2.3933746948541028 0 2.3933746948541028 2.3645710447892583 0 0 0 0 876.3506431472573 -1355.98461621358 0 -1355.98461621358 1430.4271473602712 0 0 0 0 -171.2356435701987 -791.70319092123827 0 -791.70319092123827 2500.2220823820535 0 0 0 0 112.04903052369244 -469.30802003382269 0 -469.30802003382269 1466.5091887991764 0 0 0 0 835.42536571519793 -1750.0039644930584 0 -1750.0039644930584 3467.0836525417617 0 0 0 0 -0.97765487100114323 -1.5255276986969406 0 -1.5255276986969406 5.3918886342051735 0 0 0 0 48.21805275271646 -346.35049075043935 0 -346.35049075043935 2394.946106687712 0 0 0 0 1.0869965388048968 -3.6652885135044926 0 -3.6652885135044926 6.9340502885606838 0 0 0 0 -1.8685151957531692 -0.29388962784584294 0 -0.29388962784584294 7.6967311295532568 0 0 0 0 -0.24424234823735388 -0.20310407342381609 0 -0.20310407342381609 5.1070630131895314 0 0 0 0 -3.7826530680773658 1.7719286206793186 0 1.7719286206793186 13.587100005534012 0 0 0 0 -3.2201074932011124 1.5618254344644811 0 1.5618254344644811 15.326538883709873 0 0 0 0 -3.056080716149836 1.4762329697332461 0 1.4762329697332461 13.692497185671527 0 0 0 0 -2.6089096422714717 1.5433844189616366 0 1.5433844189616366 12.617375639012664 0 0 0 0 0.0065396695439566832 1.1394853888313037 0 1.1394853888313037 6.2223455903120026 0 0 0 0 1.0246445494743739 -6.7676365505612921 0 -6.7676365505612921 23.948922382653109 0 0 0 0 -2.5293338109008121 2.4988469430372007 0 2.4988469430372007 17.488450064204159 0 0 0 0 -2.5717060202788389 1.5289795470307581 0 1.5289795470307581 17.370196857387782 0 0 0 0 -2.8825372569236833 2.6142737070513249 0 2.6142737070513249 15.863269677571225 0 0 0 0 -4.2418563481907086 3.4819173228934233 0 3.4819173228934233 19.150600400011172 0 0 0 0 -3.2532086134622205 3.2715005466379807 0 3.2715005466379807 12.717809617286548 0 0 0 0 -2.5921280896407666 7.0106177765865141 0 7.0106177765865141 23.364449053959106 0 0 0 0 -2.1960564934722413 0.16241746045398031 0 0.16241746045398031 20.854690751802991 0 0 0 0 -2.6767725366146351 5.41371866359259 0 5.41371866359259 12.355393375095446 0 0 0 0 -1.4298825429091044 -3.0089231372582645 0 -3.0089231372582645 17.744148787044651 0 0 0 0 0.36014929739280888 2.7689847290894249 0 2.7689847290894249 29.656144510259765 0 0 0 0 -0.91451491461430123 2.1456926689133979 0 2.1456926689133979 30.158531677265273 0 0 0 0 -1.731236464968068 -3.5513967586026141 0 -3.5513967586026141 24.908990068820316 0 0 0 0 -264.12778627051614 -59.363225405638332 0 -59.363225405638332 51.199174100576784 0 0 0 0 -1.6698065018354669 0.49805614692741074 0 0.49805614692741074 29.468872091652884 0 0 0 0 0.73376463238191292 0.93653645598442381 0 0.93653645598442381 28.656064347393112 0 0 0 0 0.81431497958492294 6.5411019474811098 0 6.5411019474811098 24.462120752539178 0 0 0 0 2.3721257731994001 30.790201652780524 0 30.790201652780524 30.21292277318571 0 0 0 0 -0.63636721638568239 -10.883765891348901 0 -10.883765891348901 26.080648778586038 0 0 0 0 -3.4733512303079124 -0.36808254748757463 0 -0.36808254748757463 30.511602488302742 0 0 0 0 -2.1303926464851224 0.86686087985395943 0 0.86686087985395943 10.755037442360418 0 0 0 0 -4.4612893133792113 6.0190355699742213 0 6.0190355699742213 23.377584047528217 0 0 0 0 2.9936470087571934 -9.5458197875268525 0 -9.5458197875268525 29.353870108179763 0 0 0 0 10.252356872034284 -3.6980954704777105 0 -3.6980954704777105 10.518603833777888 0 0 0 0 109.88029907775177 89.53224767802385 0 89.53224767802385 562.03788927089045 0 0 0 0 -9.0420862804973581 -664.86099767178712 0 -664.86099767178712 1372.8873736404494 0 0 0 0 38.615021810205803 -164.12354760616017 0 -164.12354760616017 546.50188319666631 0 0 0 0 -479.75933310723525 5.8129007569004898 0 5.8129007569004898 2498.9052885888887 0 0 0 0 -375.41806735728755 -181.15327284720843 0 -181.15327284720843 1656.5780362736296 0 0 0 0 417.88442852723762 1255.6610485744932 0 1255.6610485744932 2498.0684717904369 0 0 0 0 0.39435807466737327 -3.5595254320061969 0 -3.5595254320061969 8.9832034023286838 0 0 0 0 -54.225408600691409 439.94284666456952 0 439.94284666456952 1372.5391426567003 0 0 0 0 -55.935782329909394 484.53693160486 0 484.53693160486 1368.7549759402573 0 0 0 0 0.1027841225749011 -10.156903630575655 0 -10.156903630575655 19.103143000204227 0 0 0 0 -551.34719893846773 -198.08768586356246 0 -198.08768586356246 521.0452471681856 0 0 0 0 -624.79976771557142 -535.47610301027453 0 -535.47610301027453 -79.51898449860164 0 0 0 0 -367.34363212235587 -86.600723372073844 0 -86.600723372073844 84.019104778431938 0 0 0 0 -385.63992771145945 -87.338029129985443 0 -87.338029129985443 215.51028076199145 0 0 0 0 -378.54941620890446 -92.462277339305729 0 -92.462277339305729 94.978729140206269 0 0 0 0 -333.24816992998035 -82.536745615310792 0 -82.536745615310792 57.301608162160846 0 0 0 0 -337.72302370988388 -71.396585432485153 0 -71.396585432485153 82.362419289493118 0 0 0 0 -452.64157888711139 -38.201029446907341 0 -38.201029446907341 72.905418699796428 0 0 0 0 -383.02041332369737 -110.73624625376397 0 -110.73624625376397 78.655335065850522 0 0 0 0 -650.32158231762821 -135.66516689587297 0 -135.66516689587297 92.796220995223848 0 0 0 0 -650.52465309778836 -125.34767021333391 0 -125.34767021333391 -5.7810676383669488 0 0 0 0 -2.47850245869166 4.5543371585401147 0 4.5543371585401147 5.0721715936033718 0 0 0 0 -289.71355327761285 -254.23323161769076 0 -254.23323161769076 -75.348533585485711 0 0 0 0 -378.34537791236585 29.702540433310787 0 29.702540433310787 51.786092703528993 0 0 0 0 -2.4247957006490299 -0.12057925926151825 0 -0.12057925926151825 4.233270873019606 0 0 0 0 -415.62835412365507 -68.826028975330701 0 -68.826028975330701 -45.942937976804387 0 0 0 0 -425.79196508180752 19.273793942587417 0 19.273793942587417 143.04066029992828 0 0 0 0 -323.57842169031892 46.190877058972546 0 46.190877058972546 58.026510519412113 0 0 0 0 -383.06897243094193 7.942762307018711 0 7.942762307018711 83.040787450096104 0 0 0 0 -349.82732280347426 120.69461562389233 0 120.69461562389233 267.07372665936418 0 0 0 0 -148.55083244127138 137.73257754015503 0 137.73257754015503 140.18608188821781 0 0 0 0 -295.97557914877893 100.6736892280951 0 100.6736892280951 132.46461058449495 0 0 0 0 -0.3021242892945688 0.76233299040875302 0 0.76233299040875302 -0.45735663284537509 0 0 0 0 -162.0100319173394 219.22387982698274 0 219.22387982698274 17.469909874344012 0 0 0 0 -580.44849976548244 79.929539037918573 0 79.929539037918573 87.96636002111336 0 0 0 0 223.64224950948733 81.929885884030227 0 81.929885884030227 -6.7778623782214709 0 0 0 0 5.846617808484325 170.6642825037452 0 170.6642825037452 101.20052733442571 0 0 0 0 -70.694024019502194 31.862263921932026 0 31.862263921932026 51.004463739853236 0 0 0 0 -279.69118707003736 142.80346037255003 0 142.80346037255003 113.4570411312634 0 0 0 0 -190.28224878849318 88.283254368038115 0 88.283254368038115 113.05362794599932 0 0 0 0 -206.03183158010572 -60.530834851576401 0 -60.530834851576401 36.840496395612718 0 0 0 0 -134.23436892533255 9.5287647657314665 0 9.5287647657314665 67.950142384812352 0 0 0 0 -3.2287142398789688 0.10521996946500423 0 0.10521996946500423 33.047825691893223 0 0 0 0 -16.695629004718512 10.810693746727338 0 10.810693746727338 33.648574792678119 0 0 0 0 -1.3631859428877768 3.1137486010330946 0 3.1137486010330946 25.230131033516386 0 0 0 0 -4.2192047096873466 -0.6539775041565008 0 -0.6539775041565008 28.765511862198764 0 0 0 0 0.46715323053816848 1.8341925558707857 0 1.8341925558707857 11.935306214924481 0 0 0 0 -40.639004130318199 89.144057383145991 0 89.144057383145991 -16.895752011718287 0 0 0 0 -98.364700791867563 15.078298701926542 0 15.078298701926542 34.853541724147362 0 0 0 0 -18.860492278541585 -128.98415074090462 0 -128.98415074090462 194.88140029247734 0 0 0 0 -90.446918262602139 33.810425135408877 0 33.810425135408877 70.206119361543642 0 0 0 0 1.1622454795249588 12.614222096858292 0 12.614222096858292 42.566016102424499 0 0 0 0 -94.024690546571037 28.703028328411165 0 28.703028328411165 65.237033035198692 0 0 0 0 108.98026412395359 416.80014343097901 0 416.80014343097901 -178.78719137288863 0 0 0 0 -79.550304496206991 22.501222407750902 0 22.501222407750902 42.260820150579093 0 0 0 0 0.19308005942126583 11.852248907147967 0 11.852248907147967 37.699698515335854 0 0 0 0 0.21419185691042869 -0.75047246927722 0 -0.75047246927722 4.1380607653853758 0 0 0 0 -183.17795016411787 -25.029019608183262 0 -25.029019608183262 184.51872677693609 0 0 0 0 192.86073730096354 -210.8720088538721 0 -210.8720088538721 102.90424179363617 0 0 0 0 -232.51900632235811 -216.86007653537672 0 -216.86007653537672 352.99840717212646 0 0 0 0 1.5284227548763363 4.4941496392162961 0 4.4941496392162961 -2.7397754020550167 0 0 0 0 -177.23075687745177 -336.5783281171025 0 -336.5783281171025 354.48800431144628 0 0 0 0 -17.799245130281179 -30.909453388267139 0 -30.909453388267139 32.839794564308249 0 0 0 0 42.607048981817684 -63.49593137451302 0 -63.49593137451302 49.001107393880375 0 0 0 0 -10.300883048734022 -9.7274398781155469 0 -9.7274398781155469 89.614106315537356 0 0 0 0 67.022086291358733 167.60271522533731 0 167.60271522533731 72.068390343207284 0 0 0 0 469.48557122092825 -310.45705993595766 0 -310.45705993595766 224.52975577861071 0 0 0 0 60.806247491838008 149.60889512676658 0 149.60889512676658 27.754737121402286 0 0 0 0 1.0887264193992823 -1.774406990790574 0 -1.774406990790574 2.4512291144575329 0 0 0 0 381.13585274090383 -87.12805490430037 0 -87.12805490430037 -174.61302342729323 0 0 0 0 -2.3346385756869168 190.59787855151444 0 190.59787855151444 -93.747765865162364 0 0 0 0 1.3314639445108871 -0.22714311753573924 0 -0.22714311753573924 12.159294056315844 0 0 0 0 492.89637645419771 211.67428224210744 0 211.67428224210744 63.662916046450846 0 0 0 0 -144.84934371934673 -19.005685966483725 0 -19.005685966483725 177.53738095952212 0 0 0 0 6.2591696499446323 5.9767876180313095 0 5.9767876180313095 10.85428659761979 0 0 0 0 -38.934056539457629 6.8269821674621198 0 6.8269821674621198 33.176494562270818 0 0 0 0 2.940407353439241 10.003778279613471 0 10.003778279613471 33.586589839018416 0 0 0 0 -27.951199369425922 21.116197123061283 0 21.116197123061283 42.78425797491218 0 0 0 0 -7.1478255568476925 21.510481201839866 0 21.510481201839866 34.088250093613169 0 0 0 0 21.531527020256817 37.019482620649796 0 37.019482620649796 39.556969861729158 0 0 0 0 9.9625199354350116 17.286728829392814 0 17.286728829392814 14.370183556573465 0 0 0 0 -80.225989186541483 136.73777425654407 0 136.73777425654407 365.94226383842761 0 0 0 0 43.637540379692155 8.5828426682492136 0 8.5828426682492136 2.6256334860081552 0 0 0 0 -1.4524621199818921 10.836076437214025 0 10.836076437214025 33.938887972500765 0 0 0 0 30.645544169844666 59.824472594310009 0 59.824472594310009 -28.202489097602665 0 0 0 0 83.3010530911979 34.505667687153618 0 34.505667687153618 19.082571548526175 0 0 0 0 32.96086899771899 56.000582247244893 0 56.000582247244893 102.24792463346967 0 0 0 0 65.164510007381409 -13.179779097272331 0 -13.179779097272331 2.4940153677453054 0 0 0 0 -203.09318516841006 141.12774559585887 0 141.12774559585887 -53.033777394884964 0 0 0 0 -298.61129108316482 142.31971690197679 0 142.31971690197679 25.000020680454327 0 0 0 0 -0.29520048209569949 6.8357814805915593 0 6.8357814805915593 -1.5354484253981013 0 0 0 0 -201.87909617292701 159.80922778022796 0 159.80922778022796 -17.270438601073693 0 0 0 0 -53.228078476498013 115.42463938707442 0 115.42463938707442 40.426568825413938 0 0 0 0 -42.037399154841069 19.3946356551387 0 19.3946356551387 44.862344638167997 0 0 0 0 29.154625723261233 -22.253234787305701 0 -22.253234787305701 -211.64975032227812 0 0 0 0 -111.94962277432603 146.73146091492526 0 146.73146091492526 52.746630549649126 0 0 0 0 -158.59013441749801 93.263763712981017 0 93.263763712981017 20.850576456756244 0 0 0 0 -171.73925242911912 186.7226078992062 0 186.7226078992062 11.653914675971919 0 0 0 0 60.525454095714849 125.32527581451359 0 125.32527581451359 -10.925449356433091 0 0 0 0 -117.8879462123333 100.86696530526388 0 100.86696530526388 40.735389490797388 0 0 0 0 360.88442992226851 99.753929543094273 0 99.753929543094273 -31.803278425584722 0 0 0 0 3.0264325812438226 -0.85678599963840441 0 -0.85678599963840441 5.2259327116826029 0 0 0 0 360.76898460474581 -56.599036314739351 0 -56.599036314739351 28.394507651515596 0 0 0 0 329.41756221212256 -36.413293071113003 0 -36.413293071113003 22.436581989712067 0 0 0 0 58.981268755125598 73.481502862496313 0 73.481502862496313 145.07907318634534 0 0 0 0 121.0427173604165 74.206971332834655 0 74.206971332834655 19.019891122879926 0 0 0 0 343.43500214309142 51.116452101050299 0 51.116452101050299 -8.9957440214420785 0 0 0 0 340.48092987344552 109.17540367236143 0 109.17540367236143 62.152444201798062 0 0 0 0 269.36676113148252 51.914488440699643 0 51.914488440699643 17.05076345471025 0 0 0 0 117.86320451998945 54.880761666663602 0 54.880761666663602 130.5985789300903 0 0 0 0 102.56559084034869 165.74824584052476 0 165.74824584052476 89.682104629158857 0 0 0 0 109.95666813908846 54.066550046678458 0 54.066550046678458 -8.6849312623744481 0 0 0 0 -176.77737703776575 113.81996468127909 0 113.81996468127909 106.46556449614945 0 0 0 0 -151.09188954047769 125.3177761638708 0 125.3177761638708 229.99889423496643 0 0 0 0 162.59692554723426 219.19687064050231 0 219.19687064050231 254.49174915158801 0 0 0 0 39.938260771719229 -114.63009374293688 0 -114.63009374293688 511.59074975720978 0 0 0 0 -169.26566657980021 139.75297351741938 0 139.75297351741938 308.76127980989986 0 0 0 0 -2.4275528565876812 100.71010896957887 0 100.71010896957887 1116.1730304256635 0 0 0 0 -115.36472292980832 -302.9045004280888 0 -302.9045004280888 1050.4771456927156 0 0 0 0 -250.21407077961422 -742.59574200422776 0 -742.59574200422776 2492.8090685595125 0 0 0 0 -5.0044535879499392 -960.85433562281105 0 -960.85433562281105 -287.38048641183923 0 0 0 0 73.30437222271469 46.460569472614225 0 46.460569472614225 2501.5285390674908 0 0 0 0 706.91614467170677 -503.49150129358895 0 -503.49150129358895 2451.4533005246194 0 0 0 0 -100.47450347566536 -72.31346520164152 0 -72.31346520164152 2420.9787810622838 0 0 0 0 313.95559360931281 623.9748536364059 0 623.9748536364059 2406.7575059681913 0 0 0 0 489.65010272340612 394.15281587620302 0 394.15281587620302 741.11635994464086 0 0 0 0 322.73868279684029 88.342182194678571 0 88.342182194678571 541.57176824520866 0 0 0 0 364.52085659923841 243.35983427507927 0 243.35983427507927 531.90772748820746 0 0 0 0 263.91507897993483 8.8816463365810705 0 8.8816463365810705 252.01592250598333 0 0 0 0 224.31584697963143 137.38941552164761 0 137.38941552164761 194.3701496997528 0 0 0 0 316.94392269243485 -8.8984822521138085 0 -8.8984822521138085 140.13233099270292 0 0 0 0 460.83565856971313 204.90809972019269 0 204.90809972019269 177.99590424093503 0 0 0 0 84.331263592715914 -117.87112438122858 0 -117.87112438122858 113.91941383200901 0 0 0 0 432.59035091693329 -28.93227222645146 0 -28.93227222645146 69.243457772939109 0 0 0 0 -164.97772887605277 188.43401128550204 0 188.43401128550204 41.186181436038169 0 0 0 0 -71.333935719754805 -151.08222551985727 0 -151.08222551985727 199.49943020987121 0 0 0 0 510.62793712273276 532.27188358963031 0 532.27188358963031 -0.20480999099436303 0 0 0 0 4.0768239069733019 6.4368528100632005 0 6.4368528100632005 12.415016006949628 0 0 0 0 410.54378661631182 -1146.703323686356 0 -1146.703323686356 3165.0454804753463 0 0 0 0 410.67401170011379 -1114.7219505440492 0 -1114.7219505440492 2036.3030846850161 0 0 0 0 254.11428055461988 -126.21598837130432 0 -126.21598837130432 2290.8510416938443 0 0 0 0 252.87604021521591 -208.46985699428933 0 -208.46985699428933 3340.445097404634 0 0 0 0 1243.6509192710262 73.531364564172691 0 73.531364564172691 2499.6897948686651 0 0 0 0 -387.40972749569391 -101.48201678776786 0 -101.48201678776786 1988.8405764089657 0 0 0 0 -262.56104417693314 -377.60763812560981 0 -377.60763812560981 2500.2096247028662 0 0 0 0 179.0192354031584 -360.47666638550436 0 -360.47666638550436 1019.4995435260535 0 0 0 0 -188.39304596345033 -458.46129403238228 0 -458.46129403238228 1873.1814707106287 0 0 0 0 -171.16168600161762 -73.162733292195298 0 -73.162733292195298 1149.5615850821414 0 0 0 0 -119.48040826360617 -44.997309425404637 0 -44.997309425404637 1158.8106523207098 0 0 0 0 227.24675224536713 -191.73957866999081 0 -191.73957866999081 291.63531743027488 0 0 0 0 67.347365041149715 -316.3368474202689 0 -316.3368474202689 1031.7673437482808 0 0 0 0 9.5246924373979063 18.00948046062576 0 18.00948046062576 27.614104536495404 0 0 0 0 -46.063635097985298 -24.463045960339514 0 -24.463045960339514 79.036785641562346 0 0 0 0 -79.176640786118242 32.25229232116908 0 32.25229232116908 66.623294146862463 0 0 0 0 18.471719113402287 27.731970666216512 0 27.731970666216512 316.772570735302 0 0 0 0 53.845867174226214 10.162649899280041 0 10.162649899280041 1.3886391138366889 0 0 0 0 13.186859122772271 23.206676629137974 0 23.206676629137974 36.732427003384316 0 0 0 0 -5.1318287653067802 -7.5735142034658764 0 -7.5735142034658764 35.786588267895581 0 0 0 0 11.158353182138907 4.4817050805394842 0 4.4817050805394842 16.145448448646235 0 0 0 0 2.3156538094733605 3.5980786223080941 0 3.5980786223080941 34.268799713154294 0 0 0 0 3.1579417498543592 -3.3388485011764715 0 -3.3388485011764715 33.737654810181994 0 0 0 0 9.4231572259463974 -3.6201017793973733 0 -3.6201017793973733 33.522671266823636 0 0 0 0 -35.610514079650329 2.4251205462405778 0 2.4251205462405778 55.145316166730481 0 0 0 0 -40.938657181424333 -2.1315917149040615 0 -2.1315917149040615 69.119886615728319 0 0 0 0 -1.8216828399986298 0.65669197537681612 0 0.65669197537681612 80.549303942185361 0 0 0 0 19.631771119434688 -49.245262223925238 0 -49.245262223925238 92.458420757335261 0 0 0 0 340.18054068922288 18.494882464754482 0 18.494882464754482 9.1842340402072296 0 0 0 0 154.62887985041652 26.166300383923954 0 26.166300383923954 23.158901414779393 0 0 0 0 157.30101107002565 19.584146407281878 0 19.584146407281878 38.664966073440155 0 0 0 0 -6.6564963675123181 6.9530310037735035 0 6.9530310037735035 78.94792229430459 0 0 0 0 -21.507014022659405 -80.239328386949637 0 -80.239328386949637 43.635364991786901 0 0 0 0 -10.643156248719492 15.674538628046321 0 15.674538628046321 74.568033525782084 0 0 0 0 41.271446709048178 -39.66055358461017 0 -39.66055358461017 -0.20642845781185315 0 0 0 0 61.149453516728272 83.803671140560255 0 83.803671140560255 115.22825234449192 0 0 0 0 -1.0068169403716691 -13.076948134990197 0 -13.076948134990197 41.196732275115622 0 0 0 0 -19.9089711891761 -4.5897059988474211 0 -4.5897059988474211 93.520138791896898 0 0 0 0 15.651201042076991 -16.605115967173333 0 -16.605115967173333 26.743316813335696 0 0 0 0 8.2511688908339238 -1.8157279553652188 0 -1.8157279553652188 30.782886202588998 0 0 0 0 11.790151937317205 -26.925403979497787 0 -26.925403979497787 53.156237726467225 0 0 0 0 1.5990074801193259 -11.099176147608887 0 -11.099176147608887 48.935392210529244 0 0 0 0 -4.0671419387341334 -14.009570360610915 0 -14.009570360610915 33.5095561626689 0 0 0 0 288.13862793269294 722.71173024400264 0 722.71173024400264 -277.04037659555615 0 0 0 0 11.916627235387445 32.600461764685548 0 32.600461764685548 39.092432885927778 0 0 0 0 -52.979657511992173 104.6253467944407 0 104.6253467944407 183.92029703628577 0 0 0 0 -39.385491924982716 135.98628724650007 0 135.98628724650007 44.149048840957221 0 0 0 0 -45.421585569127274 -17.915408347769699 0 -17.915408347769699 238.28860014448583 0 0 0 0 -30.588414995229073 10.640092713630111 0 10.640092713630111 72.819543324541883 0 0 0 0 66.98017693815018 23.384365196248837 0 23.384365196248837 -302.00491288904959 0 0 0 0 46.078411021610378 -103.79331845167076 0 -103.79331845167076 -132.18044980289415 0 0 0 0 11.088873707671613 28.153908263679071 0 28.153908263679071 39.066403186809822 0 0 0 0 136.6181766753225 -277.74822670535286 0 -277.74822670535286 132.56031309880564 0 0 0 0 19.687578764606769 256.77135710675975 0 256.77135710675975 570.08669252105028 0 0 0 0 51.955233538268658 96.222865539395571 0 96.222865539395571 -69.032826353730343 0 0 0 0 -22.795054768957471 134.40127016318365 0 134.40127016318365 227.02541378605383 0 0 0 0 285.3640722096261 320.31641627154022 0 320.31641627154022 164.36600079717755 0 0 0 0 0.42069306416385399 0.46045791723511087 0 0.46045791723511087 11.017907966010085 0 0 0 0 355.71464278497479 -281.67325398541652 0 -281.67325398541652 166.11763180260459 0 0 0 0 -216.57008626771949 -185.83025590287434 0 -185.83025590287434 520.23816088014428 0 0 0 0 -48.309010189071159 -42.690910088924284 0 -42.690910088924284 95.069923466668115 0 0 0 0 -56.8160632652598 -88.459215735812904 0 -88.459215735812904 92.293927799114044 0 0 0 0 -67.371360331087317 -45.680117660750511 0 -45.680117660750511 23.525351935764775 0 0 0 0 0.17076759085191884 1.1950015328154606 0 1.1950015328154606 31.930660558943572 0 0 0 0 32.156203191454551 -85.51016515487936 0 -85.51016515487936 -13.959592343948316 0 0 0 0 -159.42265306321309 90.829567576045974 0 90.829567576045974 94.18847920227563 0 0 0 0 -19.389133072068489 -35.555687145619231 0 -35.555687145619231 -53.853142684180057 0 0 0 0 -59.21527983989472 -109.17029290345818 0 -109.17029290345818 -2.9624921228751191 0 0 0 0 -38.528669200675722 -53.939034184106276 0 -53.939034184106276 -121.4513595951139 0 0 0 0 5.0246995496017917 128.48841332166012 0 128.48841332166012 308.61187612020149 0 0 0 0 1.3355932347728974 -0.12671384049728829 0 -0.12671384049728829 -0.33351364401119099 0 0 0 0 -64.894029200032492 -161.16844522455358 0 -161.16844522455358 -151.44039132557191 0 0 0 0 -276.26571367261931 179.10027573647676 0 179.10027573647676 353.01447147608269 0 0 0 0 -1.9332323083343361 -0.0079698186414773886 0 -0.0079698186414773886 50.740565207640913 0 0 0 0 -119.28757753582977 38.492391490195587 0 38.492391490195587 242.36777206153783 0 0 0 0 -164.58252627806723 -80.00216846420517 0 -80.00216846420517 -19.363737532581581 0 0 0 0 -186.79756950820064 -29.25427687512547 0 -29.25427687512547 105.37535470619332 0 0 0 0 -15.263662002698766 -163.50869632650938 0 -163.50869632650938 470.34607687428615 0 0 0 0 -1.9681583551061248 5.6321210219777278 0 5.6321210219777278 5.9800412448194891 0 0 0 0 -217.63792027384352 -158.77038509555132 0 -158.77038509555132 61.832354364465573 0 0 0 0 -65.08280348918197 22.075599996831443 0 22.075599996831443 -40.847834592932486 0 0 0 0 1.9808049646690051 36.491349283147429 0 36.491349283147429 70.672372830213135 0 0 0 0 13.622172223953385 -20.355389008094789 0 -20.355389008094789 78.997264345933218 0 0 0 0 -145.42158205523538 -10.444833555950026 0 -10.444833555950026 246.68086043666699 0 0 0 0 107.14134614781369 -0.021949051722913282 0 -0.021949051722913282 35.283445769127866 0 0 0 0 -5.828370765042564 -91.664428964093531 0 -91.664428964093531 105.89179718512696 0 0 0 0 -60.249476376941857 -24.872043942348682 0 -24.872043942348682 37.722691643604776 0 0 0 0 -56.762883299479654 -50.005197660120757 0 -50.005197660120757 28.855231774359709 0 0 0 0 -53.40880663543885 11.255351695141144 0 11.255351695141144 131.73739728453347 0 0 0 0 31.371916806117042 24.410088049686237 0 24.410088049686237 56.260834328728379 0 0 0 0 33.380758297351804 -23.251781865565135 0 -23.251781865565135 375.61868933569349 0 0 0 0 -109.08472044015707 14.372622831473564 0 14.372622831473564 209.40328830491126 0 0 0 0 144.25098483449256 177.85784522995527 0 177.85784522995527 24.374937558277452 0 0 0 0 3.9713652570774229 277.37491412087002 0 277.37491412087002 354.75315317064815 0 0 0 0 17.915380066680427 276.63077434521256 0 276.63077434521256 231.80317031147752 0 0 0 0 4.2035971648351822 2.854325947538868 0 2.854325947538868 2.6140200725911882 0 0 0 0 285.1386715357587 57.995461325477663 0 57.995461325477663 -54.771979706943966 0 0 0 0 234.7598648265473 415.66777135355005 0 415.66777135355005 367.63649061048272 0 0 0 0 373.8578028999882 -165.4653439052272 0 -165.4653439052272 274.21431522652347 0 0 0 0 32.021572483130967 101.17197942729035 0 101.17197942729035 216.24311711590053 0 0 0 0 33.245967271845529 60.387574225882418 0 60.387574225882418 758.65153314128838 0 0 0 0 223.13201996631824 26.518231636633573 0 26.518231636633573 50.787477601188584 0 0 0 0 202.4409339432782 22.907565167995926 0 22.907565167995926 10.834706697496586 0 0 0 0 101.89878266997675 -3.7802746949746506 0 -3.7802746949746506 53.055019472399636 0 0 0 0 1.6109488573521449 3.568563176606105 0 3.568563176606105 5.4248923938395706 0 0 0 0 -170.77453015352398 239.54762298205605 0 239.54762298205605 -20.173981158335664 0 0 0 0 -121.85504618454274 99.825119834513316 0 99.825119834513316 107.47335836847242 0 0 0 0 202.12485942689136 92.786861423846858 0 92.786861423846858 -101.50512960462947 0 0 0 0 9.2739367827284696 -55.22676628328918 0 -55.22676628328918 91.313594539595215 0 0 0 0 41.263163575374563 74.064081167328823 0 74.064081167328823 -69.108460954506882 0 0 0 0 247.80290444973866 256.26841572284502 0 256.26841572284502 463.30339553699014 0 0 0 0 2.7151296042184185 -242.4813063784859 0 -242.4813063784859 775.02157747610181 0 0 0 0 -117.88987166564937 -7.8935362267002347 0 -7.8935362267002347 352.62479586537665 0 0 0 0 -32.16376787592867 15.180748504470102 0 15.180748504470102 346.81238382509036 0 0 0 0 10.114727786023453 8.9075378006064625 0 8.9075378006064625 8.0613922638551685 0 0 0 0 21.260983330381606 32.041141805573716 0 32.041141805573716 -25.821731752061169 0 0 0 0 -29.294951627452519 41.278013061131787 0 41.278013061131787 73.462294090903015 0 0 0 0 -3.9643845610503377 -19.186408531284542 0 -19.186408531284542 78.146082723130803 0 0 0 0 -1.7068997139637077 15.968238170233235 0 15.968238170233235 -14.262765348379617 0 0 0 0 4.3740971396758823 89.987734073212778 0 89.987734073212778 11.212922449203688 0 0 0 0 -17.58293155508197 53.752617158301291 0 53.752617158301291 -27.734331608007778 0 0 0 0 -17.513451197848333 31.481576638984862 0 31.481576638984862 17.722836170949449 0 0 0 0 -3.6915874413737129 10.635977645899402 0 10.635977645899402 -1.7786292293531005 0 0 0 0 -17.617007147785898 120.30871688859406 0 120.30871688859406 97.329597864389143 0 0 0 0 142.78314171732256 226.40438530646861 0 226.40438530646861 72.253837156174995 0 0 0 0 134.90642050343604 118.55655308686255 0 118.55655308686255 -221.7616384753419 0 0 0 0 -89.78900562184981 -200.56577956837282 0 -200.56577956837282 -257.59085022187719 0 0 0 0 -0.53921901076673961 -0.057724054223555754 0 -0.057724054223555754 -1.0115615328211618 0 0 0 0 108.45665184247008 191.81511579917424 0 191.81511579917424 92.589100837984006 0 0 0 0 298.98291717176892 392.09383590029029 0 392.09383590029029 -16.362340977706481 0 0 0 0 -74.520434584715986 -8.0736171157514036 0 -8.0736171157514036 36.929941507634794 0 0 0 0 279.81724479133436 23.922911721823766 0 23.922911721823766 8.6793187969888095 0 0 0 0 1.7711805806846233 4.2693948917245024 0 4.2693948917245024 2.4990648130230682 0 0 0 0 116.43233948331022 114.07606283320638 0 114.07606283320638 -12.133381282314076 0 0 0 0 297.91129285178357 76.792253856088792 0 76.792253856088792 -52.193011149924132 0 0 0 0 34.293535349258036 -13.104191678172356 0 -13.104191678172356 -137.27523436011688 0 0 0 0 -251.99619008542936 193.28912930687329 0 193.28912930687329 -3.6623657002710388 0 0 0 0 -70.900333900810779 175.62190831148473 0 175.62190831148473 -276.42419944648282 0 0 0 0 -49.21724744230329 84.748303080408732 0 84.748303080408732 -65.278541481093271 0 0 0 0 -3.2705192876023075 1.6518884426751157 0 1.6518884426751157 3.1870539561646467 0 0 0 0 1.2837770194878619 6.4704260513525398 0 6.4704260513525398 11.173246328054404 0 0 0 0 0.2687639049905779 0.22038454631569948 0 0.22038454631569948 0.064924607835109782 0 0 0 0 -48.618114605152073 106.30952841576436 0 106.30952841576436 29.050624863848498 0 0 0 0 -343.48017658202764 93.853390643180319 0 93.853390643180319 28.534504683724663 0 0 0 0 109.49461640087083 300.93354462627758 0 300.93354462627758 -262.71180510277009 0 0 0 0 9.7274528026541702 5.2093448264567996 0 5.2093448264567996 5.8004079566817381 0 0 0 0 16.535672385027055 6.254195376406642 0 6.254195376406642 21.376112070662202 0 0 0 0 5.2908141678711296 5.6922053430280783 0 5.6922053430280783 7.6272898516284044 0 0 0 0 2.3342764937566907 1.4437255599033483 0 1.4437255599033483 10.641814096551315 0 0 0 0 -5.8032447524466875 1.0229271236640898 0 1.0229271236640898 13.061686040552445 0 0 0 0 2.3677979513381615 9.230662088484678 0 9.230662088484678 17.701940338991335 0 0 0 0 3.0107897830832826 6.1908498420089018 0 6.1908498420089018 16.031668209689087 0 0 0 0 5.9266771557204265 4.9834374296187889 0 4.9834374296187889 15.169265426578932 0 0 0 0 -1.7270572646061737 7.8951753513392759 0 7.8951753513392759 17.833042300824218 0 0 0 0 0.086935952848307352 3.4136313122689899 0 3.4136313122689899 13.499097070642165 0 0 0 0 -99.01143533905497 104.8950898325711 0 104.8950898325711 -69.976422321380596 0 0 0 0 -5.6288788798887666 9.3332993857118254 0 9.3332993857118254 9.2694640800036723 0 0 0 0 -1.1415744339188449 4.6383464036717434 0 4.6383464036717434 18.490040630820005 0 0 0 0 0.71606162961139352 4.7113016547095938 0 4.7113016547095938 12.293678826837919 0 0 0 0 9.9153240941002423 -5.5667814641274163 0 -5.5667814641274163 8.9869157332577743 0 0 0 0 22.412445651148118 -26.300488050968852 0 -26.300488050968852 0.88137481598187151 0 0 0 0 4.6361711559529795 0.11282936124189291 0 0.11282936124189291 3.0350221000189777 0 0 0 0 -10.3660889031556 -14.086475374795782 0 -14.086475374795782 8.7509942817414412 0 0 0 0 31.041036351870446 9.7909436826284946 0 9.7909436826284946 5.0996351571084233 0 0 0 0 1.4466065339640863 -9.6740677135676378 0 -9.6740677135676378 13.002495674983948 0 0 0 0 3.8533864754073717 2.9620451874153559 0 2.9620451874153559 8.345804625997431 0 0 0 0 -9.3843920110401768 8.225893029521103 0 8.225893029521103 10.530351376110048 0 0 0 0 7.3429235885746493 17.731608464644523 0 17.731608464644523 8.7162975283345077 0 0 0 0 -147.66507175197796 -189.55781938036671 0 -189.55781938036671 134.73840448229384 0 0 0 0 1.1967628350598405 -1.9183454124347428 0 -1.9183454124347428 17.262083141021066 0 0 0 0 355.13505346183302 84.02957914378203 0 84.02957914378203 -165.88500960808597 0 0 0 0 -59.925648509778398 11.232210119714182 0 11.232210119714182 -20.930463822325692 0 0 0 0 -1.0873534902942481 -14.053444556857357 0 -14.053444556857357 9.7088133460201789 0 0 0 0 14.432368907163379 0.99068867275491357 0 0.99068867275491357 9.8385721594240749 0 0 0 0 15.585704923401295 0.017423788420273922 0 0.017423788420273922 9.9421157607484929 0 0 0 0 9.4273086403484285 -10.469472457807569 0 -10.469472457807569 -4.7470377449208172 0 0 0 0 24.361292143811738 13.987900559142872 0 13.987900559142872 17.122606981443823 0 0 0 0 14.997728307512034 2.5112589634591131 0 2.5112589634591131 12.821049373073038 0 0 0 0 14.328572176794296 5.8234676173087792 0 5.8234676173087792 -0.12667071773830685 0 0 0 0 16.920377772886241 -15.56257167597505 0 -15.56257167597505 21.067609616671689 0 0 0 0 46.000510074024078 10.135690028851968 0 10.135690028851968 12.229070746830985 0 0 0 0 27.169504505804071 25.499407308794616 0 25.499407308794616 32.198924945987528 0 0 0 0 0.28566281764384205 -2.4329217830726435 0 -2.4329217830726435 10.820822329696028 0 0 0 0 -3.7733767669762983 3.6505439952597953 0 3.6505439952597953 19.685521342005813 0 0 0 0 -30.253115219959938 -40.716553429436317 0 -40.716553429436317 42.937358289142139 0 0 0 0 -56.12451334050445 -37.465792674165641 0 -37.465792674165641 -8.1663180823961738 0 0 0 0 53.594867125229257 113.54464054887649 0 113.54464054887649 151.49257536172081 0 0 0 0 42.995128522007008 -52.334347128373338 0 -52.334347128373338 39.121154962587752 0 0 0 0 0.59813513783371208 -0.95008397306473569 0 -0.95008397306473569 0.8321222991612558 0 0 0 0 62.318270676072927 31.732207880682836 0 31.732207880682836 30.370378724459442 0 0 0 0 -53.878287854211067 37.109497454628581 0 37.109497454628581 211.71901173467268 0 0 0 0 92.753305894481855 -14.317978982864588 0 -14.317978982864588 20.853236161739005 0 0 0 0 -43.979549053381788 8.232957531552529 0 8.232957531552529 223.46396678889141 0 0 0 0 -0.26024896556393884 -0.57373881184066988 0 -0.57373881184066988 1.0092584431727261 0 0 0 0 -52.603596026276591 25.181726636976236 0 25.181726636976236 191.71312137983477 0 0 0 0 -59.534699396096585 50.384900412216666 0 50.384900412216666 180.60715955063642 0 0 0 0 10.581528848006656 12.922038280579727 0 12.922038280579727 29.744925670820521 0 0 0 0 102.73140594760139 -71.76860612884775 0 -71.76860612884775 -19.520333560441941 0 0 0 0 4.4790748322018281 1.1693833190867053 0 1.1693833190867053 6.3068126289853979 0 0 0 0 14.368937899281491 14.177692404991831 0 14.177692404991831 22.224564519783598 0 0 0 0 14.309392753387101 13.372262830756426 0 13.372262830756426 24.834413684555329 0 0 0 0 5.4476747217840966 -2.7139383059111424 0 -2.7139383059111424 23.811733247479424 0 0 0 0 -22.977449135409643 53.314435067661179 0 53.314435067661179 24.365026660336298 0 0 0 0 6.5566765805258456 63.770987659569073 0 63.770987659569073 51.277457744978165 0 0 0 0 -10.155254627847626 3.2789144587823102 0 3.2789144587823102 21.097793941604323 0 0 0 0 14.541713344722735 13.652994317124239 0 13.652994317124239 13.334235486774986 0 0 0 0 6.5521892686769032 7.4851088751781276 0 7.4851088751781276 15.215268860852063 0 0 0 0 0.89026673893304453 3.3873231962046395 0 3.3873231962046395 0.1297074038653534 0 0 0 0 9.3924352452704767 23.893674504838145 0 23.893674504838145 35.958538247039542 0 0 0 0 52.869738861092173 -22.286793209328607 0 -22.286793209328607 73.107413488878592 0 0 0 0 208.08935778522164 93.162262032899889 0 93.162262032899889 208.04233887633563 0 0 0 0 24.810753284035172 44.97478487321132 0 44.97478487321132 219.83097016756801 0 0 0 0 51.279948418892445 -17.760378039820353 0 -17.760378039820353 347.85411351007497 0 0 0 0 21.542589995404569 116.15529274345317 0 116.15529274345317 129.6582198191536 0 0 0 0 74.069797225822526 -80.793517346917724 0 -80.793517346917724 63.495933402860828 0 0 0 0 -15.379608120805557 244.84928307263363 0 244.84928307263363 430.52239547860518 0 0 0 0 37.278185951110572 340.33910474781806 0 340.33910474781806 279.45716421565885 0 0 0 0 -250.6377210110245 -5.1633033608886763 0 -5.1633033608886763 508.20265084971288 0 0 0 0 -65.86290361573856 101.88399280554222 0 101.88399280554222 545.30192093540973 0 0 0 0 0.97471265824820819 2.0178825821758295 0 2.0178825821758295 2.8864881450801363 0 0 0 0 56.811578356444329 344.72806146043877 0 344.72806146043877 -16.271856728533749 0 0 0 0 64.131418171143423 308.21816686165766 0 308.21816686165766 141.82897581139696 0 0 0 0 56.2140200930628 167.78972036416963 0 167.78972036416963 136.3036507658253 0 0 0 0 41.64594476997604 67.381171158252982 0 67.381171158252982 211.64597639547719 0 0 0 0 5.3558729761153359 112.52349359436857 0 112.52349359436857 262.25016750092618 0 0 0 0 -266.3937458905425 93.808709720653496 0 93.808709720653496 120.04087581653584 0 0 0 0 -10.517489516640808 21.393416979077301 0 21.393416979077301 -30.109459999765022 0 0 0 0 92.034280109588053 68.576643668391625 0 68.576643668391625 688.37201738951262 0 0 0 0 189.81921456408111 260.63994634229311 0 260.63994634229311 415.13732459954917 0 0 0 0 165.6069577664224 178.05683064263576 0 178.05683064263576 882.13995612676626 0 0 0 0 420.2914566406439 -144.27516403599293 0 -144.27516403599293 799.19166115267944 0 0 0 0 483.94244600367449 -21.143895187560702 0 -21.143895187560702 605.02218498752336 0 0 0 0 310.8587406781844 -72.533647139542154 0 -72.533647139542154 753.0246291468502 0 0 0 0 562.51448735088661 -75.19934784873476 0 -75.19934784873476 640.26156751191593 0 0 0 0 239.1381086235267 90.174095476042567 0 90.174095476042567 615.91835397080285 0 0 0 0 54.457515502724164 -17.938157969867461 0 -17.938157969867461 525.87567466980545 0 0 0 0 56.558806622380871 177.78993331105448 0 177.78993331105448 392.08754868042888 0 0 0 0 82.102029648142889 126.18523177987663 0 126.18523177987663 354.25254183120705 0 0 0 0 122.22525212367941 257.31500214002881 0 257.31500214002881 235.52797430216742 0 0 0 0 75.200609473733039 278.27895840330166 0 278.27895840330166 219.29766870444291 0 0 0 0 59.383642144451755 267.90446334885564 0 267.90446334885564 242.57300354308973 0 0 0 0 122.40458741802081 267.29869646589941 0 267.29869646589941 187.07006059815467 0 0 0 0 98.034383908246127 205.87722798846517 0 205.87722798846517 181.74719256437675 0 0 0 0 117.29943872378962 218.26784484116615 0 218.26784484116615 393.35197364925989 0 0 0 0 215.42960329513971 298.42814704515331 0 298.42814704515331 228.78224594937637 0 0 0 0 246.11832235900403 155.06538314075715 0 155.06538314075715 140.60167455734336 0 0 0 0 288.04600588988342 320.61581604873936 0 320.61581604873936 394.26428985633538 0 0 0 0 200.50724197582116 172.63890111863293 0 172.63890111863293 133.87229752342682 0 0 0 0 107.09063398498535 74.469877675255702 0 74.469877675255702 38.324937092635082 0 0 0 0 -36.167097716863964 67.758955773933849 0 67.758955773933849 83.768769955073367 0 0 0 0 74.661112523188876 124.30784909870999 0 124.30784909870999 0.3621991350009921 0 0 0 0 59.940147020249952 128.32245795088238 0 128.32245795088238 42.092279424425215 0 0 0 0 28.989572628125416 125.39506272488507 0 125.39506272488507 74.456511440032045 0 0 0 0 151.31752179586294 205.08424329997069 0 205.08424329997069 105.59456184977898 0 0 0 0 33.470880582080355 151.93020962568698 0 151.93020962568698 21.108522203619941 0 0 0 0 5.4732310296168976 149.74554714179976 0 149.74554714179976 49.440142901832587 0 0 0 0 46.280303070632272 262.4156447401765 0 262.4156447401765 232.15065662015695 0 0 0 0 77.731215295795181 199.23906296279893 0 199.23906296279893 126.42939602957631 0 0 0 0 45.194127717616084 195.8053646927292 0 195.8053646927292 141.6520125692914 0 0 0 0 -16.629623729644663 104.35808948434715 0 104.35808948434715 74.704901979595888 0 0 0 0 28.850344910767035 183.53677256801166 0 183.53677256801166 197.55173405421374 0 0 0 0 -20.539614167270969 207.19454414996926 0 207.19454414996926 190.95655105492915 0 0 0 0 5.2195268157352075 19.006856070962385 0 19.006856070962385 27.409623992351044 0 0 0 0 -61.219595916668595 63.493597117187164 0 63.493597117187164 177.91260174786839 0 0 0 0 165.88621228483998 45.748331781025627 0 45.748331781025627 -46.838672435515036 0 0 0 0 143.475327429515 39.246668207557377 0 39.246668207557377 -48.60301170143066 0 0 0 0 0.31382831575002357 -0.91036444372559089 0 -0.91036444372559089 3.7484604902053604 0 0 0 0 -25.80299491008941 42.356060323276324 0 42.356060323276324 88.103214330039918 0 0 0 0 -0.84902816837712569 -0.40270899433410534 0 -0.40270899433410534 0.49705472075092416 0 0 0 0 30.227703954917615 -31.658738956131856 0 -31.658738956131856 -5.267233645048691 0 0 0 0 73.379585465559501 131.23508832712832 0 131.23508832712832 50.610677462580497 0 0 0 0 -547.76610120737246 322.73508183396189 0 322.73508183396189 123.88258802992641 0 0 0 0 49.583106918441501 -38.729562446558703 0 -38.729562446558703 4.9459996529039927 0 0 0 0 -18.820617761780227 -70.678294021114198 0 -70.678294021114198 94.879834741033847 0 0 0 0 -45.264824733134105 -20.016033333324231 0 -20.016033333324231 5.7813777200644836 0 0 0 0 -58.924138036585873 -45.383271837119537 0 -45.383271837119537 28.059076534111227 0 0 0 0 -2.1473165833972558 -0.71081164094721316 0 -0.71081164094721316 8.5860214557687868 0 0 0 0 -3.447529986771861 0.64154501141828746 0 0.64154501141828746 11.435054966568003 0 0 0 0 -95.539983086245229 47.424090593136498 0 47.424090593136498 50.141127745981066 0 0 0 0 -5.1710495378243708 3.7610255802499779 0 3.7610255802499779 1.0022499595377496 0 0 0 0 85.627583087741357 -95.778668755792751 0 -95.778668755792751 -61.791739045584109 0 0 0 0 455.56926946978774 -157.39071889780462 0 -157.39071889780462 -6.7736290305037983 0 0 0 0 -88.95492019619499 14.626983624872082 0 14.626983624872082 115.15419784575352 0 0 0 0 283.13686764934789 141.0203164468403 0 141.0203164468403 79.203469679807313 0 0 0 0 28.516577297131448 -60.950646859742847 0 -60.950646859742847 577.73384787599207 0 0 0 0 210.45407174330083 -11.961614222556818 0 -11.961614222556818 -65.662035577894585 0 0 0 0 1.2795195530754553 3.5960721438421501 0 3.5960721438421501 3.3875241269923606 0 0 0 0 39.814877054342304 -107.60392838133885 0 -107.60392838133885 152.50727785140043 0 0 0 0 1.0837998165689839 3.1527119020611281 0 3.1527119020611281 8.1298785118351589 0 0 0 0 -0.92052820745777342 1.1344266372054648 0 1.1344266372054648 3.1260507878959061 0 0 0 0 -53.742233741232582 149.54233356278564 0 149.54233356278564 463.74669346126029 0 0 0 0 -48.286959871377462 129.44492709307815 0 129.44492709307815 483.13687739762827 0 0 0 0 -53.204373267558211 123.50587786062897 0 123.50587786062897 623.73267599179235 0 0 0 0 78.108058716143546 229.40208490235091 0 229.40208490235091 675.86340362843839 0 0 0 0 417.31336213778008 205.89329127292149 0 205.89329127292149 578.77241198331467 0 0 0 0 0.00019558630430970925 -0.72378319544077385 0 -0.72378319544077385 3.2427637386026618 0 0 0 0 122.89815501421046 369.59797753879684 0 369.59797753879684 730.63535925405449 0 0 0 0 0.078517982371359374 0.20154203906632517 0 0.20154203906632517 2.0924003446278334 0 0 0 0 48.371563212438446 216.76028660774318 0 216.76028660774318 517.87340523154126 0 0 0 0 0.50765020107061898 -0.0062027058551592518 0 -0.0062027058551592518 0.65677020978034761 0 0 0 0 -41.406071615085907 118.70604846999049 0 118.70604846999049 438.56507884706662 0 0 0 0 -0.50279068410680772 -0.45692096517758074 0 -0.45692096517758074 3.9113379415567522 0 0 0 0 0.11797293971537215 1.9768627847952303 0 1.9768627847952303 6.7408443012245698 0 0 0 0 -0.84821616473194905 -1.0205534315864497 0 -1.0205534315864497 5.93858761874435 0 0 0 0 -1.3895513850790335 -1.1559383860512753 0 -1.1559383860512753 5.9236310831602168 0 0 0 0 -0.70542200427688417 0.29218967165434151 0 0.29218967165434151 8.8432105394458631 0 0 0 0 -1.0018120150874077 -0.96285148734272497 0 -0.96285148734272497 6.9876934825257138 0 0 0 0 -0.77015405966278827 -5.1535796130119707 0 -5.1535796130119707 9.7967422861665909 0 0 0 0 0.31323954984110997 -2.253204082918046 0 -2.253204082918046 1.8644595018726591 0 0 0 0 -0.0057048891506460541 -2.5900453477770498 0 -2.5900453477770498 7.2831602831211057 0 0 0 0 -8.1310017083571822 -9.3943027579734917 0 -9.3943027579734917 1.5954647712351289 0 0 0 0 0.16318891547653297 0.04371249528300325 0 0.04371249528300325 -0.55929986027001632 0 0 0 0 -3.909072506371623 -0.14601787690662604 0 -0.14601787690662604 4.1960037776880199 0 0 0 0 -0.01870112256199611 -10.276969020193064 0 -10.276969020193064 -6.0794854215200758 0 0 0 0 -16.800612840699941 -2.2310581167621422 0 -2.2310581167621422 3.9269457984773908 0 0 0 0 -18.332132145179578 -1.9053880844585365 0 -1.9053880844585365 17.803735764944577 0 0 0 0 -13.745538454713133 -28.711032158098078 0 -28.711032158098078 -20.009946890349966 0 0 0 0 15.746669145891133 -11.923976431840856 0 -11.923976431840856 -5.7687333474636944 0 0 0 0 15.712650990122611 -35.300295512060984 0 -35.300295512060984 -7.2840591189151382 0 0 0 0 5.7076235465208924 -27.164290677461395 0 -27.164290677461395 38.087226625997573 0 0 0 0 13.921478492737876 -9.7111707989661227 0 -9.7111707989661227 -0.78532244049711153 0 0 0 0 -1.2547467426261107 -19.53967039298368 0 -19.53967039298368 5.3793772948702099 0 0 0 0 2.2896850616210225 -6.6581641081254261 0 -6.6581641081254261 13.496754334403988 0 0 0 0 -22.567357241741206 -11.418393510895839 0 -11.418393510895839 9.8496374686365016 0 0 0 0 -15.621173312645169 -31.51681374619875 0 -31.51681374619875 -20.25678039471677 0 0 0 0 -28.578113840914966 -33.871534133984824 0 -33.871534133984824 -13.838758818950737 0 0 0 0 2.2817744764648875 -4.2298270435175951 0 -4.2298270435175951 7.8453464093235539 0 0 0 0 -31.173178395072227 -46.173683434069972 0 -46.173683434069972 -18.853938163258135 0 0 0 0 -11.426492894938463 -8.7431689993100008 0 -8.7431689993100008 7.8857163358334219 0 0 0 0 -20.27619590340565 -26.148524925985839 0 -26.148524925985839 22.470273134546005 0 0 0 0 6.8046151511393873 -24.145553048278089 0 -24.145553048278089 18.801106841972796 0 0 0 0 -11.406512443406811 -5.0300244276295416 0 -5.0300244276295416 45.601866968034301 0 0 0 0 -5.1784512387863515 -12.664652790906985 0 -12.664652790906985 11.227963425553753 0 0 0 0 -5.6091923795684693 -29.208451366277586 0 -29.208451366277586 77.790623191584018 0 0 0 0 0.8596707710415481 -1.4455136727953928 0 -1.4455136727953928 2.536964081745424 0 0 0 0 23.33040605603577 99.807714204551303 0 99.807714204551303 126.574794190994 0 0 0 0 19.636724173442474 37.945518826083571 0 37.945518826083571 71.663597117454628 0 0 0 0 -63.041274290798697 72.678568201052258 0 72.678568201052258 202.76156941450608 0 0 0 0 -37.341098131720628 27.70726876687695 0 27.70726876687695 125.93512981402455 0 0 0 0 -65.860825721101094 11.213794162762497 0 11.213794162762497 121.45211098104483 0 0 0 0 -112.1447038192764 4.8978220084827626 0 4.8978220084827626 144.4749661879614 0 0 0 0 -74.881800042656891 -10.591657745484554 0 -10.591657745484554 73.530281081912108 0 0 0 0 -51.451391840898395 18.285863833705662 0 18.285863833705662 65.227797384155565 0 0 0 0 -53.837349428332686 -17.355138598424674 0 -17.355138598424674 190.03965314355446 0 0 0 0 -18.700037992753664 -45.481019469974854 0 -45.481019469974854 102.95728878756199 0 0 0 0 -52.113283425955501 -18.906555635297991 0 -18.906555635297991 85.2557122217695 0 0 0 0 -48.404783340863474 -8.5779035749619652 0 -8.5779035749619652 114.0209121699736 0 0 0 0 -90.495908361647082 -5.9537126979776076 0 -5.9537126979776076 113.86919693183154 0 0 0 0 -73.396905671637683 -46.517633100225794 0 -46.517633100225794 118.90886884898646 0 0 0 0 -7.8761378934011361 -27.456548022786592 0 -27.456548022786592 95.691127292549936 0 0 0 0 1.6785358325521917 -44.335371209810546 0 -44.335371209810546 125.29098704186617 0 0 0 0 108.72626646832586 41.134960861193804 0 41.134960861193804 126.23575437364343 0 0 0 0 23.672800541551499 17.413127374748001 0 17.413127374748001 124.48977049191126 0 0 0 0 61.799010088110492 -45.050886932855065 0 -45.050886932855065 82.294252413194044 0 0 0 0 0.063203686590124597 -15.385012695905571 0 -15.385012695905571 79.602420349052409 0 0 0 0 -0.26626057101428557 -27.434019006883318 0 -27.434019006883318 78.377455039371853 0 0 0 0 23.566586554538244 -23.501300733027165 0 -23.501300733027165 28.901167841802817 0 0 0 0 -5.8540644521399372 -21.544660400810244 0 -21.544660400810244 40.514989641826105 0 0 0 0 15.498598827028189 -49.428046737699333 0 -49.428046737699333 65.795973292508279 0 0 0 0 -15.71363412407397 6.5012857569035987 0 6.5012857569035987 299.03610662400024 0 0 0 0 110.49789685656287 203.40933157600011 0 203.40933157600011 248.8440029360645 0 0 0 0 0.46377776665504267 -0.57387285856223968 0 -0.57387285856223968 0.61900308749390831 0 0 0 0 -29.079245957400218 31.187157290180039 0 31.187157290180039 292.40179327246005 0 0 0 0 0.40066265308890769 -4.4396515885590135 0 -4.4396515885590135 34.147380483242159 0 0 0 0 -85.582477862361088 -30.402705991818948 0 -30.402705991818948 151.05543516803664 0 0 0 0 0.57767426200569028 -1.5695063749727467 0 -1.5695063749727467 1.0210317828619111 0 0 0 0 -47.866679892296077 -54.683573049764163 0 -54.683573049764163 14.480269915395183 0 0 0 0 -94.498347920975675 -118.0201843317991 0 -118.0201843317991 -5.3840424973423069 0 0 0 0 -0.088524287401864576 -1.2521171394975852 0 -1.2521171394975852 0.89877887109405208 0 0 0 0 -121.20025462053127 -153.24986648409686 0 -153.24986648409686 -31.059231830113276 0 0 0 0 -34.731090874750635 -91.313918752701511 0 -91.313918752701511 289.72842104294978 0 0 0 0 -162.99734606445918 -43.31215023925688 0 -43.31215023925688 362.69107962491398 0 0 0 0 -25.296180937255599 10.930888058173878 0 10.930888058173878 333.18399406289245 0 0 0 0 145.04914286203314 -88.300059219996911 0 -88.300059219996911 -13.908436515979702 0 0 0 0 135.28742970440103 -176.03185494797799 0 -176.03185494797799 518.79819173910073 0 0 0 0 -171.70264702210261 70.032085424376419 0 70.032085424376419 373.11944051663158 0 0 0 0 -284.51802995301114 364.46075220807688 0 364.46075220807688 589.87669132693554 0 0 0 0 -21.44287797567597 92.38314367129351 0 92.38314367129351 249.62885097217077 0 0 0 0 0.18186012271857521 -2.6085982399664118 0 -2.6085982399664118 6.4395781995704624 0 0 0 0 -16.372459049090359 186.89197433492086 0 186.89197433492086 851.83204118785943 0 0 0 0 259.82198111861192 482.17254321661312 0 482.17254321661312 611.39301517355852 0 0 0 0 107.52387541457443 -45.392597046531591 0 -45.392597046531591 27.803249414733727 0 0 0 0 -29.16772599806157 -173.23827725886076 0 -173.23827725886076 513.18467810934089 0 0 0 0 -4.9879908240341813 195.88088235592295 0 195.88088235592295 897.57382701122697 0 0 0 0 449.63710217073412 173.01735757702409 0 173.01735757702409 357.83393624282326 0 0 0 0 -55.238520671350891 42.51727901808772 0 42.51727901808772 494.73176949334447 0 0 0 0 -0.23539765146054889 70.526817120455235 0 70.526817120455235 507.79395104802825 0 0 0 0 -0.16970438298667961 26.660485880056513 0 26.660485880056513 476.87946272083354 0 0 0 0 21.614660686574091 38.7982414275466 0 38.7982414275466 21.339151858739569 0 0 0 0 -0.2488487037466969 0.16242648605627608 0 0.16242648605627608 -0.030125564192497123 0 0 0 0 77.123366320009211 -112.82637091605648 0 -112.82637091605648 75.44500690256973 0 0 0 0 22.47023680407618 19.808824368774367 0 19.808824368774367 -1.4197574863501359 0 0 0 0 -2.2311683511093996 -0.20504421876333367 0 -0.20504421876333367 2.9450420008597167 0 0 0 0 10.532197855683913 55.367056602823141 0 55.367056602823141 108.6923718387261 0 0 0 0 26.41553492562506 -4.0977459443165571 0 -4.0977459443165571 41.637365266840789 0 0 0 0 51.856198721480062 78.744825349822349 0 78.744825349822349 128.97358258763416 0 0 0 0 -19.825045516891251 47.903953795554116 0 47.903953795554116 154.23592877633564 0 0 0 0 0.07010142963217178 12.091544527508812 0 12.091544527508812 105.18550862200209 0 0 0 0 53.892878433707004 73.906166073385975 0 73.906166073385975 146.35331502879671 0 0 0 0 -0.09134252492936841 28.399681126351819 0 28.399681126351819 290.95720211642038 0 0 0 0 16.675353649719483 123.79750799135218 0 123.79750799135218 284.10751183689717 0 0 0 0 12.098094172125112 33.008216194179113 0 33.008216194179113 209.50584085386072 0 0 0 0 1.3264585034458776 56.590059999754885 0 56.590059999754885 369.70026882948878 0 0 0 0 -43.816343788664341 134.67416327609681 0 134.67416327609681 434.75423330010381 0 0 0 0 -4.8473296082649142 74.547808970637561 0 74.547808970637561 503.62912573924041 0 0 0 0 0.40722870950194806 51.942637501479574 0 51.942637501479574 488.74414447121671 0 0 0 0 -4.438303691285455 193.86530508862779 0 193.86530508862779 720.03240323419141 0 0 0 0 45.931143759194157 131.61080023241811 0 131.61080023241811 335.00736571262678 0 0 0 0 220.76844239925896 184.06194934150699 0 184.06194934150699 581.06202776200098 0 0 0 0 200.74917416827691 319.47288457379909 0 319.47288457379909 415.28027024471521 0 0 0 0 166.05981576519639 203.64230495577794 0 203.64230495577794 126.50951278979483 0 0 0 0 68.861432789586615 188.77259294045507 0 188.77259294045507 613.39262171705923 0 0 0 0 57.754321508178663 251.37834867943639 0 251.37834867943639 485.23627757297072 0 0 0 0 -46.963747466939708 136.43575701900409 0 136.43575701900409 486.76645196201571 0 0 0 0 17.790580532116934 194.27752719779528 0 194.27752719779528 323.72799758567271 0 0 0 0 21.082667437827439 216.26028693452099 0 216.26028693452099 465.39039418485117 0 0 0 0 62.181959274493238 119.62482969701523 0 119.62482969701523 141.15510025382537 0 0 0 0 -2.5355751606323977 79.068697476293892 0 79.068697476293892 262.56338044790391 0 0 0 0 23.066175316667426 32.933676635148004 0 32.933676635148004 103.22102788191751 0 0 0 0 -11.592857835956863 0.58759840688071563 0 0.58759840688071563 6.8462020882943762 0 0 0 0 0.28858231248814381 -1.6123247218001353 0 -1.6123247218001353 5.5947885068323728 0 0 0 0 4.1494327572523275 2.8858643211970048 0 2.8858643211970048 6.1716175684632617 0 0 0 0 -8.3579862089158041 -24.573442581873678 0 -24.573442581873678 45.862727820309374 0 0 0 0 0.23607141766203577 -2.7802842271967592 0 -2.7802842271967592 5.9872595483709006 0 0 0 0 34.969084005796887 7.3108453130553244 0 7.3108453130553244 19.302564759338566 0 0 0 0 -2.6158631859023558 -1.7794800267929531 0 -1.7794800267929531 5.5119757227075752 0 0 0 0 153.09801692660858 55.103963592162472 0 55.103963592162472 458.58995421411237 0 0 0 0 1.7018269516293159 -5.0263524954017242 0 -5.0263524954017242 3.614413309865963 0 0 0 0 34.581644958205288 241.68436708687295 0 241.68436708687295 579.31291261482693 0 0 0 0 6.4718095517384508 -6.185057926995313 0 -6.185057926995313 1.2544562552893339 0 0 0 0 15.932835578938352 -2.9524185749760363 0 -2.9524185749760363 -7.7049574842817492 0 0 0 0 56.248185339981319 -35.498282513042795 0 -35.498282513042795 853.5860068129823 0 0 0 0 -265.39727015959102 180.00376465866429 0 180.00376465866429 1314.1256511662068 0 0 0 0 4.1675490588315824 39.084833133951179 0 39.084833133951179 762.05740253911063 0 0 0 0 2.9959743183408136 -6.7254890068015811 0 -6.7254890068015811 13.108123637459357 0 0 0 0 28.476709795047555 12.86096577738499 0 12.86096577738499 -13.184488308412256 0 0 0 0 31.802242792852326 -10.73285398635926 0 -10.73285398635926 10.290526950653657 0 0 0 0 24.882121271245701 -22.340809897761119 0 -22.340809897761119 38.429882137017557 0 0 0 0 -0.50041248765714119 -0.44288114070674567 0 -0.44288114070674567 0.3534634692782106 0 0 0 0 63.776607837862883 -120.9690828701132 0 -120.9690828701132 448.75018583050405 0 0 0 0 135.7990767374306 -67.524724638351472 0 -67.524724638351472 442.90903520629217 0 0 0 0 21.690268860855213 -78.305250252713449 0 -78.305250252713449 224.6026612467831 0 0 0 0 0.047501836818360843 -0.43847010140148512 0 -0.43847010140148512 2.6339696151990211 0 0 0 0 53.882521918360339 -67.565470903617097 0 -67.565470903617097 37.649801776886761 0 0 0 0 47.664811492264107 -377.12576682626968 0 -377.12576682626968 845.56216660891369 0 0 0 0 72.470778715404208 -37.464601923267765 0 -37.464601923267765 -15.136257769852818 0 0 0 0 -33.019927228464894 -48.817760488815111 0 -48.817760488815111 76.444785496780241 0 0 0 0 57.618522451890044 -151.56243945132519 0 -151.56243945132519 301.49806798143254 0 0 0 0 -44.181576340059109 -40.321980880875344 0 -40.321980880875344 180.93238410503545 0 0 0 0 21.527495025320633 -35.529353500204707 0 -35.529353500204707 32.811386842353386 0 0 0 0 -1.9341716208447797 -0.44761474736733931 0 -0.44761474736733931 0.012394506787643422 0 0 0 0 -6.7324808440903325 -118.71914263252984 0 -118.71914263252984 194.51361786552297 0 0 0 0 -39.736686879183026 -46.853685778568433 0 -46.853685778568433 150.53120346080686 0 0 0 0 15.417629722328527 -27.104501781348972 0 -27.104501781348972 19.865959483446204 0 0 0 0 11.535467622539954 50.449569053176674 0 50.449569053176674 101.74765333138203 0 0 0 0 -1.0793129074892249 -3.2169491755158077 0 -3.2169491755158077 3.4815866309843102 0 0 0 0 9.452923649967147 -5.6665879224674427 0 -5.6665879224674427 19.947660593647015 0 0 0 0 -61.289117799488395 -22.124640985828592 0 -22.124640985828592 718.11887181107977 0 0 0 0 8.9046050046923462 -8.1696671987534017 0 -8.1696671987534017 1.6428458831673147 0 0 0 0 22.71740568106901 -16.863322051332943 0 -16.863322051332943 -9.8235100649180822 0 0 0 0 2.4762903549890325 -73.02033680806926 0 -73.02033680806926 531.22259595837386 0 0 0 0 11.626938210604713 -10.231780084583505 0 -10.231780084583505 1.6905510487568378 0 0 0 0 12.570017274257225 60.309702153470425 0 60.309702153470425 301.9258951907359 0 0 0 0 -12.229400789889496 -27.739556199199797 0 -27.739556199199797 529.98033058100555 0 0 0 0 -1.6732982774372545 -69.504769471527652 0 -69.504769471527652 541.42221410125785 0 0 0 0 21.988767032773403 -13.195469145119915 0 -13.195469145119915 8.5884037730188254 0 0 0 0 23.581134475025465 -21.59628308925312 0 -21.59628308925312 8.7265158348018304 0 0 0 0 58.401722637925559 -56.360513048632129 0 -56.360513048632129 263.5796195233379 0 0 0 0 46.918177473719879 -80.885330645236536 0 -80.885330645236536 78.19107117204112 0 0 0 0 -2.8393991712151276 -3.0780780401924517 0 -3.0780780401924517 7.1552872927048128 0 0 0 0 47.354285183696447 -61.396065416127385 0 -61.396065416127385 -79.662591134081595 0 0 0 0 -10.164702475434751 9.0860720020718873 0 9.0860720020718873 34.054369286226574 0 0 0 0 3.0731417449875451 -8.0341410022997906 0 -8.0341410022997906 18.659426407967885 0 0 0 0 2.7301339609829043 -8.4378938944549162 0 -8.4378938944549162 15.59684121981563 0 0 0 0 -2.2465496209624689 -6.3677895340661053 0 -6.3677895340661053 8.2266737808386097 0 0 0 0 34.297069775202544 50.149996868800372 0 50.149996868800372 90.626695096492767 0 0 0 0 2.9637683000152233 -9.6823795756107529 0 -9.6823795756107529 21.623630421228626 0 0 0 0 4.2247400038728129 -2.4610578062124198 0 -2.4610578062124198 -2.1822749352052142 0 0 0 0 -25.145629888116673 -118.00150945765199 0 -118.00150945765199 -45.869993234635331 0 0 0 0 -23.989861899784955 13.615673125023022 0 13.615673125023022 120.04615808081871 0 0 0 0 -29.064904457415651 -76.435302251920803 0 -76.435302251920803 308.60220829355239 0 0 0 0 -40.802681926600144 -7.4460571162053384 0 -7.4460571162053384 326.11613584443694 0 0 0 0 56.574989944830122 -57.616617572522955 0 -57.616617572522955 343.83855798049262 0 0 0 0 8.7050563971426413 -13.532897411276281 0 -13.532897411276281 547.01017609133851 0 0 0 0 1.6025308741375284 -25.696235117784454 0 -25.696235117784454 330.4804624219687 0 0 0 0 -33.901521858322212 -71.477934393824398 0 -71.477934393824398 535.98522151977522 0 0 0 0 109.35333027257275 -298.94473208826093 0 -298.94473208826093 576.94785772898467 0 0 0 0 46.264509322258505 -3.3685776155748499 0 -3.3685776155748499 319.90030317376659 0 0 0 0 0.40726271578044404 2.1243747883384572 0 2.1243747883384572 2.7868405051559648 0 0 0 0 25.038879563117916 -336.5952991253871 0 -336.5952991253871 1216.5585442244192 0 0 0 0 -273.27599316153334 551.14175037705752 0 551.14175037705752 -91.694654961283959 0 0 0 0 -260.06892401781215 -21.703213317530754 0 -21.703213317530754 151.69276145099866 0 0 0 0 -121.66344159273149 62.228857241549122 0 62.228857241549122 -86.364573500437928 0 0 0 0 1.1356924340467387 3.0075913937828744 0 3.0075913937828744 9.340798319416848 0 0 0 0 -247.05656763828301 106.74666351546966 0 106.74666351546966 64.048625278679538 0 0 0 0 -116.16685135242551 107.88962136057671 0 107.88962136057671 -78.724730076966807 0 0 0 0 44.34742267397155 -48.488961989420204 0 -48.488961989420204 295.35259513847996 0 0 0 0 -87.780041206412534 -37.869469675910295 0 -37.869469675910295 49.44125768057711 0 0 0 0 -138.13128352738681 0.82554483742569573 0 0.82554483742569573 51.364818477217341 0 0 0 0 -195.65556639417946 -37.000391500263504 0 -37.000391500263504 154.84786408497894 0 0 0 0 -86.853128781256601 -77.002632263938722 0 -77.002632263938722 123.93667303671828 0 0 0 0 -134.59236469137909 -110.44838541337958 0 -110.44838541337958 81.427152010568534 0 0 0 0 -77.505384450956171 -68.545766191571602 0 -68.545766191571602 19.424857846615851 0 0 0 0 -108.7869669995066 -67.315323346374498 0 -67.315323346374498 21.040241053931823 0 0 0 0 16.736682975993062 -29.415377780063864 0 -29.415377780063864 23.830559267800709 0 0 0 0 -0.23684817225966981 -16.503129876560706 0 -16.503129876560706 17.389764256227863 0 0 0 0 -9.3690345956127601 -1.9868545161115776 0 -1.9868545161115776 13.048223248933155 0 0 0 0 -20.517256906398899 -42.609874305651317 0 -42.609874305651317 38.421546342193324 0 0 0 0 3.3632931637488959 -11.239625069035938 0 -11.239625069035938 27.455151788373314 0 0 0 0 -104.185017045118 -19.113199376952252 0 -19.113199376952252 29.607837353541981 0 0 0 0 56.617483565096336 9.7842791555085569 0 9.7842791555085569 46.374731682240963 0 0 0 0 37.384738333329551 -15.235659884485358 0 -15.235659884485358 132.77612784051689 0 0 0 0 -20.426683104724233 -32.87981500033348 0 -32.87981500033348 24.749936239168164 0 0 0 0 -21.91445500919508 -62.416623286066169 0 -62.416623286066169 102.67760286484554 0 0 0 0 -6.6555684328541247 50.936656018762733 0 50.936656018762733 45.621818353911294 0 0 0 0 -10.27458005565472 3.2782817572612686 0 3.2782817572612686 9.3976485879594236 0 0 0 0 -13.96812263882839 -5.9163993833171844 0 -5.9163993833171844 -6.5951096809585579 0 0 0 0 39.767212701603057 -56.994733607774833 0 -56.994733607774833 125.01539955772023 0 0 0 0 -0.97383565572315334 -0.57647156537188948 0 -0.57647156537188948 2.4174713243275789 0 0 0 0 40.876945420985976 -56.173319670349883 0 -56.173319670349883 66.479578704282176 0 0 0 0 37.236624146956729 -34.544539071030158 0 -34.544539071030158 118.2007824020402 0 0 0 0 55.510863408326259 -48.763833845139743 0 -48.763833845139743 71.366253560077894 0 0 0 0 44.007681939639042 -54.792360790055682 0 -54.792360790055682 99.994623111437249 0 0 0 0 35.259448276621697 -48.927710375726747 0 -48.927710375726747 73.366930910651718 0 0 0 0 123.89370422672027 -81.763815439833706 0 -81.763815439833706 99.381979245365073 0 0 0 0 35.888726155924815 -22.181429794894939 0 -22.181429794894939 109.17481316829435 0 0 0 0 193.49190243933481 -218.90028553508819 0 -218.90028553508819 160.34282639149751 0 0 0 0 114.72892033340941 -54.164501752766228 0 -54.164501752766228 -172.37604577185994 0 0 0 0 75.171742906361033 -27.904552877113019 0 -27.904552877113019 81.800733156287606 0 0 0 0 -53.960968817737921 62.772693092811096 0 62.772693092811096 574.31631402533094 0 0 0 0 -0.34751793393479602 -151.05899290459638 0 -151.05899290459638 559.52253948104772 0 0 0 0 4.5417085295004398 -2.6142592578025585 0 -2.6142592578025585 2.1683110191363255 0 0 0 0 -217.70040078360398 87.179467956193548 0 87.179467956193548 1481.436121815721 0 0 0 0 72.782519019710492 160.28234404386694 0 160.28234404386694 804.04366381916043 0 0 0 0 -52.137791837149962 -60.966994721085939 0 -60.966994721085939 55.824081655518967 0 0 0 0 11.615100386163249 -113.27219624008285 0 -113.27219624008285 -83.116282628310728 0 0 0 0 13.41636046459255 -8.4391809408363514 0 -8.4391809408363514 4.6240642491162447 0 0 0 0 54.657169916157727 -17.14501164475223 0 -17.14501164475223 623.23760639656393 0 0 0 0 16.661449342775086 16.989552378843655 0 16.989552378843655 657.6126886400416 0 0 0 0 24.940648049500851 -136.6486391636754 0 -136.6486391636754 710.58752454221394 0 0 0 0 2.3094601545456097 -3.1201248577437184 0 -3.1201248577437184 5.4489640718395549 0 0 0 0 10.62986142940583 -11.926098141312082 0 -11.926098141312082 1.8135068373676226 0 0 0 0 -6.9334711341271031 -32.78267058808342 0 -32.78267058808342 14.366459931130521 0 0 0 0 -137.15523029114047 -210.01647592911831 0 -210.01647592911831 800.62482794381503 0 0 0 0 104.83081277602469 171.1584652932579 0 171.1584652932579 147.13094212549186 0 0 0 0 6.5158682350299841 4.3511953626002651 0 4.3511953626002651 -56.130507100038812 0 0 0 0 -104.82140653945453 -78.065466152645968 0 -78.065466152645968 145.01808428218646 0 0 0 0 -128.84990105252041 -45.616877458858653 0 -45.616877458858653 262.36472437178782 0 0 0 0 114.86053325030866 202.12689657394913 0 202.12689657394913 -67.39261373278714 0 0 0 0 1.1448100001704846 1.7723783270191831 0 1.7723783270191831 2.1247129248397982 0 0 0 0 94.640443729543449 45.539525555923319 0 45.539525555923319 12.759587973021553 0 0 0 0 26.171360530240918 -31.585996015217461 0 -31.585996015217461 29.678693868481787 0 0 0 0 22.253130778468858 37.393592438253108 0 37.393592438253108 18.139131020598143 0 0 0 0 77.869687442867416 156.37508812003762 0 156.37508812003762 219.07780067121348 0 0 0 0 6.3065730066728065 19.156775692204974 0 19.156775692204974 64.683042295691848 0 0 0 0 -16.754219171730256 -66.513153348503693 0 -66.513153348503693 36.642728120519678 0 0 0 0 36.399191551977765 -42.849409263428242 0 -42.849409263428242 -131.63573042828648 0 0 0 0 15.960315748588982 -114.82074452447978 0 -114.82074452447978 89.096767698283657 0 0 0 0 361.30825519725522 -296.54694019411181 0 -296.54694019411181 472.63899333638983 0 0 0 0 227.01169624454428 101.97586481665712 0 101.97586481665712 -44.573518331177183 0 0 0 0 8.5554378368695243 -11.617496927073745 0 -11.617496927073745 0.86811375243839706 0 0 0 0 -6.4006678249638753 214.81624439957341 0 214.81624439957341 378.00634388442995 0 0 0 0 54.016639751812363 81.983393631853687 0 81.983393631853687 181.8935989566744 0 0 0 0 -56.188256049468691 90.970159873417288 0 90.970159873417288 327.80847392791839 0 0 0 0 1.9636266114539467 71.802471948307357 0 71.802471948307357 306.24202442558453 0 0 0 0 -13.72643372514267 67.476331616577227 0 67.476331616577227 326.28967578292941 0 0 0 0 7.4140804982980626 30.604412787855836 0 30.604412787855836 357.55082423872955 0 0 0 0 6.1462221355814108 47.3965493463038 0 47.3965493463038 317.80182929412695 0 0 0 0 -39.162829860360489 80.443417718815908 0 80.443417718815908 435.42215926169956 0 0 0 0 -4.2967892173974178 82.295257184305228 0 82.295257184305228 313.03677516603966 0 0 0 0 -23.174420483447193 93.498436028836295 0 93.498436028836295 386.62473241070984 0 0 0 0 -17.820617630250922 52.217283643594783 0 52.217283643594783 377.26537750058924 0 0 0 0 -7.5905458940160315 22.813329670621897 0 22.813329670621897 373.77715441885448 0 0 0 0 -5.2482264986786049 3.3281032774411869 0 3.3281032774411869 33.261638271826087 0 0 0 0 -3.4099346784594786 4.240299974449556 0 4.240299974449556 7.8367089716117153 0 0 0 0 -6.0425042406605929 -4.0420292601976229 0 -4.0420292601976229 28.106298689097997 0 0 0 0 -54.90404516242188 -49.472554880703683 0 -49.472554880703683 12.5002260414185 0 0 0 0 2.7924465415553641 -47.79029755763986 0 -47.79029755763986 -54.894495466302033 0 0 0 0 0.470557467997331 -9.9529856168338853 0 -9.9529856168338853 4.9314583948053787 0 0 0 0 -9.6735111968371257 -43.203746816579041 0 -43.203746816579041 -1.9399593522684881 0 0 0 0 -93.127019144111728 -67.389173872339597 0 -67.389173872339597 51.853894856663828 0 0 0 0 -7.6876988647054532 -7.1388892177892558 0 -7.1388892177892558 13.45609808149311 0 0 0 0 -18.350189625338771 71.333441383540048 0 71.333441383540048 182.10389238395146 0 0 0 0 10.178160096622378 87.162410746670503 0 87.162410746670503 46.599983914307813 0 0 0 0 -68.858077370961837 2.7113300814162358 0 2.7113300814162358 109.92175231920555 0 0 0 0 -0.7168589632667175 -4.9258990363498398 0 -4.9258990363498398 29.193515853164769 0 0 0 0 -251.41214822384882 24.602438674046425 0 24.602438674046425 140.02122562187287 0 0 0 0 -5.7530519698102278 -0.54619918168273784 0 -0.54619918168273784 35.478439096420601 0 0 0 0 -22.317322323900498 -0.85537713353915024 0 -0.85537713353915024 33.806655549284187 0 0 0 0 -96.072624066448043 -121.63452937882175 0 -121.63452937882175 164.31927227812412 0 0 0 0 -14.417300481736675 -2.9588012180793157 0 -2.9588012180793157 34.024019497920563 0 0 0 0 -3.6438501832943757 79.39665241859268 0 79.39665241859268 -109.26497475292854 0 0 0 0 0.6960575419618813 1.5596462962561191 0 1.5596462962561191 1.033258037495429 0 0 0 0 -0.62510023399590864 109.86746664896782 0 109.86746664896782 -26.979389658808941 0 0 0 0 -16.038437598508999 25.921954944842952 0 25.921954944842952 0.81258782862981249 0 0 0 0 -63.314627543528786 45.674019252362996 0 45.674019252362996 42.304573494802753 0 0 0 0 -87.393155873060095 80.086048069984827 0 80.086048069984827 -6.2197622598905582 0 0 0 0 -4.0187742949140013 2.8541557991932098 0 2.8541557991932098 39.824814516935163 0 0 0 0 -0.40072807043178743 5.0127087499502618 0 5.0127087499502618 -0.4268410351573948 0 0 0 0 7.0604697771141218 113.51511877357552 0 113.51511877357552 388.21278315535164 0 0 0 0 55.854764072242901 119.44321969458179 0 119.44321969458179 548.19372994321748 0 0 0 0 -15.452690846313658 31.631378103782481 0 31.631378103782481 700.16977304854663 0 0 0 0 99.490369101685701 102.5339676917356 0 102.5339676917356 325.12468674578122 0 0 0 0 29.798764667008754 -23.199915782812241 0 -23.199915782812241 371.41050581171294 0 0 0 0 0.032612309786372862 98.912680201654439 0 98.912680201654439 202.64253787144844 0 0 0 0 -8.1983400974309006 63.300965699745575 0 63.300965699745575 311.05352208061231 0 0 0 0 15.18726661948449 104.56487461508368 0 104.56487461508368 276.34612509477302 0 0 0 0 -111.33226244699779 46.30059161902318 0 46.30059161902318 535.15826349236158 0 0 0 0 -108.86730981875553 46.317113891382178 0 46.317113891382178 348.12012613709885 0 0 0 0 -132.5734066960465 -14.634230244169885 0 -14.634230244169885 301.88197707557265 0 0 0 0 -63.801344172533788 -15.32443264993708 0 -15.32443264993708 155.07457505032653 0 0 0 0 -100.89267827237984 80.399100862399791 0 80.399100862399791 -0.47156987403286621 0 0 0 0 -260.86898190997516 -120.58651668435596 0 -120.58651668435596 148.66265517102147 0 0 0 0 -90.127932945434907 38.199868064104521 0 38.199868064104521 206.22583796012623 0 0 0 0 -138.27253057319223 -151.03190196476862 0 -151.03190196476862 53.569612436825992 0 0 0 0 -179.07011306281845 -25.690447261785266 0 -25.690447261785266 186.33258094912162 0 0 0 0 -42.283187887109989 -88.243867107135884 0 -88.243867107135884 161.37317612046172 0 0 0 0 -50.952980194289921 -62.840665185383841 0 -62.840665185383841 137.93416944748606 0 0 0 0 10.275703971048188 -25.56996195440297 0 -25.56996195440297 91.998587124755431 0 0 0 0 -34.696326510817926 -17.244311165155523 0 -17.244311165155523 143.4560678624257 0 0 0 0 -13.34215033330338 48.706691372096429 0 48.706691372096429 208.03501863571 0 0 0 0 5.9997803470296276 30.998820958840952 0 30.998820958840952 222.78336795271753 0 0 0 0 -17.065023396912238 12.79073332324333 0 12.79073332324333 240.94914008322667 0 0 0 0 5.7064365695337074 -9.7759746601223014 0 -9.7759746601223014 258.05744854283694 0 0 0 0 -19.030345225540259 61.040060957864625 0 61.040060957864625 314.85905076833296 0 0 0 0 -9.484046763598144 -90.015082455718584 0 -90.015082455718584 266.33022666350007 0 0 0 0 -21.03257785745609 13.864766214159317 0 13.864766214159317 407.09253833930416 0 0 0 0 25.024348890548026 -62.423022283954197 0 -62.423022283954197 228.11218962336716 0 0 0 0 60.994534273210775 -120.42701111700444 0 -120.42701111700444 195.52255572564536 0 0 0 0 7.9159272796682671 -86.282614143288811 0 -86.282614143288811 179.2549481412716 0 0 0 0 25.38566653530178 -68.654786932924708 0 -68.654786932924708 165.37914773431839 0 0 0 0 5.7740479637117232 -76.109681581072437 0 -76.109681581072437 131.89493327478704 0 0 0 0 27.701741202911762 -85.289826764463214 0 -85.289826764463214 124.96804557348469 0 0 0 0 42.185978376517141 -83.012004626412818 0 -83.012004626412818 124.80991370567062 0 0 0 0 26.344159044485423 -49.810123598956125 0 -49.810123598956125 74.555723522735207 0 0 0 0 63.823760467106467 -74.463222158417921 0 -74.463222158417921 86.255535486765439 0 0 0 0 28.20114278894107 -70.138087138439005 0 -70.138087138439005 101.30513896597222 0 0 0 0 17.020573623456471 -69.341210832026263 0 -69.341210832026263 102.27665830894693 0 0 0 0 -22.527097074958419 -62.878500132290355 0 -62.878500132290355 138.38544653980352 0 0 0 0 -24.082470380308962 -31.415837120681317 0 -31.415837120681317 135.72590001059143 0 0 0 0 -34.245418007548807 -47.145978243155696 0 -47.145978243155696 121.24266142802662 0 0 0 0 -71.310949141960336 -23.048618897262486 0 -23.048618897262486 155.16452776249207 0 0 0 0 -76.481385050756757 -74.050405491075935 0 -74.050405491075935 150.84614015782427 0 0 0 0 -45.234305285164936 -5.7616616056475323 0 -5.7616616056475323 166.40388256400547 0 0 0 0 -20.958644547214817 -81.1205376289181 0 -81.1205376289181 137.03789124952891 0 0 0 0 9.6630152855245797 -30.07337817734151 0 -30.07337817734151 87.418588294674919 0 0 0 0 2.223301499443977 -17.382983063153006 0 -17.382983063153006 97.557697611329786 0 0 0 0 -15.933134722900547 -25.038902237101865 0 -25.038902237101865 98.635266404220602 0 0 0 0 -8.3546092057807471 -38.944584881133778 0 -38.944584881133778 123.62279001127172 0 0 0 0 3.0141913703593843 -41.406213143926834 0 -41.406213143926834 85.938331968296552 0 0 0 0 3.7074143187664959 -41.734444329215876 0 -41.734444329215876 76.611221375133027 0 0 0 0 35.104278979327319 -53.013105182224535 0 -53.013105182224535 64.77749807870714 0 0 0 0 15.995525141166581 -26.411081321397432 0 -26.411081321397432 50.301451799765346 0 0 0 0 24.233186927273891 -43.078879692498958 0 -43.078879692498958 70.131842158760264 0 0 0 0 14.570988774964917 -19.304588888495346 0 -19.304588888495346 53.305666678061243 0 0 0 0 14.667138547033346 -28.786968221760617 0 -28.786968221760617 53.744525549398531 0 0 0 0 -3.2176997895229702 -17.820356308037788 0 -17.820356308037788 -15.721128042452619 0 0 0 0 -3.1400464153270526 64.80240200102331 0 64.80240200102331 28.175373620913888 0 0 0 0 -5.2274425034075209 7.3027250510480144 0 7.3027250510480144 14.160229792032553 0 0 0 0 16.879313774639286 -20.311209538107505 0 -20.311209538107505 51.336368102274719 0 0 0 0 12.780380508867211 -16.690207411513256 0 -16.690207411513256 50.767286385908392 0 0 0 0 11.38013868813141 -17.852362561792688 0 -17.852362561792688 65.754296257394344 0 0 0 0 6.3544796214877692 -20.300916602398502 0 -20.300916602398502 66.310417926993978 0 0 0 0 6.671832432345802 -23.918644388439134 0 -23.918644388439134 51.554045353652327 0 0 0 0 14.131092574843137 -17.239210023441046 0 -17.239210023441046 50.897903000484803 0 0 0 0 -0.19873534107704671 -4.9006541540620674 0 -4.9006541540620674 45.081963099029963 0 0 0 0 13.521788827214854 -19.478539267552151 0 -19.478539267552151 53.206261152678053 0 0 0 0 -4.0497530093087306 8.4485334575942375 0 8.4485334575942375 15.369951855587814 0 0 0 0 5.8387120130512642 -21.822328667432885 0 -21.822328667432885 58.05908165116125 0 0 0 0 7.3242258558282174 -21.792758831359606 0 -21.792758831359606 55.349996251767152 0 0 0 0 -2.8751178980144028 9.3650814643484779 0 9.3650814643484779 16.077682465168536 0 0 0 0 6.9367316531245677 -12.439716451588538 0 -12.439716451588538 43.28735530506674 0 0 0 0 5.7453634633991442 -20.469165533420892 0 -20.469165533420892 60.842355045220756 0 0 0 0 7.159908412604409 -24.674884744677911 0 -24.674884744677911 61.074008531293657 0 0 0 0 10.627862894602302 -25.592685179228283 0 -25.592685179228283 58.098003724928276 0 0 0 0 7.7572400264733616 -28.314858294794249 0 -28.314858294794249 71.916341134477989 0 0 0 0 17.234274908849329 -25.155079176336585 0 -25.155079176336585 63.651932233502521 0 0 0 0 13.758438054561793 -24.191434544402 0 -24.191434544402 63.79459738303558 0 0 0 0 6.2208744855572604 -23.815243311506492 0 -23.815243311506492 67.506150763712867 0 0 0 0 4.7074181043856242 -22.979002172909532 0 -22.979002172909532 63.074931269736794 0 0 0 0 11.870759460935687 -26.020216600936692 0 -26.020216600936692 63.145006188031402 0 0 0 0 25.349320371372869 -22.202357498696074 0 -22.202357498696074 55.369415849560028 0 0 0 0 12.477544153070312 -29.071910903494427 0 -29.071910903494427 60.385184374135861 0 0 0 0 7.057361224355418 -20.285522286167179 0 -20.285522286167179 57.121787330819643 0 0 0 0 4.8153356454336063 -34.255289119580993 0 -34.255289119580993 52.46787731641416 0 0 0 0 -18.119148896900697 -0.28882282486301847 0 -0.28882282486301847 46.841051281404361 0 0 0 0 28.736221726370786 -12.980004924000241 0 -12.980004924000241 61.662421886416269 0 0 0 0 -1.3350378914892644 -21.851009187470481 0 -21.851009187470481 85.416332083492307 0 0 0 0 15.350542819477596 -16.954542269850208 0 -16.954542269850208 70.526648982722691 0 0 0 0 25.321252971084618 -4.1414564921560668 0 -4.1414564921560668 77.110678853452555 0 0 0 0 8.1740975141851209 -34.88173125322669 0 -34.88173125322669 93.422242013984942 0 0 0 0 7.7140422101738295 -25.894363638981304 0 -25.894363638981304 80.866191519184213 0 0 0 0 22.050834670020322 -28.02778253989527 0 -28.02778253989527 61.314220795531583 0 0 0 0 19.0362805329396 -27.321584095727303 0 -27.321584095727303 68.648350213230515 0 0 0 0 12.633554221609756 -21.032565825644269 0 -21.032565825644269 70.718307183677098 0 0 0 0 20.904906663701695 -25.346153785205388 0 -25.346153785205388 60.88781560350435 0 0 0 0 17.242517577578838 -23.651503109220357 0 -23.651503109220357 62.231704398647707 0 0 0 0 -95.797029534999638 98.366534673041315 0 98.366534673041315 29.192643986345502 0 0 0 0 20.935718570970494 -24.929528971737454 0 -24.929528971737454 60.396711417948609 0 0 0 0 -12.460302118949027 8.5305796852180293 0 8.5305796852180293 27.950392630473345 0 0 0 0 24.015455000549053 85.448574555772211 0 85.448574555772211 -30.54165179624033 0 0 0 0 168.54657002074055 222.78018378922934 0 222.78018378922934 213.28002976609787 0 0 0 0 775.18579681414121 52.905350191409525 0 52.905350191409525 -153.33647108806326 0 0 0 0 -276.09949756415722 -179.93306548602413 0 -179.93306548602413 358.04192034098014 0 0 0 0 -32.576584682502471 -349.10005956566602 0 -349.10005956566602 265.54288511748746 0 0 0 0 -412.03488653057229 -5.9780783574751695 0 -5.9780783574751695 272.45346505515772 0 0 0 0 -9.0464362916208927 1.3189467446554772 0 1.3189467446554772 15.272728442811058 0 0 0 0 -24.900635086904572 23.489770372478233 0 23.489770372478233 14.511583405031615 0 0 0 0 -1.7171615294020635 0.17398279789605198 0 0.17398279789605198 8.9969375633786797 0 0 0 0 -34.006600268646707 -93.469562033067632 0 -93.469562033067632 -21.240958590278751 0 0 0 0 -0.55280785314214853 10.741136464591065 0 10.741136464591065 6.9315615255507055 0 0 0 0 -20.623376458617827 41.40148699124984 0 41.40148699124984 -45.200210307088128 0 0 0 0 -37.910659762201703 -16.059631360563799 0 -16.059631360563799 25.159060057427268 0 0 0 0 0.55173317050877091 2.4485158980556605 0 2.4485158980556605 4.4307284222810708 0 0 0 0 -7.5085287415640778 11.834266611880594 0 11.834266611880594 24.830038347980008 0 0 0 0 -4.42884931161315 0.2183066578815982 0 0.2183066578815982 1.5286298435991306 0 0 0 0 -11.968848625217106 12.94802828761749 0 12.94802828761749 28.965329167083837 0 0 0 0 -15.392565299188846 15.25965108505261 0 15.25965108505261 27.075682944756409 0 0 0 0 -10.169265491892475 11.046939682715674 0 11.046939682715674 28.38240249134833 0 0 0 0 -14.39198395574198 6.9047469513674571 0 6.9047469513674571 27.659599389583917 0 0 0 0 18.567491241976313 -21.814498813965656 0 -21.814498813965656 58.30181628880382 0 0 0 0 41.021689043190236 -38.866032864934823 0 -38.866032864934823 59.660512075342012 0 0 0 0 61.419498098892291 -65.761682531276165 0 -65.761682531276165 94.570459261070937 0 0 0 0 -3.3606940984583247 5.9212917030002927 0 5.9212917030002927 -1.231073200136251 0 0 0 0 32.648520930802988 74.451140090663102 0 74.451140090663102 -33.90062102394586 0 0 0 0 -8.783141630887247 10.244949830287581 0 10.244949830287581 26.862616138337302 0 0 0 0 -55.52976332284743 -51.57435883058497 0 -51.57435883058497 192.80200330795196 0 0 0 0 75.974132585321854 11.9746288054248 0 11.9746288054248 90.797048048916622 0 0 0 0 101.12825746869703 -76.410288541453156 0 -76.410288541453156 70.775051943826838 0 0 0 0 10.257962127327119 -27.577572118338139 0 -27.577572118338139 50.967462924440042 0 0 0 0 41.484772120814341 -19.915324754081666 0 -19.915324754081666 39.675035090505844 0 0 0 0 34.897574780554578 -50.735386641004879 0 -50.735386641004879 33.593560432054801 0 0 0 0 29.620852186448246 -31.629301034547098 0 -31.629301034547098 52.494110656356497 0 0 0 0 5.2211375137640061 3.9740621317905607 0 3.9740621317905607 29.190749648940255 0 0 0 0 21.35739641577652 -5.6395899469289361 0 -5.6395899469289361 63.016888486039534 0 0 0 0 19.669564555890247 -35.218407608139387 0 -35.218407608139387 137.67001080056798 0 0 0 0 19.657446797448756 -26.228620027737634 0 -26.228620027737634 84.911216134012648 0 0 0 0 0.32557382880168007 -29.786044856737135 0 -29.786044856737135 86.775821608316619 0 0 0 0 -4.3404372118385481 -13.72976255231606 0 -13.72976255231606 77.634710488666315 0 0 0 0 -4.6143253731634104 -30.527288239012705 0 -30.527288239012705 87.134961713665689 0 0 0 0 2.6604700926727674 -36.308678525667347 0 -36.308678525667347 48.965635953078163 0 0 0 0 -0.74261427384403245 -0.41992857329958611 0 -0.41992857329958611 1.6426800149538963 0 0 0 0 1.0495339524586598 -6.3715604433018598 0 -6.3715604433018598 95.83092891851993 0 0 0 0 -28.752997773568495 12.061655206380237 0 12.061655206380237 24.376231001355336 0 0 0 0 -2.2063423637990516 2.9618450074058913 0 2.9618450074058913 -0.29178111141854401 0 0 0 0 -10.179617542374672 36.698714145044505 0 36.698714145044505 -29.051932261862021 0 0 0 0 4.2610093265820979 1.7326066244204412 0 1.7326066244204412 14.898675004915276 0 0 0 0 2.0654283985213624 -24.820192009014136 0 -24.820192009014136 46.964958710341307 0 0 0 0 -3.5706322545747753 23.47140263592155 0 23.47140263592155 2.9873210378063959 0 0 0 0 -0.32644217447841584 -8.9989493975226651 0 -8.9989493975226651 9.5392333263444016 0 0 0 0 25.016382669042287 -16.492723765793926 0 -16.492723765793926 26.790709518332733 0 0 0 0 -7.1512968988065015 5.6377203321889624 0 5.6377203321889624 13.174708815901667 0 0 0 0 23.066318062084974 -32.821746031077055 0 -32.821746031077055 46.000559411790164 0 0 0 0 35.945843843425422 -30.672671304639948 0 -30.672671304639948 40.760392320764367 0 0 0 0 -2.3473537849584751 2.6902977475173486 0 2.6902977475173486 1.4501373391162815 0 0 0 0 14.003740300783647 -5.8830680970022513 0 -5.8830680970022513 33.762904252587759 0 0 0 0 -13.222556391583566 27.992027164531464 0 27.992027164531464 -23.428714031164418 0 0 0 0 -8.6494123018093845 3.685523210144126 0 3.685523210144126 11.337763453199386 0 0 0 0 49.71891923478006 -32.208420708815538 0 -32.208420708815538 18.070868711904041 0 0 0 0 -1.8590384641411219 12.063935578502424 0 12.063935578502424 13.551187962322729 0 0 0 0 41.14271240154585 -33.631953975058423 0 -33.631953975058423 21.943761639413424 0 0 0 0 18.899070032426607 -29.711080826327816 0 -29.711080826327816 39.101191373731126 0 0 0 0 -20.060326038467338 -1.8129019865118607 0 -1.8129019865118607 39.262274356973649 0 0 0 0 0.60170670337577548 -2.6190874495356269 0 -2.6190874495356269 8.3558668519777406 0 0 0 0 -15.82363570034795 -21.820997218510456 0 -21.820997218510456 59.554670833138516 0 0 0 0 18.778923363219292 -27.585678976916824 0 -27.585678976916824 24.174272681748334 0 0 0 0 0.3203961359382923 1.322455738448852 0 1.322455738448852 -0.884841039576858 0 0 0 0 27.832768172787837 -24.619074762951641 0 -24.619074762951641 -32.819884363651909 0 0 0 0 -6.3418087098098113 -27.945477354463947 0 -27.945477354463947 122.57392767305123 0 0 0 0 5.5029083035183248 -8.0981091421726887 0 -8.0981091421726887 41.341215204411128 0 0 0 0 5.4084219847765294 -15.006539613766726 0 -15.006539613766726 33.408821314791055 0 0 0 0 -44.150398766970056 -59.881190153097123 0 -59.881190153097123 -3.042317106257542 0 0 0 0 -49.05292652179719 -88.78348757254571 0 -88.78348757254571 -6.4908420387873775 0 0 0 0 -97.669357357483648 -111.38842382459916 0 -111.38842382459916 -14.859868054496474 0 0 0 0 -59.271269222336514 -75.722891164685279 0 -75.722891164685279 -16.405326661551953 0 0 0 0 -12.317161524916401 -30.014877201800118 0 -30.014877201800118 60.678374857478047 0 0 0 0 -23.244003239404265 4.9641099100117572 0 4.9641099100117572 73.185499368162709 0 0 0 0 -4.3538508932418027 -4.5561999412966827 0 -4.5561999412966827 11.386469327279663 0 0 0 0 -5.4817232804662286 -18.153925196063316 0 -18.153925196063316 38.62613818510323 0 0 0 0 3.2211110836983607 -24.109334131988362 0 -24.109334131988362 51.567638405176695 0 0 0 0 -7.0636939996111323 -1.8476701974941534 0 -1.8476701974941534 14.228487098305777 0 0 0 0 -4.6956177880347241 -20.11990945780417 0 -20.11990945780417 61.975372267945204 0 0 0 0 -10.001253419989226 -0.83062883888031536 0 -0.83062883888031536 18.274295000643519 0 0 0 0 -2.6903964290190654 -3.0509396756528773 0 -3.0509396756528773 17.914768055103622 0 0 0 0 -7.384012601425237 0.93424342484888712 0 0.93424342484888712 8.0017155228471921 0 0 0 0 -4.8053434449107151 -3.0904458756896247 0 -3.0904458756896247 6.5258741373865377 0 0 0 0 -14.481123293189285 -15.469659181151656 0 -15.469659181151656 42.244941213226411 0 0 0 0 37.176151191070176 -8.4670128332109016 0 -8.4670128332109016 25.823281703269458 0 0 0 0 -1.2745814017866053 -5.8224316950054344 0 -5.8224316950054344 3.3781949962649378 0 0 0 0 0.29363929811853984 -4.861436552019498 0 -4.861436552019498 6.4504770161113782 0 0 0 0 4.5770255165315916 -12.094283085301868 0 -12.094283085301868 -1.4398088872112567 0 0 0 0 0.61590066001242327 -1.1735442628653772 0 -1.1735442628653772 0.32950651521252894 0 0 0 0 -0.0046521615279289108 7.5792909242754831 0 7.5792909242754831 13.936270705409697 0 0 0 0 -9.068495962336101 2.6310965372686042 0 2.6310965372686042 13.041617819155363 0 0 0 0 -11.077346640722396 17.17763526301178 0 17.17763526301178 12.092465541383717 0 0 0 0 -19.017012917094235 6.692330781101191 0 6.692330781101191 23.841949801579176 0 0 0 0 0.66234582563109257 -43.900367958480217 0 -43.900367958480217 58.475612339665531 0 0 0 0 -13.228728168419728 3.5444451501904979 0 3.5444451501904979 21.723796598572903 0 0 0 0 21.042750315413286 -32.812059287680313 0 -32.812059287680313 56.695452254090924 0 0 0 0 -15.748614269446819 -31.327759284133009 0 -31.327759284133009 62.09725588010042 0 0 0 0 -15.620415360230417 -17.811630521374354 0 -17.811630521374354 50.234983715534327 0 0 0 0 0.42392998143567695 -29.92312217110333 0 -29.92312217110333 45.279083798930515 0 0 0 0 4.1238201508422208 -43.487621443557146 0 -43.487621443557146 64.974272373809072 0 0 0 0 -65.844897905650214 26.383421433987678 0 26.383421433987678 78.332629973745497 0 0 0 0 -10.459765036301729 7.3133564546412231 0 7.3133564546412231 23.774273958855588 0 0 0 0 -19.735494635232953 19.152901384295546 0 19.152901384295546 20.760763940532343 0 0 0 0 -11.660750813226969 8.421241980715422 0 8.421241980715422 23.385053004625661 0 0 0 0 -8.0583457891293619 9.8798886155273067 0 9.8798886155273067 24.104183743787871 0 0 0 0 -8.6114575565416089 1.3404406147856207 0 1.3404406147856207 36.677491961454507 0 0 0 0 -6.1167836147515118 2.0014908523880877 0 2.0014908523880877 32.966818687527848 0 0 0 0 -17.335537193615664 8.7515673950401833 0 8.7515673950401833 36.434235542976239 0 0 0 0 -1.6688760114639081 6.8127509534533601 0 6.8127509534533601 28.833438165680491 0 0 0 0 -8.4522644105863947 11.686708594977972 0 11.686708594977972 28.26985604930087 0 0 0 0 -3.365799291967619 -0.73720278766268166 0 -0.73720278766268166 35.316426875768229 0 0 0 0 -10.415733588999387 4.4179774198955784 0 4.4179774198955784 34.090301091448055 0 0 0 0 -0.60663201119200494 -1.5767930533693288 0 -1.5767930533693288 36.479314960582997 0 0 0 0 -6.2291240524270961 0.47851852840540232 0 0.47851852840540232 38.706778180785477 0 0 0 0 -42.741316304604879 -0.89515329507412389 0 -0.89515329507412389 323.12355974780075 0 0 0 0 -27.560883299349825 -15.356546630740922 0 -15.356546630740922 228.20481760779512 0 0 0 0 -1.1545963090410076 -1.94298538779789 0 -1.94298538779789 0.4003120288306512 0 0 0 0 -228.94342932244126 -113.56724525741447 0 -113.56724525741447 180.34133945691974 0 0 0 0 -347.06866497487999 200.96740855301323 0 200.96740855301323 491.8968686063381 0 0 0 0 12.948300704640701 24.994318853290679 0 24.994318853290679 236.04904607548087 0 0 0 0 -36.109904749076577 25.750670169261866 0 25.750670169261866 308.88770633881359 0 0 0 0 -0.3811764044738184 -0.78050011068330605 0 -0.78050011068330605 0.40035040105193076 0 0 0 0 -0.86014442844214312 -1.3867725895436251 0 -1.3867725895436251 0.57052107412879138 0 0 0 0 0.43522229318250538 -2.7968528244309709 0 -2.7968528244309709 252.06534585086047 0 0 0 0 11.872155039231984 29.449175943707814 0 29.449175943707814 282.95947854573751 0 0 0 0 0.94056641383986062 -2.4658878790869494 0 -2.4658878790869494 27.860303831872443 0 0 0 0 4.8344264800743986 -7.0400333694924484 0 -7.0400333694924484 32.849041547917295 0 0 0 0 0.15614767210954028 5.4060387621038899 0 5.4060387621038899 38.682181749369192 0 0 0 0 34.418543099815679 2.288517988370586 0 2.288517988370586 37.746249582174642 0 0 0 0 1.1180938852376983 -5.5597652531778294 0 -5.5597652531778294 64.903105783698265 0 0 0 0 -5.9453575045487241 -4.1437492954519257 0 -4.1437492954519257 44.077096266060835 0 0 0 0 -0.74512129460936194 2.5282350393317756 0 2.5282350393317756 37.327277810793021 0 0 0 0 8.1057321350931488 10.982653557715821 0 10.982653557715821 13.938803038827665 0 0 0 0 -9.9854817542301362 9.203972807914397 0 9.203972807914397 46.21009977106587 0 0 0 0 29.675305858887583 -15.779512955130485 0 -15.779512955130485 -1.7149304956037668 0 0 0 0 17.56355636417743 32.08949536434011 0 32.08949536434011 53.829291659742012 0 0 0 0 -0.40096905834572194 0.5288078612648377 0 0.5288078612648377 0.79645330116889568 0 0 0 0 -15.50425429825998 -2.2173886573509662 0 -2.2173886573509662 55.27874698438427 0 0 0 0 -19.763778368741555 -13.334368072195502 0 -13.334368072195502 34.546951509151768 0 0 0 0 -1.9039072019527985 0.083166714786955254 0 0.083166714786955254 1.1857140847052676 0 0 0 0 0.06988529917818842 -3.039360408896016 0 -3.039360408896016 7.5191406485235746 0 0 0 0 -12.425504777762626 5.1239356408332242 0 5.1239356408332242 11.532745917091233 0 0 0 0 11.414483521831301 39.221901242202875 0 39.221901242202875 54.003295849681308 0 0 0 0 0.16880004353133449 -1.2682872105591017 0 -1.2682872105591017 5.8127128847132781 0 0 0 0 -43.119609523375999 -3.3376917862569826 0 -3.3376917862569826 17.837237527070101 0 0 0 0 6.1622468152003194 28.539488598806201 0 28.539488598806201 44.456026629728512 0 0 0 0 2.4554389347156302 17.162720683489169 0 17.162720683489169 21.250624990403594 0 0 0 0 -1.8334231210175744 -2.6756247901794268 0 -2.6756247901794268 23.406712308504211 0 0 0 0 -16.293573231172502 12.694982579832867 0 12.694982579832867 67.228738099791371 0 0 0 0 -19.653156386134413 -62.200323170916818 0 -62.200323170916818 302.04169483281294 0 0 0 0 71.305622668596811 140.70841662751991 0 140.70841662751991 223.71046892627783 0 0 0 0 -0.088191047485689955 26.393523042646848 0 26.393523042646848 280.98434276552871 0 0 0 0 -15.706409606262085 -8.5791867473162711 0 -8.5791867473162711 211.01884591890484 0 0 0 0 -49.072595127591313 -8.2806722401692241 0 -8.2806722401692241 264.54319759139617 0 0 0 0 0.038278133460364044 -0.41021614794010475 0 -0.41021614794010475 2.2445093587943745 0 0 0 0 -20.126759562277243 -125.56351904308394 0 -125.56351904308394 199.59074233916181 0 0 0 0 -11.381750163067366 55.924932041911234 0 55.924932041911234 359.6670439101581 0 0 0 0 -7.7155590542707699 20.959009635378607 0 20.959009635378607 25.118222633270307 0 0 0 0 11.553768706347093 -10.504091932707524 0 -10.504091932707524 20.117639418160252 0 0 0 0 0.056681118619295444 16.33093262510738 0 16.33093262510738 53.298573888539977 0 0 0 0 20.164510215914049 -64.838882786039903 0 -64.838882786039903 179.05550025817865 0 0 0 0 28.817644315593405 3.6257054233865347 0 3.6257054233865347 6.0649215291196015 0 0 0 0 -0.51883947834204514 -0.063971371653465781 0 -0.063971371653465781 -0.10234087573219597 0 0 0 0 4.1721550315093197 2.5543080995776108 0 2.5543080995776108 6.0646506234043045 0 0 0 0 2.8468264141018977 7.3891116504164529 0 7.3891116504164529 6.9230084908595018 0 0 0 0 -0.078615965044341457 -85.977686144240579 0 -85.977686144240579 -128.87864005469964 0 0 0 0 -0.00315513884780462 -108.35501306136211 0 -108.35501306136211 -73.47424728390979 0 0 0 0 -40.701545856069458 -106.07476228436644 0 -106.07476228436644 -41.852380614596768 0 0 0 0 -43.766926676081169 -73.503581382672564 0 -73.503581382672564 -92.474555584361951 0 0 0 0 -90.71327353366928 -86.408009087550454 0 -86.408009087550454 -51.761893686154508 0 0 0 0 -43.725272074357626 -81.611787109139684 0 -81.611787109139684 -59.237827246979577 0 0 0 0 -66.631327230155648 -39.651848530484131 0 -39.651848530484131 4.4045305933541385 0 0 0 0 1.0056318126839869 -10.660305482691911 0 -10.660305482691911 3.5821915615524631 0 0 0 0 -0.046978434811113412 -1.1012309176502271 0 -1.1012309176502271 -0.86551408257702178 0 0 0 0 -42.400813782182581 -8.2906608814228093 0 -8.2906608814228093 26.08966751601838 0 0 0 0 -38.415423899245141 -32.528246411453438 0 -32.528246411453438 2.5187898481381126 0 0 0 0 -215.14378774614283 -72.131011428442434 0 -72.131011428442434 65.59881553822197 0 0 0 0 -38.23801087445861 -113.43914344927543 0 -113.43914344927543 -38.185345208006765 0 0 0 0 -80.774622047981438 -37.117583057628508 0 -37.117583057628508 -111.36464036593679 0 0 0 0 -142.26956395618768 -192.96285594269102 0 -192.96285594269102 -96.804081660782686 0 0 0 0 -97.918801716500866 -184.97690516178773 0 -184.97690516178773 -193.76704924000285 0 0 0 0 -94.619945587338293 10.762291562852624 0 10.762291562852624 115.84613778535277 0 0 0 0 -1.5957367278050492 0.17409294992891944 0 0.17409294992891944 -0.27430919860746616 0 0 0 0 -199.35604128425666 -115.16872777419121 0 -115.16872777419121 44.988292323381756 0 0 0 0 8.6860960368303495 -20.923184874412982 0 -20.923184874412982 29.740765165894118 0 0 0 0 -61.333604026684441 -98.117386832993361 0 -98.117386832993361 53.766729563436456 0 0 0 0 0.10349547604281514 -112.4332948189367 0 -112.4332948189367 77.676858521717804 0 0 0 0 30.739721621534216 -53.954410420938075 0 -53.954410420938075 -43.657779090368422 0 0 0 0 16.728584365384251 -25.373605267207722 0 -25.373605267207722 127.12264932251128 0 0 0 0 17.481907290087747 -34.397467165850685 0 -34.397467165850685 120.59428880348969 0 0 0 0 34.26924782418746 -30.540806311002598 0 -30.540806311002598 103.91028420800649 0 0 0 0 15.898480102438043 -10.84070102313126 0 -10.84070102313126 91.435582831507418 0 0 0 0 18.781593055114172 -23.997285359882881 0 -23.997285359882881 73.593760115778423 0 0 0 0 9.8867195364114195 -14.410799412571578 0 -14.410799412571578 110.32567324836782 0 0 0 0 12.565796142806903 -24.090119262467852 0 -24.090119262467852 98.254762377702718 0 0 0 0 0.9178272049325642 -19.564891308667939 0 -19.564891308667939 135.8145887797109 0 0 0 0 13.600054070139663 -9.9868396090951137 0 -9.9868396090951137 96.523584123024193 0 0 0 0 -1.000666013255568 -32.834789381318842 0 -32.834789381318842 169.42228407753646 0 0 0 0 16.147029229604868 -38.792952047793733 0 -38.792952047793733 129.11907993202567 0 0 0 0 107.34350322675209 -47.542688113475378 0 -47.542688113475378 -51.993640113444599 0 0 0 0 2.4467667128128419 0.47076879799446658 0 0.47076879799446658 0.23168122712210248 0 0 0 0 5.061498461276642 -48.0278343528189 0 -48.0278343528189 161.02428142284407 0 0 0 0 10.075042469991558 77.416320063592138 0 77.416320063592138 14.146052289481304 0 0 0 0 202.1684939813872 -60.76159206754528 0 -60.76159206754528 88.29039550163543 0 0 0 0 9.6662220121903601 -30.718824203287568 0 -30.718824203287568 148.10550018019785 0 0 0 0 2.4748255261447127 1.1429876878657623 0 1.1429876878657623 0.62184654355500513 0 0 0 0 -4.0517603656317078 88.308080443972358 0 88.308080443972358 110.13831780954479 0 0 0 0 0.81174582593672362 1.0991653195119042 0 1.0991653195119042 0.76377508420721085 0 0 0 0 21.913756759103308 54.838274975574677 0 54.838274975574677 156.84651585612028 0 0 0 0 80.641885755486328 -83.88857685867697 0 -83.88857685867697 85.326948733880272 0 0 0 0 86.797176055136788 -59.809925452967946 0 -59.809925452967946 135.07858223773928 0 0 0 0 126.21320965887571 28.29616935733975 0 28.29616935733975 90.36026423860676 0 0 0 0 -68.856399229945055 -22.755257417065877 0 -22.755257417065877 101.81524860185891 0 0 0 0 -22.774426948402834 -11.154864406020351 0 -11.154864406020351 5.1016811877962027 0 0 0 0 -40.20986290064684 7.7792899724809104 0 7.7792899724809104 79.945543778877436 0 0 0 0 -13.476216959070825 -15.649194381151574 0 -15.649194381151574 100.2568914985095 0 0 0 0 -37.369385865610184 14.767981214656174 0 14.767981214656174 128.50403847592224 0 0 0 0 -30.651699894578087 -0.17806550705063273 0 -0.17806550705063273 101.16183903009443 0 0 0 0 -37.66458552990116 -7.076241460543315 0 -7.076241460543315 112.87941893410607 0 0 0 0 42.965672910055559 150.34353834150659 0 150.34353834150659 14.39853077567841 0 0 0 0 -17.930103565937792 24.195425106794797 0 24.195425106794797 43.253254067200729 0 0 0 0 -29.387272128345785 21.566931038364601 0 21.566931038364601 84.415433212714561 0 0 0 0 -11.234614444531788 27.876785231065931 0 27.876785231065931 51.214991995949859 0 0 0 0 -10.932493315283409 -141.51291862174048 0 -141.51291862174048 270.05173481461361 0 0 0 0 2.4621924820575045 1.4007620168438111 0 1.4007620168438111 -0.4021651390880443 0 0 0 0 35.811006775431906 8.3199844283226412 0 8.3199844283226412 134.45269454860681 0 0 0 0 45.610771329753334 24.212944448390772 0 24.212944448390772 106.57398366508278 0 0 0 0 34.707758164701772 -0.7518188700578321 0 -0.7518188700578321 94.913206225734029 0 0 0 0 3.758611895017566 79.586145236527955 0 79.586145236527955 80.593588263922356 0 0 0 0 25.630084161178729 -27.366386514065198 0 -27.366386514065198 78.984680667061184 0 0 0 0 -2.5754458075613584 10.162171002456567 0 10.162171002456567 5.1722361021382426 0 0 0 0 19.485127594430196 9.5643511909092922 0 9.5643511909092922 53.441957302915398 0 0 0 0 -5.0594596126170401 12.570549527466046 0 12.570549527466046 28.400587181431391 0 0 0 0 0.94813269829774072 15.375636963683064 0 15.375636963683064 38.359482384730654 0 0 0 0 -1.3526144573085972 -0.2385759153098963 0 -0.2385759153098963 52.299824293405948 0 0 0 0 -7.1475371482608807 5.7752803221992508 0 5.7752803221992508 60.345914877765608 0 0 0 0 7.842030110392443 5.5872825401711452 0 5.5872825401711452 56.678114000009373 0 0 0 0 -8.2254548045975753 -1.2690001538308024 0 -1.2690001538308024 30.163298847706756 0 0 0 0 -10.083905945739458 7.9972994580730159 0 7.9972994580730159 27.452893310528111 0 0 0 0 -0.5176971091106477 4.2245868375099995 0 4.2245868375099995 43.258847409357784 0 0 0 0 3.4179229025105293 -1.8740482900760824 0 -1.8740482900760824 12.975037807070478 0 0 0 0 -9.544086415631682 4.4971948552756658 0 4.4971948552756658 93.007847761346056 0 0 0 0 2.4575244214961458 -11.752968617935039 0 -11.752968617935039 62.298780533370518 0 0 0 0 -8.9022564161715536 -19.660925552933691 0 -19.660925552933691 114.22285259396813 0 0 0 0 -16.958971809746799 1.382638135990419 0 1.382638135990419 47.516056939233749 0 0 0 0 3.0865371630852536 1.5329773048767299 0 1.5329773048767299 8.4391022422762276 0 0 0 0 -25.411834505767729 23.027863664631468 0 23.027863664631468 36.663634459517652 0 0 0 0 -9.7819035394456932 -8.2503324778965634 0 -8.2503324778965634 22.925292696827626 0 0 0 0 -7.4610134239525223 4.3745295788837666 0 4.3745295788837666 11.178218832742914 0 0 0 0 -10.719882473880247 0.79016313193300469 0 0.79016313193300469 4.8702552713132938 0 0 0 0 31.565437413477468 41.766985303353295 0 41.766985303353295 -8.4115199317966471 0 0 0 0 -1.9061732590338343 2.6147988736673553 0 2.6147988736673553 3.5103576560803695 0 0 0 0 -21.274743362220192 6.6574441360424998 0 6.6574441360424998 17.231545233877569 0 0 0 0 -18.402910697729055 3.0054450782081403 0 3.0054450782081403 21.30093925338133 0 0 0 0 -14.369534387405849 10.537129283676791 0 10.537129283676791 6.5728278272986245 0 0 0 0 -15.74390003752103 -0.49831044551092418 0 -0.49831044551092418 -0.74942616533553519 0 0 0 0 -21.580468697515471 -1.9985349671815129 0 -1.9985349671815129 40.629799454112003 0 0 0 0 4.3185836049401587 3.2913645310773063 0 3.2913645310773063 74.53123236738611 0 0 0 0 8.9346796742861443 -4.072307604155867 0 -4.072307604155867 86.164111275273171 0 0 0 0 -10.156007309534292 19.807296563397408 0 19.807296563397408 46.430996614879092 0 0 0 0 11.408277311447364 5.6020113206700444 0 5.6020113206700444 14.992966402831087 0 0 0 0 -10.067044780532516 8.1220597090639455 0 8.1220597090639455 43.705643372924065 0 0 0 0 -0.6455330403005064 50.698981763049687 0 50.698981763049687 -0.29117625114395196 0 0 0 0 -28.847550704433615 44.206465029672927 0 44.206465029672927 1.8252698544475834 0 0 0 0 25.931457708268454 44.797792438123679 0 44.797792438123679 -11.529117504747774 0 0 0 0 14.422792624910926 42.34948211019514 0 42.34948211019514 15.371501092724884 0 0 0 0 7.0009402224013684 6.5501315014316788 0 6.5501315014316788 73.533146063113236 0 0 0 0 -24.813339134580929 66.964408226495834 0 66.964408226495834 -9.1291924023679485 0 0 0 0 -34.24064227856195 87.494696372417735 0 87.494696372417735 -7.052219924756173 0 0 0 0 -6.4970965010873165 24.098108764444113 0 24.098108764444113 48.465771583644624 0 0 0 0 -66.614743269979954 82.515138644352191 0 82.515138644352191 26.552108812036749 0 0 0 0 -3.8486970976532557 -1.7927422834936566 0 -1.7927422834936566 16.420733764419854 0 0 0 0 -15.204299364889266 73.286665095771696 0 73.286665095771696 -10.279283871026564 0 0 0 0 -71.549330270454448 145.55457127675345 0 145.55457127675345 -94.964208380863056 0 0 0 0 6.0516298381435263 8.5119527169481444 0 8.5119527169481444 75.588354030289338 0 0 0 0 -0.60638515521895897 10.547751722213434 0 10.547751722213434 75.087197842431124 0 0 0 0 -2.1698105716113787 2.091207835901514 0 2.091207835901514 61.332516404841044 0 0 0 0 -10.203856015860763 26.351422994959805 0 26.351422994959805 48.874170790242673 0 0 0 0 -1.9944630075213468 7.2084501715182796 0 7.2084501715182796 79.266215473646298 0 0 0 0 2.1408033171894658 5.0931647044599231 0 5.0931647044599231 83.986000380566111 0 0 0 0 -1.3920523535789471 9.6826138494579936 0 9.6826138494579936 78.311457496132789 0 0 0 0 -1.8118254608470803 14.472971185227507 0 14.472971185227507 27.736403793195592 0 0 0 0 0.43475772688081982 -1.3176894988400178 0 -1.3176894988400178 14.108354929883077 0 0 0 0 0.85933427933304074 5.5330956644432376 0 5.5330956644432376 88.945876931284147 0 0 0 0 9.919153239324217 -18.247014291264577 0 -18.247014291264577 17.796383129784633 0 0 0 0 14.540229203306808 -10.459927358815548 0 -10.459927358815548 48.871303279178392 0 0 0 0 9.3031615151783171 -10.551091271057885 0 -10.551091271057885 78.026084479690326 0 0 0 0 16.262290665978071 -4.1371794426286215 0 -4.1371794426286215 44.091345652475866 0 0 0 0 11.853426156003025 -21.929213322263422 0 -21.929213322263422 78.327136516410974 0 0 0 0 9.505570908673235 -22.325544056071521 0 -22.325544056071521 82.673711816354626 0 0 0 0 11.525285086742315 -5.0454109809434158 0 -5.0454109809434158 81.936559088826471 0 0 0 0 7.1840541476526596 -15.906579573234922 0 -15.906579573234922 72.4144472910084 0 0 0 0 15.376745600746062 -12.893855812120819 0 -12.893855812120819 37.60329418843321 0 0 0 0 8.6170252662563414 -16.960805728610282 0 -16.960805728610282 6.5387580954171245 0 0 0 0 0.87626714676662232 -3.3502977501630085 0 -3.3502977501630085 153.35814233386174 0 0 0 0 2.8499442768134031 -7.0758304336195579 0 -7.0758304336195579 74.428559505118756 0 0 0 0 13.396460562027642 -16.029790022119414 0 -16.029790022119414 153.4163318976191 0 0 0 0 19.274559099354519 -20.742653164808871 0 -20.742653164808871 181.17431280607707 0 0 0 0 2.4920688473803736 2.4068709376281276 0 2.4068709376281276 -4.5642604223417962 0 0 0 0 23.305623774469495 -10.487823490664596 0 -10.487823490664596 94.106455424822343 0 0 0 0 11.888260762796108 0.9639568238890206 0 0.9639568238890206 125.68288067859248 0 0 0 0 9.7241701391767492 3.8705958121427102 0 3.8705958121427102 143.19435421936214 0 0 0 0 6.7128364176069226 -14.492079487488809 0 -14.492079487488809 140.04651695414941 0 0 0 0 10.253993741252998 -8.1160013892476854 0 -8.1160013892476854 133.32332249357478 0 0 0 0 8.8943865866021952 -16.20867875247859 0 -16.20867875247859 122.10517319157225 0 0 0 0 2.18951984660157 13.928053744408317 0 13.928053744408317 76.364145527233632 0 0 0 0 -9.3592319306341043 28.740142020657842 0 28.740142020657842 46.855473910310238 0 0 0 0 1.0507720204473117 6.9542526681834715 0 6.9542526681834715 91.938920624470029 0 0 0 0 3.5192969893228998 -3.1122936603882181 0 -3.1122936603882181 71.641775987387518 0 0 0 0 -9.0072120808488307 -15.704509365370541 0 -15.704509365370541 111.36194299258204 0 0 0 0 7.371376740507003 -21.355231314253615 0 -21.355231314253615 100.81399708554818 0 0 0 0 8.5490662156264534 -8.6388674853551493 0 -8.6388674853551493 112.36730572653005 0 0 0 0 3.0673768841583637 -14.079662579358228 0 -14.079662579358228 127.4141955648156 0 0 0 0 7.5664304568899752 -4.5252602886466775 0 -4.5252602886466775 101.4415703462364 0 0 0 0 14.387346245693607 1.2569613898012904 0 1.2569613898012904 111.8032997987757 0 0 0 0 31.742877433115154 -4.0983150174142793 0 -4.0983150174142793 85.17417359260071 0 0 0 0 28.28206915364899 -10.075162414483202 0 -10.075162414483202 102.76857961289352 0 0 0 0 38.621107124030345 25.647287026812592 0 25.647287026812592 143.80800043501949 0 0 0 0 14.192714680724066 16.398165101585619 0 16.398165101585619 142.1627671824217 0 0 0 0 36.139527763629076 -2.0548011395003414 0 -2.0548011395003414 111.86261343646038 0 0 0 0 1.926770095071106 4.7167620215041097 0 4.7167620215041097 118.1516716776423 0 0 0 0 6.5470049461115423 2.7141977515966573 0 2.7141977515966573 117.67354656517273 0 0 0 0 -0.3698979806049465 7.521746426988102 0 7.521746426988102 129.18639317304496 0 0 0 0 2.4989079774275069 8.4867816442929325 0 8.4867816442929325 115.78120371888144 0 0 0 0 -7.825801323083283 -2.0421938086001319 0 -2.0421938086001319 118.04881941761414 0 0 0 0 4.9105738890457928 12.041891003694218 0 12.041891003694218 96.309573489837931 0 0 0 0 -2.3260393794730589 -2.3667361854058981 0 -2.3667361854058981 101.48176817702188 0 0 0 0 -0.35588082961169221 1.510304473915312 0 1.510304473915312 102.82055329626974 0 0 0 0 21.98971918848224 3.7298434064286994 0 3.7298434064286994 103.02035025718214 0 0 0 0 0.89277440051705526 2.9992676276579004 0 2.9992676276579004 69.590227161061193 0 0 0 0 9.0239320679486923 7.0464987137529533 0 7.0464987137529533 61.124241523335513 0 0 0 0 -3.9974811253706877 25.343216744597271 0 25.343216744597271 10.148111173404914 0 0 0 0 3.5296847332023331 1.3023186796441166 0 1.3023186796441166 5.6692791218277794 0 0 0 0 2.3189349489787219 3.1384414211133844 0 3.1384414211133844 72.584743513849389 0 0 0 0 4.822750827939899 -1.5039904402183311 0 -1.5039904402183311 77.136230371819693 0 0 0 0 7.699851230174005 -8.4654741092645054 0 -8.4654741092645054 156.97556602019176 0 0 0 0 8.931534093674756 -8.1668572049693466 0 -8.1668572049693466 137.27290855707543 0 0 0 0 47.280108941219851 -34.14729779096524 0 -34.14729779096524 -18.091137277551752 0 0 0 0 -1.6184655219467321 22.857168328463757 0 22.857168328463757 32.505911041212798 0 0 0 0 -0.31013105582018163 -41.933952299765025 0 -41.933952299765025 35.985101030521996 0 0 0 0 -3.3496858108275944 0.93536827911488984 0 0.93536827911488984 21.440250207554556 0 0 0 0 -11.804714789518414 -1.6988789264014486 0 -1.6988789264014486 26.83054750408337 0 0 0 0 -23.916845271971113 -20.335364693633892 0 -20.335364693633892 101.48586266126222 0 0 0 0 -0.231885131359717 -15.425315445239342 0 -15.425315445239342 21.659043691792526 0 0 0 0 -3.091351219036369 -17.503777488069318 0 -17.503777488069318 80.122856191406754 0 0 0 0 -16.321065303481987 -24.959041760492255 0 -24.959041760492255 115.2550684215239 0 0 0 0 1.7470825182624594 -21.966051879720908 0 -21.966051879720908 83.977686327252741 0 0 0 0 6.9029217217470205 -5.602333530147007 0 -5.602333530147007 90.180392655774995 0 0 0 0 -3.8934930234838703 3.6184578820830211 0 3.6184578820830211 80.006048141125575 0 0 0 0 12.591188890155763 -16.024386893343035 0 -16.024386893343035 86.288299861022097 0 0 0 0 7.0350460167114655 0.85615084200095737 0 0.85615084200095737 4.5685842408316102 0 0 0 0 14.09690265513143 -19.793049163601609 0 -19.793049163601609 42.555316597572528 0 0 0 0 8.9409364783448382 6.5051226890354883 0 6.5051226890354883 68.105348894205235 0 0 0 0 0.97499841839579249 -16.934132483467224 0 -16.934132483467224 8.3254466856157663 0 0 0 0 5.3461305492750375 1.0646161539282559 0 1.0646161539282559 -1.0767226767132101 0 0 0 0 7.3168146315799731 3.8008314602193423 0 3.8008314602193423 63.604156113549834 0 0 0 0 15.372683536598515 -4.3514234732901969 0 -4.3514234732901969 91.553544308801065 0 0 0 0 0.51780098764538707 -30.428291809181246 0 -30.428291809181246 254.93346523596119 0 0 0 0 3.0996649179649012 -5.6250827738126645 0 -5.6250827738126645 129.58304968601442 0 0 0 0 36.60213940432277 6.2815625403854938 0 6.2815625403854938 110.29682200912066 0 0 0 0 38.283000767816702 11.03090087709279 0 11.03090087709279 113.38037543945973 0 0 0 0 8.3798859001335586 1.086299642411177 0 1.086299642411177 134.93719484525354 0 0 0 0 30.42314362916477 11.308737888353789 0 11.308737888353789 128.15838803391671 0 0 0 0 14.016472347530453 -1.2569622391711164 0 -1.2569622391711164 122.53091229856363 0 0 0 0 6.5313085327161389 -9.0154569248552434 0 -9.0154569248552434 122.9022484381785 0 0 0 0 15.481023261102337 -3.1999000072464696 0 -3.1999000072464696 121.32097192246874 0 0 0 0 10.333149710470479 -7.059672950355889 0 -7.059672950355889 123.56443752976338 0 0 0 0 2.8019413543811904 3.1611316307379553 0 3.1611316307379553 2.4007166737492369 0 0 0 0 5.3493151426714576 -17.028354891135677 0 -17.028354891135677 129.26824060424951 0 0 0 0 4.3468779146742236 -22.549397373681131 0 -22.549397373681131 108.76822356039156 0 0 0 0 6.8727548559145362 -21.473470752018329 0 -21.473470752018329 87.672299941568781 0 0 0 0 -1.0224952829562426 -6.0159082788668456 0 -6.0159082788668456 102.04008792049717 0 0 0 0 0.075071029826858648 -11.459571742132539 0 -11.459571742132539 116.46599519706797 0 0 0 0 5.066121524177106 -5.7372959963686299 0 -5.7372959963686299 116.32007679255184 0 0 0 0 3.2724071231430116 -4.4915118019744114 0 -4.4915118019744114 119.1985819904221 0 0 0 0 3.9553414625415826 -6.3878064218879445 0 -6.3878064218879445 124.23524647978775 0 0 0 0 -3.0203985539728819 -8.7979702468583127 0 -8.7979702468583127 121.66388421351076 0 0 0 0 -3.9963929576097144 -6.0394052120063861 0 -6.0394052120063861 113.88962100789649 0 0 0 0 -10.048205875008762 -4.8561462041398045 0 -4.8561462041398045 121.41216731337045 0 0 0 0 -10.093267434457402 -4.1481414372319705 0 -4.1481414372319705 122.87520141217101 0 0 0 0 -7.8353686115949071 -1.1049766805226398 0 -1.1049766805226398 116.08874728567025 0 0 0 0 1.2283038165066955 1.5113559100282146 0 1.5113559100282146 96.208962863399393 0 0 0 0 -5.4763786191017516 -2.1871574190590763 0 -2.1871574190590763 115.94925741959378 0 0 0 0 -3.4385585535444534 -4.3433027334831422 0 -4.3433027334831422 98.005723374968511 0 0 0 0 -4.3413745358179767 -7.6411928124398401 0 -7.6411928124398401 114.45401476840925 0 0 0 0 -9.5439052343032813 -10.259968016987841 0 -10.259968016987841 143.96733195793058 0 0 0 0 -10.504491130132823 6.5930788150105855 0 6.5930788150105855 212.50629818568268 0 0 0 0 10.59689094070427 -22.953947383684863 0 -22.953947383684863 126.0788658731326 0 0 0 0 -6.4089313943044317 -40.863722839589173 0 -40.863722839589173 163.09295832144926 0 0 0 0 -15.417678158501701 -3.8023110913854907 0 -3.8023110913854907 145.10097129218775 0 0 0 0 -12.040367399111346 45.915870802353311 0 45.915870802353311 -27.522700379951857 0 0 0 0 8.9967571225217853 -0.13082712230425386 0 -0.13082712230425386 68.637606408265128 0 0 0 0 -11.566381209486082 24.230005738823465 0 24.230005738823465 4.3522746495690114 0 0 0 0 4.4035333303613964 5.4144732453656843 0 5.4144732453656843 -1.9170897669052493 0 0 0 0 8.3669568384320883 26.848292703441984 0 26.848292703441984 -92.018181687926699 0 0 0 0 -15.041368465877227 25.1847371763794 0 25.1847371763794 -3.5990133584157231 0 0 0 0 -71.717130574314353 -17.571339079662721 0 -17.571339079662721 400.81098616006057 0 0 0 0 -29.184999352148225 -78.646857939733309 0 -78.646857939733309 159.40785376213535 0 0 0 0 16.202825392690869 24.079324737770548 0 24.079324737770548 204.85398071999953 0 0 0 0 14.060013013088678 -48.967627772086416 0 -48.967627772086416 241.38751101291473 0 0 0 0 -58.415962567518363 -50.453227147918369 0 -50.453227147918369 241.73464506513847 0 0 0 0 15.029329405197132 112.27506469289074 0 112.27506469289074 347.07527845689037 0 0 0 0 5.8411109659418798 3.9544562395603862 0 3.9544562395603862 -60.60847333757556 0 0 0 0 -34.76437262317495 54.713732714641083 0 54.713732714641083 -7.726419874928979 0 0 0 0 -39.750425025714321 56.340938846115023 0 56.340938846115023 212.7569067729055 0 0 0 0 -39.567461337799301 6.1551924156228779 0 6.1551924156228779 141.59864550838211 0 0 0 0 -5.712163107432616 4.3715677375148516 0 4.3715677375148516 140.93819575935231 0 0 0 0 44.033117573587333 2.0047106870042626 0 2.0047106870042626 163.50346259119397 0 0 0 0 2.895236941973522 16.89683249704467 0 16.89683249704467 158.11315469065448 0 0 0 0 -1.9850620257719271 0.56858435396122786 0 0.56858435396122786 -0.35467418667516881 0 0 0 0 -29.520314462144597 -134.17854274458659 0 -134.17854274458659 -225.84388963091624 0 0 0 0 -27.701757261152011 -78.745905126190337 0 -78.745905126190337 57.479045642408892 0 0 0 0 -49.871858531488897 -2.4700233620314975 0 -2.4700233620314975 37.714229990733656 0 0 0 0 -52.368210050222004 -73.464897550830756 0 -73.464897550830756 65.703535081585869 0 0 0 0 1.1383355637457271 -30.062103619311529 0 -30.062103619311529 74.955403852683958 0 0 0 0 -22.197971945590552 -19.716143163132074 0 -19.716143163132074 182.57543044580962 0 0 0 0 15.047618444164414 -55.038663500421535 0 -55.038663500421535 -37.710267747148464 0 0 0 0 -6.1765864913744046 1.5741583439540676 0 1.5741583439540676 13.446785707652833 0 0 0 0 -0.50137474973622442 1.8568642674693336 0 1.8568642674693336 13.242167489733944 0 0 0 0 -32.811567551495045 -7.2823134860518621 0 -7.2823134860518621 89.486740061962337 0 0 0 0 0.10559871937630305 47.98416374039698 0 47.98416374039698 124.76693356766191 0 0 0 0 6.8853520907538552 -6.9657241795794107 0 -6.9657241795794107 150.39025475333619 0 0 0 0 -7.798114259682734 39.87983329501003 0 39.87983329501003 201.06483039932937 0 0 0 0 15.146031698284332 12.294270611913817 0 12.294270611913817 126.61553932171955 0 0 0 0 10.045038295342692 0.31008894818660337 0 0.31008894818660337 107.56347943814035 0 0 0 0 -19.637690708448872 30.57493638896085 0 30.57493638896085 114.72703133538016 0 0 0 0 2.8811569139810729 -58.388961244298116 0 -58.388961244298116 88.953033553945716 0 0 0 0 -9.5050169836726521 43.255962681705441 0 43.255962681705441 11.956910994868487 0 0 0 0 -165.51623071432937 -150.20024632989953 0 -150.20024632989953 522.87601573015127 0 0 0 0 -3.8763974530126926 -41.547228131565731 0 -41.547228131565731 41.695165432532235 0 0 0 0 19.248614818808619 117.78849675381207 0 117.78849675381207 412.49280204680326 0 0 0 0 280.13221245130262 142.7285522177408 0 142.7285522177408 -45.496985532176041 0 0 0 0 -8.6517838959081246 11.531619652094378 0 11.531619652094378 454.24329320014658 0 0 0 0 1.3964841217385642 0.084187646167045216 0 0.084187646167045216 7.1492011594220877 0 0 0 0 0.65843416566185986 -42.781728699106523 0 -42.781728699106523 31.594968775398911 0 0 0 0 2.9422870686893003 -2.12186109276427 0 -2.12186109276427 54.279891175740218 0 0 0 0 99.399077103713807 -111.28709516422532 0 -111.28709516422532 197.75329399094335 0 0 0 0 3.6367264595159829 7.4440945614710401 0 7.4440945614710401 -4.5025049420983265 0 0 0 0 36.428386343209922 -15.441490575922217 0 -15.441490575922217 38.027868251583641 0 0 0 0 -28.346631675097456 -9.2947675071864069 0 -9.2947675071864069 101.45283582810953 0 0 0 0 -8.8500491443969196 8.9700298842944086 0 8.9700298842944086 87.432524602846101 0 0 0 0 -60.944880460156583 62.796471108020341 0 62.796471108020341 93.470322933433636 0 0 0 0 17.164109451317927 -6.7612680672609713 0 -6.7612680672609713 63.282403827892267 0 0 0 0 -6.8385948273068209 1.6030625433907097 0 1.6030625433907097 87.481894148572081 0 0 0 0 -135.94873481115792 100.29164768616101 0 100.29164768616101 64.329619046198786 0 0 0 0 144.19197822387196 58.548009245678259 0 58.548009245678259 10.722798476888784 0 0 0 0 104.76566613709019 -119.98446058488844 0 -119.98446058488844 152.5688981903877 0 0 0 0 41.679889562871722 -45.98729468727106 0 -45.98729468727106 68.130275771208289 0 0 0 0 9.0112559722219885 -7.4837293463751848 0 -7.4837293463751848 77.654064884380205 0 0 0 0 3.6308856397326963 22.552211308873666 0 22.552211308873666 47.924226871786232 0 0 0 0 3.1716906287236881 4.0163679600321984 0 4.0163679600321984 105.80146732408321 0 0 0 0 0.28520768598968971 -27.595432885198534 0 -27.595432885198534 117.65410725005495 0 0 0 0 21.635074177744627 -20.292410332720465 0 -20.292410332720465 115.06706691491854 0 0 0 0 21.880379539995829 -13.383405323493207 0 -13.383405323493207 78.18532059420977 0 0 0 0 2.6974655248311592 -11.671299936977448 0 -11.671299936977448 112.1166109701262 0 0 0 0 10.387901190915045 -68.815760711018811 0 -68.815760711018811 168.37743496283656 0 0 0 0 -12.647411183268559 -35.310168858763063 0 -35.310168858763063 120.63975983591808 0 0 0 0 -15.635294429610894 -35.318451149967586 0 -35.318451149967586 135.51357229353744 0 0 0 0 -29.356838011625712 -25.48069985069742 0 -25.48069985069742 138.60885254813184 0 0 0 0 -13.539231238299266 -14.660144080669852 0 -14.660144080669852 127.44887021511386 0 0 0 0 3.2276390850094785 -8.483489812568223 0 -8.483489812568223 128.85423797219119 0 0 0 0 12.528867952711835 -58.155201793621927 0 -58.155201793621927 186.60942831947978 0 0 0 0 1.3993494426600841 -0.38615274628745766 0 -0.38615274628745766 0.016349658343870033 0 0 0 0 0.70754444522344784 -11.610582572353451 0 -11.610582572353451 158.85799542538552 0 0 0 0 6.1828633174858396 -27.619862049908988 0 -27.619862049908988 131.62658250507229 0 0 0 0 -5.7341788010310211 -13.890220140072415 0 -13.890220140072415 138.92903507755545 0 0 0 0 25.511654071564994 -70.817045855845549 0 -70.817045855845549 199.57481054643722 0 0 0 0 24.637501674301006 -20.340489114902084 0 -20.340489114902084 138.30598827770882 0 0 0 0 -2.9753079492252255 -28.256339662904793 0 -28.256339662904793 147.4165754296564 0 0 0 0 -23.627966888388357 -3.7826094933843706 0 -3.7826094933843706 142.62319590645347 0 0 0 0 -3.0037367984684238 -29.106420075404458 0 -29.106420075404458 104.77062948180537 0 0 0 0 -39.104147583541248 14.69379379023303 0 14.69379379023303 168.22011089575972 0 0 0 0 -38.905232850360903 -51.623815132112213 0 -51.623815132112213 245.73324347944435 0 0 0 0 -34.392548921978459 -52.645880639727693 0 -52.645880639727693 244.30583514097088 0 0 0 0 0.20408894911785547 -2.6566562826422313 0 -2.6566562826422313 5.4487067660642694 0 0 0 0 -6.0444640100521383 -178.41175006732374 0 -178.41175006732374 441.4021284269802 0 0 0 0 111.04689245904365 -101.00610185256664 0 -101.00610185256664 127.67330287333061 0 0 0 0 14.788210804941627 144.00885902074151 0 144.00885902074151 116.68988216780053 0 0 0 0 -46.579151470110034 -2.1041283984436632 0 -2.1041283984436632 319.18432193640911 0 0 0 0 -9.8246613411700991 -93.19259533922741 0 -93.19259533922741 304.15981496207041 0 0 0 0 -21.568777427086161 -16.193375665070562 0 -16.193375665070562 107.56392951006274 0 0 0 0 -4.3007320168489969 -6.7426814306709275 0 -6.7426814306709275 103.62302053753228 0 0 0 0 -21.196069797112102 -19.670941540372041 0 -19.670941540372041 93.799348423657648 0 0 0 0 0.48855479074021191 -1.0697200850321877 0 -1.0697200850321877 -1.0240299083204718 0 0 0 0 -28.649494890134491 -77.755045848367445 0 -77.755045848367445 261.27946125773087 0 0 0 0 -5.9158408639462436 -57.638678655184776 0 -57.638678655184776 114.56430768502651 0 0 0 0 24.336061352643299 -38.171618169209978 0 -38.171618169209978 95.97797894316318 0 0 0 0 0.67956105445981052 -50.559246680812066 0 -50.559246680812066 86.287555106500804 0 0 0 0 -12.992042254666995 -58.873789550965739 0 -58.873789550965739 91.198748555994825 0 0 0 0 -40.944331875226339 -30.947416111877828 0 -30.947416111877828 100.38661476619291 0 0 0 0 -88.169715867765149 -5.9294750023327651 0 -5.9294750023327651 98.245281139832514 0 0 0 0 -13.738694143745306 -4.6201448838855868 0 -4.6201448838855868 82.301991282727613 0 0 0 0 -52.666537956975873 -9.6204218805341952 0 -9.6204218805341952 71.570201674530836 0 0 0 0 -63.616950638651645 -56.884798319650145 0 -56.884798319650145 108.79870992560245 0 0 0 0 42.648601693608214 -77.266682708595908 0 -77.266682708595908 86.267428507188015 0 0 0 0 -1.4284932038126144 -61.416374604292741 0 -61.416374604292741 86.842845641273016 0 0 0 0 5.0719281848720073 -43.981098120500974 0 -43.981098120500974 103.1827396035842 0 0 0 0 20.165494156408357 -57.255676689744178 0 -57.255676689744178 86.78595545224016 0 0 0 0 32.459453985790105 -52.743664655961766 0 -52.743664655961766 31.193361985846423 0 0 0 0 8.7706437145147902 -74.103307601199049 0 -74.103307601199049 84.328400309346762 0 0 0 0 43.755476123971334 -18.065256297679298 0 -18.065256297679298 147.92273887501142 0 0 0 0 4.6643901194574937 -23.554520091536688 0 -23.554520091536688 174.54405840703839 0 0 0 0 107.8631018661633 84.359900158307937 0 84.359900158307937 251.67635302846975 0 0 0 0 -32.396384930547811 -6.5935250183101743 0 -6.5935250183101743 353.63745475162796 0 0 0 0 0.22857810699676995 1.0130464334368767 0 1.0130464334368767 1.7016373693401903 0 0 0 0 -73.552123400402024 6.1095413309230935 0 6.1095413309230935 262.1274723470051 0 0 0 0 -19.212738347156332 -60.252905827237555 0 -60.252905827237555 150.4674273700366 0 0 0 0 96.824591653197018 -67.550759526538513 0 -67.550759526538513 128.1219008352673 0 0 0 0 -119.45525253371483 -57.702351684938549 0 -57.702351684938549 125.53609672564198 0 0 0 0 -24.912701456776865 -35.458067314292293 0 -35.458067314292293 80.060711259007803 0 0 0 0 -195.88808922118997 24.950343591221099 0 24.950343591221099 112.41308896339979 0 0 0 0 -7.5749136389945395 0.77305204337685396 0 0.77305204337685396 81.386861590011335 0 0 0 0 -8.4328478531890578 -2.0240602340171403 0 -2.0240602340171403 72.901584572244161 0 0 0 0 -67.592576989609455 41.918250583315967 0 41.918250583315967 61.347359653909734 0 0 0 0 -241.46486046866579 59.287868008670557 0 59.287868008670557 146.95088458547252 0 0 0 0 -23.800086638098975 94.158799610206188 0 94.158799610206188 5.708700895171205 0 0 0 0 -32.492966713550459 -25.170221528720504 0 -25.170221528720504 77.122757288787398 0 0 0 0 9.118276420872462 -10.999192064205999 0 -10.999192064205999 57.272734060443327 0 0 0 0 -114.71724239617717 70.103981487996862 0 70.103981487996862 9.3085480743429798 0 0 0 0 -7.3875576033331347 -4.39715203283356 0 -4.39715203283356 61.536771325257178 0 0 0 0 16.999957890131554 -19.928151019246798 0 -19.928151019246798 59.170401155846776 0 0 0 0 15.10949413659219 82.998319099422588 0 82.998319099422588 -95.085505787694274 0 0 0 0 15.201794240246585 129.82005049350846 0 129.82005049350846 -43.273329940642725 0 0 0 0 218.05370020859667 -120.81187416339162 0 -120.81187416339162 -21.897575126407901 0 0 0 0 0.11095619182611779 0.4156800311453388 0 0.4156800311453388 3.3847462425468535 0 0 0 0 23.008099630533128 68.68985094834693 0 68.68985094834693 -102.22441674440779 0 0 0 0 7.4660673475772796 113.68218655052624 0 113.68218655052624 -50.178515456886089 0 0 0 0 151.42130917008012 -145.9158217905424 0 -145.9158217905424 32.224837901849241 0 0 0 0 192.36405366526972 177.50284629633052 0 177.50284629633052 -118.06240363530378 0 0 0 0 -138.99028745933799 -105.46074826909899 0 -105.46074826909899 181.99992307341381 0 0 0 0 -49.9791682032631 62.093187023012433 0 62.093187023012433 143.30020580038399 0 0 0 0 153.67759760545496 63.981839001008666 0 63.981839001008666 83.314402783471451 0 0 0 0 -4.5317596094675991 0.82413075206568465 0 0.82413075206568465 113.53346396164306 0 0 0 0 -1.9031467742274799 -5.1724306694231927 0 -5.1724306694231927 66.826014552781999 0 0 0 0 -17.982777170668101 -17.551269561972731 0 -17.551269561972731 136.91247118289175 0 0 0 0 -19.456570189825698 -7.7701838096672873 0 -7.7701838096672873 111.78027044695773 0 0 0 0 -32.995630584428682 -12.187085041896353 0 -12.187085041896353 159.97619146276702 0 0 0 0 -10.681753336697511 64.692689765790419 0 64.692689765790419 124.59857093814207 0 0 0 0 -17.749938714936206 -49.158405917411073 0 -49.158405917411073 248.76715716320905 0 0 0 0 -222.41350822785819 53.756451967696194 0 53.756451967696194 264.71813100775034 0 0 0 0 -0.030293268513481686 -1.9128164260161205 0 -1.9128164260161205 3.77632102211453 0 0 0 0 136.10859037236833 -132.13745323308103 0 -132.13745323308103 74.298564517859631 0 0 0 0 -14.371503841563936 -49.398281501840756 0 -49.398281501840756 40.948474684046232 0 0 0 0 26.194630836197575 -28.276060550673719 0 -28.276060550673719 49.451424036375101 0 0 0 0 -0.21645042707983447 -1.6194268999557826 0 -1.6194268999557826 10.36057543717655 0 0 0 0 11.870554215184711 -10.85846431727623 0 -10.85846431727623 28.561505643898272 0 0 0 0 -27.257593530542181 -12.825741681353975 0 -12.825741681353975 17.405547233334801 0 0 0 0 -2.3969751834829367 -29.033821259628894 0 -29.033821259628894 13.547893441114866 0 0 0 0 -10.42388452024079 -13.993820245923416 0 -13.993820245923416 -12.444325239302998 0 0 0 0 12.737152884059469 -5.3496874699776527 0 -5.3496874699776527 15.076666441596899 0 0 0 0 -22.432235314680383 -19.419162068272271 0 -19.419162068272271 26.375159450944921 0 0 0 0 8.6254788612660178 15.720783890494658 0 15.720783890494658 71.362049575705896 0 0 0 0 15.08784910860561 -20.221161160352494 0 -20.221161160352494 -37.766540980104764 0 0 0 0 15.738484494997579 -34.635061927609058 0 -34.635061927609058 41.082444179439335 0 0 0 0 15.967007491151662 -10.315647067745886 0 -10.315647067745886 67.817220169155917 0 0 0 0 18.153917183993144 -7.2728987410009722 0 -7.2728987410009722 16.590723706012795 0 0 0 0 18.118847818123527 -48.389056877509574 0 -48.389056877509574 83.230657093656191 0 0 0 0 -7.7196641988829242 -14.34813985456276 0 -14.34813985456276 66.305023635279213 0 0 0 0 11.836553762413928 -32.256808192207245 0 -32.256808192207245 62.943375551723875 0 0 0 0 -18.963381925043677 -45.239146162644829 0 -45.239146162644829 178.44907402787794 0 0 0 0 0.31812421983214634 0.93103814304896559 0 0.93103814304896559 -0.0059813104786936577 0 0 0 0 -13.162705516506776 38.582092631670093 0 38.582092631670093 22.967396246185672 0 0 0 0 -31.733984280869208 -5.6162537977470492 0 -5.6162537977470492 116.30757871330115 0 0 0 0 -23.332704771374665 -23.23687916659037 0 -23.23687916659037 151.08436862017334 0 0 0 0 54.66459831986549 -75.184616515522066 0 -75.184616515522066 107.63138143096876 0 0 0 0 18.760973747727348 -33.599614456958079 0 -33.599614456958079 59.500513961676916 0 0 0 0 3.7397264763176281 -46.80140566051341 0 -46.80140566051341 119.27430063668317 0 0 0 0 0.73559973499974873 0.97920867383955112 0 0.97920867383955112 2.3402752274419836 0 0 0 0 2.9116727135459577 6.8535620274425213 0 6.8535620274425213 1.1638600495543123 0 0 0 0 0.34187034408873629 -0.065648696311334298 0 -0.065648696311334298 1.2152876858668265 0 0 0 0 56.503501348941882 57.997992978413095 0 57.997992978413095 58.730539267526183 0 0 0 0 44.026404219300275 23.733465146986418 0 23.733465146986418 5.4562888148793718 0 0 0 0 35.797562717666437 -69.691263006813642 0 -69.691263006813642 152.02346598164149 0 0 0 0 3.2375408626294302 53.653925698450621 0 53.653925698450621 134.43547873777425 0 0 0 0 28.118381375259787 -34.20393381042777 0 -34.20393381042777 50.331556525350607 0 0 0 0 16.888471512635761 25.685496059970319 0 25.685496059970319 25.454442643102084 0 0 0 0 -1.4248354431134205 10.214182268766876 0 10.214182268766876 16.433581556231658 0 0 0 0 -11.607543774767123 54.374153403357923 0 54.374153403357923 9.3256962024606764 0 0 0 0 71.674282705210175 20.394019964969175 0 20.394019964969175 12.081866110926057 0 0 0 0 -1.7896833893743387 10.09223904951449 0 10.09223904951449 16.444850867455372 0 0 0 0 33.171229034296701 -40.298012904484494 0 -40.298012904484494 51.565132621399243 0 0 0 0 23.175010217310046 -30.861356417812203 0 -30.861356417812203 65.274384251311858 0 0 0 0 20.566726235961198 -45.196910007090537 0 -45.196910007090537 81.217484773223987 0 0 0 0 20.809312618862123 -11.44957791287743 0 -11.44957791287743 24.752373798368353 0 0 0 0 17.503192164184043 -25.389697084840009 0 -25.389697084840009 56.292675104738009 0 0 0 0 152.3183354645825 68.131470880753113 0 68.131470880753113 -64.932815066786134 0 0 0 0 0.36478475699021073 -0.94914231039319574 0 -0.94914231039319574 1.9720996053505928 0 0 0 0 212.3917540199875 -14.958213880414405 0 -14.958213880414405 5.5997357551023015 0 0 0 0 -0.20659336813250737 1.3588486703768243 0 1.3588486703768243 10.970887435824523 0 0 0 0 -234.92783432557329 99.784315217639232 0 99.784315217639232 200.50020486009453 0 0 0 0 -122.04970711421477 103.18065197136821 0 103.18065197136821 25.53270459293708 0 0 0 0 -18.016374217227195 -98.580323311761276 0 -98.580323311761276 229.03978532362089 0 0 0 0 -198.70746979800975 53.577525424585474 0 53.577525424585474 259.7831353420188 0 0 0 0 -188.948329433417 89.817427931160637 0 89.817427931160637 -32.839641486105393 0 0 0 0 -96.601794493887297 -57.645013460030896 0 -57.645013460030896 -231.07184571956168 0 0 0 0 -146.6847033229908 38.913167654463905 0 38.913167654463905 205.21507094950357 0 0 0 0 156.77955067243079 -55.912101870276274 0 -55.912101870276274 -26.0865078683928 0 0 0 0 -2.7093569826529835 -2.3308340668538392 0 -2.3308340668538392 13.566296195016701 0 0 0 0 -4.1462013865409109 3.6717032799022498 0 3.6717032799022498 58.853803505447203 0 0 0 0 7.9641801775958037 2.6896131210377661 0 2.6896131210377661 17.165234989967445 0 0 0 0 -9.4231423944120252 20.138102253658872 0 20.138102253658872 63.004359266836445 0 0 0 0 -9.639505846501379 18.720049732586631 0 18.720049732586631 83.00395412575017 0 0 0 0 -0.98253840970119199 -23.461995072728314 0 -23.461995072728314 70.311746484244395 0 0 0 0 -19.364794760884251 18.559210098621406 0 18.559210098621406 78.522594577505515 0 0 0 0 -8.0894272130913123 -11.567713501888647 0 -11.567713501888647 55.938847264402284 0 0 0 0 6.2209958194998762 3.7746675608141231 0 3.7746675608141231 4.9706927585211815 0 0 0 0 6.7925948323641023 -11.526703759949669 0 -11.526703759949669 34.922715295680973 0 0 0 0 2.6950591626691676 -8.3022889312342159 0 -8.3022889312342159 51.894633850082755 0 0 0 0 -4.3583801462582414 -9.6681277360530657 0 -9.6681277360530657 56.42460062479222 0 0 0 0 -4.4990475293479903 0.1420841065919376 0 0.1420841065919376 41.290829999747075 0 0 0 0 -2.2639925602760056 -1.9702546223903923 0 -1.9702546223903923 28.355034093342994 0 0 0 0 -24.456677849738071 3.5404370460537393 0 3.5404370460537393 27.708931646935525 0 0 0 0 33.100667454973632 -34.902849982248881 0 -34.902849982248881 21.658189766942087 0 0 0 0 -3.1033215386383426 -4.858177619187277 0 -4.858177619187277 26.526564526322488 0 0 0 0 -87.442736150816586 84.945974520982418 0 84.945974520982418 46.367716962522536 0 0 0 0 98.027938405871481 9.2602681019202464 0 9.2602681019202464 2.3862549749392201 0 0 0 0 -5.4379000505802981 5.9089180303534441 0 5.9089180303534441 9.5440202172118092 0 0 0 0 -4.174608164848653 -2.5352285741857639 0 -2.5352285741857639 51.021704246529055 0 0 0 0 14.878513852313201 -23.228651944764806 0 -23.228651944764806 -61.061051310331095 0 0 0 0 17.967760608446042 -5.650810081329837 0 -5.650810081329837 30.328375560935456 0 0 0 0 -15.249739456534044 2.2841933075574161 0 2.2841933075574161 13.497351291061932 0 0 0 0 -27.388684940680747 -32.846358857163068 0 -32.846358857163068 49.301790047238683 0 0 0 0 -21.740637247009033 -27.461107280290889 0 -27.461107280290889 21.863647273089555 0 0 0 0 -16.004784559627296 -11.031782528398253 0 -11.031782528398253 33.249185947005572 0 0 0 0 1.5881070631598959 -23.198780471098871 0 -23.198780471098871 -6.0602629770910426 0 0 0 0 13.509220938148019 1.5730900745802501 0 1.5730900745802501 22.686310902653531 0 0 0 0 -133.93353481007321 -24.477173143575783 0 -24.477173143575783 38.935706264157488 0 0 0 0 0.37074895569512889 3.6433430872747774 0 3.6433430872747774 17.472713911490047 0 0 0 0 34.689077399697567 -30.853964600970812 0 -30.853964600970812 29.607145190468145 0 0 0 0 -17.166629129226749 -12.619263002783555 0 -12.619263002783555 7.2989660754574288 0 0 0 0 -19.251540950812455 -8.1862216670137968 0 -8.1862216670137968 11.880181363372685 0 0 0 0 -13.902431543523562 -23.799868115343997 0 -23.799868115343997 29.916742861336388 0 0 0 0 -8.6854954027898064 -3.4308859124086126 0 -3.4308859124086126 15.394699073951507 0 0 0 0 -11.636096070534977 -13.566735368056477 0 -13.566735368056477 7.9205800864540379 0 0 0 0 -24.133625914004369 -8.9290270406668242 0 -8.9290270406668242 9.9075262384449161 0 0 0 0 -1.3071235965553112 -5.3526047081587524 0 -5.3526047081587524 15.372513838487933 0 0 0 0 -21.847884994353308 -13.725023252782194 0 -13.725023252782194 36.563763761456357 0 0 0 0 -4.1244208202801929 -11.434848900136785 0 -11.434848900136785 -9.4337681587239786 0 0 0 0 -5.2819005709238809 -10.625347099954524 0 -10.625347099954524 -0.5802469477912382 0 0 0 0 -13.147357810526501 0.70511648071260424 0 0.70511648071260424 19.834370523400139 0 0 0 0 -12.300826882959882 5.6300359072047286 0 5.6300359072047286 3.2945670400404197 0 0 0 0 -28.191312531555013 0.85767526329073007 0 0.85767526329073007 58.422049321852683 0 0 0 0 -19.643270493505952 -27.031548772140013 0 -27.031548772140013 -11.220103943924187 0 0 0 0 -19.021424334157018 -9.7624347645105445 0 -9.7624347645105445 -33.312262864747026 0 0 0 0 -3.7183125894671321 -34.363418619251206 0 -34.363418619251206 -63.2453137680277 0 0 0 0 -6.0998041629744435 -5.3654767816559144 0 -5.3654767816559144 11.857747978480894 0 0 0 0 -7.9015364688351823 -4.4250443775696517 0 -4.4250443775696517 7.7024568890252425 0 0 0 0 -1.2556954977444548 -37.00805399253295 0 -37.00805399253295 -6.9085902218137107 0 0 0 0 -0.71876240459230445 0.45233152711535496 0 0.45233152711535496 1.3477845018831616 0 0 0 0 -3.5765492465955049 -38.140378653167772 0 -38.140378653167772 48.774328355182661 0 0 0 0 0.044959275624705697 -2.1079434494449742 0 -2.1079434494449742 22.529473411123035 0 0 0 0 8.9881405530786651 -7.6381352935604809 0 -7.6381352935604809 22.514861002800899 0 0 0 0 -0.36189459679201386 -1.8115626227163208 0 -1.8115626227163208 12.71265126011636 0 0 0 0 22.364039576445975 28.320294647412084 0 28.320294647412084 -11.617065785569139 0 0 0 0 -0.23191784780842006 0.20807516851903074 0 0.20807516851903074 4.6616511495009902 0 0 0 0 19.011005230799128 8.8877499496502423 0 8.8877499496502423 -34.111672777682543 0 0 0 0 1.5109866242919452 1.3403188390893774 0 1.3403188390893774 -3.2756965223234147 0 0 0 0 55.765945131263038 1.2210168914898532 0 1.2210168914898532 12.071558619200914 0 0 0 0 93.663365684759412 -58.154839160018128 0 -58.154839160018128 19.092516615557543 0 0 0 0 -48.131394222330982 5.4374149513791963 0 5.4374149513791963 41.133699063713721 0 0 0 0 -15.348101233479724 -10.115316246157818 0 -10.115316246157818 9.9508303987167892 0 0 0 0 -20.413636694086961 -19.730203165997409 0 -19.730203165997409 50.593430362496292 0 0 0 0 31.795411015787295 -20.784901424922282 0 -20.784901424922282 10.172139595182671 0 0 0 0 26.936518759223191 -33.012722839193884 0 -33.012722839193884 81.389553132834408 0 0 0 0 -54.268132416220624 -16.28673929505203 0 -16.28673929505203 45.019401805748203 0 0 0 0 -25.822195768802885 -49.549362478945113 0 -49.549362478945113 48.245591746308492 0 0 0 0 157.66129209024376 8.5965713228633831 0 8.5965713228633831 18.943335982206918 0 0 0 0 16.083892080675355 -2.6124465625398443 0 -2.6124465625398443 -47.068084844409896 0 0 0 0 34.909436715863649 49.299479183726362 0 49.299479183726362 56.679469863429404 0 0 0 0 0.12125503295080042 1.8494578716310599 0 1.8494578716310599 2.709679622727549 0 0 0 0 -98.239089561686313 133.80368956463553 0 133.80368956463553 -26.175517927600595 0 0 0 0 32.712961371268193 -20.698746810092416 0 -20.698746810092416 -20.685201460895769 0 0 0 0 -1.3755091523047387 -0.42991345867033459 0 -0.42991345867033459 4.9237484174015265 0 0 0 0 -62.568014037628245 49.374851802522244 0 49.374851802522244 0.038246630634603207 0 0 0 0 -17.493484423388281 -14.863277563144948 0 -14.863277563144948 10.218285532751906 0 0 0 0 -48.485802346314586 6.152753497224694 0 6.152753497224694 26.240285781660532 0 0 0 0 -0.079171001506426975 -0.14968606453740407 0 -0.14968606453740407 9.9776544595305694 0 0 0 0 -17.029570168046462 43.317238530184113 0 43.317238530184113 67.734361838896803 0 0 0 0 67.674811714142379 36.865269642161365 0 36.865269642161365 -18.229868774269562 0 0 0 0 29.641680136734976 -2.8277864400079125 0 -2.8277864400079125 27.929146574262631 0 0 0 0 60.247429265160008 -177.38916246864392 0 -177.38916246864392 213.29081295154901 0 0 0 0 -0.026651951085602366 -0.70650447492429458 0 -0.70650447492429458 4.0403790470662813 0 0 0 0 -16.36459707276282 -73.404611509014785 0 -73.404611509014785 145.38971694915381 0 0 0 0 -50.064028958788356 42.214672567036814 0 42.214672567036814 297.85048500519406 0 0 0 0 -11.627889633838379 -107.28018711662003 0 -107.28018711662003 349.11438627699317 0 0 0 0 -36.114876584256535 -82.07849211993107 0 -82.07849211993107 402.58586617468609 0 0 0 0 6.0174812116058547 -23.005953459356533 0 -23.005953459356533 164.96611406502598 0 0 0 0 -26.329975408097056 -10.375194021398784 0 -10.375194021398784 127.18084569063649 0 0 0 0 -30.042499069222458 81.400911914874087 0 81.400911914874087 369.05920331700099 0 0 0 0 66.949072431639351 97.182189042374148 0 97.182189042374148 119.59455736947712 0 0 0 0 34.317001054193724 -7.6784913259459699 0 -7.6784913259459699 140.15495114762598 0 0 0 0 53.861074942009509 -20.023380337924209 0 -20.023380337924209 134.29348377463248 0 0 0 0 -10.582957123886445 56.758250635062723 0 56.758250635062723 345.61015923410662 0 0 0 0 -49.210492798388259 -97.630270203477266 0 -97.630270203477266 -38.402370061211514 0 0 0 0 -60.930073410969271 85.887391249259963 0 85.887391249259963 343.90660596212547 0 0 0 0 5.6447157049748782 -4.8032211781582319 0 -4.8032211781582319 2.1046251245911094 0 0 0 0 -97.058187670500047 -53.484473061658719 0 -53.484473061658719 71.462431179866599 0 0 0 0 2.8221770389329777 12.790136725590855 0 12.790136725590855 -22.896847954267287 0 0 0 0 96.8387164024507 6.2788797577559308 0 6.2788797577559308 176.83145375304593 0 0 0 0 48.262632165122341 -179.20068359094148 0 -179.20068359094148 268.63929589871987 0 0 0 0 10.358532502917569 137.23384693850494 0 137.23384693850494 574.57283918402754 0 0 0 0 47.34237805538487 -197.94823488981274 0 -197.94823488981274 -109.38114135411979 0 0 0 0 1.9765616733417204 -1.4661208961585999 0 -1.4661208961585999 1.566883651243927 0 0 0 0 73.479424841382638 -161.68050794078863 0 -161.68050794078863 224.7434236753943 0 0 0 0 138.87874594330651 47.15742733443949 0 47.15742733443949 44.558338492523035 0 0 0 0 11.734801152612135 -5.6810642786558674 0 -5.6810642786558674 311.9386936610972 0 0 0 0 38.254531798632001 -45.087354283524292 0 -45.087354283524292 -28.294110704013292 0 0 0 0 35.693837564647765 -7.9388527601877286 0 -7.9388527601877286 -12.632015677448635 0 0 0 0 80.980966831830301 -111.23360197144302 0 -111.23360197144302 -42.499982891848049 0 0 0 0 -69.052063858367546 -33.333432111457114 0 -33.333432111457114 191.61894522933653 0 0 0 0 -1.2824664470748353 -15.105497252157829 0 -15.105497252157829 44.019482403402684 0 0 0 0 -74.079845864088384 -124.44324107231023 0 -124.44324107231023 27.781202742400637 0 0 0 0 3.5721643825827911 -17.385879717624903 0 -17.385879717624903 31.020870640335396 0 0 0 0 -8.9008702534429176 -33.126857505703811 0 -33.126857505703811 32.914063923821232 0 0 0 0 -79.81318090997047 -153.8767694722028 0 -153.8767694722028 -46.498289324084453 0 0 0 0 -8.5016036235949528 -1.5367871594632625 0 -1.5367871594632625 19.354469132042141 0 0 0 0 -0.49164263219038951 -18.952411393515426 0 -18.952411393515426 28.246950152590113 0 0 0 0 -3.1617531523684193 3.4413089467830105 0 3.4413089467830105 129.22343093133304 0 0 0 0 12.701303245617964 17.433045146957966 0 17.433045146957966 2.5660495891750941 0 0 0 0 -81.99650594414743 -39.402133328061609 0 -39.402133328061609 -12.467442606983241 0 0 0 0 0.21473276552605736 0.15395276283613057 0 0.15395276283613057 -0.57600544034767154 0 0 0 0 1.438570599922059 -2.2375982912053587 0 -2.2375982912053587 -39.79994269675808 0 0 0 0 26.714176705941554 -85.481241489556851 0 -85.481241489556851 -75.437324409444045 0 0 0 0 67.584138088718646 28.719918491447061 0 28.719918491447061 -0.25720626766269561 0 0 0 0 15.036599829626539 -34.446882483451191 0 -34.446882483451191 -8.7277525840700036 0 0 0 0 35.520131342838795 -47.795749176696518 0 -47.795749176696518 -81.775582362242858 0 0 0 0 -73.474402569381709 -47.207163410548674 0 -47.207163410548674 83.930289238138357 0 0 0 0 -0.010333777781474041 -5.334009753489882 0 -5.334009753489882 -5.172323994413631 0 0 0 0 -2.1277146118218297 -42.774241052737125 0 -42.774241052737125 -43.789137760512403 0 0 0 0 -2.6434963225835162 -16.534725995777414 0 -16.534725995777414 31.128868034424116 0 0 0 0 3.2104077132844395 12.115954934721231 0 12.115954934721231 -46.163452202130429 0 0 0 0 -10.650963274494643 -34.244371451899497 0 -34.244371451899497 36.616553539734468 0 0 0 0 -10.238691406812904 -1.5823023021084737 0 -1.5823023021084737 36.249149250385017 0 0 0 0 27.507988693833795 44.990093180895428 0 44.990093180895428 44.621662701858952 0 0 0 0 -18.532865324430531 -11.13409533468473 0 -11.13409533468473 59.567677884905606 0 0 0 0 -14.237060684862627 -22.015536096070718 0 -22.015536096070718 23.410514763489118 0 0 0 0 0.64366315056122403 -25.778478679063028 0 -25.778478679063028 22.644445470214123 0 0 0 0 -0.820237479192782 -10.947789419184399 0 -10.947789419184399 31.969413911524516 0 0 0 0 -3.4877878544782535 -10.314854853270512 0 -10.314854853270512 17.95793659964729 0 0 0 0 25.095923517753363 100.45203030747666 0 100.45203030747666 152.43677590449528 0 0 0 0 57.808535751616546 27.178804975341336 0 27.178804975341336 63.87803755396294 0 0 0 0 2.8223497302408873 -3.5517574244098831 0 -3.5517574244098831 3.6684557778391618 0 0 0 0 -59.657636793809615 27.243471018688297 0 27.243471018688297 91.331364658700295 0 0 0 0 -75.245298947001174 -65.295100358977038 0 -65.295100358977038 56.694049088777774 0 0 0 0 19.772425899373047 -8.3773203316663967 0 -8.3773203316663967 11.760927375487881 0 0 0 0 1.3444363232192167 -13.499063496589985 0 -13.499063496589985 34.069802080143056 0 0 0 0 -13.727053615043133 -6.0431086744774802 0 -6.0431086744774802 104.88532639189907 0 0 0 0 20.297535616664391 -81.057219397354402 0 -81.057219397354402 -99.229272797730118 0 0 0 0 4.8740891638679891 -5.8940677232313554 0 -5.8940677232313554 5.4279049831560844 0 0 0 0 2.8107266384349714 59.175663413701614 0 59.175663413701614 107.88011657560826 0 0 0 0 -90.377215683549366 -16.357282851377249 0 -16.357282851377249 14.89986008894698 0 0 0 0 27.365151239148645 -117.74842303572632 0 -117.74842303572632 -126.82077674545508 0 0 0 0 -8.0733095341361754 -22.62128921012734 0 -22.62128921012734 29.741924566252813 0 0 0 0 5.1004452574379684 -113.21161183034928 0 -113.21161183034928 -59.228286886569549 0 0 0 0 -65.641186897749776 -50.649962052160845 0 -50.649962052160845 95.116080234020046 0 0 0 0 -49.945890064081141 -6.4785394325053858 0 -6.4785394325053858 76.53146680421105 0 0 0 0 -39.400074709351429 -71.729542368413604 0 -71.729542368413604 243.23751114254628 0 0 0 0 42.109652961657503 15.654801122159711 0 15.654801122159711 27.094532378587246 0 0 0 0 -21.306503246776629 10.474160842170932 0 10.474160842170932 -31.689053951296955 0 0 0 0 -5.9108442786363522 -13.472451580875621 0 -13.472451580875621 18.804687130142085 0 0 0 0 5.2488260542880489 -6.0998487744750367 0 -6.0998487744750367 22.937176628473591 0 0 0 0 -65.682889647296406 -31.955245485882187 0 -31.955245485882187 45.632840676867545 0 0 0 0 -23.004316366937019 -42.707975288432863 0 -42.707975288432863 -3.7656017438039271 0 0 0 0 8.0311004192478777 12.897559667751523 0 12.897559667751523 48.373074674252393 0 0 0 0 -16.671741647183183 -18.418497899608319 0 -18.418497899608319 30.405294302484297 0 0 0 0 6.1153348445474229 -7.0802412309484755 0 -7.0802412309484755 10.888808073102574 0 0 0 0 -66.861071347944744 -34.189118122016225 0 -34.189118122016225 40.967557484478675 0 0 0 0 -4.2335171263324316 -6.6986293232911756 0 -6.6986293232911756 11.866645082307045 0 0 0 0 -14.580927035514016 -24.72043175660222 0 -24.72043175660222 45.402812257517127 0 0 0 0 -17.938102081458055 -77.332141831512672 0 -77.332141831512672 126.73286437046124 0 0 0 0 -9.4882097557383531 -28.158139087931886 0 -28.158139087931886 87.446310104079203 0 0 0 0 -2.4168756632125223 43.276012060706307 0 43.276012060706307 98.359819174572749 0 0 0 0 -12.383338298678492 -11.013665730761845 0 -11.013665730761845 44.312564056042156 0 0 0 0 -1.1415967691589728 1.3852515693450318 0 1.3852515693450318 6.9009829573235084 0 0 0 0 -5.4228412243355706 -22.397296460145299 0 -22.397296460145299 72.639245613847152 0 0 0 0 -10.765554228811197 -49.977658360307942 0 -49.977658360307942 50.391848054237926 0 0 0 0 -8.4103331664182406 -31.390618100392203 0 -31.390618100392203 50.923508031399251 0 0 0 0 -17.367647286147076 -49.209671501541379 0 -49.209671501541379 75.280115912257315 0 0 0 0 32.55869623783201 -104.22929895764082 0 -104.22929895764082 225.35139739516489 0 0 0 0 2.8826761702124344 1.7078284846188296 0 1.7078284846188296 -1.8648220584680431 0 0 0 0 -2.9135648698538716 65.70956259315426 0 65.70956259315426 190.38237508558132 0 0 0 0 -13.658598067303501 26.311992759022246 0 26.311992759022246 73.926970620963402 0 0 0 0 -38.561355648292192 5.5790713956839681 0 5.5790713956839681 124.81345405274169 0 0 0 0 -16.107418606237843 88.412522679566791 0 88.412522679566791 202.54863121472226 0 0 0 0 79.297159690117041 31.187394327461334 0 31.187394327461334 180.49811376021898 0 0 0 0 -62.463228192383667 113.05770622043565 0 113.05770622043565 52.170725303296422 0 0 0 0 -52.398913183157674 46.500707747910383 0 46.500707747910383 210.25050822377489 0 0 0 0 -14.655621184127995 27.905837158560644 0 27.905837158560644 210.72060784869609 0 0 0 0 44.571767035027733 29.383173687188901 0 29.383173687188901 123.69504636087004 0 0 0 0 -34.071489934256078 54.333213089564197 0 54.333213089564197 185.84323259888151 0 0 0 0 -9.8086139923752853 64.688656460027232 0 64.688656460027232 129.69871121878714 0 0 0 0 -52.274268578870988 59.734387222651321 0 59.734387222651321 73.921209324258598 0 0 0 0 -71.291881366098551 118.02170918305819 0 118.02170918305819 -58.043092827037981 0 0 0 0 16.179455807789054 33.893080522977471 0 33.893080522977471 -0.8737974173764087 0 0 0 0 13.706516059200112 46.644043018249249 0 46.644043018249249 45.134900116854624 0 0 0 0 2.637974221524928 19.324972267724661 0 19.324972267724661 100.15877287480816 0 0 0 0 -0.31752338365038213 61.573461350604816 0 61.573461350604816 111.11143784735032 0 0 0 0 19.260845402483028 57.100741074584221 0 57.100741074584221 73.756445653893024 0 0 0 0 21.832303398292424 34.893083744294017 0 34.893083744294017 53.486340443278095 0 0 0 0 -13.612724530401465 24.788355033188054 0 24.788355033188054 123.18001837498196 0 0 0 0 -17.663270141738394 29.51797279202583 0 29.51797279202583 81.588951648363945 0 0 0 0 -3.0888067522467963 44.579491329179632 0 44.579491329179632 63.065100565165267 0 0 0 0 -10.322171924805843 20.980487322119188 0 20.980487322119188 44.990268352446947 0 0 0 0 -1.0610199518512218 31.475645266771267 0 31.475645266771267 45.258396354278375 0 0 0 0 19.585556638862499 40.823183860886729 0 40.823183860886729 29.53011122465432 0 0 0 0 17.703882563819207 47.459517767203579 0 47.459517767203579 32.372952261561295 0 0 0 0 8.1049394438496165 13.165234703677925 0 13.165234703677925 47.657547629749388 0 0 0 0 0.21684653103483242 -1.4688267931594403 0 -1.4688267931594403 -0.74245951278435185 0 0 0 0 4.6414640067641812 20.128492494921375 0 20.128492494921375 109.09310926856233 0 0 0 0 15.764856346962915 27.266896122000617 0 27.266896122000617 -13.283152316740598 0 0 0 0 10.319097969924769 8.5348895036249814 0 8.5348895036249814 47.010565800500444 0 0 0 0 24.494541019427743 17.570224251026502 0 17.570224251026502 36.360892960361525 0 0 0 0 -3.8294088083202951 3.4855697316875194 0 3.4855697316875194 33.576756225913414 0 0 0 0 9.9888189570738177 11.263163476630325 0 11.263163476630325 33.621753954677843 0 0 0 0 -24.443087675343122 7.718089027869155 0 7.718089027869155 12.055115967683378 0 0 0 0 -17.722443990007378 19.690158083017195 0 19.690158083017195 32.769299938797985 0 0 0 0 -25.717634458136445 14.602007645605681 0 14.602007645605681 28.496007419827947 0 0 0 0 -34.180748811064063 39.495327315457871 0 39.495327315457871 9.7581611568912194 0 0 0 0 5.6244439494894323 21.543612871640107 0 21.543612871640107 19.981835114695969 0 0 0 0 -70.432748225428099 -7.6442848803116874 0 -7.6442848803116874 13.622003794263946 0 0 0 0 -17.461972397063619 -2.8174909474146261 0 -2.8174909474146261 36.103411034579665 0 0 0 0 -17.409719248366976 2.2968759649204813 0 2.2968759649204813 29.897318594136252 0 0 0 0 -15.19546766467727 -3.1141004622632948 0 -3.1141004622632948 40.535770842940245 0 0 0 0 5.0860062190083681 -14.581985304719183 0 -14.581985304719183 32.656346176539955 0 0 0 0 6.228008488462752 -9.0463544037313071 0 -9.0463544037313071 14.794754692430296 0 0 0 0 -8.7920088545522272 1.6838502407516458 0 1.6838502407516458 26.128782787699208 0 0 0 0 -0.76942295951630513 -2.5610577918673698 0 -2.5610577918673698 41.634113499592786 0 0 0 0 1.4180994468915742 -5.2873691716667963 0 -5.2873691716667963 33.864099934711703 0 0 0 0 -4.6325802287360798 -5.020310739426991 0 -5.020310739426991 30.20406849564349 0 0 0 0 -3.8939488451104509 4.0639076827233609 0 4.0639076827233609 39.353401961860804 0 0 0 0 -3.4017088037596719 1.4757913343211229 0 1.4757913343211229 36.771899088286304 0 0 0 0 -79.362116472409525 -187.69851292644103 0 -187.69851292644103 179.81883299871697 0 0 0 0 59.038706280038241 83.310425080003824 0 83.310425080003824 87.31193197294715 0 0 0 0 -1.435165756913511 -0.62125516866225183 0 -0.62125516866225183 5.8642780950249254 0 0 0 0 4.2928691794804763 41.341677507871282 0 41.341677507871282 198.12292511094483 0 0 0 0 2.5738734402468744 14.261250305573006 0 14.261250305573006 53.396387458225114 0 0 0 0 8.0100216972195994 52.172996321916571 0 52.172996321916571 47.97874711699842 0 0 0 0 1.5166103541487246 81.488061075913265 0 81.488061075913265 83.116375166950547 0 0 0 0 4.3448758935664955 6.7159032427880447 0 6.7159032427880447 55.471518891785877 0 0 0 0 -10.527306018680974 14.373531565315261 0 14.373531565315261 73.225088499197227 0 0 0 0 0.27830092371963389 0.18485244175618476 0 0.18485244175618476 11.739838789664647 0 0 0 0 1.3446407965057006 19.869223423889707 0 19.869223423889707 47.796776101069895 0 0 0 0 42.541468276229352 15.213985399361945 0 15.213985399361945 6.0224816349891626 0 0 0 0 -44.466766539224409 42.898441277065103 0 42.898441277065103 66.208949982185004 0 0 0 0 -4.6112501687239273 9.4401719594658502 0 9.4401719594658502 37.710153065506731 0 0 0 0 31.402468404703541 8.6629856292138356 0 8.6629856292138356 13.925564701513395 0 0 0 0 -7.2777321145362794 4.406645174608375 0 4.406645174608375 35.713690007929152 0 0 0 0 -18.263730920034504 3.9307406790696859 0 3.9307406790696859 30.709047152254783 0 0 0 0 4.7958687068003201 12.532394287943589 0 12.532394287943589 62.491191061428253 0 0 0 0 -3.0641262738633195 9.1098626927095907 0 9.1098626927095907 41.536280632813934 0 0 0 0 -5.9065109717994346 18.660895226774301 0 18.660895226774301 70.879921068582917 0 0 0 0 -9.1897425427068811 25.325761135915855 0 25.325761135915855 61.216419351145305 0 0 0 0 -17.360228198547702 29.189506921317843 0 29.189506921317843 79.775427842840145 0 0 0 0 -76.993306344013718 -73.137212562534472 0 -73.137212562534472 -95.55871559705497 0 0 0 0 -8.4015290029389131 8.4610162722352769 0 8.4610162722352769 51.535632365025236 0 0 0 0 -8.2267707997360286 -7.2586374697429772 0 -7.2586374697429772 35.948498679702489 0 0 0 0 -20.645549416150971 23.428271907457201 0 23.428271907457201 69.696925641726921 0 0 0 0 -27.793341466081074 -10.450638304071163 0 -10.450638304071163 35.482771897466591 0 0 0 0 -36.075243624861287 -10.588906050542846 0 -10.588906050542846 52.576045711255574 0 0 0 0 -40.972159416755858 0.7864375932058465 0 0.7864375932058465 63.535971146805423 0 0 0 0 -4.0828223568270579 -2.5375356549220101 0 -2.5375356549220101 46.155451478375298 0 0 0 0 -20.233054550852103 3.3932164326151906 0 3.3932164326151906 40.812130018297296 0 0 0 0 -14.400521946662593 -12.576767962074427 0 -12.576767962074427 43.919454726838012 0 0 0 0 -6.4344513273150827 -1.970826479774324 0 -1.970826479774324 51.108492567130895 0 0 0 0 -44.976049842372504 -26.383163520367816 0 -26.383163520367816 86.382744813294266 0 0 0 0 -22.850169807336897 1.5587750424674596 0 1.5587750424674596 50.977099421362482 0 0 0 0 -23.709071543631126 -14.580149733497819 0 -14.580149733497819 47.255466054895805 0 0 0 0 -10.00353197993627 8.9124892536801781 0 8.9124892536801781 44.717262263688781 0 0 0 0 2.8871404213596179 -7.3902336799064869 0 -7.3902336799064869 59.441358307343762 0 0 0 0 -16.181432970275637 1.2266128429268974 0 1.2266128429268974 81.587712376625859 0 0 0 0 4.1742775219036048 15.301697807830351 0 15.301697807830351 74.873992571679992 0 0 0 0 -26.712805239352747 7.3865470462405938 0 7.3865470462405938 75.370471969548817 0 0 0 0 -16.489806187317981 -0.85421018594570342 0 -0.85421018594570342 67.94580429510097 0 0 0 0 -2.1929984552554673 4.9350699510221823 0 4.9350699510221823 42.539878038471599 0 0 0 0 -56.453987730354129 2.0591795659529453 0 2.0591795659529453 36.963067063392373 0 0 0 0 -34.60222708706533 10.260550442724707 0 10.260550442724707 64.935301057739707 0 0 0 0 -42.571866747826675 1.6552523039244988 0 1.6552523039244988 71.819667739560828 0 0 0 0 -4.9675526917001438 -6.3184385175599651 0 -6.3184385175599651 31.9697345711918 0 0 0 0 -28.15751233433366 3.419738437198248 0 3.419738437198248 65.172325235009339 0 0 0 0 -39.458749620403296 7.0099596451227626 0 7.0099596451227626 69.30556412567239 0 0 0 0 -4.8611192235186298 0.90475713371570432 0 0.90475713371570432 60.252347246447854 0 0 0 0 -3.9742810230773191 7.8545896922883802 0 7.8545896922883802 3.4801349352226723 0 0 0 0 -313.44874377413112 -263.45405438723378 0 -263.45405438723378 94.648133907652664 0 0 0 0 -20.521127574872764 201.68767062424752 0 201.68767062424752 54.37409058450794 0 0 0 0 -6.4143959349330544 15.120715002456564 0 15.120715002456564 63.378724255056113 0 0 0 0 -15.876907360194309 2.9155820991672954 0 2.9155820991672954 49.588578587412485 0 0 0 0 -14.054977024085929 1.6841419416377903 0 1.6841419416377903 66.338390829885611 0 0 0 0 -46.810777276743465 -16.995560701639988 0 -16.995560701639988 67.744610230804483 0 0 0 0 -10.116139302496961 -4.2178855206769876 0 -4.2178855206769876 59.623297994671439 0 0 0 0 -115.15775017623082 448.69072835664338 0 448.69072835664338 374.99179076963719 0 0 0 0 -215.47115502595852 21.616139805641296 0 21.616139805641296 512.74827720139569 0 0 0 0 157.95918726418404 -102.5665562140814 0 -102.5665562140814 -107.96991975790991 0 0 0 0 54.551090417244268 -70.309713890084822 0 -70.309713890084822 -42.990815239831136 0 0 0 0 181.63073756933045 245.21139169598746 0 245.21139169598746 -16.472794938849347 0 0 0 0 97.37097645440781 -114.20198473237156 0 -114.20198473237156 -56.036090329198487 0 0 0 0 5.1221947561444381 -4.2363499824344366 0 -4.2363499824344366 2.9972786620903715 0 0 0 0 2.8595829887390209 -386.78463548743684 0 -386.78463548743684 -129.60446097023259 0 0 0 0 117.25841489447703 -182.02160254830187 0 -182.02160254830187 -84.113351790201705 0 0 0 0 -56.996371866615846 -191.70456078697543 0 -191.70456078697543 -22.518654179304576 0 0 0 0 -142.49003729556352 -96.399829251147821 0 -96.399829251147821 126.45445125407423 0 0 0 0 0.70722555879819993 -114.96923283230444 0 -114.96923283230444 48.523440647619282 0 0 0 0 0.069180044163658749 -98.87328111007082 0 -98.87328111007082 -21.589046911823971 0 0 0 0 -138.86631129449233 -44.386017526097021 0 -44.386017526097021 45.042661700539611 0 0 0 0 170.80879303641814 -16.862072597321912 0 -16.862072597321912 -51.545909974816368 0 0 0 0 87.837517828116688 -167.49215594796237 0 -167.49215594796237 -8.941794739510442 0 0 0 0 -1.6184295020233854 0.81023079905888729 0 0.81023079905888729 6.796781260897709 0 0 0 0 2.8366478697504292 -11.980627945060451 0 -11.980627945060451 -9.4501103978143028 0 0 0 0 -37.15461781781778 -79.255474812032844 0 -79.255474812032844 71.89545842240841 0 0 0 0 7.5632856078108546 -11.946972616012836 0 -11.946972616012836 17.144209564248371 0 0 0 0 -93.68139832180168 -3.4510355115040738 0 -3.4510355115040738 58.404723018222285 0 0 0 0 -13.176790261835777 35.734021170224878 0 35.734021170224878 185.57745935348248 0 0 0 0 -124.93821285220292 -11.826076213351371 0 -11.826076213351371 252.65991993144598 0 0 0 0 -8.0482729095601826 -16.369412805623142 0 -16.369412805623142 -80.698139964377333 0 0 0 0 -52.400023416546901 33.124707983235567 0 33.124707983235567 -31.854934226510522 0 0 0 0 -49.546875268373697 -7.6161703224752273 0 -7.6161703224752273 49.048461237242009 0 0 0 0 -89.294589084351628 22.809487173928801 0 22.809487173928801 26.318484676317894 0 0 0 0 -49.483753734113634 4.4215853648856864 0 4.4215853648856864 45.703134819756087 0 0 0 0 -15.254037440168759 -2.8207613209269766 0 -2.8207613209269766 35.368521147895081 0 0 0 0 -28.113488282640446 3.6575648555849511 0 3.6575648555849511 32.960655789771408 0 0 0 0 -6.0377390832290985 -2.1653521035696031 0 -2.1653521035696031 17.279511419843402 0 0 0 0 -45.420526132151281 11.070677583142242 0 11.070677583142242 21.132027372632365 0 0 0 0 -28.08288392884424 3.7208656360962777 0 3.7208656360962777 24.09787703766051 0 0 0 0 -12.939652177752578 -1.5961585356744763 0 -1.5961585356744763 -30.54223748277218 0 0 0 0 1.9983272559948091 -43.039859442034867 0 -43.039859442034867 -10.19967228963651 0 0 0 0 -4.6905179092391336 -53.498714511431899 0 -53.498714511431899 7.8307653081164972 0 0 0 0 -9.808799087344596 -53.548392798589703 0 -53.548392798589703 26.842487724446983 0 0 0 0 -11.340475170507716 -13.762254592738373 0 -13.762254592738373 28.511466205396573 0 0 0 0 -10.956515089943423 -28.971674446245743 0 -28.971674446245743 9.6834719065918762 0 0 0 0 -13.170648403455289 -17.986452600606981 0 -17.986452600606981 69.625378707423806 0 0 0 0 -14.269778676520218 -59.484965526207816 0 -59.484965526207816 18.966324799139329 0 0 0 0 -32.530756555361222 -55.945271488531944 0 -55.945271488531944 49.07172216042818 0 0 0 0 -3.6826623714350717 10.912913546451819 0 10.912913546451819 147.53835695373618 0 0 0 0 29.687483257450367 -2.5088156695528596 0 -2.5088156695528596 33.218963622362935 0 0 0 0 27.948379891795071 -28.755931372166344 0 -28.755931372166344 27.426812157693348 0 0 0 0 -4.3784098576761608 -11.055307849459496 0 -11.055307849459496 34.026340987737058 0 0 0 0 -14.253242329720251 -8.0717283931705879 0 -8.0717283931705879 37.316714106389554 0 0 0 0 2.5202277628468437 -5.135007027138272 0 -5.135007027138272 28.821589878534724 0 0 0 0 5.7497246155011226 -24.262173896803006 0 -24.262173896803006 43.782401979653514 0 0 0 0 -7.4436338878699146 -24.161202834107598 0 -24.161202834107598 47.40116823162316 0 0 0 0 -10.170776404846947 -13.76281264375848 0 -13.76281264375848 37.5909200855167 0 0 0 0 -13.590779483749429 -10.329825588240055 0 -10.329825588240055 41.517067431705073 0 0 0 0 -18.272142749279737 -7.0484407435324101 0 -7.0484407435324101 40.456217478196777 0 0 0 0 -18.714208235465776 -4.5789872837267467 0 -4.5789872837267467 37.683183988267956 0 0 0 0 -2.8659103665950743 -10.914265035158639 0 -10.914265035158639 1.5202330170946681 0 0 0 0 -28.975018286827321 15.326116498613601 0 15.326116498613601 35.999300792496797 0 0 0 0 -15.940666082238749 -19.873376177074533 0 -19.873376177074533 48.952425126190064 0 0 0 0 -41.917487104434258 -19.647270268462307 0 -19.647270268462307 56.642918932178873 0 0 0 0 -31.548805309719683 -23.273561777037685 0 -23.273561777037685 52.726242287666537 0 0 0 0 -31.726885005282384 -14.339434247409372 0 -14.339434247409372 55.444336860564363 0 0 0 0 -30.065345069466275 -15.64727317314464 0 -15.64727317314464 47.848855748889036 0 0 0 0 -28.985632775547856 2.0889474711111689 0 2.0889474711111689 37.185853693686113 0 0 0 0 -17.640950847747263 -9.3855598825402922 0 -9.3855598825402922 43.766111095916131 0 0 0 0 -19.053387078019114 -6.4763681414842722 0 -6.4763681414842722 42.885517331909796 0 0 0 0 -35.751964425556253 -7.0356718400271347 0 -7.0356718400271347 54.80317992172786 0 0 0 0 -77.832579721211005 -20.570643434761223 0 -20.570643434761223 76.381297309408183 0 0 0 0 -36.043043801650356 -42.560249889449551 0 -42.560249889449551 77.484358443984092 0 0 0 0 3.472518453718294 -43.788731464410375 0 -43.788731464410375 33.028223122223608 0 0 0 0 -3.5286051027669707 -1.122069698908696 0 -1.122069698908696 0.11205093222855567 0 0 0 0 -30.011670122033138 5.5658139537590614 0 5.5658139537590614 51.943632606448773 0 0 0 0 -17.038637122169405 -0.21158698949329846 0 -0.21158698949329846 56.262393842931488 0 0 0 0 -12.155160522559717 -4.8768328606534581 0 -4.8768328606534581 28.126543734107678 0 0 0 0 -7.2078362583255551 -6.4373254841187881 0 -6.4373254841187881 55.02293362469608 0 0 0 0 -136.91551192016743 -57.364185388038095 0 -57.364185388038095 111.87964447442755 0 0 0 0 155.78554908095612 9.2433973741481168 0 9.2433973741481168 38.086187324957791 0 0 0 0 87.892248488989026 -247.46001062469441 0 -247.46001062469441 167.84688072212703 0 0 0 0 22.861910462113457 -39.890367742388207 0 -39.890367742388207 42.2109232783896 0 0 0 0 19.941377090744936 -29.4665242490737 0 -29.4665242490737 30.083796041197274 0 0 0 0 6.4028653378773015 -20.68203337986597 0 -20.68203337986597 24.536855243648461 0 0 0 0 -0.4815542274134339 -15.551429082105155 0 -15.551429082105155 31.979422625317333 0 0 0 0 2.9266431948317404 -25.183726883563395 0 -25.183726883563395 44.424952800762185 0 0 0 0 -41.903148481920638 -14.991544244483521 0 -14.991544244483521 47.503241149432142 0 0 0 0 -0.79543206724689797 -0.35955590582544872 0 -0.35955590582544872 26.666689544948866 0 0 0 0 -5.7963231666538775 -9.036132417682893 0 -9.036132417682893 40.276474545669771 0 0 0 0 -9.0560327216882399 -13.349658472110605 0 -13.349658472110605 35.077425124814908 0 0 0 0 -20.870436988233671 -14.093948317991362 0 -14.093948317991362 41.53368500751094 0 0 0 0 -4.42744363394569 -4.4009673829846463 0 -4.4009673829846463 26.662132050823899 0 0 0 0 -0.66706609648753012 -3.1127785789892926 0 -3.1127785789892926 23.71952342975149 0 0 0 0 -16.657276358910167 -4.2498955583960196 0 -4.2498955583960196 42.162268923839292 0 0 0 0 -3.2475441335968753 -1.8988241061488225 0 -1.8988241061488225 20.113746293149234 0 0 0 0 8.1637912243950268 -5.9027874101229827 0 -5.9027874101229827 18.709769911754847 0 0 0 0 -39.351521675969934 137.96204018750814 0 137.96204018750814 347.68542547023389 0 0 0 0 72.234927903703465 -213.59594030982498 0 -213.59594030982498 94.073514725983841 0 0 0 0 116.12797732501713 -148.44264483270672 0 -148.44264483270672 112.56421411710471 0 0 0 0 -2.3819854873327131 4.6407200338435359 0 4.6407200338435359 14.081049413462097 0 0 0 0 -12.775257371865337 73.883465239250654 0 73.883465239250654 71.596732156540384 0 0 0 0 -5.264562434026514 5.8687072179566897 0 5.8687072179566897 17.919143315792653 0 0 0 0 -16.848854218096676 -105.8330670233554 0 -105.8330670233554 52.676478944151313 0 0 0 0 -133.143633032465 -138.06629312064615 0 -138.06629312064615 105.40532228632946 0 0 0 0 -3.5467515160926855 8.0111325501661952 0 8.0111325501661952 2.8344423734633892 0 0 0 0 42.302410846157727 -59.306787158748193 0 -59.306787158748193 15.987346645131765 0 0 0 0 1.1909761697461363 -45.983246117801173 0 -45.983246117801173 70.51567359699402 0 0 0 0 -31.631755963047908 -73.310115932312328 0 -73.310115932312328 114.94095378779457 0 0 0 0 21.228927007878156 -70.150138285396679 0 -70.150138285396679 46.560717283398844 0 0 0 0 -0.17586688817391405 -85.75136068345455 0 -85.75136068345455 66.755822938408528 0 0 0 0 7.6607814083981793 -48.48597674316261 0 -48.48597674316261 30.234382367227226 0 0 0 0 129.2139151986039 -68.026824819258763 0 -68.026824819258763 -7.4587998401766527 0 0 0 0 8.2237268783351283 -23.13659460337476 0 -23.13659460337476 1.9051286244139192 0 0 0 0 114.77080842288066 -79.654306214269241 0 -79.654306214269241 7.5452112838829635 0 0 0 0 17.018934438585347 -66.314605423613102 0 -66.314605423613102 58.232810051827983 0 0 0 0 -35.340372831412765 87.572648229186598 0 87.572648229186598 -26.328481864100468 0 0 0 0 6.4615006803878714 0.16354431128274882 0 0.16354431128274882 -17.318520177599567 0 0 0 0 -3.3085102985888613 4.1964139125016402 0 4.1964139125016402 -3.1039594155322305 0 0 0 0 16.469684380145843 -11.897515458316548 0 -11.897515458316548 0.72342384068914711 0 0 0 0 25.438238672584703 -29.514860150655295 0 -29.514860150655295 -11.062711938902794 0 0 0 0 3.2992097467630757 0.32933205199188365 0 0.32933205199188365 -4.0444142478248324 0 0 0 0 -5.0188847548219258 19.510005091089056 0 19.510005091089056 105.20886411225365 0 0 0 0 29.624961444154906 18.752187299178331 0 18.752187299178331 72.099099757077056 0 0 0 0 0.2011962269651697 0.78277534889342348 0 0.78277534889342348 3.0618489019427493 0 0 0 0 -4.9206419592919701 20.811490176136431 0 20.811490176136431 88.100673266366357 0 0 0 0 -4.9206419592919701 20.811490176114603 0 20.811490176114603 88.100673266308149 0 0 0 0 11.60039348479885 -14.371993808616935 0 -14.371993808616935 16.624544903740002 0 0 0 0 -2.5149868004500604 -13.033143037737318 0 -13.033143037737318 23.240564830764924 0 0 0 0 21.291457067436568 -22.117076374110184 0 -22.117076374110184 33.321343985011481 0 0 0 0 10.924274247452104 -31.409813840598872 0 -31.409813840598872 51.349060670603649 0 0 0 0 -4.9206419592956081 20.811490176187363 0 20.811490176187363 88.100673266337253 0 0 0 0 0.49077151747405523 0.95168661676081001 0 0.95168661676081001 2.3800983259369808 0 0 0 0 38.321200980655703 15.415541537804529 0 15.415541537804529 72.826229222831898 0 0 0 0 6.520139681634646 2.1424289879360003 0 2.1424289879360003 68.207700148836011 0 0 0 0 -4.4936772785136965 2.2896404006051387 0 2.2896404006051387 57.21677988881612 0 0 0 0 -75.287977350817528 33.630335189547623 0 33.630335189547623 122.78638016404147 0 0 0 0 20.147684081506668 -0.48430739625837305 0 -0.48430739625837305 62.447543318427051 0 0 0 0 -4.1542456920765822 -2.0595567610436483 0 -2.0595567610436483 12.605122377484648 0 0 0 0 22.648083258798579 -20.586743672472949 0 -20.586743672472949 17.077661557501415 0 0 0 0 33.862179042487696 36.703667899852007 0 36.703667899852007 -56.504824309900869 0 0 0 0 -4.31822839959991 -5.6133540544339482 0 -5.6133540544339482 38.171068907377062 0 0 0 0 -17.379451485408936 -6.4552766252891161 0 -6.4552766252891161 39.702401238857419 0 0 0 0 -3.3558936723723036 6.6315446495741526 0 6.6315446495741526 71.588486401728005 0 0 0 0 -11.772946803080696 1.4147679623113163 0 1.4147679623113163 39.969868815951415 0 0 0 0 -9.7617638882252145 3.4053439953505098 0 3.4053439953505098 45.264618313537781 0 0 0 0 10.747039108951867 3.5086084397717059 0 3.5086084397717059 63.914028510451317 0 0 0 0 -10.625900884501288 -4.3976978951749359 0 -4.3976978951749359 28.694293733747656 0 0 0 0 -10.05221207005161 -5.4921093764642137 0 -5.4921093764642137 40.153426912896975 0 0 0 0 0.0065251610269569937 -14.165589883116809 0 -14.165589883116809 84.419177173665958 0 0 0 0 -0.27239548562329219 -40.789341803862953 0 -40.789341803862953 52.084500150071108 0 0 0 0 -14.149152237906858 8.3564986555835006 0 8.3564986555835006 27.254661559770454 0 0 0 0 16.739450312694203 15.750646650263661 0 15.750646650263661 35.860036093559756 0 0 0 0 -0.49440824387423277 11.78852796872161 0 11.78852796872161 85.484501600876683 0 0 0 0 -2.9781906879902067 -7.8935863775914186 0 -7.8935863775914186 98.545962128329847 0 0 0 0 -7.8926620696148291 -12.245834777534583 0 -12.245834777534583 94.810568694665562 0 0 0 0 -2.5723407833429661 -24.399274466570205 0 -24.399274466570205 105.47168245852663 0 0 0 0 55.416131623916044 -83.641332955525286 0 -83.641332955525286 122.47976645607559 0 0 0 0 17.94972505589476 64.787861416356463 0 64.787861416356463 162.78186578142959 0 0 0 0 -5.0233291493228194 -29.565225739924244 0 -29.565225739924244 199.26921766851592 0 0 0 0 81.272655866084392 2.0723688210755427 0 2.0723688210755427 -1.4255527387431357 0 0 0 0 1.4127015134889174 -0.65534084847671181 0 -0.65534084847671181 0.31603966581931786 0 0 0 0 99.445773877832153 -46.699370957012434 0 -46.699370957012434 -21.949935376163921 0 0 0 0 -24.296107405941257 -43.360689805213042 0 -43.360689805213042 181.98054543528087 0 0 0 0 -21.631375492606821 -10.555222433045856 0 -10.555222433045856 173.83831510230084 0 0 0 0 89.304850502692261 -19.370970536096138 0 -19.370970536096138 34.216936559551868 0 0 0 0 32.599206147231598 19.035374720391701 0 19.035374720391701 -63.028262040119444 0 0 0 0 -2.3365161792114844 9.7166068154941883 0 9.7166068154941883 15.384657030804163 0 0 0 0 -21.191504092793821 -10.587199015774786 0 -10.587199015774786 155.21663179100142 0 0 0 0 -59.242344731311732 -68.271225662523648 0 -68.271225662523648 305.79277391655705 0 0 0 0 3.844653795103433 -0.45441346904188151 0 -0.45441346904188151 0.68005970609412714 0 0 0 0 -23.964017642776071 -43.597035806425993 0 -43.597035806425993 155.49197135268108 0 0 0 0 16.392485544799683 11.906309837202571 0 11.906309837202571 -21.482001784694148 0 0 0 0 46.964833568128597 3.5700144179791096 0 3.5700144179791096 -46.501400802182616 0 0 0 0 52.683997491971695 -19.799302030000035 0 -19.799302030000035 -25.72792801936157 0 0 0 0 -9.0790023946324254 -2.5579629736712377 0 -2.5579629736712377 -27.880045712568972 0 0 0 0 122.07382284235149 -70.359759936744922 0 -70.359759936744922 -173.86360785851866 0 0 0 0 11.982390173317727 -11.839064983663889 0 -11.839064983663889 -3.2326405817567512 0 0 0 0 -96.554318063185519 137.70494473198414 0 137.70494473198414 39.505905400332267 0 0 0 0 31.064184278455286 -1.3933223246058333 0 -1.3933223246058333 -46.363760756103147 0 0 0 0 70.136504314868489 -4.4159137596798246 0 -4.4159137596798246 -278.50807423408696 0 0 0 0 5.3718347344264812 -15.082697155634222 0 -15.082697155634222 -1.785003672089875 0 0 0 0 9.0235465869058054 -4.4934557964572264 0 -4.4934557964572264 -5.2449248123931511 0 0 0 0 -8.6687113562153328 -19.191698129979216 0 -19.191698129979216 -41.546563831332605 0 0 0 0 -7.62802282597454 -5.284086826712155 0 -5.284086826712155 -1.9712737695163014 0 0 0 0 46.863724080683141 -48.691738127898134 0 -48.691738127898134 -21.674292342725494 0 0 0 0 -9.2212551284724213 13.688017076652613 0 13.688017076652613 -172.83729233642953 0 0 0 0 154.02104767191395 58.632335641581449 0 58.632335641581449 -386.19044183128335 0 0 0 0 1.3335440327550874 -17.5876785493207 0 -17.5876785493207 5.2139917966252263 0 0 0 0 55.662476947195728 -212.76097131840652 0 -212.76097131840652 -206.74445680886856 0 0 0 0 6.5704521444643129 -3.4425268988470634 0 -3.4425268988470634 -7.6384288562799014 0 0 0 0 -3.8397504611598379 -22.732481124781771 0 -22.732481124781771 -57.128922964621779 0 0 0 0 6.7758082294753876 -6.4761533532982867 0 -6.4761533532982867 42.486991094425321 0 0 0 0 -4.6279471311657261 0.97167234726202878 0 0.97167234726202878 -18.266738248050387 0 0 0 0 3.9474875924623554 -3.2224749589718584 0 -3.2224749589718584 -1.8549384080591977 0 0 0 0 -79.072466287438601 36.046471048335661 0 36.046471048335661 267.99242987812613 0 0 0 0 -46.500886236828023 25.056313295837754 0 25.056313295837754 237.63857538147568 0 0 0 0 -58.440956432411099 -171.18423257647919 0 -171.18423257647919 280.26900831850799 0 0 0 0 24.376785924958995 -258.12696000592405 0 -258.12696000592405 8.0286071057635127 0 0 0 0 24.018644707370186 -112.54701765979553 0 -112.54701765979553 3.494338807220629 0 0 0 0 597.30062692499814 -165.51763048548673 0 -165.51763048548673 -16.416632315547758 0 0 0 0 143.28332685110036 -149.49767406159299 0 -149.49767406159299 -2.7686585338233272 0 0 0 0 165.45799734506159 -377.76313100692641 0 -377.76313100692641 500.60374146097456 0 0 0 0 -58.631121814279595 80.302320585957204 0 80.302320585957204 607.10800459422262 0 0 0 0 -4.7435777637426781 167.71401112869353 0 167.71401112869353 599.97457413197844 0 0 0 0 130.70622152885085 -250.14556786789399 0 -250.14556786789399 544.18994405576586 0 0 0 0 406.46514142198924 267.97721651542179 0 267.97721651542179 245.43404634810577 0 0 0 0 -36.295793637183806 -5.9057026048612897 0 -5.9057026048612897 77.295157458196627 0 0 0 0 14.730571803848452 297.66663930690106 0 297.66663930690106 72.839981319200888 0 0 0 0 257.94071033360001 62.524054512834482 0 62.524054512834482 -254.97964871859585 0 0 0 0 -1.2542324026871483 1.6169897649786833 0 1.6169897649786833 -0.2495005200501339 0 0 0 0 85.491634646469649 68.100150042901078 0 68.100150042901078 -231.50661381463851 0 0 0 0 -48.076649713086567 103.40523030723307 0 103.40523030723307 207.24022744692047 0 0 0 0 -19.399549270844091 65.561119504174712 0 65.561119504174712 64.326392266256789 0 0 0 0 45.561050505088133 10.351392652260984 0 10.351392652260984 175.72641318164096 0 0 0 0 2.3658890815190716 -55.862912517295626 0 -55.862912517295626 251.45850483438699 0 0 0 0 52.250668234194791 -55.435979925156062 0 -55.435979925156062 192.9916323857833 0 0 0 0 67.056920917780019 -148.15251362333811 0 -148.15251362333811 231.37367420093506 0 0 0 0 208.49847225104543 -155.48498574142286 0 -155.48498574142286 96.296472503639961 0 0 0 0 111.28409227138897 -110.63598747228389 0 -110.63598747228389 78.686341155320406 0 0 0 0 110.18832070077761 -105.83143313314213 0 -105.83143313314213 71.79642426495775 0 0 0 0 143.63769078620544 -61.031970985161024 0 -61.031970985161024 59.479998919576246 0 0 0 0 211.88229843674117 -64.382433239247803 0 -64.382433239247803 45.058911638901918 0 0 0 0 517.94634228352606 -257.58912828987559 0 -257.58912828987559 162.47655434427725 0 0 0 0 84.639281340698517 179.99249041801522 0 179.99249041801522 230.47515242996451 0 0 0 0 77.240470822359384 93.846728565793455 0 93.846728565793455 19.963258896779735 0 0 0 0 0.40482376036594492 -1.3753439072207438 0 -1.3753439072207438 9.8191221692577386 0 0 0 0 37.637850415443609 19.549476465526823 0 19.549476465526823 -21.320920805825153 0 0 0 0 -75.513105499711855 4.0947996431204956 0 4.0947996431204956 15.881574249069672 0 0 0 0 -3.5989559122301671 78.822219228083668 0 78.822219228083668 98.941129044367699 0 0 0 0 -44.50425751953253 54.119357151697841 0 54.119357151697841 101.71859327067068 0 0 0 0 -0.41469226749177324 145.83179743032269 0 145.83179743032269 267.4629220560164 0 0 0 0 -19.680718179347423 -14.718287065754339 0 -14.718287065754339 -8.9069047181546921 0 0 0 0 6.4281417118718309 27.95955832848631 0 27.95955832848631 57.943673624009534 0 0 0 0 -42.277170752180609 -3.0505962599636405 0 -3.0505962599636405 156.87146958211088 0 0 0 0 -0.92603595473662992 -1.7734089404739066 0 -1.7734089404739066 4.7537306016598393 0 0 0 0 29.106053215820793 -80.020158839630312 0 -80.020158839630312 93.956371338961617 0 0 0 0 12.32371652888753 -1.0641287920700506 0 -1.0641287920700506 15.001553665126266 0 0 0 0 24.695622060165988 -18.551195660267695 0 -18.551195660267695 43.3115995227854 0 0 0 0 45.099949110486705 40.261476387124276 0 40.261476387124276 84.7172506916977 0 0 0 0 7.4878314352308735 -12.681053129017528 0 -12.681053129017528 156.21062901487312 0 0 0 0 8.0722136119120478 -33.40123277303428 0 -33.40123277303428 22.910638916539028 0 0 0 0 3.561676545517912 54.662414058409922 0 54.662414058409922 58.312295166397234 0 0 0 0 25.831226720410996 15.551088354070089 0 15.551088354070089 76.064742412389023 0 0 0 0 2.3151923476714273 31.949648663627386 0 31.949648663627386 88.993620526103768 0 0 0 0 67.883365592728296 22.108779209247587 0 22.108779209247587 71.840225951105822 0 0 0 0 54.80821835766335 -33.262363743658625 0 -33.262363743658625 115.94536162300938 0 0 0 0 17.170905538638181 8.0779208623935119 0 8.0779208623935119 95.059119797035237 0 0 0 0 -6.6236789742270048 5.7027418603975093 0 5.7027418603975093 94.88830112371943 0 0 0 0 -6.711861203843398 11.01851753252825 0 11.01851753252825 109.61252596166014 0 0 0 0 -24.446134996929686 52.295261871568073 0 52.295261871568073 101.53741527890088 0 0 0 0 -52.662054325258396 24.77202341303564 0 24.77202341303564 129.70508199280812 0 0 0 0 -36.794975430868817 76.085352820609842 0 76.085352820609842 73.276484166672162 0 0 0 0 -68.599015958332984 42.89414121300797 0 42.89414121300797 65.663324273351463 0 0 0 0 -55.767403927846772 87.203036777700618 0 87.203036777700618 66.761933420686546 0 0 0 0 -46.472720796971771 87.640041523996842 0 87.640041523996842 118.5810681035 0 0 0 0 -32.71330376212245 24.15319397978601 0 24.15319397978601 140.51006699762456 0 0 0 0 -37.174077478330446 29.878142514483898 0 29.878142514483898 104.93588214078045 0 0 0 0 -99.949092755192396 68.392914161424414 0 68.392914161424414 98.197194920618131 0 0 0 0 -40.833886624070146 60.313721347461978 0 60.313721347461978 21.656349700679129 0 0 0 0 -109.00371678935335 -3.435302149355266 0 -3.435302149355266 90.632313099671592 0 0 0 0 -69.483578656139798 -67.221529462822218 0 -67.221529462822218 53.62040869341763 0 0 0 0 -104.2457869787379 24.903864368080576 0 24.903864368080576 59.125438156283053 0 0 0 0 -25.605763584601959 18.532305657539837 0 18.532305657539837 116.2097737361255 0 0 0 0 -23.047225978325969 -28.679018484543121 0 -28.679018484543121 83.731760281989409 0 0 0 0 -0.46117581906264604 -87.44308668513986 0 -87.44308668513986 153.90423636404284 0 0 0 0 45.582375847980245 -80.394157519857799 0 -80.394157519857799 110.81374619842973 0 0 0 0 44.85210069614709 -118.42001047781014 0 -118.42001047781014 130.27785736409169 0 0 0 0 27.904764234013555 -74.59564925479026 0 -74.59564925479026 87.857329980972281 0 0 0 0 -23.348024320924196 -23.546012169677851 0 -23.546012169677851 76.061691908347711 0 0 0 0 -0.1956228399212705 -85.966735846839583 0 -85.966735846839583 98.058518162253677 0 0 0 0 -37.049115848781639 -29.365610461021788 0 -29.365610461021788 80.906491299545451 0 0 0 0 -2.0622384725393204 -14.867001445039932 0 -14.867001445039932 66.706139931868165 0 0 0 0 -32.098793989090836 13.419345974441057 0 13.419345974441057 47.335272029929911 0 0 0 0 -31.399575704326708 39.866111125351381 0 39.866111125351381 -25.551500132198271 0 0 0 0 -9.8641158063210241 3.6220896075374185 0 3.6220896075374185 34.648541667789686 0 0 0 0 -1.0717165191752969 1.883873495775525 0 1.883873495775525 0.24976499777834871 0 0 0 0 -12.209670967167767 4.8788471178850159 0 4.8788471178850159 40.806812851486029 0 0 0 0 -2.9043708164661872 0.79357349669601973 0 0.79357349669601973 4.8335938903726428 0 0 0 0 -5.5621789430551871 5.0019424423444434 0 5.0019424423444434 16.842321223485442 0 0 0 0 -5.1390873597601967 1.7495724953332683 0 1.7495724953332683 40.714825731004566 0 0 0 0 -13.729332313469968 -1.2703436447091008 0 -1.2703436447091008 67.477185101663054 0 0 0 0 -6.3897470764322861 0.67519016356709471 0 0.67519016356709471 75.077985278905544 0 0 0 0 -2.3700773374166602 -11.872908020521209 0 -11.872908020521209 79.280187162294169 0 0 0 0 55.553189633604234 -18.88537930122402 0 -18.88537930122402 67.033473231964308 0 0 0 0 55.149434345146801 -28.682774178627369 0 -28.682774178627369 69.076825657708923 0 0 0 0 13.669345105440698 -10.152226441938183 0 -10.152226441938183 68.019400176839554 0 0 0 0 9.2176582776081659 -29.129663553820819 0 -29.129663553820819 81.255683094736014 0 0 0 0 -7.5221150105166998 -15.694928083252307 0 -15.694928083252307 74.209578293783125 0 0 0 0 21.258559074370169 -55.571888662419951 0 -55.571888662419951 87.696167590545883 0 0 0 0 17.180974349987082 -61.783312439811198 0 -61.783312439811198 78.352652258588932 0 0 0 0 69.501366545856854 -73.59756783121702 0 -73.59756783121702 72.67763797239877 0 0 0 0 50.007159146609411 -97.368751723275636 0 -97.368751723275636 94.2789095743301 0 0 0 0 64.211898373576332 -93.068375685809769 0 -93.068375685809769 75.0032904822001 0 0 0 0 72.152722441624178 -91.80811413110132 0 -91.80811413110132 71.651755818591482 0 0 0 0 85.715833552102936 -96.59523775008347 0 -96.59523775008347 69.629101881440874 0 0 0 0 84.265228828293857 -98.147205872701306 0 -98.147205872701306 73.961716252619226 0 0 0 0 53.137527621166555 -65.371453519184797 0 -65.371453519184797 69.280682374908793 0 0 0 0 99.228651964106348 -68.044610531452236 0 -68.044610531452236 55.435227666290302 0 0 0 0 204.14347579253763 -15.936817458751648 0 -15.936817458751648 39.784911125854705 0 0 0 0 92.845961855843143 -0.47820585044519248 0 -0.47820585044519248 53.827315879476373 0 0 0 0 146.1491248915745 -77.869750958951045 0 -77.869750958951045 55.887014705102047 0 0 0 0 109.31064809406939 -102.28708825163994 0 -102.28708825163994 56.56944448134891 0 0 0 0 257.3496090880999 -156.19560151582482 0 -156.19560151582482 75.423131837675101 0 0 0 0 86.212911524114574 -124.6725329011424 0 -124.6725329011424 109.06022636749549 0 0 0 0 105.64594323322035 -103.29974033273174 0 -103.29974033273174 71.930722383362081 0 0 0 0 6.2991370252588013 -84.91578494902933 0 -84.91578494902933 158.56494248489616 0 0 0 0 13.295415691693051 -144.82828838238311 0 -144.82828838238311 279.05736448798416 0 0 0 0 -34.523024460042564 -28.998056649867067 0 -28.998056649867067 114.95978318619746 0 0 0 0 64.309434348236209 -251.66646039728766 0 -251.66646039728766 237.85646427621396 0 0 0 0 253.93841083415145 -20.60830194017035 0 -20.60830194017035 40.452501329116785 0 0 0 0 2.7247314273095018 1.8190160904332942 0 1.8190160904332942 -0.60762495744621603 0 0 0 0 72.633131239180329 20.445366333286074 0 20.445366333286074 43.913465653976345 0 0 0 0 249.69983488745675 -131.8809129481233 0 -131.8809129481233 301.52841057512705 0 0 0 0 -8.3663889785905212 -14.175953527447859 0 -14.175953527447859 76.323766016561422 0 0 0 0 76.112557910293617 -1.9817027167437118 0 -1.9817027167437118 64.645680190893472 0 0 0 0 2.173091862736328 -20.051620391721372 0 -20.051620391721372 44.781246537413608 0 0 0 0 -214.64451462171564 -106.50635565496668 0 -106.50635565496668 307.39564372968744 0 0 0 0 7.4539498782315086 1.7402340909945408 0 1.7402340909945408 10.258868139244282 0 0 0 0 -7.6947712927194516 -30.132537411831436 0 -30.132537411831436 60.466004105019238 0 0 0 0 9.5101176284847497 -15.230671803235964 0 -15.230671803235964 68.819745349326695 0 0 0 0 -2.1407489356679434 -12.335999711380282 0 -12.335999711380282 71.105926922655271 0 0 0 0 22.037611799634305 8.38893853245645 0 8.38893853245645 81.921318252447236 0 0 0 0 21.780537764491555 -21.178743537499031 0 -21.178743537499031 143.99001515080454 0 0 0 0 -19.213970130274902 -18.637144773154432 0 -18.637144773154432 131.77499638668814 0 0 0 0 45.722719614151174 0.32788002435700037 0 0.32788002435700037 9.5928976748036803 0 0 0 0 21.457799489399974 14.782818672541907 0 14.782818672541907 52.687620286284073 0 0 0 0 16.879950992114686 36.043024708784287 0 36.043024708784287 -5.4955587815784384 0 0 0 0 -20.495039976207863 -0.74361697880158317 0 -0.74361697880158317 42.725285941203765 0 0 0 0 -120.84576945156823 -1.3286394803335497 0 -1.3286394803335497 31.100987343292218 0 0 0 0 -87.080402064775626 4.8307824568109936 0 4.8307824568109936 -7.0709080179149169 0 0 0 0 -124.04333332954207 40.239152018062669 0 40.239152018062669 31.392260270338738 0 0 0 0 -0.78338809517695163 0.045468228424230261 0 0.045468228424230261 27.416331952333181 0 0 0 0 -3.161934413750362 -4.8971872331623132 0 -4.8971872331623132 5.166952003208678 0 0 0 0 -237.95756606205873 -0.98722521315357881 0 -0.98722521315357881 121.46835248111165 0 0 0 0 -257.11333439637929 121.63025609982287 0 121.63025609982287 -65.779437287172186 0 0 0 0 -0.26260135224967657 4.0023454592251895 0 4.0023454592251895 -0.44813851916424596 0 0 0 0 -111.84223559326983 23.976004322323206 0 23.976004322323206 48.745569022372365 0 0 0 0 -137.88098022267877 -28.84458156007895 0 -28.84458156007895 -57.157822469017901 0 0 0 0 -36.32861108336806 48.733381010173616 0 48.733381010173616 -21.587872176998644 0 0 0 0 -91.730233559717817 -27.400289971359598 0 -27.400289971359598 53.329224165441701 0 0 0 0 -7.8478466753385874 -10.86871951307694 0 -10.86871951307694 43.629238600122335 0 0 0 0 -84.267492397828391 42.457929434003745 0 42.457929434003745 141.53754582713009 0 0 0 0 -155.86400686928937 -34.38347510080348 0 -34.38347510080348 64.67021245181968 0 0 0 0 58.079286821560345 -27.642819568281993 0 -27.642819568281993 60.33429491039351 0 0 0 0 -0.98977165179958249 5.2919742264874792 0 5.2919742264874792 38.143160669507395 0 0 0 0 62.493210752217692 -51.90910481004903 0 -51.90910481004903 61.351484220086377 0 0 0 0 80.483768935283479 -51.227914696733933 0 -51.227914696733933 54.734664679461275 0 0 0 0 89.915209889106336 -60.44230702110508 0 -60.44230702110508 60.822053828916978 0 0 0 0 126.27478685958067 -55.879328439346864 0 -55.879328439346864 54.681575823135745 0 0 0 0 112.3795285511078 -29.894608647038694 0 -29.894608647038694 50.38297436521043 0 0 0 0 97.159985273226084 -25.931323522388993 0 -25.931323522388993 49.891768986526586 0 0 0 0 162.02456723729128 -48.228811687062944 0 -48.228811687062944 49.384622063778806 0 0 0 0 150.31786640453811 -72.583645565311599 0 -72.583645565311599 60.666239017642511 0 0 0 0 102.90583683839338 -74.306007477487583 0 -74.306007477487583 60.766834974812809 0 0 0 0 121.81965776538945 -105.24730768258451 0 -105.24730768258451 69.149814656746457 0 0 0 0 82.311419056137879 -108.34349097161248 0 -108.34349097161248 79.057824953797535 0 0 0 0 102.73134729862113 -89.783355613120875 0 -89.783355613120875 71.464740942785284 0 0 0 0 94.555580212480322 -94.94970435430514 0 -94.94970435430514 68.553080773959664 0 0 0 0 73.631084556422664 -90.596765746726305 0 -90.596765746726305 68.752726124545006 0 0 0 0 100.9996169554372 -73.516853195658769 0 -73.516853195658769 62.368406968511408 0 0 0 0 77.35464277162464 -73.847349005678552 0 -73.847349005678552 63.267734331224347 0 0 0 0 62.370639300544553 -73.70513697455317 0 -73.70513697455317 75.061610530668986 0 0 0 0 84.237219900130953 -80.694213017352013 0 -80.694213017352013 68.760328217729693 0 0 0 0 81.439157025799275 -101.11832605261952 0 -101.11832605261952 78.589186568453442 0 0 0 0 50.692806687617121 -93.247504839477187 0 -93.247504839477187 81.515174582747932 0 0 0 0 59.506841807485557 -75.690664664146425 0 -75.690664664146425 78.822182769319625 0 0 0 0 27.756667490582004 -59.497591314342571 0 -59.497591314342571 98.833280663136975 0 0 0 0 18.279599920007172 -41.062858562530892 0 -41.062858562530892 78.053849181676924 0 0 0 0 -31.983192713798871 -27.70370516263938 0 -27.70370516263938 21.149655697781782 0 0 0 0 10.879128956301884 -8.7879929409982651 0 -8.7879929409982651 47.608726881640905 0 0 0 0 -6.1159757712373253 -1.8532607623758111 0 -1.8532607623758111 7.3043910510877694 0 0 0 0 -3.3337943854590746 -4.7176223739914107 0 -4.7176223739914107 7.0331878731883251 0 0 0 0 15.622208730826515 -40.774593757927505 0 -40.774593757927505 79.586208701755822 0 0 0 0 -82.611744944265411 -6.6448776332726993 0 -6.6448776332726993 141.96960294440214 0 0 0 0 -10.290563634922714 -25.553593325344877 0 -25.553593325344877 -6.7026579432073916 0 0 0 0 -13.829774760220857 -56.649273265491502 0 -56.649273265491502 81.438483506392913 0 0 0 0 -4.2163374434071494 7.074240054705232 0 7.074240054705232 47.113454267515522 0 0 0 0 1.9511903916828715 -17.821568554192709 0 -17.821568554192709 73.302705129841343 0 0 0 0 44.077900420535798 100.85199272893033 0 100.85199272893033 -23.993471776833758 0 0 0 0 -11.732411876245351 -57.651013062364655 0 -57.651013062364655 144.54516998200415 0 0 0 0 46.256361408241901 -31.747434169595181 0 -31.747434169595181 52.654740300764388 0 0 0 0 66.057028320560676 -48.826573353049753 0 -48.826573353049753 63.896224025425909 0 0 0 0 -29.529355767725974 -97.70957233592344 0 -97.70957233592344 167.17543799905252 0 0 0 0 -145.23818928717992 81.585425632561964 0 81.585425632561964 128.23992665536935 0 0 0 0 -211.2683099076919 45.733531897210923 0 45.733531897210923 166.03148124262225 0 0 0 0 -149.34425269274408 -2.2173431331007123 0 -2.2173431331007123 178.09933963255025 0 0 0 0 -26.357440295085553 -53.559131860191883 0 -53.559131860191883 328.95409079782257 0 0 0 0 -38.314763880081955 7.0666157006635331 0 7.0666157006635331 186.6185838993988 0 0 0 0 -32.852940171254886 -4.1379722495621536 0 -4.1379722495621536 131.70542945279158 0 0 0 0 47.928926478622998 -107.3229466043922 0 -107.3229466043922 167.99710151007457 0 0 0 0 -67.001476262603319 -46.202363178570522 0 -46.202363178570522 226.85191320331069 0 0 0 0 6.4966008257624708 -98.240670489511103 0 -98.240670489511103 106.96802012136686 0 0 0 0 -84.651750447190352 19.381345318586682 0 19.381345318586682 48.408738192694727 0 0 0 0 -59.672938477710886 -53.069105539150769 0 -53.069105539150769 183.8545866573113 0 0 0 0 -80.653285332322582 -26.751267705024475 0 -26.751267705024475 94.284215636604131 0 0 0 0 -7.2151251169657362 -24.286671845438967 0 -24.286671845438967 -6.952293945564211 0 0 0 0 -68.200237839436625 49.253068236957461 0 49.253068236957461 13.164270767330891 0 0 0 0 -1.0724158701535615 3.5813725757003976 0 3.5813725757003976 57.813839087206219 0 0 0 0 3.1338384193091144 -27.764982966054959 0 -27.764982966054959 256.65421472262096 0 0 0 0 -0.46363109463429719 -8.1721935926373437 0 -8.1721935926373437 2.4910134103036228 0 0 0 0 163.45076538308149 -194.09863819924067 0 -194.09863819924067 231.37484246183885 0 0 0 0 112.17387145727298 12.677598777416279 0 12.677598777416279 131.98492591451213 0 0 0 0 73.315321004944849 -92.760071667348711 0 -92.760071667348711 122.55293852644536 0 0 0 0 4.3350774255743545 7.1221608563664631 0 7.1221608563664631 -10.164318502393144 0 0 0 0 -389.57458319137982 233.35594811242299 0 233.35594811242299 91.040913690580055 0 0 0 0 11.719287059642284 49.790229731217551 0 49.790229731217551 -23.176898868274293 0 0 0 0 -101.81887422760155 13.72506361727028 0 13.72506361727028 48.591255454659404 0 0 0 0 -21.599185015071612 -68.681945739806906 0 -68.681945739806906 74.069985489135433 0 0 0 0 0.21721057428909607 6.9943697210394129 0 6.9943697210394129 66.252291247770543 0 0 0 0 -217.41681521357779 0.43778412666233635 0 0.43778412666233635 130.94157008574439 0 0 0 0 -33.900136032391401 -92.805445880285333 0 -92.805445880285333 137.41690888674111 0 0 0 0 -57.83240597867416 -2.0569063903349161 0 -2.0569063903349161 96.78576338381572 0 0 0 0 8.7097751110492254 -72.560816726092526 0 -72.560816726092526 123.02140004674948 0 0 0 0 49.795969596266787 -100.85087990456122 0 -100.85087990456122 82.248904782700265 0 0 0 0 29.923736666798277 -60.137151476217696 0 -60.137151476217696 86.060771574037062 0 0 0 0 -28.808795045859824 -18.143065076954372 0 -18.143065076954372 5.3775269975049014 0 0 0 0 -128.25830212440223 37.064417287620017 0 37.064417287620017 49.695070849928015 0 0 0 0 -0.011307643379681931 -0.044057354680116845 0 -0.044057354680116845 0.69725057503738697 0 0 0 0 184.5642676414343 -208.76528563347802 0 -208.76528563347802 175.26324711776397 0 0 0 0 -16.167059101338964 -70.717250515066553 0 -70.717250515066553 215.84716022650991 0 0 0 0 32.704045438057165 -64.830447345162611 0 -64.830447345162611 152.67271345202971 0 0 0 0 -15.709643324336184 -43.64109499402548 0 -43.64109499402548 173.06654330948368 0 0 0 0 -4.7918083659170634 -38.502705808778956 0 -38.502705808778956 102.98999997424835 0 0 0 0 -39.902130631171417 13.752566649351138 0 13.752566649351138 107.02818502527953 0 0 0 0 12.750303790415728 -16.136070750226281 0 -16.136070750226281 124.94674233749174 0 0 0 0 5.2574380597554864 31.124586776371871 0 31.124586776371871 103.1828011528487 0 0 0 0 -11.847191262114393 -23.806129616297767 0 -23.806129616297767 125.88201837149609 0 0 0 0 -32.820861674008256 -4.7266036088549299 0 -4.7266036088549299 72.321578809638595 0 0 0 0 -66.797447086507418 -14.663338714181009 0 -14.663338714181009 82.013400964090579 0 0 0 0 -69.622814407522128 32.876052131250617 0 32.876052131250617 76.444019434692564 0 0 0 0 -123.21134498994911 -3.6152314322362145 0 -3.6152314322362145 66.511631280729489 0 0 0 0 -161.13346022293649 42.013912931302912 0 42.013912931302912 81.308437519527388 0 0 0 0 -159.92224139951588 1.5890452662843018 0 1.5890452662843018 78.430220775197085 0 0 0 0 -117.6965958984124 37.9745131380987 0 37.9745131380987 80.037447557268024 0 0 0 0 -136.47504424600444 -10.0076110895684 0 -10.0076110895684 130.14174145251309 0 0 0 0 -64.317081413565575 -9.8401836566754355 0 -9.8401836566754355 128.09388549631694 0 0 0 0 -68.855799195207965 -26.790378879901255 0 -26.790378879901255 72.476890440665557 0 0 0 0 -134.66044954570629 -6.8271921323469087 0 -6.8271921323469087 18.146288714222464 0 0 0 0 -196.85488054627069 81.758263558007457 0 81.758263558007457 67.813191925210049 0 0 0 0 -271.26013124782577 41.016305755174471 0 41.016305755174471 107.24786561200381 0 0 0 0 -0.31713746815844157 5.2603265100657737 0 5.2603265100657737 67.893884560565297 0 0 0 0 -200.95149225692489 -10.635168039079872 0 -10.635168039079872 42.067512516787247 0 0 0 0 -390.41883734195818 -64.593375179183568 0 -64.593375179183568 303.18216922138527 0 0 0 0 0.38077031845386955 -25.645507215800535 0 -25.645507215800535 748.52589441312011 0 0 0 0 0.3872985983687347 -1.7565458357489856 0 -1.7565458357489856 1.4839723791781125 0 0 0 0 -0.13769748791938774 -1.0233601984216065 0 -1.0233601984216065 3.2158712796266968 0 0 0 0 304.41467914029636 -488.21299033253308 0 -488.21299033253308 404.93194738886086 0 0 0 0 240.68396482132016 -213.29614886474883 0 -213.29614886474883 740.91215431335149 0 0 0 0 583.8056322246216 74.163690545254212 0 74.163690545254212 -181.26110091789451 0 0 0 0 126.23889308917569 360.38298388877956 0 360.38298388877956 -91.251302938304434 0 0 0 0 127.24986639446342 -122.7784599400311 0 -122.7784599400311 199.3412165039299 0 0 0 0 203.88002806804707 -108.22654633483035 0 -108.22654633483035 199.17434419472303 0 0 0 0 293.67174152902589 -51.529252036640173 0 -51.529252036640173 -13.476389474886673 0 0 0 0 281.26713855262932 -158.58918386326684 0 -158.58918386326684 26.026064993151522 0 0 0 0 380.78275241983101 -119.45293380396834 0 -119.45293380396834 105.85902881670245 0 0 0 0 160.07863845431075 52.886208189444005 0 52.886208189444005 228.98302873395005 0 0 0 0 68.663895638987015 -59.64455115376586 0 -59.64455115376586 95.245773411057598 0 0 0 0 220.75219746947187 61.125456145454336 0 61.125456145454336 -19.071439686260419 0 0 0 0 138.83017783297146 -32.18091445983373 0 -32.18091445983373 117.66407874146853 0 0 0 0 94.097886628764172 -103.96883525494195 0 -103.96883525494195 -22.880241857084911 0 0 0 0 -31.222545882616032 49.693166485456459 0 49.693166485456459 50.829564116847905 0 0 0 0 0.17434948104073555 1.1204150987725328 0 1.1204150987725328 0.73982763905868154 0 0 0 0 216.4447259462595 -50.155462846541923 0 -50.155462846541923 -84.920210670879896 0 0 0 0 231.79696661824437 -91.351523104498483 0 -91.351523104498483 -83.82395801119128 0 0 0 0 192.18529523786492 -71.659899891385066 0 -71.659899891385066 4.2960968952429539 0 0 0 0 217.66380589844812 -57.265565655588944 0 -57.265565655588944 -44.782453599917062 0 0 0 0 65.444920035808082 -118.85045317977438 0 -118.85045317977438 56.541575966220989 0 0 0 0 175.87069426483868 -45.06004190638123 0 -45.06004190638123 -38.697228900671689 0 0 0 0 -6.9961234185359444 -77.066296724640779 0 -77.066296724640779 48.972657844475179 0 0 0 0 69.488632260928625 -40.422731586611917 0 -40.422731586611917 -99.661688519128802 0 0 0 0 -2.0802538767598513 0.41530295384074378 0 0.41530295384074378 -0.051288024627794471 0 0 0 0 -97.580847829511185 -25.084068999840383 0 -25.084068999840383 98.47879138778444 0 0 0 0 -2.9140347117117926 -129.83778383394201 0 -129.83778383394201 184.94292962431973 0 0 0 0 17.373297265623478 -88.174805548103905 0 -88.174805548103905 220.76864881516485 0 0 0 0 142.3055100034544 -97.905615499425039 0 -97.905615499425039 56.484623175086313 0 0 0 0 -10.094133460317323 -82.985674486751577 0 -82.985674486751577 216.39143560832599 0 0 0 0 47.946774961249503 -99.713890845090646 0 -99.713890845090646 221.21268955191772 0 0 0 0 53.683289352067277 36.458606783184223 0 36.458606783184223 396.70207158593257 0 0 0 0 59.150140549430034 -148.30307267114222 0 -148.30307267114222 403.27477949056629 0 0 0 0 13.387004594570499 -28.286538492906402 0 -28.286538492906402 328.06512062424008 0 0 0 0 42.22502953198682 -10.21952879138189 0 -10.21952879138189 253.47912097375229 0 0 0 0 6.3700249261214594 -60.564209463496809 0 -60.564209463496809 186.10875378360652 0 0 0 0 11.217815761303427 -20.507896785462435 0 -20.507896785462435 223.93993879133996 0 0 0 0 42.78530567411326 27.630229647580563 0 27.630229647580563 151.01624611821535 0 0 0 0 52.860771423595907 50.996843236018321 0 50.996843236018321 159.68993188039622 0 0 0 0 98.470327740767516 66.296987166500912 0 66.296987166500912 65.48325861136982 0 0 0 0 37.098141715589463 14.944630119334761 0 14.944630119334761 77.541213509186491 0 0 0 0 44.735547836857222 45.628824572173471 0 45.628824572173471 287.66943213565537 0 0 0 0 124.31577560622191 127.91581504315945 0 127.91581504315945 188.82659593848257 0 0 0 0 173.96465886940109 98.98696122788715 0 98.98696122788715 37.03151534857534 0 0 0 0 -33.863008853294559 -172.17446442307664 0 -172.17446442307664 343.02143386285752 0 0 0 0 0.80179258024979738 -1.2538261279976375 0 -1.2538261279976375 2.6713844347725342 0 0 0 0 218.34983490784407 215.44586618141602 0 215.44586618141602 342.05663262271628 0 0 0 0 79.021967315924485 27.181048576985631 0 27.181048576985631 -103.2972028556178 0 0 0 0 38.271107396772095 13.469081896535499 0 13.469081896535499 626.05998242741407 0 0 0 0 338.46710253566022 -322.47264456932157 0 -322.47264456932157 452.13624784138665 0 0 0 0 298.59280833315984 -42.949729872149874 0 -42.949729872149874 337.00297498823056 0 0 0 0 213.92237999535791 190.28835191335929 0 190.28835191335929 111.82378470833646 0 0 0 0 530.43137425681925 -147.42865222758701 0 -147.42865222758701 212.69522235700674 0 0 0 0 321.00544461924801 -323.55695165455654 0 -323.55695165455654 623.17794184357081 0 0 0 0 -44.406865240716684 -218.52306694123922 0 -218.52306694123922 774.96331433873638 0 0 0 0 71.059636965762365 -14.418024227436035 0 -14.418024227436035 389.52909373275179 0 0 0 0 119.11714078884995 -660.19331282072994 0 -660.19331282072994 165.57033439805673 0 0 0 0 1.7842798851480168 -2.8750901905273629 0 -2.8750901905273629 3.0981879437493092 0 0 0 0 194.06214726465032 -433.2736957308291 0 -433.2736957308291 234.12948985741605 0 0 0 0 -23.892415174635516 175.98887778912649 0 175.98887778912649 356.88437858590441 0 0 0 0 0.54183047729685008 -3.039939470003862 0 -3.039939470003862 10.193544934320819 0 0 0 0 532.96259773790916 -606.19830119106791 0 -606.19830119106791 164.45312071916851 0 0 0 0 -8.6633239860079811 -65.136454389139544 0 -65.136454389139544 14.061928658342367 0 0 0 0 6.8104035288633895 -115.57681740965381 0 -115.57681740965381 37.408157619778649 0 0 0 0 1.4397316342028716 -22.405913902301108 0 -22.405913902301108 76.098327185769449 0 0 0 0 -36.599560213420773 -96.918649726465446 0 -96.918649726465446 24.904269661512444 0 0 0 0 7.0480166417869441 -85.258912391096601 0 -85.258912391096601 -59.980497517704862 0 0 0 0 -87.462849650000862 198.25234691445257 0 198.25234691445257 267.46436485245795 0 0 0 0 1.7201772771832036 -3.0317003216269516 0 -3.0317003216269516 26.489489277889817 0 0 0 0 -46.448284942547616 -69.01237052117358 0 -69.01237052117358 -25.532450556376716 0 0 0 0 -253.39162875159082 -0.88787321895324567 0 -0.88787321895324567 174.36471380052899 0 0 0 0 10.042848233841092 8.3454215470646531 0 8.3454215470646531 16.14975214119406 0 0 0 0 -4.7107501506579865 33.889614810255807 0 33.889614810255807 46.393159435733196 0 0 0 0 -15.393153695024921 -46.73138578974249 0 -46.73138578974249 -85.342714247261029 0 0 0 0 -5.8144002459557669 -4.7912584578725728 0 -4.7912584578725728 82.35946224473264 0 0 0 0 3.2909338499575824 -4.0120376689146724 0 -4.0120376689146724 58.815264952363577 0 0 0 0 2.7605993738136974 0.46955870438009306 0 0.46955870438009306 14.342626578178361 0 0 0 0 -1.6541610536723965 4.5539503275399511 0 4.5539503275399511 72.894306994076032 0 0 0 0 -8.941620497726035 -15.591055288785356 0 -15.591055288785356 81.659590863593621 0 0 0 0 3.5761115036104378 -0.090640560826727778 0 -0.090640560826727778 46.278381150321074 0 0 0 0 -0.18265866311909562 0.48236326661479723 0 0.48236326661479723 11.890772600837916 0 0 0 0 44.345158787982655 108.45368700548806 0 108.45368700548806 -144.67723408170787 0 0 0 0 -0.83469854731083615 -9.0461517621779421 0 -9.0461517621779421 69.556333638043725 0 0 0 0 66.962037812858398 3.4798775912240671 0 3.4798775912240671 23.232234868195519 0 0 0 0 -2.7221007098678847 -1.3163893474175001 0 -1.3163893474175001 5.618252769698147 0 0 0 0 117.95094400779635 -27.691883502033306 0 -27.691883502033306 57.61711166197756 0 0 0 0 21.842680637219019 -41.631764518222553 0 -41.631764518222553 62.27198427180565 0 0 0 0 81.592071573264548 153.13671835468267 0 153.13671835468267 293.82390764064621 0 0 0 0 -124.03018870007509 -167.71504157815798 0 -167.71504157815798 37.538368225859244 0 0 0 0 -17.174805798087618 -159.83472461745987 0 -159.83472461745987 36.981229814846984 0 0 0 0 2.2029623798734974 11.05221818825521 0 11.05221818825521 175.23677931915063 0 0 0 0 1.5065801921766564 0.21320495015887175 0 0.21320495015887175 -0.15565956109215051 0 0 0 0 3.2523104921456252 -19.026665128879358 0 -19.026665128879358 142.09704997278095 0 0 0 0 23.145273925161746 8.4850857161909516 0 8.4850857161909516 81.406090931468498 0 0 0 0 11.149764029930338 -23.399032458948113 0 -23.399032458948113 106.9673854404864 0 0 0 0 38.989545342588826 6.4511636427068879 0 6.4511636427068879 69.394070548038144 0 0 0 0 75.750404002160394 56.699544231650179 0 56.699544231650179 129.18094358302187 0 0 0 0 14.982804800718441 23.854269620709601 0 23.854269620709601 130.65616809181211 0 0 0 0 40.922758265873199 -12.570361306818086 0 -12.570361306818086 22.983870175368793 0 0 0 0 66.088088738881197 26.309125377081727 0 26.309125377081727 60.802270190043146 0 0 0 0 11.825987095130539 11.919821139023275 0 11.919821139023275 8.0556662826203667 0 0 0 0 3.69462759777889 43.753461671263722 0 43.753461671263722 -2.8579217025280741 0 0 0 0 -19.328335632444578 4.9122961666816991 0 4.9122961666816991 82.118670542712607 0 0 0 0 -11.154224980959043 -30.346429141023691 0 -30.346429141023691 61.974684993826259 0 0 0 0 39.577080641049179 -48.136637997963589 0 -48.136637997963589 57.129379917190818 0 0 0 0 -22.908700144547311 538.56538569390887 0 538.56538569390887 117.47273539856178 0 0 0 0 7.6253124783548145 11.5696307417436 0 11.5696307417436 9.2552120177632524 0 0 0 0 495.87944289676761 -334.19474408591395 0 -334.19474408591395 -164.70021610270942 0 0 0 0 207.08268154850612 144.79342091370927 0 144.79342091370927 -454.74597340710534 0 0 0 0 -7.8543011920337449 -281.80982252385002 0 -281.80982252385002 581.91175665485571 0 0 0 0 -189.45384047125117 48.784295382518394 0 48.784295382518394 610.43921118280946 0 0 0 0 1.0222858563101909 -348.60511615850191 0 -348.60511615850191 554.90433280118305 0 0 0 0 -232.85046735522792 21.241298303260919 0 21.241298303260919 195.72765819734559 0 0 0 0 -0.88344996729916048 5.3465546950415819 0 5.3465546950415819 11.922211855477158 0 0 0 0 25.505821488954098 2.0296177142481611 0 2.0296177142481611 -63.135340658159294 0 0 0 0 -130.59370160028448 118.52988246484256 0 118.52988246484256 -29.965341632266245 0 0 0 0 -2.656833671298692 -7.6144384671702783 0 -7.6144384671702783 38.836512597382935 0 0 0 0 -15.757536093376984 -38.585661525341948 0 -38.585661525341948 9.2464085508727294 0 0 0 0 -81.696811261432231 -34.504493255495618 0 -34.504493255495618 42.28350270277042 0 0 0 0 147.84424509052405 -60.235111023594982 0 -60.235111023594982 -45.944099884410434 0 0 0 0 -22.802571180383893 -93.675091219819933 0 -93.675091219819933 101.31524559699301 0 0 0 0 -11.876821386875235 96.828793620701617 0 96.828793620701617 50.348015546343959 0 0 0 0 3.5577355613404507 -1.8231114312633281 0 -1.8231114312633281 29.054966168872852 0 0 0 0 1.558138442102063 -5.0408573678028574 0 -5.0408573678028574 29.410594802141077 0 0 0 0 0.039519001568805834 -6.3502181582290405 0 -6.3502181582290405 34.531191896611006 0 0 0 0 -12.99603687616036 -0.82513227536674094 0 -0.82513227536674094 15.006806484898334 0 0 0 0 -0.55274157322128303 -5.3122845221955686 0 -5.3122845221955686 33.717947142801222 0 0 0 0 -3.0300216859743152 -2.9599533688934994 0 -2.9599533688934994 23.537159069695399 0 0 0 0 -3.0441228667174673 0.97104008689316146 0 0.97104008689316146 20.091911897437171 0 0 0 0 -15.27938717491611 -6.3142552752184429 0 -6.3142552752184429 18.358151276682747 0 0 0 0 -7.6193653227592222 -3.725528085483802 0 -3.725528085483802 34.597104214710612 0 0 0 0 1.2767374384544461 -5.8942510158934276 0 -5.8942510158934276 20.052998729676609 0 0 0 0 -2.0977114062191671 -2.0380906585609235 0 -2.0380906585609235 21.543490646535275 0 0 0 0 -4.0268690422872169 -1.3103648760272222 0 -1.3103648760272222 20.41095524843054 0 0 0 0 -2.1684260367655952 3.6539604454970913 0 3.6539604454970913 29.354523938422972 0 0 0 0 1.6195722140419093 -7.0591422306180789 0 -7.0591422306180789 35.147253270819419 0 0 0 0 0.18029210371605586 -12.056827240257462 0 -12.056827240257462 18.76763603542463 0 0 0 0 15.275918757210093 6.2280316627925458 0 6.2280316627925458 29.790553703447586 0 0 0 0 1.1072263965584206 -0.75977524737783497 0 -0.75977524737783497 0.79747947022618426 0 0 0 0 7.8463729871855321 -1.4931026011413451 0 -1.4931026011413451 11.064803568840944 0 0 0 0 0.10472779947303934 3.6908235428061289 0 3.6908235428061289 6.0541568281751097 0 0 0 0 0.308091904287906 -0.95286294538191463 0 -0.95286294538191463 2.4295275258641338 0 0 0 0 -8.4557408542641497 -0.014711117726449174 0 -0.014711117726449174 22.535039489658061 0 0 0 0 -2.9307309698206607 1.5322575383286114 0 1.5322575383286114 27.449969332199853 0 0 0 0 -0.96396275226652506 6.2726668321602119 0 6.2726668321602119 7.9547086132895402 0 0 0 0 -6.3898280139383132 1.3575263964856958 0 1.3575263964856958 22.449500600981992 0 0 0 0 -0.4175024872867894 0.88167979334635405 0 0.88167979334635405 10.737000922738114 0 0 0 0 -4.3360289659322007 1.7971930066432549 0 1.7971930066432549 21.274402540606275 0 0 0 0 -0.99291604355728147 -2.2782485195027178 0 -2.2782485195027178 16.681298931454254 0 0 0 0 -8.1012772040214713 17.543266713912089 0 17.543266713912089 -11.24215077757799 0 0 0 0 0.64267412014189751 2.4960657363273704 0 2.4960657363273704 0.58841503365531977 0 0 0 0 9.3281998120619392 -15.313761214677015 0 -15.313761214677015 32.867480589402476 0 0 0 0 -0.40751910235417799 12.326932835426751 0 12.326932835426751 -1.017352123090971 0 0 0 0 14.171884110352039 3.0888115763232236 0 3.0888115763232236 -5.626228948311109 0 0 0 0 2.0066618948988335 3.6141015138506134 0 3.6141015138506134 4.0655548658568135 0 0 0 0 4.1680761589705071 14.057668749681397 0 14.057668749681397 -0.77187929770298069 0 0 0 0 -0.98304687308385219 1.6049255424662747 0 1.6049255424662747 3.1897425912058992 0 0 0 0 -2.9969915311971818 3.3717412587709532 0 3.3717412587709532 10.999821770632479 0 0 0 0 7.3617926341748898 -9.9290287385233569 0 -9.9290287385233569 21.476165546152515 0 0 0 0 -5.1800786995918315 0.73424437619632954 0 0.73424437619632954 9.6223340742239998 0 0 0 0 46.983759418664704 45.735706573471134 0 45.735706573471134 11.084044070228629 0 0 0 0 41.623538840947731 -60.440487873743223 0 -60.440487873743223 59.046907482353163 0 0 0 0 0.70448576527942208 2.9547247222321964 0 2.9547247222321964 0.75162235931024668 0 0 0 0 18.673680873824196 -56.660189511713725 0 -56.660189511713725 77.287245385618007 0 0 0 0 -22.411788687291846 62.269793067395767 0 62.269793067395767 93.457338342235914 0 0 0 0 -89.730814951763364 10.545938972917213 0 10.545938972917213 55.331228075932813 0 0 0 0 19.661035242085745 29.442776549330119 0 29.442776549330119 4.8302364157007105 0 0 0 0 -4.8585698175903573 14.936208729452355 0 14.936208729452355 16.580069983194626 0 0 0 0 -2.190503771405929 16.474833728684644 0 16.474833728684644 -27.021250036860692 0 0 0 0 4.2896104771482442 2.8244080036563322 0 2.8244080036563322 0.53878128282942761 0 0 0 0 34.833814752882972 -56.677448452741828 0 -56.677448452741828 65.54540989429006 0 0 0 0 -55.843450810131799 227.99014663420462 0 227.99014663420462 141.61050160549166 0 0 0 0 -9.345540311779132 7.9026110991768519 0 7.9026110991768519 -12.403550122870911 0 0 0 0 0.80669707981011918 13.313317881662414 0 13.313317881662414 46.480884747848549 0 0 0 0 2.5214072393384974 0.70675940897730172 0 0.70675940897730172 -0.53847607918314644 0 0 0 0 -5.4517224486892246 -24.273589598539047 0 -24.273589598539047 92.571180054190336 0 0 0 0 -9.2089871202606446 -19.553953812546297 0 -19.553953812546297 230.57038692449623 0 0 0 0 19.747984530737085 29.775368008331498 0 29.775368008331498 90.763657622619121 0 0 0 0 19.857320296519902 28.825838484011001 0 28.825838484011001 92.605373188747762 0 0 0 0 87.163403965124417 25.563440735772929 0 25.563440735772929 34.412822843227332 0 0 0 0 45.603795357976196 106.77943121706085 0 106.77943121706085 167.84021041938377 0 0 0 0 -13.200872699831962 -74.462196929438505 0 -74.462196929438505 31.180925513199327 0 0 0 0 -112.76674681287568 -2.1622601505323473 0 -2.1622601505323473 66.387063123597727 0 0 0 0 281.59060301448153 -24.112625753276916 0 -24.112625753276916 -55.398011012519419 0 0 0 0 -3.1982063502146048 11.156711362210899 0 11.156711362210899 38.737255828323214 0 0 0 0 -1.4408494432955194 24.43888187842731 0 24.43888187842731 100.30735142839694 0 0 0 0 -0.67470077363434733 0.33687083896011405 0 0.33687083896011405 1.0448618547487953 0 0 0 0 15.877102534328515 27.033560260076683 0 27.033560260076683 41.061414730155775 0 0 0 0 3.2972343622441258 14.035516481832019 0 14.035516481832019 97.714257763644127 0 0 0 0 -11.016726297405512 1.6116742041713223 0 1.6116742041713223 105.51467742004024 0 0 0 0 6.9965805985593761 -1.072349470970039 0 -1.072349470970039 118.34865378351424 0 0 0 0 12.474437781060033 9.4294727697252938 0 9.4294727697252938 64.029139312660845 0 0 0 0 9.4383540880335204 21.743870913961473 0 21.743870913961473 69.716897167999377 0 0 0 0 -6.6376779599734164 15.044298437879661 0 15.044298437879661 71.455281061903406 0 0 0 0 -4.3214022273696173 5.6454456662127086 0 5.6454456662127086 89.197108446400307 0 0 0 0 -4.8597368192370141 17.231743167409832 0 17.231743167409832 52.275164768403556 0 0 0 0 -7.4987748534267666 12.892387340714777 0 12.892387340714777 65.208818837889339 0 0 0 0 11.260402251283267 10.372342919454695 0 10.372342919454695 45.986117862126775 0 0 0 0 13.348707677131642 16.403486298517237 0 16.403486298517237 60.549101004124168 0 0 0 0 -0.83175193396300529 11.878737511236977 0 11.878737511236977 46.145493017929766 0 0 0 0 13.476758957544916 1.7206809820331728 0 1.7206809820331728 35.881201847119883 0 0 0 0 -25.137899900623779 18.67187880026222 0 18.67187880026222 53.966618466978616 0 0 0 0 -5.5820855988968106 4.1564524187451752 0 4.1564524187451752 34.368193451221828 0 0 0 0 3.7425928325710629 3.1012547572734093 0 3.1012547572734093 40.335475625225627 0 0 0 0 29.934749362128059 4.9558531667394163 0 4.9558531667394163 39.753702958254507 0 0 0 0 12.931638784919414 -8.8932972575803433 0 -8.8932972575803433 37.079740115641755 0 0 0 0 10.24297966240465 1.4187152037320629 0 1.4187152037320629 42.516018334981709 0 0 0 0 12.011390758030757 1.2943598348911109 0 1.2943598348911109 39.872342776708479 0 0 0 0 8.8912897913291999 -1.0889458370583043 0 -1.0889458370583043 42.519718874635146 0 0 0 0 -17.691468819195507 15.429671360175234 0 15.429671360175234 54.19171810597868 0 0 0 0 2.6425653245479506 12.405879866518477 0 12.405879866518477 53.812431972470371 0 0 0 0 -44.854974092530938 46.175139700610089 0 46.175139700610089 20.443771037308579 0 0 0 0 27.531986304031307 13.339622223824335 0 13.339622223824335 16.428054120500974 0 0 0 0 25.343297197927313 9.2085465754580582 0 9.2085465754580582 14.084918461519919 0 0 0 0 49.311063744262356 2.6592102828681163 0 2.6592102828681163 8.42912771913916 0 0 0 0 23.488387148929178 22.638064295942058 0 22.638064295942058 25.261596508804359 0 0 0 0 21.245804479942308 -26.613699118458499 0 -26.613699118458499 53.967183144349463 0 0 0 0 -10.026180243909948 -5.8626510524788955 0 -5.8626510524788955 40.219711686899245 0 0 0 0 25.108155334903131 -17.587571214445006 0 -17.587571214445006 20.528090131991121 0 0 0 0 37.042628094692191 -135.88912857183641 0 -135.88912857183641 236.21308028174235 0 0 0 0 82.404265420656884 -22.129093277189895 0 -22.129093277189895 1.3935113142015325 0 0 0 0 -71.359299940226265 21.517689387947485 0 21.517689387947485 23.397295125920209 0 0 0 0 -3.6365061990715564 1.0923118043712385 0 1.0923118043712385 33.10509430312149 0 0 0 0 702.7171587299963 146.31994231823955 0 146.31994231823955 -373.21964723427664 0 0 0 0 -229.50252386708235 236.79090537999036 0 236.79090537999036 -93.438502836547741 0 0 0 0 4.4389583580416012 23.282915060570193 0 23.282915060570193 18.576013523278498 0 0 0 0 -8.1446476475837137 -23.625770742175714 0 -23.625770742175714 33.831216898983101 0 0 0 0 -2.4299438830869597 -4.6072719371414408 0 -4.6072719371414408 7.9939847598993801 0 0 0 0 42.21162427643867 78.865897603433041 0 78.865897603433041 -62.553310257018325 0 0 0 0 45.093519063590065 27.17261691083695 0 27.17261691083695 -17.442414649099646 0 0 0 0 105.94389396165934 27.095572341238949 0 27.095572341238949 -67.53972163157232 0 0 0 0 -6.4334786171202722 -1.549069732092903 0 -1.549069732092903 66.704948761301353 0 0 0 0 -10.601758698252524 -3.8584360524655494 0 -3.8584360524655494 66.838022876527248 0 0 0 0 -9.707977902517996 -1.2187652970769705 0 -1.2187652970769705 68.926200954341766 0 0 0 0 -5.4002289694931278 -4.2544617876901611 0 -4.2544617876901611 60.131858890094009 0 0 0 0 -49.225108276120409 -11.564875689759901 0 -11.564875689759901 61.55147556394877 0 0 0 0 49.130125018687977 3.5978509707383637 0 3.5978509707383637 43.568593325293477 0 0 0 0 -2.8991941455196866 -107.72043387087524 0 -107.72043387087524 37.268841798719222 0 0 0 0 -0.09268476965840744 -6.1856175755537244 0 -6.1856175755537244 60.589159207754108 0 0 0 0 2.5172779850214742 2.5449187158761326 0 2.5449187158761326 15.89444361056114 0 0 0 0 -195.2870712901431 -34.269485483163407 0 -34.269485483163407 200.16484269540615 0 0 0 0 251.7259309295705 -198.41474201999586 0 -198.41474201999586 101.11180678196979 0 0 0 0 88.401119201220354 80.019801600630672 0 80.019801600630672 -33.593610285139675 0 0 0 0 -4.9769662062853968 -18.316326117774224 0 -18.316326117774224 63.27319211723443 0 0 0 0 2.0092449961965997 -6.188073642493837 0 -6.188073642493837 53.950974583415658 0 0 0 0 -2.2249195958338532 -16.053789172727193 0 -16.053789172727193 57.180517748585771 0 0 0 0 361.83246948879241 206.177452790389 0 206.177452790389 -161.99978459921022 0 0 0 0 -63.419745524686732 -115.92362096546822 0 -115.92362096546822 132.94519786591991 0 0 0 0 -171.52644174017041 -177.10644406363372 0 -177.10644406363372 383.28926548084564 0 0 0 0 -119.4573756210807 -95.318725281503191 0 -95.318725281503191 410.8292912253346 0 0 0 0 -110.76111981743088 27.433339076267657 0 27.433339076267657 -45.363817580629984 0 0 0 0 0.31486579674828619 -0.72492684189288781 0 -0.72492684189288781 -0.94989224396596228 0 0 0 0 842.28635632901205 -44.87713052293293 0 -44.87713052293293 -74.35238120341819 0 0 0 0 382.112968094385 96.179168438420675 0 96.179168438420675 -101.51134371012085 0 0 0 0 103.03424158332018 -71.039928459039402 0 -71.039928459039402 283.10888266751499 0 0 0 0 12.540413143264232 135.58132707577806 0 135.58132707577806 212.5993843051881 0 0 0 0 -120.07160302683042 58.163218598551794 0 58.163218598551794 212.29635647700161 0 0 0 0 -132.85199743721387 -44.677174288130118 0 -44.677174288130118 131.05496758138543 0 0 0 0 -85.784153028454966 -36.557976737502941 0 -36.557976737502941 35.110031754387137 0 0 0 0 -7.2657875276436243 71.755522604028556 0 71.755522604028556 52.75604678991931 0 0 0 0 -108.79847731396057 86.391001504825454 0 86.391001504825454 91.386164954723426 0 0 0 0 2.4110976733221179 11.69503050144346 0 11.69503050144346 52.48364629002613 0 0 0 0 198.3654417075968 56.205454163564355 0 56.205454163564355 24.63605599452967 0 0 0 0 0.59420365619664928 1.4365140414183397 0 1.4365140414183397 4.658134019566134 0 0 0 0 -0.015354591901760322 8.5093350814240694 0 8.5093350814240694 56.694961049648555 0 0 0 0 3.4530560753486439 -13.644239638107138 0 -13.644239638107138 22.744331918547687 0 0 0 0 0.015390106642284351 0.97665047843838693 0 0.97665047843838693 62.394073590574408 0 0 0 0 -2.7380393094881015 14.215143228637316 0 14.215143228637316 103.21296598249319 0 0 0 0 7.4337287222039024 1.6080171951543889 0 1.6080171951543889 59.514937625183876 0 0 0 0 0.31489613119092752 17.763873850319214 0 17.763873850319214 167.14384612992581 0 0 0 0 0.38046899801173106 -0.12089583028053141 0 -0.12089583028053141 0.17172589735092458 0 0 0 0 20.99406012967853 12.938763214300707 0 12.938763214300707 6.6701639449347567 0 0 0 0 16.324421085780148 -33.192620661107185 0 -33.192620661107185 69.201220484654186 0 0 0 0 -0.88002804730071915 -6.5451763142555137 0 -6.5451763142555137 59.578000855994475 0 0 0 0 0.023525723907908969 -5.6660530980225303 0 -5.6660530980225303 -7.6924925628700294 0 0 0 0 -13.614612938735945 25.686063564222422 0 25.686063564222422 -14.238551764232398 0 0 0 0 -0.78797078268706855 17.970221061772463 0 17.970221061772463 -39.501833903203078 0 0 0 0 4.9456831230794407 20.759794855501241 0 20.759794855501241 -29.893475682452845 0 0 0 0 -0.85653842803883151 1.0654638225169037 0 1.0654638225169037 -7.0947920325343148 0 0 0 0 0.69769248539576623 8.1936528239966719 0 8.1936528239966719 -0.68297107062244322 0 0 0 0 8.2499142273540045 -5.2189210393225949 0 -5.2189210393225949 10.584717236444703 0 0 0 0 -2.1828631014452444 -2.0171491789342326 0 -2.0171491789342326 21.580645075446228 0 0 0 0 0.019595920759804791 8.7910535326846002 0 8.7910535326846002 -3.0444884186726995 0 0 0 0 1.3477486908017671 0.43005464318048325 0 0.43005464318048325 -11.529622984224261 0 0 0 0 -0.014357782347279928 9.6151715236337623 0 9.6151715236337623 -24.48329687997466 0 0 0 0 2.8040414581567736 10.031004727441086 0 10.031004727441086 -28.621838992694393 0 0 0 0 -8.9719032727924528 14.396670085930964 0 14.396670085930964 -24.952122073009377 0 0 0 0 -2.9084938674234522 14.899569678585976 0 14.899569678585976 -29.287276956012647 0 0 0 0 -17.699503079754095 16.480101004584867 0 16.480101004584867 -22.021228262703517 0 0 0 0 -12.966588284520697 12.413205375640246 0 12.413205375640246 -18.803176570800133 0 0 0 0 -14.857707730416806 22.73588095278501 0 22.73588095278501 -17.175412513039191 0 0 0 0 -2.9974472283760925 7.9385716774463617 0 7.9385716774463617 -25.061178023548564 0 0 0 0 0.34107786697706644 10.660450726441923 0 10.660450726441923 -25.729252761237149 0 0 0 0 0.057285575070602036 8.3643524918443291 0 8.3643524918443291 -18.163663541636197 0 0 0 0 -4.453883661567918 16.146245221054414 0 16.146245221054414 16.115614759168238 0 0 0 0 0.37557687157776698 16.879448630847037 0 16.879448630847037 -28.651390124286991 0 0 0 0 -9.1547421231462973 11.295023610073258 0 11.295023610073258 -18.558830167603446 0 0 0 0 -8.8996972268173664 4.2843523380433908 0 4.2843523380433908 -22.679627259931294 0 0 0 0 -32.911373685371821 7.716194232692942 0 7.716194232692942 -18.799400906340452 0 0 0 0 -15.093885946654529 1.0241458810560289 0 1.0241458810560289 -31.784380010591121 0 0 0 0 0.05633647272065672 1.201798727676902 0 1.201798727676902 2.3876654259561576 0 0 0 0 -23.673019802123378 18.667900837161142 0 18.667900837161142 -18.018782396771712 0 0 0 0 -25.352707913562465 31.727448093261046 0 31.727448093261046 -21.578339729458094 0 0 0 0 -0.058810092935184799 -0.043519890384374094 0 -0.043519890384374094 0.37324319709222209 0 0 0 0 -2.6175547293568684 11.323639312817249 0 11.323639312817249 -32.250391660749756 0 0 0 0 -39.462306625456264 -0.24276921755517833 0 -0.24276921755517833 -27.745215998791537 0 0 0 0 -10.782148468806874 46.076544076004666 0 46.076544076004666 214.17731175433437 0 0 0 0 -30.985713641153758 -93.253412938076963 0 -93.253412938076963 159.76185503932356 0 0 0 0 136.18310819704541 -44.952236672391336 0 -44.952236672391336 151.4038299669337 0 0 0 0 91.188319622593568 134.02705667651026 0 134.02705667651026 290.73159153846063 0 0 0 0 42.292511253841006 79.291188359246007 0 79.291188359246007 232.16275783197489 0 0 0 0 0.052238821729188069 -0.012726386110998078 0 -0.012726386110998078 0.71373234249918482 0 0 0 0 -4.0170789308088821 33.596144474475295 0 33.596144474475295 0.20517136270063929 0 0 0 0 16.290337520662813 57.368719084130134 0 57.368719084130134 23.479734475447913 0 0 0 0 -51.797448225195993 -9.3730145826239095 0 -9.3730145826239095 265.2158868319093 0 0 0 0 54.520087855757055 -95.729936327610631 0 -95.729936327610631 39.870430131104513 0 0 0 0 -48.530119771440546 14.887001086574401 0 14.887001086574401 167.27077447508054 0 0 0 0 -1.9370066514274527 0.0443850104638841 0 0.0443850104638841 7.1163274567043118 0 0 0 0 -0.2361709601627312 -1.8167879426080447 0 -1.8167879426080447 1.1855671362317111 0 0 0 0 -1.1703033008326713 0.99095735403534491 0 0.99095735403534491 4.1465728721959749 0 0 0 0 -2.2608791779837247 -4.123347330292745 0 -4.123347330292745 4.8971197686478263 0 0 0 0 0.014222304595762125 -2.2228395431757235 0 -2.2228395431757235 4.2569450010050787 0 0 0 0 -4.457821656693568 -2.4522886382583238 0 -2.4522886382583238 6.2547811070035095 0 0 0 0 -7.3376073623733093 0.10087116183026978 0 0.10087116183026978 0.54174208137256485 0 0 0 0 -4.2173548494579336 -1.5405520143685862 0 -1.5405520143685862 4.3486291573490234 0 0 0 0 -1.3030878396076038 0.75124958151383225 0 0.75124958151383225 1.5866779537427362 0 0 0 0 -5.1221563206870364 2.0700383339544715 0 2.0700383339544715 3.9310920359712327 0 0 0 0 -29.991264981734673 9.2387208192667458 0 9.2387208192667458 0.81700352422194555 0 0 0 0 -0.048297392303061293 0.34642654122301053 0 0.34642654122301053 0.60335162978715573 0 0 0 0 -17.248268169503604 30.646101871658175 0 30.646101871658175 -32.739564827774302 0 0 0 0 -8.4091101774403114 13.129357644334959 0 13.129357644334959 -36.813243260592571 0 0 0 0 -20.00045829219809 29.306201805455203 0 29.306201805455203 -59.268162460017265 0 0 0 0 -30.995762469205459 30.958236832037073 0 30.958236832037073 -31.978147011992405 0 0 0 0 -13.924614276768143 16.03588857347529 0 16.03588857347529 -28.470261719368864 0 0 0 0 -12.801797756725197 39.693332626445908 0 39.693332626445908 -44.456143552852154 0 0 0 0 -22.464711002908601 41.300996865345951 0 41.300996865345951 -41.381996190772043 0 0 0 0 2.0063659578613122 2.4461218661750195 0 2.4461218661750195 1.8930077547136079 0 0 0 0 -11.757812161643187 10.057840197976475 0 10.057840197976475 9.5365631686136112 0 0 0 0 -4.759598208542684 4.3851882348026265 0 4.3851882348026265 -0.13001906073623104 0 0 0 0 -15.855831787721513 5.4590277867082477 0 5.4590277867082477 27.863157358136959 0 0 0 0 -18.95507792575404 -3.8852200780420389 0 -3.8852200780420389 21.48751903999073 0 0 0 0 -10.62415391866104 0.1117398098572977 0 0.1117398098572977 -0.63717182909449122 0 0 0 0 -6.5789181458699204 -3.4938968696951633 0 -3.4938968696951633 5.8110632454045117 0 0 0 0 -5.0362391739067789 -5.8205236081848852 0 -5.8205236081848852 3.935382385217963 0 0 0 0 -6.9940843222182139 -4.2016462112078443 0 -4.2016462112078443 7.2573509796711733 0 0 0 0 -6.0321079130808357 -5.5379057725094754 0 -5.5379057725094754 7.3684403033767012 0 0 0 0 -32.647462608016212 31.628037372174731 0 31.628037372174731 345.37602718464768 0 0 0 0 -0.13271271302991261 -1.7797334609969937 0 -1.7797334609969937 0.91551211991625081 0 0 0 0 -2.9770039729291966 -11.164432252480765 0 -11.164432252480765 202.27255529254398 0 0 0 0 -31.476145850669127 24.427672994072054 0 24.427672994072054 186.02289175736223 0 0 0 0 -29.39793970517735 27.096962137673472 0 27.096962137673472 28.807519066540408 0 0 0 0 -34.112054976445506 -20.704624258749391 0 -20.704624258749391 25.663403817845392 0 0 0 0 -11.0541269889859 -22.058813027608267 0 -22.058813027608267 -20.898084822430974 0 0 0 0 -0.20973668655811206 -0.90199403075368423 0 -0.90199403075368423 0.65685463922277165 0 0 0 0 -10.419044524751371 0.047472024867602158 0 0.047472024867602158 17.062512744965716 0 0 0 0 -12.790674628289139 0.61742572470211599 0 0.61742572470211599 26.190746288571972 0 0 0 0 -13.576781620356279 0.75862588520246277 0 0.75862588520246277 4.676137855667907 0 0 0 0 -18.535200214110091 3.6960915815798216 0 3.6960915815798216 32.411390019988175 0 0 0 0 -10.192045631872702 10.291294777831354 0 10.291294777831354 7.1489908525982173 0 0 0 0 -14.217259503452397 -0.093609918163565453 0 -0.093609918163565453 24.111062007395958 0 0 0 0 -18.854748812083926 22.023597514191351 0 22.023597514191351 -9.1647778044416555 0 0 0 0 -11.195291539084224 17.075941823386529 0 17.075941823386529 -10.151411434926558 0 0 0 0 -21.466833650905983 12.17509247950693 0 12.17509247950693 14.211230686123599 0 0 0 0 -14.187695751503156 6.7950108905642992 0 6.7950108905642992 5.4365218653038028 0 0 0 0 -17.40491696122217 20.686020455850667 0 20.686020455850667 -4.4958666817510675 0 0 0 0 -46.918018908452979 58.182853081809299 0 58.182853081809299 -34.152291991216771 0 0 0 0 2.2332999902499675 2.1823730409977173 0 2.1823730409977173 1.9815938460582743 0 0 0 0 10.931520080009491 47.107897228240745 0 47.107897228240745 -41.406428524787771 0 0 0 0 -30.926600321293989 62.685413100552068 0 62.685413100552068 -20.008924599234888 0 0 0 0 -20.08107656011623 -2.734315668574709 0 -2.734315668574709 9.9904275348781084 0 0 0 0 9.0460061336916624 -24.709484001527017 0 -24.709484001527017 87.733343219624658 0 0 0 0 22.191229511519477 37.659730560779508 0 37.659730560779508 47.797281918952649 0 0 0 0 -39.755097016257196 -11.978397892104113 0 -11.978397892104113 53.526512612690567 0 0 0 0 -43.84325651740663 32.67858010747409 0 32.67858010747409 85.810197181148396 0 0 0 0 20.570910674327706 21.182006326351257 0 21.182006326351257 -20.565000910272829 0 0 0 0 0.39488498978531261 0.6734641328107358 0 0.6734641328107358 0.88725362427959453 0 0 0 0 -13.090313484202397 23.233180335304496 0 23.233180335304496 -20.061594029670232 0 0 0 0 1.4572661851772113 1.7381416978566477 0 1.7381416978566477 1.7735786476490603 0 0 0 0 -237.4327170000463 -12.783240784541704 0 -12.783240784541704 61.607090492780117 0 0 0 0 -0.2018010279577791 2.3279914120731 0 2.3279914120731 23.793864193631094 0 0 0 0 -110.5190098773412 58.738268771219737 0 58.738268771219737 19.574204341413861 0 0 0 0 -15.67367555169335 25.662506796496018 0 25.662506796496018 4.7149458368439809 0 0 0 0 -2.3212622833640637 99.514039027876606 0 99.514039027876606 15.119472234815476 0 0 0 0 -93.785501993062553 -26.205950386949553 0 -26.205950386949553 -7.1771571269491687 0 0 0 0 -90.224598210861586 -11.758036382056162 0 -11.758036382056162 47.447166949561506 0 0 0 0 26.399822399066522 9.9124730056128101 0 9.9124730056128101 0.48450436031271238 0 0 0 0 161.82479249289145 37.214115507973474 0 37.214115507973474 -0.6711930290825876 0 0 0 0 27.31502061008274 5.8931417979883918 0 5.8931417979883918 18.097050024654891 0 0 0 0 -92.072502304275616 9.2333761784398121 0 9.2333761784398121 13.431432743418554 0 0 0 0 -79.81470470274553 -44.24780268761242 0 -44.24780268761242 42.628161738608469 0 0 0 0 -16.229384756716172 -62.889974374073063 0 -62.889974374073063 48.95938776955154 0 0 0 0 -12.52706175775279 3.9948475440432958 0 3.9948475440432958 63.080368386436021 0 0 0 0 -69.65153959830127 -41.698005204798392 0 -41.698005204798392 53.192753661278402 0 0 0 0 -63.368927971280527 -24.392013580683852 0 -24.392013580683852 20.51055921450461 0 0 0 0 0.30324229446542694 1.9961808653294337 0 1.9961808653294337 23.967574437007244 0 0 0 0 -128.59041727216436 -32.444735860739456 0 -32.444735860739456 46.095763369430642 0 0 0 0 -26.153192162245887 19.954880734010658 0 19.954880734010658 2.5156553431625071 0 0 0 0 -12.7936184925519 2.8966504657364567 0 2.8966504657364567 15.418951303290669 0 0 0 0 -17.159506463992557 6.4903859154837846 0 6.4903859154837846 23.512296564520511 0 0 0 0 -2.6946439835949887 2.0007622858284488 0 2.0007622858284488 23.677831095279714 0 0 0 0 -44.850038116775352 -21.300666841916609 0 -21.300666841916609 16.599659618310397 0 0 0 0 -8.3394763547009845 1.1075450313947925 0 1.1075450313947925 4.412657438929191 0 0 0 0 -34.440814229307989 -22.429457059137349 0 -22.429457059137349 8.0644673609886013 0 0 0 0 -3.0756752407168211 2.0774284571593959 0 2.0774284571593959 18.837048135657625 0 0 0 0 -26.223829020637368 3.7310270270245383 0 3.7310270270245383 43.610848606404033 0 0 0 0 -131.76500447115154 118.83170474180952 0 118.83170474180952 221.55224173114402 0 0 0 0 180.45305773750209 2.2274399755806371 0 2.2274399755806371 -78.026830386217625 0 0 0 0 -0.24681899499132171 -0.26650106435511134 0 -0.26650106435511134 3.4772339614883663 0 0 0 0 67.119704060286494 -287.43254335848906 0 -287.43254335848906 216.84409002104678 0 0 0 0 120.52904458991799 47.662450986841577 0 47.662450986841577 12.590798267369337 0 0 0 0 197.58368969021296 -285.53608792464547 0 -285.53608792464547 108.10031496250303 0 0 0 0 0.4389059750330464 0.11090752808334514 0 0.11090752808334514 7.1527092542538355 0 0 0 0 125.59259459567664 -310.17540257609835 0 -310.17540257609835 137.88940627532429 0 0 0 0 -12.45931903575282 9.0883984565553106 0 9.0883984565553106 29.461391055498666 0 0 0 0 -77.355385887338116 47.586996247909155 0 47.586996247909155 165.18056759145111 0 0 0 0 -55.771531105573558 -38.298363625181082 0 -38.298363625181082 175.42392906152963 0 0 0 0 -60.259745255757537 -3.9389329316509247 0 -3.9389329316509247 41.70933056278227 0 0 0 0 1.9337008244762046 118.16210489457444 0 118.16210489457444 251.13085540808243 0 0 0 0 -62.283273890251536 -100.20965039109797 0 -100.20965039109797 310.24624469368064 0 0 0 0 -66.966241937047982 -67.167213465858367 0 -67.167213465858367 122.05388499006222 0 0 0 0 -26.438014729714951 -56.848182299363543 0 -56.848182299363543 76.437419969217444 0 0 0 0 -5.6487227515253835 -82.210989057002735 0 -82.210989057002735 -120.81879617257073 0 0 0 0 -2.3250269671829571 0.24684643617774782 0 0.24684643617774782 -0.82512793151469666 0 0 0 0 -28.5596394458737 -36.81286061584342 0 -36.81286061584342 -18.697937019038363 0 0 0 0 -40.315130090187495 -78.669429828063585 0 -78.669429828063585 14.296856884138833 0 0 0 0 -24.02733116424568 -22.627970186030325 0 -22.627970186030325 40.470957178040408 0 0 0 0 -65.867007540000941 -90.163262811551249 0 -90.163262811551249 2.5439730730940937 0 0 0 0 92.868755346413081 -19.230922957392977 0 -19.230922957392977 15.993082125591172 0 0 0 0 129.45767782899304 -87.644485481791435 0 -87.644485481791435 54.70357039681403 0 0 0 0 8.9574588296942466 28.064612120953825 0 28.064612120953825 38.870152090210468 0 0 0 0 152.16166262948036 8.1409073335598805 0 8.1409073335598805 -43.699909702976584 0 0 0 0 -11.739421791641421 9.6398912805475021 0 9.6398912805475021 29.428254330162389 0 0 0 0 -56.711753568725726 -199.53470224509147 0 -199.53470224509147 156.08694825813654 0 0 0 0 -18.930387269155062 -31.088571637741552 0 -31.088571637741552 112.53932547236036 0 0 0 0 8.1493492842327058 -19.285642133775127 0 -19.285642133775127 65.573366059703403 0 0 0 0 7.3593473348796579 -21.761124909215141 0 -21.761124909215141 68.190929088264966 0 0 0 0 8.0852310680417077 -18.657389107632071 0 -18.657389107632071 63.987434330687393 0 0 0 0 11.282514105723976 -20.16455831303756 0 -20.16455831303756 64.08985488084727 0 0 0 0 2.1894108761435689 -21.042393361974973 0 -21.042393361974973 73.568332328686665 0 0 0 0 0.30219782455418454 -12.872419447907305 0 -12.872419447907305 88.647115225991001 0 0 0 0 0.036370261524695024 -22.481839627653244 0 -22.481839627653244 80.076556290485314 0 0 0 0 3.6678980911237886 -19.763304165593581 0 -19.763304165593581 74.645483282278292 0 0 0 0 3.7574199404006094 -19.245938303640287 0 -19.245938303640287 66.476692774107505 0 0 0 0 0.4464235869205595 -14.818081972960499 0 -14.818081972960499 70.128899078539689 0 0 0 0 8.0291873573465864 -8.5183536049007671 0 -8.5183536049007671 73.377855492246454 0 0 0 0 7.785228867170531 -13.099986116307264 0 -13.099986116307264 56.468288412652328 0 0 0 0 14.032236222374195 -3.8182944396758103 0 -3.8182944396758103 56.547554923337032 0 0 0 0 2.5832383326757054 2.2174313264185912 0 2.2174313264185912 70.968861745653612 0 0 0 0 2.9308346643000505 -4.6718705647836032 0 -4.6718705647836032 71.202485752422945 0 0 0 0 -3.8344345207601123 -3.4853430148868938 0 -3.4853430148868938 80.108013498371292 0 0 0 0 4.9354948180808833 8.7106134676359943 0 8.7106134676359943 51.310819766920758 0 0 0 0 0.71175936130110529 -6.9023106679701414 0 -6.9023106679701414 70.702047856233548 0 0 0 0 11.311043565125203 3.7100578204281192 0 3.7100578204281192 9.9765300186700188 0 0 0 0 1.643907415651654 -13.87505967420293 0 -13.87505967420293 50.612491546079127 0 0 0 0 0.047928572536037439 -0.78996092331841794 0 -0.78996092331841794 5.8886949515536955 0 0 0 0 -8.1731555259882906 9.0456850485283695 0 9.0456850485283695 32.270488603902493 0 0 0 0 0.34392374909521095 1.0531974765690393 0 1.0531974765690393 66.544337154045934 0 0 0 0 11.172394461155704 3.1326288187192404 0 3.1326288187192404 63.489821676688734 0 0 0 0 33.281776260271272 -16.948736695383559 0 -16.948736695383559 29.395278708849219 0 0 0 0 -2.4530271874747758 8.2109392460471291 0 8.2109392460471291 3.8968357379438032 0 0 0 0 -5.3838666726670965 -17.854424200907488 0 -17.854424200907488 39.289911472769745 0 0 0 0 -0.30172269791444162 -7.0098557704567597 0 -7.0098557704567597 39.885828897762792 0 0 0 0 92.286699643037537 -5.5815221051925619 0 -5.5815221051925619 57.606687194317601 0 0 0 0 6.8933740416243943 -18.299326451544715 0 -18.299326451544715 24.462029477371331 0 0 0 0 6.5517881960862852 -21.60457590817532 0 -21.60457590817532 35.107778433910426 0 0 0 0 10.80481725855887 -14.498355980205815 0 -14.498355980205815 30.483698146666939 0 0 0 0 1.6928516374390055 -4.2162083416607885 0 -4.2162083416607885 16.709027525291916 0 0 0 0 -1851.1181479459156 -938.47658210626105 0 -938.47658210626105 -209.3395329809282 0 0 0 0 150.81767028593185 -180.96518202154402 0 -180.96518202154402 -131.44111620477634 0 0 0 0 -5.6865617499201981 -4.2540173956692939 0 -4.2540173956692939 12.529374490165083 0 0 0 0 -56.805102112715758 -140.40713331181178 0 -140.40713331181178 60.277209932188271 0 0 0 0 -126.42714076889604 -78.176463107547534 0 -78.176463107547534 47.082424335399992 0 0 0 0 -396.51603101253068 467.76454786716204 0 467.76454786716204 273.24514082227688 0 0 0 0 4.7372044718685764 -19.111910378679717 0 -19.111910378679717 32.954727431267145 0 0 0 0 -197.82184764331379 -232.51650467556965 0 -232.51650467556965 -44.137922497204272 0 0 0 0 -79.11662195896497 -157.84236550465357 0 -157.84236550465357 -176.88509141572649 0 0 0 0 -94.120866552930238 -71.02358997243573 0 -71.02358997243573 36.435324568796204 0 0 0 0 -140.44418648057103 -100.10646855735467 0 -100.10646855735467 212.70359105126408 0 0 0 0 -105.80756069161225 -24.319883452051727 0 -24.319883452051727 140.7446732142198 0 0 0 0 -137.21908672145105 -104.85853768214656 0 -104.85853768214656 50.426017550202232 0 0 0 0 -128.73501750945672 -41.656198190648865 0 -41.656198190648865 131.60457053205209 0 0 0 0 119.41684049343996 11.449505269978545 0 11.449505269978545 34.345276271837065 0 0 0 0 -1.6857205769823738 -12.310860013548812 0 -12.310860013548812 49.122568939382475 0 0 0 0 -26.103859377682113 -16.100008448123845 0 -16.100008448123845 44.667983755629393 0 0 0 0 10.074460031224589 -5.1241346040624194 0 -5.1241346040624194 32.072328328213189 0 0 0 0 4.3409564592711831 -14.688064099803228 0 -14.688064099803228 36.47462261620467 0 0 0 0 96.105849744790703 -0.8473961512936512 0 -0.8473961512936512 50.922924499202054 0 0 0 0 92.877975510646138 18.236177985265385 0 18.236177985265385 34.410744331107708 0 0 0 0 65.798829084529302 9.5506936772944755 0 9.5506936772944755 49.515229669210385 0 0 0 0 7.4673213002349712 -10.295291940390598 0 -10.295291940390598 72.334056690368016 0 0 0 0 60.888162745713771 -51.556049112012261 0 -51.556049112012261 43.451358169499144 0 0 0 0 93.579358238522673 -72.821562951106898 0 -72.821562951106898 113.8654175427946 0 0 0 0 47.159052612528285 35.130956466477073 0 35.130956466477073 144.14637791896894 0 0 0 0 188.47445189601876 33.145576601935318 0 33.145576601935318 63.410515629901056 0 0 0 0 90.56182615521675 -60.877440711967211 0 -60.877440711967211 149.61942344483396 0 0 0 0 -6.4721255240756195 5.5754262184755987 0 5.5754262184755987 18.805367945516821 0 0 0 0 1.7929228646733693 -16.36173801386612 0 -16.36173801386612 84.085425616364347 0 0 0 0 134.0535275606365 39.766897769412026 0 39.766897769412026 62.483423047844553 0 0 0 0 9.550186396996196 -20.134083447301236 0 -20.134083447301236 63.574244027025998 0 0 0 0 65.679034727568933 51.407653343463608 0 51.407653343463608 44.318730511547983 0 0 0 0 73.609825673267324 29.135763037247671 0 29.135763037247671 65.598203765865037 0 0 0 0 1.652240199294891 -12.860841240928078 0 -12.860841240928078 84.537606782877759 0 0 0 0 19.341605537390251 68.376650717902521 0 68.376650717902521 41.418285419618769 0 0 0 0 -22.013945725992471 14.496322025690461 0 14.496322025690461 88.349258825756579 0 0 0 0 -31.209659052108464 36.603149383849086 0 36.603149383849086 43.648417847547535 0 0 0 0 -66.795094418200506 45.428833853788092 0 45.428833853788092 189.85294351075936 0 0 0 0 -104.63242715303636 -24.907704912713598 0 -24.907704912713598 83.809421544683573 0 0 0 0 -8.6606543862953913 -4.7213688653755526 0 -4.7213688653755526 80.236219040249125 0 0 0 0 31.620246075827026 0.94593153490313853 0 0.94593153490313853 41.945682646222849 0 0 0 0 -10.185482940559154 7.2374841610526346 0 7.2374841610526346 154.9746310031187 0 0 0 0 -83.49969057819817 -19.822849679487263 0 -19.822849679487263 86.552610336359066 0 0 0 0 -51.349630146094881 -14.397155622391438 0 -14.397155622391438 95.393647030236025 0 0 0 0 83.837351349639334 106.11969200671592 0 106.11969200671592 -8.1280089219799265 0 0 0 0 399.65432358851263 82.131765966252715 0 82.131765966252715 -44.587552459583094 0 0 0 0 -148.65238813853375 -198.58558897399416 0 -198.58558897399416 428.57889079474262 0 0 0 0 1.9486521464230158 -14.346830160180595 0 -14.346830160180595 79.54042717604014 0 0 0 0 -10.029811195491106 11.179588899938608 0 11.179588899938608 86.659849242172641 0 0 0 0 145.58388108305218 189.49499067599027 0 189.49499067599027 63.202718316155369 0 0 0 0 181.00880927443882 64.599528563325293 0 64.599528563325293 -179.84887063369388 0 0 0 0 0.18433971336415628 1.4503123101026976 0 1.4503123101026976 5.2837430870071103 0 0 0 0 -72.881507205945923 -119.32664990430931 0 -119.32664990430931 98.446238423744944 0 0 0 0 0.62227069164571014 -6.6810025511389917 0 -6.6810025511389917 73.035751413530733 0 0 0 0 -254.08700341380438 124.8460958164269 0 124.8460958164269 101.66849292286497 0 0 0 0 0.10728097061714353 -4.6882815381530083 0 -4.6882815381530083 17.246588294213751 0 0 0 0 -30.101982342649421 -4.1940069566553575 0 -4.1940069566553575 75.346727275933517 0 0 0 0 -18.722490322241924 37.764267906801251 0 37.764267906801251 25.988850608529901 0 0 0 0 -18.212260051891008 -59.216462464437427 0 -59.216462464437427 253.36028593648371 0 0 0 0 0.45930298308955386 -1.1173377661151704 0 -1.1173377661151704 6.6916774807304336 0 0 0 0 -9.5334107754847537 41.963140821004345 0 41.963140821004345 -5.8295635215181392 0 0 0 0 0.36583485039463426 12.057768774460328 0 12.057768774460328 7.8796953853670857 0 0 0 0 28.460511471064592 -17.657171988106711 0 -17.657171988106711 34.361726001534862 0 0 0 0 -7.5105475924073062 -35.337275649420917 0 -35.337275649420917 69.565291859886202 0 0 0 0 3.5127995742948315 -46.791944650551159 0 -46.791944650551159 73.821807496235124 0 0 0 0 24.45911891660171 -86.424403319979319 0 -86.424403319979319 137.79057501169882 0 0 0 0 56.367728308551477 41.476137267884042 0 41.476137267884042 -22.353687150280166 0 0 0 0 111.06245535625862 -48.627907955142291 0 -48.627907955142291 17.295511520457694 0 0 0 0 215.44919648573227 -135.15793473334043 0 -135.15793473334043 94.212300463113934 0 0 0 0 295.95737394864409 -66.350893331080442 0 -66.350893331080442 136.15554587779116 0 0 0 0 79.43572515888718 -156.20420616979754 0 -156.20420616979754 421.26035476013203 0 0 0 0 59.554111310875101 -78.233627016383252 0 -78.233627016383252 129.32366393601842 0 0 0 0 -2.8349612357717433 37.345832950526528 0 37.345832950526528 261.90959166784887 0 0 0 0 -14.980879941412411 -9.1761862071980431 0 -9.1761862071980431 93.789981635505683 0 0 0 0 -30.403674676821424 40.654398695609416 0 40.654398695609416 127.59373386605512 0 0 0 0 102.84010940721919 88.602182499220362 0 88.602182499220362 95.093143484817119 0 0 0 0 102.04499744395571 -11.212811631296063 0 -11.212811631296063 33.331564431993229 0 0 0 0 53.450082763232786 127.69519351523923 0 127.69519351523923 438.8739020308476 0 0 0 0 229.0305961084448 132.74010943110443 0 132.74010943110443 38.370492760011985 0 0 0 0 32.471037735463597 31.426967352916108 0 31.426967352916108 134.11680850404082 0 0 0 0 -568.82157674537211 67.198799713278277 0 67.198799713278277 244.32540170507855 0 0 0 0 -130.98580857013857 -14.983016297528593 0 -14.983016297528593 118.50688003230971 0 0 0 0 -0.97017820271063193 -1.4313119479174805 0 -1.4313119479174805 85.420486636845709 0 0 0 0 -67.736253512887288 191.38373831254285 0 191.38373831254285 -291.87435889086919 0 0 0 0 -33.473756427739659 20.143175640296249 0 20.143175640296249 60.490887936919535 0 0 0 0 -63.892159147759713 21.074786416436837 0 21.074786416436837 120.8768304107798 0 0 0 0 -248.92945858774647 -310.81424178622547 0 -310.81424178622547 525.81971239938866 0 0 0 0 -73.939778604189584 -37.175300376053201 0 -37.175300376053201 100.30072792262217 0 0 0 0 -2.0529726044888643 7.1851266535018112 0 7.1851266535018112 5.8836652872547859 0 0 0 0 62.046369832577966 264.50438779267279 0 264.50438779267279 -93.801199133129558 0 0 0 0 -0.13930831608969213 -5.3541795227802158 0 -5.3541795227802158 85.869734500649429 0 0 0 0 -24.283697868458603 -63.900340275307826 0 -63.900340275307826 106.75039697165039 0 0 0 0 -15.604178499007048 -28.088289848740715 0 -28.088289848740715 93.795374993169389 0 0 0 0 -132.94181908546034 16.607201705464831 0 16.607201705464831 -48.707372084281815 0 0 0 0 0.23640039454831641 0.83557872220943707 0 0.83557872220943707 5.725756139751752 0 0 0 0 -123.15387115417661 107.46715954406682 0 107.46715954406682 473.84215057047913 0 0 0 0 169.76963979102035 205.0025920680032 0 205.0025920680032 23.121623990598891 0 0 0 0 134.00143058016693 -228.29585596205288 0 -228.29585596205288 236.80475374470188 0 0 0 0 -424.91486142900021 -119.88547074362396 0 -119.88547074362396 304.44270099943969 0 0 0 0 -136.60068229089842 -37.308359476671853 0 -37.308359476671853 139.06292969833885 0 0 0 0 -138.68000709876787 35.73268373782048 0 35.73268373782048 82.41317546548089 0 0 0 0 -119.57741239473808 -29.878444406836934 0 -29.878444406836934 60.277650905540213 0 0 0 0 -236.03327379465455 32.969192080443918 0 32.969192080443918 62.766093920043204 0 0 0 0 10.414019119740715 -95.015565947935102 0 -95.015565947935102 18.788221558548685 0 0 0 0 -95.397452922600678 -8.930517310203868 0 -8.930517310203868 65.328270822115883 0 0 0 0 1.6616496135072794 -113.44077403685878 0 -113.44077403685878 125.56243292998988 0 0 0 0 130.30263796425533 -72.744415815823686 0 -72.744415815823686 75.92699357989477 0 0 0 0 132.64531583624102 -119.5761455440952 0 -119.5761455440952 39.010555269967881 0 0 0 0 68.041036822280148 -128.24053824684961 0 -128.24053824684961 73.751674392449786 0 0 0 0 96.5099769681201 -110.50785684564835 0 -110.50785684564835 79.314449613404577 0 0 0 0 82.641835675015727 -95.953434844668664 0 -95.953434844668664 81.778487096569734 0 0 0 0 85.54633733324863 -129.99110107035813 0 -129.99110107035813 90.450651477822248 0 0 0 0 72.547403306030446 -122.4475883827472 0 -122.4475883827472 141.63626339990878 0 0 0 0 105.90583685757065 -152.69363433527906 0 -152.69363433527906 54.16060571098933 0 0 0 0 29.836053006402835 -52.25847294756386 0 -52.25847294756386 -2.8107913017574901 0 0 0 0 -30.363092536633758 18.728812739791465 0 18.728812739791465 -63.332688322392642 0 0 0 0 10.497616156441495 -59.414238445977389 0 -59.414238445977389 18.858293446886819 0 0 0 0 39.924086623791709 -67.543161877214516 0 -67.543161877214516 28.524709215984331 0 0 0 0 38.412129733303232 -34.221155841572909 0 -34.221155841572909 79.527265879252809 0 0 0 0 106.96983176940239 -59.936401754952385 0 -59.936401754952385 86.065351542434655 0 0 0 0 63.076788094901531 -45.018424966474413 0 -45.018424966474413 82.627610011732031 0 0 0 0 17.245244881733925 -38.498075685565709 0 -38.498075685565709 96.247134397322952 0 0 0 0 72.324173518537918 -92.660189782487578 0 -92.660189782487578 101.0556920457966 0 0 0 0 23.865083483921808 -76.495410476331017 0 -76.495410476331017 95.913869395459187 0 0 0 0 94.945048165577646 -65.929722161159589 0 -65.929722161159589 107.76235313389043 0 0 0 0 23.466106317521508 -26.048404571462015 0 -26.048404571462015 159.60962175326495 0 0 0 0 63.683381849092143 4.1167425721851032 0 4.1167425721851032 135.09873580589192 0 0 0 0 120.18876502247122 93.616815079658409 0 93.616815079658409 300.00826381779916 0 0 0 0 287.80644304673342 4.5456705559827242 0 4.5456705559827242 84.154341645189561 0 0 0 0 -38.373308217772319 -42.670739080233034 0 -42.670739080233034 432.53364679297738 0 0 0 0 44.734385543043345 -196.37560374590612 0 -196.37560374590612 274.18058220017338 0 0 0 0 -13.876151659997362 -62.570860066896785 0 -62.570860066896785 241.56392024630622 0 0 0 0 -57.417687234820164 -1.7670108975034964 0 -1.7670108975034964 69.103707852736989 0 0 0 0 57.545952208167364 -112.11005628836574 0 -112.11005628836574 76.495884153955558 0 0 0 0 5.2995603448191559 -31.190869369904249 0 -31.190869369904249 33.021689823006454 0 0 0 0 -115.14106335152223 -30.334975962949102 0 -30.334975962949102 62.386997580084426 0 0 0 0 -0.045311317754360481 2.0524778161455348 0 2.0524778161455348 15.439817863158055 0 0 0 0 -11.197508813590957 123.54552924917516 0 123.54552924917516 -12.787465942725248 0 0 0 0 -0.75550648628768613 99.723612540699833 0 99.723612540699833 -33.731958145974204 0 0 0 0 81.088863634115114 110.32230500958394 0 110.32230500958394 -33.669235693376891 0 0 0 0 23.573715394000715 193.80565077041319 0 193.80565077041319 65.998048046472832 0 0 0 0 -78.39238951391917 100.55942577154201 0 100.55942577154201 -3.3860106582360459 0 0 0 0 -225.52498712703255 132.07932094522403 0 132.07932094522403 85.072233533661347 0 0 0 0 -84.491194291998681 136.79992460439098 0 136.79992460439098 34.912258586911776 0 0 0 0 -11.560921895807724 154.04759699315036 0 154.04759699315036 385.53612572247221 0 0 0 0 -32.791972823197284 73.077387149860442 0 73.077387149860442 87.352411044820656 0 0 0 0 132.70617987116293 -167.53344080939132 0 -167.53344080939132 284.00219643045057 0 0 0 0 51.791447988203572 -61.984194264543476 0 -61.984194264543476 21.11464253529266 0 0 0 0 -8.145769406807176 12.403067760620615 0 12.403067760620615 55.735121488833101 0 0 0 0 -123.34517494444344 -65.749357652448452 0 -65.749357652448452 88.243908018012007 0 0 0 0 -306.85641915538213 44.700130909946893 0 44.700130909946893 83.096220633058692 0 0 0 0 -171.87202145844367 37.452142284946603 0 37.452142284946603 57.67593123302504 0 0 0 0 -0.22601681155482534 2.369837607818928 0 2.369837607818928 21.470344584366671 0 0 0 0 -60.116827267271674 -50.115756574108673 0 -50.115756574108673 67.663927097877604 0 0 0 0 16.577726377952217 36.560854053865114 0 36.560854053865114 22.844822892926459 0 0 0 0 -39.530526022195374 -16.971250020415027 0 -16.971250020415027 -1.7063151467154967 0 0 0 0 -40.323874307894272 -15.17682260861875 0 -15.17682260861875 68.546186494510039 0 0 0 0 12.669726742235014 -11.312498655268428 0 -11.312498655268428 77.22355782627892 0 0 0 0 2.8484303084326257 39.077055147514329 0 39.077055147514329 85.024911841714129 0 0 0 0 -23.221570302115424 13.782258729166642 0 13.782258729166642 98.498024962893396 0 0 0 0 -7.2512752687221109 17.841352698877017 0 17.841352698877017 74.81252189109 0 0 0 0 -22.53016057192265 -3.7924391794240364 0 -3.7924391794240364 112.26781739015132 0 0 0 0 29.279998390498463 -5.0219460093212547 0 -5.0219460093212547 103.40973006066633 0 0 0 0 25.330340428704641 -32.240670994751781 0 -32.240670994751781 127.17731657736294 0 0 0 0 18.086651825445301 -13.283685320766381 0 -13.283685320766381 107.26002127327956 0 0 0 0 4.6933281531192961 -37.162865987527766 0 -37.162865987527766 160.47083892283263 0 0 0 0 2.4621115214791303 -26.270481557442508 0 -26.270481557442508 188.22909255047853 0 0 0 0 -0.13949681943723635 0.47757400455300569 0 0.47757400455300569 0.68966087905189966 0 0 0 0 -13.100286162381792 -69.304464454333356 0 -69.304464454333356 258.42812251283613 0 0 0 0 -0.24750397269027502 -11.156863958383838 0 -11.156863958383838 312.46059263253119 0 0 0 0 -0.28289152267173812 0.35127658000762096 0 0.35127658000762096 0.54211297603836783 0 0 0 0 -5.243900501261237 -38.387934971258801 0 -38.387934971258801 149.47927746573259 0 0 0 0 -13.584486774798847 -97.401709439240221 0 -97.401709439240221 176.61680861253444 0 0 0 0 -7.2204496488341192 -81.605343303392146 0 -81.605343303392146 210.48112899568514 0 0 0 0 -39.65757131898954 -97.200329481129302 0 -97.200329481129302 245.19991393110104 0 0 0 0 -20.238537543440913 -79.143332244570047 0 -79.143332244570047 210.06222334207996 0 0 0 0 4.5021353175447985 -87.557350528710231 0 -87.557350528710231 172.6868534275809 0 0 0 0 -22.627349571963236 -70.457619833396166 0 -70.457619833396166 234.45999523232604 0 0 0 0 4.8302703563952036 -48.89034927362809 0 -48.89034927362809 153.72336113661731 0 0 0 0 15.264072104809884 -6.1127557144955063 0 -6.1127557144955063 200.75937222249195 0 0 0 0 0.79252868043516855 -41.736581642609963 0 -41.736581642609963 164.78360988725035 0 0 0 0 8.0096778662885981 -43.405339752236614 0 -43.405339752236614 157.7269618425853 0 0 0 0 -0.084060982636204429 0.19639035765389679 0 0.19639035765389679 0.13572918783631849 0 0 0 0 -8.1350398951061607 -8.1136416453718994 0 -8.1136416453718994 10.222507260128623 0 0 0 0 19.030755171997725 -21.96621049305395 0 -21.96621049305395 14.922440646390896 0 0 0 0 14.741639907978424 2.767805776456953 0 2.767805776456953 97.539277951371332 0 0 0 0 1.8224064698890201 1.2845717621851236 0 1.2845717621851236 7.7509067092905752 0 0 0 0 0.11949783385342352 1.6481998215199667 0 1.6481998215199667 2.9897023342550426 0 0 0 0 0.040781901587276688 1.8681363171767913 0 1.8681363171767913 2.306537311909608 0 0 0 0 0.61119856832858233 1.1157984298333758 0 1.1157984298333758 2.3473998441331787 0 0 0 0 0.20694612116725519 2.0143730800358668 0 2.0143730800358668 3.1201314979620633 0 0 0 0 0.40356074831689481 2.0033790368628956 0 2.0033790368628956 2.5995475609710752 0 0 0 0 0.48266547605879406 2.3249975879417093 0 2.3249975879417093 3.5238654032200714 0 0 0 0 -1.2743063470735478 2.0826744775258703 0 2.0826744775258703 8.8598672935841023 0 0 0 0 1.5428912350429869 -2.0987035488869878 0 -2.0987035488869878 6.0244061160483398 0 0 0 0 -1.4701312032784131 3.2214037509165792 0 3.2214037509165792 8.9342109314457048 0 0 0 0 -0.19080999343020721 2.8006392932365998 0 2.8006392932365998 2.8929374873659981 0 0 0 0 21.667409154232644 -70.307272217607533 0 -70.307272217607533 135.95605030518345 0 0 0 0 -0.080646910613116241 -0.054394489808203161 0 -0.054394489808203161 1.3234827748074309 0 0 0 0 14.990797026993107 -44.922854658711003 0 -44.922854658711003 94.396902563647018 0 0 0 0 1.4376564502611018 -1.7976237367838621 0 -1.7976237367838621 8.1238723983842647 0 0 0 0 -1.0721234483825395 1.3700054831266328 0 1.3700054831266328 3.124129686819316 0 0 0 0 0.68787584415985481 -0.27566692779465995 0 -0.27566692779465995 2.5063194889148477 0 0 0 0 31.707952013453813 -32.929622568247851 0 -32.929622568247851 50.063441671823966 0 0 0 0 16.815942450956555 -127.09155288709371 0 -127.09155288709371 216.3911230060985 0 0 0 0 56.159563773740373 -105.56866876252207 0 -105.56866876252207 63.52333861713123 0 0 0 0 4.0181870195314104 -78.852134343724174 0 -78.852134343724174 132.06033540759745 0 0 0 0 -10.848502911228955 -118.76402749851513 0 -118.76402749851513 357.06405309731053 0 0 0 0 -15.212473226318053 -90.766082633788756 0 -90.766082633788756 213.8545652337998 0 0 0 0 87.428979968795488 -180.19874715878177 0 -180.19874715878177 205.94300336658489 0 0 0 0 145.82534183964469 -28.714996486214659 0 -28.714996486214659 10.414996338251512 0 0 0 0 10.879534271225623 -99.031940282013238 0 -99.031940282013238 458.34620848587656 0 0 0 0 1.0126013436636749 -0.86109918768920579 0 -0.86109918768920579 1.5368793914059324 0 0 0 0 1.8304527072234293 -5.3641442377702333 0 -5.3641442377702333 8.7336938898952212 0 0 0 0 0.96745942466733936 -1.2562496557220584 0 -1.2562496557220584 4.3154346442024689 0 0 0 0 0.92581404420741364 -1.633730181856663 0 -1.633730181856663 3.9848979706584942 0 0 0 0 1.0014883841730295 -2.847966091841954 0 -2.847966091841954 6.6302652547237813 0 0 0 0 0.72977873185295539 -2.2073811802476229 0 -2.2073811802476229 4.8385699527627253 0 0 0 0 -0.81612131591559411 0.22073985912750516 0 0.22073985912750516 2.6592212657195091 0 0 0 0 -1.3835756903548377 0.45938486527346356 0 0.45938486527346356 3.2443767474385652 0 0 0 0 1.4016804869243202 -2.4164288147767365 0 -2.4164288147767365 6.7888308069232153 0 0 0 0 0.3797999963335883 1.1933526595967123 0 1.1933526595967123 2.7505853854236193 0 0 0 0 0.32866393006309996 -0.098504670427416841 0 -0.098504670427416841 4.2583039784744869 0 0 0 0 1.3299155406848513 -0.79598584212362766 0 -0.79598584212362766 4.8928990799759049 0 0 0 0 1.3894396628922152 -2.0615442327034543 0 -2.0615442327034543 6.7081161949026864 0 0 0 0 -0.58253438489051834 1.1079087126283866 0 1.1079087126283866 2.2887664694321472 0 0 0 0 1.4994765133597134 0.27073302803182742 0 0.27073302803182742 4.7424031074478989 0 0 0 0 0.092945557702588 0.70508560124486053 0 0.70508560124486053 1.3354139422412317 0 0 0 0 -0.23454184307141984 0.57154443790520304 0 0.57154443790520304 1.3670824425616672 0 0 0 0 0.17072089671908053 0.14039358787704259 0 0.14039358787704259 2.8261377803501091 0 0 0 0 2.8192130808307674 -1.2699979569079005 0 -1.2699979569079005 8.1045256046581926 0 0 0 0 -0.58831363513241897 -0.025147625055979006 0 -0.025147625055979006 8.7403466647083405 0 0 0 0 0.63932919098453844 1.7596064222088899 0 1.7596064222088899 5.7338556856557261 0 0 0 0 2.3088468573931245 -1.4310151295576361 0 -1.4310151295576361 6.647169693140313 0 0 0 0 0.00063496201436676438 -2.5919531870677019 0 -2.5919531870677019 12.457336087543808 0 0 0 0 -0.11075066304293735 -0.2610002165674814 0 -0.2610002165674814 10.847822420924786 0 0 0 0 -0.68417970243922088 -0.21810538459976669 0 -0.21810538459976669 16.437898341842811 0 0 0 0 -0.88974744945275575 -1.8515313936441089 0 -1.8515313936441089 12.884497219136392 0 0 0 0 -0.88156823499174486 -1.7450789296199218 0 -1.7450789296199218 10.371522467095929 0 0 0 0 -1.0518040859402102 -0.073326861704117619 0 -0.073326861704117619 10.427260947861441 0 0 0 0 -0.69546231005660575 -0.96116279959460371 0 -0.96116279959460371 10.265402561868541 0 0 0 0 0.67385927372513166 4.4454706362303114 0 4.4454706362303114 7.4122532538603991 0 0 0 0 1.5414630413629169 1.9018241932644742 0 1.9018241932644742 2.8688069728377741 0 0 0 0 0.087256972696047125 0.74996213723657945 0 0.74996213723657945 0.36187986134241612 0 0 0 0 0.098018451155196029 -1.1412968874847138 0 -1.1412968874847138 6.4073301873577293 0 0 0 0 0.013111049729642943 -0.10977990969695384 0 -0.10977990969695384 2.5501740146773955 0 0 0 0 -0.21935121264285051 -0.12921676933910931 0 -0.12921676933910931 1.5271913695614785 0 0 0 0 0.016729469437564148 1.134831581657636 0 1.134831581657636 -1.6817683202461922 0 0 0 0 -0.0095102865293439504 0.097777055562247028 0 0.097777055562247028 0.7159102029444071 0 0 0 0 0.088393414721291849 0.19611297610208567 0 0.19611297610208567 0.47298731212504208 0 0 0 0 0.00034313669971149894 0.16893130953394575 0 0.16893130953394575 0.4671499402174959 0 0 0 0 -0.026388833424162095 0.22820349559552255 0 0.22820349559552255 0.3765246144763239 0 0 0 0 -0.10655055920386758 0.21562242915388197 0 0.21562242915388197 0.51482993932586396 0 0 0 0 0.14682095822414098 0.42227420996478315 0 0.42227420996478315 0.37385664378595607 0 0 0 0 0.086064764768387106 0.076219947146938694 0 0.076219947146938694 -0.048533539264042247 0 0 0 0 1.5473540699979154 4.3906189452318358 0 4.3906189452318358 13.304824343387736 0 0 0 0 0.039121934788917845 0.042128489339376074 0 0.042128489339376074 0.10820205125634175 0 0 0 0 -0.008181436106908661 0.0056762925224518312 0 0.0056762925224518312 0.25481404491060289 0 0 0 0 -0.00017476799612064432 0.050142206673953943 0 0.050142206673953943 0.2666757247352507 0 0 0 0 -0.1069317304238028 0.13648284076407435 0 0.13648284076407435 0.75347180035532801 0 0 0 0 1.5038422509441645 -1.8037044352531666 0 -1.8037044352531666 3.7135741187084932 0 0 0 0 -0.013393539591876034 0.056016716397671473 0 0.056016716397671473 0.46874509879810944 0 0 0 0 0.98320539053221978 -0.54248856414051261 0 -0.54248856414051261 0.65871174042695202 0 0 0 0 0.7293861270990224 -1.1397246584863296 0 -1.1397246584863296 5.7208978071430465 0 0 0 0 -0.12249899002645748 -0.98683714288927149 0 -0.98683714288927149 1.8091893361415714 0 0 0 0 0.11347986230315585 -0.23442036433769431 0 -0.23442036433769431 1.363821407179671 0 0 0 0 0.39298318994269721 -1.7097075407436932 0 -1.7097075407436932 2.6652484978258144 0 0 0 0 0.55325776158611006 -2.3771768991719 0 -2.3771768991719 3.6859560389129911 0 0 0 0 0.70739616593063204 -2.1254633160569938 0 -2.1254633160569938 5.2324945612053853 0 0 0 0 -0.6729555095903379 -0.85605181555001764 0 -0.85605181555001764 8.7661030109447893 0 0 0 0 0.36748263392023262 -1.9225339831427846 0 -1.9225339831427846 4.2977771308505908 0 0 0 0 0.68371144468881084 -1.4467402837763075 0 -1.4467402837763075 4.0559949158850941 0 0 0 0 -0.66507953918571161 -0.20359264663420618 0 -0.20359264663420618 5.3562886486542993 0 0 0 0 -0.93351635689826651 -0.64719262102880748 0 -0.64719262102880748 4.7651464952796232 0 0 0 0 0.054711600216487077 -0.53478778488144485 0 -0.53478778488144485 1.2999322131072404 0 0 0 0 -1.2021708304398544 0.83644701048615389 0 0.83644701048615389 1.5275075709214434 0 0 0 0 0.06447380810186587 -1.8142174170934595 0 -1.8142174170934595 5.45412395283347 0 0 0 0 0.25312553457761178 -1.1281111422317593 0 -1.1281111422317593 2.923409716921384 0 0 0 0 -0.16064543021935551 -0.065700617211675194 0 -0.065700617211675194 0.48431087021813823 0 0 0 0 -0.52955830731777398 0.33561974138095252 0 0.33561974138095252 2.9668746672014663 0 0 0 0 -1.1784373274089148 -0.97156185528729111 0 -0.97156185528729111 10.083483545142371 0 0 0 0 0.17869130200087113 -4.6145572149398504 0 -4.6145572149398504 11.886124506097985 0 0 0 0 -5.6498549337879354 -7.2855160737453843 0 -7.2855160737453843 10.668724309412937 0 0 0 0 14.246889327138687 -12.338802569014661 0 -12.338802569014661 0.24024378103786148 0 0 0 0 -0.0023570854329565739 -0.012732895409946821 0 -0.012732895409946821 0.17090351979595653 0 0 0 0 -8.8194334262157954e-05 0.050840170897572534 0 0.050840170897572534 0.26689687272482843 0 0 0 0 1.090608555778104 -3.6537869852763833 0 -3.6537869852763833 4.7709119867286063 0 0 0 0 2.2847093231166582 -12.821790170724853 0 -12.821790170724853 4.2411595156445401 0 0 0 0 12.010913064140146 -6.0410852781060385 0 -6.0410852781060385 3.5808148727446678 0 0 0 0 -0.35691413891098289 0.19970513428958725 0 0.19970513428958725 1.1703544759807301 0 0 0 0 50.068726353120795 -213.81226162953681 0 -213.81226162953681 488.86785564204183 0 0 0 0 -0.10411891218361297 20.134914485082845 0 20.134914485082845 59.523971739254193 0 0 0 0 5.7816603120779106 9.6254550594021566 0 9.6254550594021566 4.4578353908436839 0 0 0 0 0.58252708001535902 -70.898907915168763 0 -70.898907915168763 386.47931656599394 0 0 0 0 10.751230034609335 -108.46930203687953 0 -108.46930203687953 356.14987478593685 0 0 0 0 39.241987433333449 -130.75806371283079 0 -130.75806371283079 329.47453908768512 0 0 0 0 9.9387281059304087 -81.912374402741989 0 -81.912374402741989 274.67521699642748 0 0 0 0 147.24438425975046 -125.52540828529163 0 -125.52540828529163 228.84085655381932 0 0 0 0 39.322758815726175 -28.316657562121691 0 -28.316657562121691 164.37889788578468 0 0 0 0 0.034153496109331188 0.27226377880423058 0 0.27226377880423058 0.50825322587176913 0 0 0 0 40.679654352265914 -124.84478793437665 0 -124.84478793437665 334.48805143118807 0 0 0 0 9.2209448247649135 39.079916280486941 0 39.079916280486941 142.68627112626564 0 0 0 0 -12.388058530784335 -38.720977744414995 0 -38.720977744414995 243.46610870046061 0 0 0 0 42.476103436372796 -21.365146046819063 0 -21.365146046819063 10.454055280642933 0 0 0 0 26.497695922849353 -46.000491272053296 0 -46.000491272053296 108.4722379167797 0 0 0 0 0.62054444065992942 -0.47754622844030337 0 -0.47754622844030337 0.45827617065782533 0 0 0 0 0.25400846007961225 -0.29970153447933967 0 -0.29970153447933967 0.51370981551012562 0 0 0 0 0.0016078059750035097 8.5352044832870888 0 8.5352044832870888 76.35368427841604 0 0 0 0 2.9074994905913627 -60.440155706121004 0 -60.440155706121004 326.43153768779666 0 0 0 0 -0.1989396883376105 -65.62542386469039 0 -65.62542386469039 321.63378122264112 0 0 0 0 49.342323247664993 -61.140841435422772 0 -61.140841435422772 249.04586192137504 0 0 0 0 -30.689552272328555 4.1083591190399602 0 4.1083591190399602 266.36322817560722 0 0 0 0 83.309527702586266 -172.95231253075144 0 -172.95231253075144 320.67191768910561 0 0 0 0 66.985568949151173 -238.05189319472993 0 -238.05189319472993 405.39501147489864 0 0 0 0 0.17302655245667864 -200.45512777347903 0 -200.45512777347903 452.73194144682202 0 0 0 0 96.353747037128301 -169.89962931351329 0 -169.89962931351329 439.4413154738595 0 0 0 0 60.906586192263717 -211.35035792765848 0 -211.35035792765848 425.81178746889236 0 0 0 0 101.9538176253061 -238.65789154329832 0 -238.65789154329832 382.82182436325456 0 0 0 0 53.415027611577159 -165.74280822001128 0 -165.74280822001128 361.27326112771698 0 0 0 0 114.78368748124348 -183.21982789580215 0 -183.21982789580215 272.08865287142544 0 0 0 0 77.431421340584052 -154.435944595607 0 -154.435944595607 230.10683675721521 0 0 0 0 80.912183807884901 -104.56242133340493 0 -104.56242133340493 112.23663978309924 0 0 0 0 33.229882124095809 -115.5946250941015 0 -115.5946250941015 267.75094725148301 0 0 0 0 5.4639675793799825 -42.845207171285438 0 -42.845207171285438 184.37121014352306 0 0 0 0 39.980338536365934 -151.46384275103992 0 -151.46384275103992 322.14842703495242 0 0 0 0 53.702379347572005 -176.06323163077832 0 -176.06323163077832 294.65978749165515 0 0 0 0 -0.0067811780836628532 -169.24548925334238 0 -169.24548925334238 354.50247908406163 0 0 0 0 0.073216418070277844 -140.44307948870846 0 -140.44307948870846 286.78000541590154 0 0 0 0 10.61407466617834 -102.05939670276348 0 -102.05939670276348 352.92354355614225 0 0 0 0 0.0090071383688631289 -5.2110655452779611 0 -5.2110655452779611 10.814619032888004 0 0 0 0 0.53610779393791264 -0.59366182520173538 0 -0.59366182520173538 0.54083412148487753 0 0 0 0 0.2280683116011244 3.6943426034858931 0 3.6943426034858931 6.0930913396732649 0 0 0 0 0.0036778220423798634 -0.02096167799825821 0 -0.02096167799825821 0.04310563611201701 0 0 0 0 -0.97247139271176053 0.92313156785894535 0 0.92313156785894535 14.896194291064603 0 0 0 0 0.00043563716502948747 -2.2703520450086216 0 -2.2703520450086216 2.4772051730615203 0 0 0 0 0.0071324150425962421 -0.020986264661146947 0 -0.020986264661146947 0.036132066924523087 0 0 0 0 -1.0691664430071759 0.010760528469234032 0 0.010760528469234032 14.819964739021088 0 0 0 0 0.0082323297038406906 -3.1822417719995428 0 -3.1822417719995428 12.584887870798411 0 0 0 0 0.42675307524552775 -2.380466663329571 0 -2.380466663329571 10.722334187492379 0 0 0 0 -1.1013183717223525 1.6133431580327624 0 1.6133431580327624 7.4247387972936849 0 0 0 0 0.743109666319965 0.16564768206080771 0 0.16564768206080771 10.635861169968848 0 0 0 0 1.6998971916398169 -1.8668961669536657 0 -1.8668961669536657 11.540588401046989 0 0 0 0 2.026915809564322 -4.6582688042180962 0 -4.6582688042180962 3.3669326495801215 0 0 0 0 1.1767676182642428 -2.7532161741637537 0 -2.7532161741637537 10.47483520937385 0 0 0 0 3.5933259912252602 0.98690046030242229 0 0.98690046030242229 8.3814549873131909 0 0 0 0 1.9504155826158369 1.4568313894469611 0 1.4568313894469611 14.755205405934248 0 0 0 0 1.8352758997550209 -1.3543573663729518 0 -1.3543573663729518 0.60590324239301907 0 0 0 0 0.15511565021717644 0.91611152005862095 0 0.91611152005862095 14.277965666078671 0 0 0 0 1.4871288459917633 -1.1781465776743971 0 -1.1781465776743971 0.58994871144345495 0 0 0 0 26.999997908761316 -62.518866265352699 0 -62.518866265352699 128.89762701833388 0 0 0 0 27.741795452848582 4.8160816913138831 0 4.8160816913138831 57.518290298939974 0 0 0 0 11.985876248951854 14.651174509526754 0 14.651174509526754 25.689517613653152 0 0 0 0 -11.397524952234278 10.064215669844998 0 10.064215669844998 35.055623877669859 0 0 0 0 1.8624102217037368 -1.3159005825542351 0 -1.3159005825542351 0.27093298621034023 0 0 0 0 2.7239348857125649 3.5595951376453741 0 3.5595951376453741 13.359652708226349 0 0 0 0 -7.5142314731111242 8.9702364353070152 0 8.9702364353070152 25.195115695038112 0 0 0 0 16.907685806675715 -14.151468788935745 0 -14.151468788935745 37.927608014004363 0 0 0 0 0.52826962030087343 2.1870967655177083 0 2.1870967655177083 16.898467185572372 0 0 0 0 0.70293267413985205 -0.39208369517837127 0 -0.39208369517837127 12.342061379778897 0 0 0 0 2.0262353931239119 -0.11890304655389627 0 -0.11890304655389627 12.026723132381449 0 0 0 0 -0.13619419702956836 3.629328718277975 0 3.629328718277975 20.955730323141324 0 0 0 0 2.6329079684807537 7.7173841646872461 0 7.7173841646872461 17.507164691276557 0 0 0 0 1.6943314701189867 0.049850893874463509 0 0.049850893874463509 7.4016013601503801 0 0 0 0 0.98562435266205251 -5.3160387316565902 0 -5.3160387316565902 15.967867465304153 0 0 0 0 -0.23802947724152546 2.2492035573814064 0 2.2492035573814064 1.9373755647102371 0 0 0 0 0.97878525559052232 -1.8478886098564544 0 -1.8478886098564544 10.197274913429283 0 0 0 0 1.7278898163705452 2.7633034212588541 0 2.7633034212588541 3.9556625030128316 0 0 0 0 2.975349591590998 0.41588250263157533 0 0.41588250263157533 7.2825652134051779 0 0 0 0 -1.3059057963391751 25.480119272790034 0 25.480119272790034 15.284231240238711 0 0 0 0 0.90217406044162729 2.3225623624060177 0 2.3225623624060177 2.342876617235703 0 0 0 0 0.59960630081968702 2.730177604185883 0 2.730177604185883 2.0591637221259589 0 0 0 0 0.57610529911733854 1.8323705229236396 0 1.8323705229236396 3.9229984568818281 0 0 0 0 5.8708215720839689 1.5056149991833081 0 1.5056149991833081 1.4505874400638277 0 0 0 0 0.1246759349846141 0.4209404908194756 0 0.4209404908194756 3.0876845288265358 0 0 0 0 1.5299453175913775 -1.1985561666274407 0 -1.1985561666274407 3.0694761643966473 0 0 0 0 3.8971832768824362 -4.8467953578365268 0 -4.8467953578365268 26.041509147009492 0 0 0 0 3.926868697353461 0.65095951345938374 0 0.65095951345938374 17.693724957323866 0 0 0 0 5.1284935120321702 2.4763782711070235 0 2.4763782711070235 11.694383038440719 0 0 0 0 3.2537821032337235 -0.5301630999383633 0 -0.5301630999383633 19.278586598760739 0 0 0 0 1.3328415273560972 2.7856501109363165 0 2.7856501109363165 7.5057148346290887 0 0 0 0 2.6111091992929403 0.0089729613100644201 0 0.0089729613100644201 11.863226392961224 0 0 0 0 1.4382567376144673 3.0320998505077625 0 3.0320998505077625 6.5552696457999957 0 0 0 0 3.2201024634017585 1.2802823832025751 0 1.2802823832025751 10.863271412621543 0 0 0 0 2.411286881605184 0.87935187676191617 0 0.87935187676191617 6.2632608964543337 0 0 0 0 -0.43594506866748572 -4.764103104119684 0 -4.764103104119684 8.5536433706217281 0 0 0 0 0.033015877263039783 -6.5053843831265112 0 -6.5053843831265112 34.111771384130407 0 0 0 0 -0.92923765142566594 -2.3676891784944019 0 -2.3676891784944019 19.649227853107732 0 0 0 0 -0.39795047873667688 -1.3262362697453156 0 -1.3262362697453156 1.0112422563363737 0 0 0 0 2.0127816164030037 14.33627258031629 0 14.33627258031629 21.443091645734967 0 0 0 0 18.378717432187614 0.21591187470767181 0 0.21591187470767181 16.060456007231551 0 0 0 0 -7.1046268738813865 6.109141568733321 0 6.109141568733321 38.475937955561676 0 0 0 0 -11.261113261996115 -6.9587086572209955 0 -6.9587086572209955 7.526369316950877 0 0 0 0 -0.8664739918459442 0.89361597757969946 0 0.89361597757969946 1.5479439349489894 0 0 0 0 0.0589205519633893 -1.6592144008591276 0 -1.6592144008591276 16.186718684635707 0 0 0 0 -0.83786128412323824 0.49637307309488676 0 0.49637307309488676 13.725289999710213 0 0 0 0 27.180003220374246 -52.831879619843676 0 -52.831879619843676 54.859120665263617 0 0 0 0 27.30135058659323 23.69468545750351 0 23.69468545750351 18.063066628739762 0 0 0 0 -7.2397018835695803 7.6435993169507128 0 7.6435993169507128 11.045201433458715 0 0 0 0 5.332811416458128 -52.439708477271779 0 -52.439708477271779 107.30401510926458 0 0 0 0 0.074835816265851562 0.12710193520035773 0 0.12710193520035773 -0.35164193651760911 0 0 0 0 25.643142365884273 -29.885367906161264 0 -29.885367906161264 -6.3153599535289686 0 0 0 0 18.752018422782896 -58.198627757112263 0 -58.198627757112263 140.8126683430819 0 0 0 0 28.673189167496275 -96.756598118459806 0 -96.756598118459806 214.80592001913465 0 0 0 0 69.192136759981622 -54.920434425432177 0 -54.920434425432177 91.849899551780254 0 0 0 0 78.587640786309748 -107.40116189448963 0 -107.40116189448963 184.95867731034377 0 0 0 0 70.592366271474702 -119.17550880157796 0 -119.17550880157796 174.30227756801469 0 0 0 0 117.84238846669734 -173.42782067375811 0 -173.42782067375811 209.36870099406633 0 0 0 0 118.6326190778621 -235.48459182264196 0 -235.48459182264196 295.15475537903694 0 0 0 0 93.094545241136984 -215.15832526658778 0 -215.15832526658778 313.80657042967505 0 0 0 0 114.70988035846267 -129.37630769762177 0 -129.37630769762177 94.82532459430513 0 0 0 0 115.2178777228952 -235.44253582415695 0 -235.44253582415695 264.29314412974054 0 0 0 0 65.56405957029466 -110.16588820237666 0 -110.16588820237666 180.58811804954894 0 0 0 0 129.23115877852314 -101.96995599864022 0 -101.96995599864022 21.36029056503321 0 0 0 0 51.35397192268438 -25.066250988210868 0 -25.066250988210868 -25.80018171996926 0 0 0 0 -37.810498317555613 -5.59366596392465 0 -5.59366596392465 53.415595867161755 0 0 0 0 -1.031133681524862 0.91716604421367975 0 0.91716604421367975 12.683035477768698 0 0 0 0 -0.39155240717660666 0.16640597413466196 0 0.16640597413466196 3.3267450481187826 0 0 0 0 38.581696170661118 -76.361841364996508 0 -76.361841364996508 121.203108848189 0 0 0 0 67.804938576203114 -38.992346541589995 0 -38.992346541589995 57.850733861661865 0 0 0 0 -7.3479397412850744 0.90634781991320779 0 0.90634781991320779 17.194800665449293 0 0 0 0 -0.68986920159172671 -0.91145386519221816 0 -0.91145386519221816 14.167813772792186 0 0 0 0 -6.6791289063899058 0.52220112754002912 0 0.52220112754002912 17.210839773913904 0 0 0 0 -3.245930172650874 2.4487408066238743 0 2.4487408066238743 5.9240920935819581 0 0 0 0 -2.3732804187235246 -0.096584436512785032 0 -0.096584436512785032 14.093857284504338 0 0 0 0 -2.8594485329417125 0.37185585797124077 0 0.37185585797124077 14.55043159094204 0 0 0 0 -2.7338887493684561 0.45330475022153394 0 0.45330475022153394 9.9690928105724268 0 0 0 0 -3.6011607633222411 0.39932454429435893 0 0.39932454429435893 10.845489169415124 0 0 0 0 -0.55355402390350505 0.37126429527320326 0 0.37126429527320326 11.344481123041987 0 0 0 0 -0.9455956069734619 -0.12551312186297992 0 -0.12551312186297992 10.823157018305778 0 0 0 0 47.214412522997179 -30.967562033412833 0 -30.967562033412833 141.51346869970439 0 0 0 0 54.58643583547007 21.79591208212878 0 21.79591208212878 -40.162674160696042 0 0 0 0 -42.241030267045062 -4.0694626067815989 0 -4.0694626067815989 77.837658633077808 0 0 0 0 -58.858534347981276 38.975071824395854 0 38.975071824395854 31.101088365921896 0 0 0 0 66.928829365037927 8.5971537237346638 0 8.5971537237346638 -15.78106120681332 0 0 0 0 -21.293950963206044 2.8681213769705209 0 2.8681213769705209 15.063812475418672 0 0 0 0 -1.6035399588953463 3.3131019104050434 0 3.3131019104050434 6.9652763013132244 0 0 0 0 24.491467466244558 14.918946113124548 0 14.918946113124548 1.36703839594702 0 0 0 0 62.996858204454384 89.256927961141628 0 89.256927961141628 69.581996629058267 0 0 0 0 -8.9075597144733365 27.438397236917808 0 27.438397236917808 29.524321022916411 0 0 0 0 -6.5004837066309147 9.2713077393071757 0 9.2713077393071757 3.746920568061892 0 0 0 0 7.2818350880745868 15.124663281788344 0 15.124663281788344 7.0698829601969919 0 0 0 0 -3.0670908731755162 -4.5007228673766804 0 -4.5007228673766804 30.0715869609121 0 0 0 0 -5.4919631506579663 0.76456479393164045 0 0.76456479393164045 16.46262316872162 0 0 0 0 -2.5398269374974936 0.14342898507026547 0 0.14342898507026547 19.923332572550805 0 0 0 0 -21.06013612097928 3.3502834744795109 0 3.3502834744795109 45.732258643438399 0 0 0 0 -32.060911546697014 18.076349043471055 0 18.076349043471055 41.334899969064281 0 0 0 0 -11.005423849160394 -19.654292591083504 0 -19.654292591083504 15.767015034653014 0 0 0 0 -10.418688574225399 -13.341946388871293 0 -13.341946388871293 37.666777347374591 0 0 0 0 63.656453010082032 18.184061730666144 0 18.184061730666144 35.680090629175538 0 0 0 0 3.1380019794722216 9.9981138393395668 0 9.9981138393395668 142.52344504767098 0 0 0 0 1.2891033011846957 22.584071512785158 0 22.584071512785158 57.692610086305649 0 0 0 0 -8.3451185451374386 -26.432319487845234 0 -26.432319487845234 79.650996956333984 0 0 0 0 33.130962427371287 -25.85782338926947 0 -25.85782338926947 33.208171433449024 0 0 0 0 87.726466848247128 -4.8187867520609871 0 -4.8187867520609871 -0.31146062312473077 0 0 0 0 35.602784096888172 -32.360359216632787 0 -32.360359216632787 49.153416352259228 0 0 0 0 85.33568314061813 -69.418145496587385 0 -69.418145496587385 71.965520686993841 0 0 0 0 34.698060195304606 -16.30838300580217 0 -16.30838300580217 -2.4286191159335431 0 0 0 0 21.574749089824081 -17.233103771392962 0 -17.233103771392962 -5.0646586089278571 0 0 0 0 -1.6439433913717423 0.34748499353966622 0 0.34748499353966622 0.88103999542754252 0 0 0 0 -17.428618680973841 -58.75277069855656 0 -58.75277069855656 -29.44511921441881 0 0 0 0 -4.1309005492796524 -37.518264507365302 0 -37.518264507365302 24.568406466132728 0 0 0 0 -2.8853571187016769 -13.260724543011747 0 -13.260724543011747 29.07063557964284 0 0 0 0 -0.60444663316229785 -1.4038941179483828 0 -1.4038941179483828 3.6679989588019879 0 0 0 0 -10.000726432821693 -20.550918782333611 0 -20.550918782333611 16.504966569609678 0 0 0 0 10.744912678764024 -5.4376302969867538 0 -5.4376302969867538 47.362841915659374 0 0 0 0 -0.87397986002249084 -2.7813491275459583 0 -2.7813491275459583 14.253238722204543 0 0 0 0 -7.0813488433728935 -20.825327619633754 0 -20.825327619633754 6.760911757392023 0 0 0 0 -2.0403617898171689 -0.51433654828360886 0 -0.51433654828360886 16.669851420170744 0 0 0 0 -0.97700009587972025 -0.59381453311668864 0 -0.59381453311668864 15.075442138070485 0 0 0 0 -11.511329320374841 -4.1189170024299528 0 -4.1189170024299528 14.823971069833533 0 0 0 0 -6.556881335773312 1.9039706103612843 0 1.9039706103612843 15.880161363878869 0 0 0 0 -3.269228049453524 -0.12899354223009141 0 -0.12899354223009141 14.429065255768364 0 0 0 0 -2.7737616224927422 -0.20585159555048449 0 -0.20585159555048449 14.137684328529758 0 0 0 0 -0.5985507180932359 -0.4847873114340473 0 -0.4847873114340473 14.159123247877687 0 0 0 0 -1.3079612351201604 -0.97011211077551707 0 -0.97011211077551707 16.711546719110629 0 0 0 0 -1.1235227683518616 -1.5302685217902763 0 -1.5302685217902763 17.408732118485204 0 0 0 0 -13.020295137058724 -1.5702792784541089 0 -1.5702792784541089 12.754442386562005 0 0 0 0 -1.6003305569681121 -1.9142533778741324 0 -1.9142533778741324 9.9695818385650909 0 0 0 0 -1.9028134017441358 1.7416392664406999 0 1.7416392664406999 8.4694272920362152 0 0 0 0 -5.8200429446166027 2.0643877892071032 0 2.0643877892071032 8.5434207959915511 0 0 0 0 -0.56807907689840786 -6.9091279285561029 0 -6.9091279285561029 17.570932299406138 0 0 0 0 -8.5422649354823079 -0.77083402653806843 0 -0.77083402653806843 4.6813872447237372 0 0 0 0 -2.0792500538858203 -3.5945953055509676 0 -3.5945953055509676 9.3073407016543399 0 0 0 0 -7.1301126526393546 -0.50189893614151515 0 -0.50189893614151515 10.355103027206496 0 0 0 0 -3.3060271581499485 -3.0683414974461627 0 -3.0683414974461627 11.244985977052949 0 0 0 0 -2.8701252039982021 -8.9339311205815903 0 -8.9339311205815903 18.761924820460706 0 0 0 0 -0.89093741083901334 -0.64360170767255909 0 -0.64360170767255909 7.0430607874530438 0 0 0 0 0.67165491822362333 -2.0147056807019794 0 -2.0147056807019794 5.9618627912529973 0 0 0 0 -1.4909875100712608 -0.44397973486576348 0 -0.44397973486576348 8.0511258464622131 0 0 0 0 6.8272211831785512 -11.118172895563475 0 -11.118172895563475 13.834572643914726 0 0 0 0 13.791552855273949 -4.6874891764309723 0 -4.6874891764309723 33.273851929494413 0 0 0 0 12.767556839095903 -17.972531250263273 0 -17.972531250263273 27.349926200884511 0 0 0 0 3.6784936156859942 -14.204295090112282 0 -14.204295090112282 15.098137023334857 0 0 0 0 6.2745191494520896 -5.6553149546161876 0 -5.6553149546161876 15.098853410221636 0 0 0 0 -2.6849995723426625 -7.1814913955313777 0 -7.1814913955313777 16.510544962180887 0 0 0 0 -11.394967844400099 -15.872656907307828 0 -15.872656907307828 18.745518499054015 0 0 0 0 4.8645756226874823 -18.712266353533778 0 -18.712266353533778 19.240493166002125 0 0 0 0 22.174869568460167 -8.7871903156774351 0 -8.7871903156774351 13.783760645077564 0 0 0 0 0.51697033280720461 -5.3808195584861096 0 -5.3808195584861096 43.431565059538116 0 0 0 0 -0.44149156556291058 0.50989028980734474 0 0.50989028980734474 2.8945417827194859 0 0 0 0 -1.8862797709361248 4.1821522745807442 0 4.1821522745807442 11.168272493910166 0 0 0 0 4.4472355674042205 -0.28859569670385099 0 -0.28859569670385099 7.95028907089727 0 0 0 0 0.079402608466352831 -9.0224654887133511 0 -9.0224654887133511 22.207277083376539 0 0 0 0 4.4377456320738453 -2.3036977698636463 0 -2.3036977698636463 7.8434853722471303 0 0 0 0 4.3152689308295038 0.17246091534980224 0 0.17246091534980224 10.578754803529591 0 0 0 0 3.2223944849697932 0.7071314396576156 0 0.7071314396576156 5.3019071330220413 0 0 0 0 4.9218568427171476 -0.47872461468796246 0 -0.47872461468796246 8.0203597282379633 0 0 0 0 3.2852660826912086 -5.562238451140729 0 -5.562238451140729 8.7616242373478599 0 0 0 0 3.3642647873256566 -2.2815201863008951 0 -2.2815201863008951 3.0572827690223932 0 0 0 0 3.3109254903773353 -6.5396552469357658 0 -6.5396552469357658 5.6415983076565794 0 0 0 0 29.555887996854835 20.305359616744681 0 20.305359616744681 11.793803907741676 0 0 0 0 5.8197850070126194 -1.4480793609695581 0 -1.4480793609695581 0.20172892953049626 0 0 0 0 -25.18249746182039 5.6637331464607996 0 5.6637331464607996 84.930564088805113 0 0 0 0 41.503878312016695 -62.114056829559559 0 -62.114056829559559 105.92016976950981 0 0 0 0 44.362949817751542 -31.702950804385182 0 -31.702950804385182 46.94095096248202 0 0 0 0 -4.4937328679396273 -25.814724207710242 0 -25.814724207710242 32.217549172739382 0 0 0 0 31.579866086710354 1.5611556789372116 0 1.5611556789372116 51.591432227680343 0 0 0 0 42.363748900045721 -15.076994552902761 0 -15.076994552902761 -14.703647335947608 0 0 0 0 4.9600101765223208 -0.47544831799824294 0 -0.47544831799824294 1.2566097991291514 0 0 0 0 3.6187029895474314 0.52527182239401782 0 0.52527182239401782 -0.11140776540564445 0 0 0 0 22.483811090213749 -235.62132075846603 0 -235.62132075846603 580.64130938527524 0 0 0 0 30.505043000546038 63.996575878503791 0 63.996575878503791 38.307315803722304 0 0 0 0 -29.825355239014925 -179.62306991954392 0 -179.62306991954392 605.88228474876087 0 0 0 0 167.38468980317157 -256.89285986842151 0 -256.89285986842151 -16.664863784780209 0 0 0 0 61.551890130182528 -282.71802227024818 0 -282.71802227024818 289.14848399344191 0 0 0 0 -18.809506655174118 -90.903006257431116 0 -90.903006257431116 405.43244041348225 0 0 0 0 1.8510574967990507 0.43676526637582924 0 0.43676526637582924 0.23793700679003393 0 0 0 0 10.212465704265469 -6.0773052756849211 0 -6.0773052756849211 20.453827346591424 0 0 0 0 -3.8413015476767214 -51.420529164557593 0 -51.420529164557593 160.68572116890573 0 0 0 0 58.963312980388309 -122.51930016514962 0 -122.51930016514962 149.34270589707012 0 0 0 0 65.829959785633037 2.9789093917643186 0 2.9789093917643186 46.838611560378922 0 0 0 0 6.802549585186183 -1.4872870072194502 0 -1.4872870072194502 0.18031192888889791 0 0 0 0 5.4548159114167447 -2.4474827012745664 0 -2.4474827012745664 4.1019907074296498 0 0 0 0 9.5286210485126155 -1.4458782572466617 0 -1.4458782572466617 -0.19040181956726343 0 0 0 0 28.164328404609819 -0.75206731883736211 0 -0.75206731883736211 -0.51620043166622054 0 0 0 0 40.721626099559444 20.390038388468383 0 20.390038388468383 25.582274302661972 0 0 0 0 40.360164251595847 -11.726207319799869 0 -11.726207319799869 -12.746180889065727 0 0 0 0 -11.31538985004272 86.36771899811356 0 86.36771899811356 117.07037256403419 0 0 0 0 52.687649588510624 17.399847490974935 0 17.399847490974935 -54.272600490337936 0 0 0 0 53.54834117268075 22.388494191800419 0 22.388494191800419 -25.435003040998708 0 0 0 0 39.578575377952006 -16.238525192777161 0 -16.238525192777161 -38.744028193428676 0 0 0 0 37.182516763807598 -11.841605446312315 0 -11.841605446312315 -46.756076434365241 0 0 0 0 11.447133515367312 -46.119813353678182 0 -46.119813353678182 15.789783301326679 0 0 0 0 39.941803143912807 -5.9394852382392855 0 -5.9394852382392855 -1.5715744952831301 0 0 0 0 -6.1201884243517952 6.8714370268280618 0 6.8714370268280618 44.308494958342635 0 0 0 0 12.922247573851564 -22.829854804993374 0 -22.829854804993374 26.553663281549234 0 0 0 0 -3.689765957786642 -1.5328186927731622 0 -1.5328186927731622 3.8073928162266952 0 0 0 0 5.7089843126381759 -20.704480681795985 0 -20.704480681795985 25.815530574582226 0 0 0 0 -1.5809153927957169 -1.7179832092920861 0 -1.7179832092920861 3.6161395450147467 0 0 0 0 4.4908057330137581 -14.69653616310552 0 -14.69653616310552 41.740669183585851 0 0 0 0 0.063851588339198143 -5.4770225972391282 0 -5.4770225972391282 38.554086255476705 0 0 0 0 5.9418219866297477 -19.281561575640808 0 -19.281561575640808 45.244033694925747 0 0 0 0 1.3533576800528677 -1.2384875186195838 0 -1.2384875186195838 1.7867854169561497 0 0 0 0 58.421732577482942 64.915895576355979 0 64.915895576355979 -11.219002222678682 0 0 0 0 46.860949620953988 -18.981761624125284 0 -18.981761624125284 -9.7131068728049286 0 0 0 0 3.4470672556279949 -8.303814279704568 0 -8.303814279704568 16.438673768017651 0 0 0 0 -138.10759522448745 -10.7357355838285 0 -10.7357355838285 178.08058527240792 0 0 0 0 -0.92652765799966796 -5.9738195935330012 0 -5.9738195935330012 59.674922019592628 0 0 0 0 -63.825452992612099 -74.307161439304764 0 -74.307161439304764 -6.8416368952166522 0 0 0 0 -78.743646528765112 -95.394889137704013 0 -95.394889137704013 -34.013761975409579 0 0 0 0 -8.2546585645013693 -85.940538664832275 0 -85.940538664832275 -163.71351158455946 0 0 0 0 1.0367828083331005 147.3560776358936 0 147.3560776358936 -154.30802217617133 0 0 0 0 18.251216036756432 -10.00543634908172 0 -10.00543634908172 19.75618982398646 0 0 0 0 65.493733590482748 18.079884386923368 0 18.079884386923368 26.482636340981117 0 0 0 0 57.606350261810803 67.402572340381994 0 67.402572340381994 58.313588585275284 0 0 0 0 17.740706827676718 40.882591997903177 0 40.882591997903177 51.676265816153318 0 0 0 0 -407.42519316209058 -79.213218929420691 0 -79.213218929420691 742.88992644456448 0 0 0 0 -120.31927725366468 -4.364128772524964 0 -4.364128772524964 76.292531996310572 0 0 0 0 -1.0426803257283057 -4.575643455460245 0 -4.575643455460245 76.830489353511865 0 0 0 0 -43.860513073138463 -387.80411602663662 0 -387.80411602663662 -115.44713187596426 0 0 0 0 34.244613458696222 1.7543621899976642 0 1.7543621899976642 51.644503478004481 0 0 0 0 41.976847896217578 40.478995705798297 0 40.478995705798297 61.924994990986306 0 0 0 0 73.578830653352952 30.147001705188814 0 30.147001705188814 24.430689330372843 0 0 0 0 42.921857366781069 40.070349159206671 0 40.070349159206671 41.27137438274076 0 0 0 0 29.905618723113093 44.861721520854189 0 44.861721520854189 41.843226119146038 0 0 0 0 40.50026804612844 31.675659936277953 0 31.675659936277953 52.82095372263575 0 0 0 0 0.10356319357151733 18.359101155903772 0 18.359101155903772 57.951438039070126 0 0 0 0 1.198495009823257 -9.6253846301222801 0 -9.6253846301222801 36.03926907446035 0 0 0 0 16.811340128840584 0.58621243195739225 0 0.58621243195739225 48.090112718840828 0 0 0 0 30.173614081273172 9.5675224192345922 0 9.5675224192345922 19.90792610401968 0 0 0 0 -94.823628938828278 -20.39583415333982 0 -20.39583415333982 28.153007146393065 0 0 0 0 11.880784283154298 -0.89769404539401876 0 -0.89769404539401876 60.610859417691245 0 0 0 0 -24.556340841483234 -12.79535788751673 0 -12.79535788751673 56.744661485961842 0 0 0 0 -2.7203481017431956 -9.5872366297189089 0 -9.5872366297189089 28.190802232639157 0 0 0 0 -17.207868601394694 -43.182287901905511 0 -43.182287901905511 106.29566348593107 0 0 0 0 -0.49540855112309146 54.093945145086764 0 54.093945145086764 131.01188720078062 0 0 0 0 -6.9167198243167149 18.764635933719546 0 18.764635933719546 64.823464433364279 0 0 0 0 -21.459289500072884 15.69422177357319 0 15.69422177357319 82.67207473765302 0 0 0 0 -13.388283693939286 -8.7299037087905162 0 -8.7299037087905162 25.188505063666526 0 0 0 0 1.515454790619573 -8.5298795426084943 0 -8.5298795426084943 18.877095858127348 0 0 0 0 -2.006389763547574 -3.4680023800743314 0 -3.4680023800743314 15.698749844267425 0 0 0 0 -3.0636716161877757 -45.507393473890261 0 -45.507393473890261 12.645143558685959 0 0 0 0 -111.31744798782825 -63.230809383110682 0 -63.230809383110682 35.587042656101403 0 0 0 0 -22.676226924146022 -17.302857700465211 0 -17.302857700465211 16.534917125740321 0 0 0 0 -22.102592916498907 -15.098360220132236 0 -15.098360220132236 21.298702053460147 0 0 0 0 3.2364042140654017 -10.782540137527985 0 -10.782540137527985 19.718430090922084 0 0 0 0 0.93543281133415412 -6.9637406894896987 0 -6.9637406894896987 22.692529050787883 0 0 0 0 -59.862750295441856 -27.771312897530152 0 -27.771312897530152 -48.420565666994662 0 0 0 0 -32.521312548285096 -9.5661219514186087 0 -9.5661219514186087 21.994609594607027 0 0 0 0 -57.214035726063685 -44.4760405115303 0 -44.4760405115303 48.669343440065859 0 0 0 0 -113.28867923514326 -18.636599886935073 0 -18.636599886935073 68.186955819117429 0 0 0 0 -96.305827913322901 8.8127328086338821 0 8.8127328086338821 49.925815810260247 0 0 0 0 -84.691099813088613 -16.589485617220816 0 -16.589485617220816 82.983302735898178 0 0 0 0 -81.66326915973238 4.7024191444847929 0 4.7024191444847929 85.997864650187694 0 0 0 0 -77.253400778705554 -22.299632065694368 0 -22.299632065694368 33.318462187628029 0 0 0 0 -43.290262490516398 -1.0972242865500448 0 -1.0972242865500448 23.617845969480186 0 0 0 0 -57.640228098721991 22.974645445719943 0 22.974645445719943 58.400020925972058 0 0 0 0 -58.316714104907987 19.884259012564144 0 19.884259012564144 53.682083430110652 0 0 0 0 -4.1824661829808747 -18.003969601917561 0 -18.003969601917561 47.062713221019294 0 0 0 0 3.7286300173291331 -12.286821608247342 0 -12.286821608247342 21.167999049313096 0 0 0 0 -1.3325755520911571 -17.417376681914902 0 -17.417376681914902 35.215753083844902 0 0 0 0 -16.555607298941084 -26.392395515733369 0 -26.392395515733369 34.336998843100446 0 0 0 0 -6.694996705722053 -1.2907876766971924 0 -1.2907876766971924 19.967962344392674 0 0 0 0 -0.92930732236266067 0.1689955989477312 0 0.1689955989477312 21.214117821014952 0 0 0 0 15.056657198255834 -5.857594207423972 0 -5.857594207423972 27.064100539253559 0 0 0 0 0.37667320314676545 -6.1737923257828697 0 -6.1737923257828697 39.483640245933202 0 0 0 0 -12.501338835246315 -9.2425252308676136 0 -9.2425252308676136 30.705432746319275 0 0 0 0 -2.1012587622005019 -7.2817587762785134 0 -7.2817587762785134 30.672264171082134 0 0 0 0 -6.0574462617563434 3.2906237443022519 0 3.2906237443022519 19.551890882439849 0 0 0 0 0.92564265884153496 0.71840898883914406 0 0.71840898883914406 8.2613902882711159 0 0 0 0 -13.099520570494406 -12.361320928801433 0 -12.361320928801433 64.857893580832751 0 0 0 0 -41.889352205520836 9.3025853318285954 0 9.3025853318285954 56.771012954734033 0 0 0 0 -4.3054539454379324 -6.4887139593965912 0 -6.4887139593965912 27.944040078364196 0 0 0 0 7.2995571175095009 -18.234528505205819 0 -18.234528505205819 36.374580515109642 0 0 0 0 -0.59274707968998697 -1.4098504580126368 0 -1.4098504580126368 29.312132924251443 0 0 0 0 -5.7117303199002833 -3.0249083566377521 0 -3.0249083566377521 30.518208277353551 0 0 0 0 -26.03669591486323 12.653550329654536 0 12.653550329654536 93.292291472811485 0 0 0 0 -0.54279996675036735 1.8017432742289827 0 1.8017432742289827 7.0676135897920176 0 0 0 0 -11.579199893923942 50.04613620165037 0 50.04613620165037 -22.274070181883872 0 0 0 0 -18.235372957125946 22.752051455143373 0 22.752051455143373 77.240438344713766 0 0 0 0 106.51252524406186 -24.912464919229024 0 -24.912464919229024 8.7035678854736034 0 0 0 0 14.342194593065869 3.2588015204601106 0 3.2588015204601106 -13.311662964842981 0 0 0 0 1.5884282629801874 6.9664825638683396 0 6.9664825638683396 10.627592793549411 0 0 0 0 22.945767679920209 -34.787980133660312 0 -34.787980133660312 91.334784879052677 0 0 0 0 1.1380354086115503 -9.1423184476563932 0 -9.1423184476563932 23.622488993164211 0 0 0 0 -4.7002117214630061 -2.5142589540519111 0 -2.5142589540519111 27.195563751098234 0 0 0 0 -1.2185581072140486 -0.88034689110193654 0 -0.88034689110193654 9.4740898767142312 0 0 0 0 -0.97009503300875333 -2.8476243253044693 0 -2.8476243253044693 25.098390842478068 0 0 0 0 -5.962953986237892 -3.2142677616400306 0 -3.2142677616400306 36.411532334743242 0 0 0 0 -4.8300186768975664 -3.155530477532011 0 -3.155530477532011 24.12595500992029 0 0 0 0 16.752741189771541 -15.421670819388964 0 -15.421670819388964 20.514551873631717 0 0 0 0 -14.636381333580175 -22.967789231170173 0 -22.967789231170173 37.803038122190628 0 0 0 0 -0.21269486720906894 7.9018604885396115 0 7.9018604885396115 15.22498709302252 0 0 0 0 1.3227657984278343 -6.0541922187162625 0 -6.0541922187162625 29.16979297584453 0 0 0 0 -0.25732332684729387 -12.2820474394088 0 -12.2820474394088 61.245338603886367 0 0 0 0 -80.565267414744312 -8.0930359043268254 0 -8.0930359043268254 118.18050620198483 0 0 0 0 -62.651341816392232 36.121726155695796 0 36.121726155695796 96.317946080162073 0 0 0 0 -0.81291723648131786 0.056934086472477219 0 0.056934086472477219 77.051891938259047 0 0 0 0 -6.981925912882275 33.464191543272136 0 33.464191543272136 47.196209377027117 0 0 0 0 11.642092317120387 -24.343230389888049 0 -24.343230389888049 36.918548831665248 0 0 0 0 -19.482856774471429 11.854400676813384 0 11.854400676813384 92.591910226619802 0 0 0 0 1.9198093975723318 -10.518017375763927 0 -10.518017375763927 -2.5856729356560493 0 0 0 0 -48.199218326966729 8.8209431967770797 0 8.8209431967770797 -40.293700562420696 0 0 0 0 -30.125872561573715 -33.342523981194972 0 -33.342523981194972 87.721860616258255 0 0 0 0 -0.16376732764542495 1.3162651594106496 0 1.3162651594106496 0.67488958082375916 0 0 0 0 14.803523053526078 32.532656353598213 0 32.532656353598213 32.958986240562808 0 0 0 0 66.373978601326144 -44.707078210558393 0 -44.707078210558393 42.993542460610115 0 0 0 0 -4.609553293270551 5.4063154269856568 0 5.4063154269856568 -4.6478118387312861 0 0 0 0 13.216440288579804 81.170513454541378 0 81.170513454541378 -2.4580515361740254 0 0 0 0 -45.07598068055222 30.919692392974866 0 30.919692392974866 57.552583647124266 0 0 0 0 -6.9155366726182734 9.2765745271511904 0 9.2765745271511904 28.616768199657741 0 0 0 0 -13.629005976778995 6.9225589441347637 0 6.9225589441347637 33.174547660774792 0 0 0 0 -31.374052282919365 17.647150592134494 0 17.647150592134494 53.078397973171377 0 0 0 0 -39.154977963767578 -1.3444910447119582 0 -1.3444910447119582 68.929119276770507 0 0 0 0 -5.656844398317558 -6.745512354879903 0 -6.745512354879903 48.101063908143885 0 0 0 0 -39.705376204261484 14.679770165856098 0 14.679770165856098 49.883911434826587 0 0 0 0 -2.5333119783153961 -0.090005258796736598 0 -0.090005258796736598 34.19958501039946 0 0 0 0 -7.1200386546083791 0.81489145002706209 0 0.81489145002706209 31.314847876368731 0 0 0 0 -8.9209516519945335 3.831456141884904 0 3.831456141884904 28.644922774437617 0 0 0 0 132.16814604173595 -81.474912522789623 0 -81.474912522789623 78.895401449379278 0 0 0 0 127.34870495748999 63.83424713999193 0 63.83424713999193 221.74816236943298 0 0 0 0 34.150537878768546 -95.440235572510574 0 -95.440235572510574 414.3413787921636 0 0 0 0 7.3954184832923602 -60.6691329641435 0 -60.6691329641435 222.7277337167834 0 0 0 0 39.070766691038216 56.724895364656732 0 56.724895364656732 155.18934080800682 0 0 0 0 58.028831761444451 -32.402832909646804 0 -32.402832909646804 88.301070365530904 0 0 0 0 -14.056663317332209 -11.168123415980517 0 -11.168123415980517 111.24178766213117 0 0 0 0 4.1260735135110735 -78.66367605416599 0 -78.66367605416599 69.81122689483891 0 0 0 0 -74.103412153229669 -62.288511432783707 0 -62.288511432783707 96.012348922624369 0 0 0 0 -15.144984171744113 -23.02575445808543 0 -23.02575445808543 -2.512650400352868 0 0 0 0 -22.577065128634331 47.783674873622658 0 47.783674873622658 92.867778249274124 0 0 0 0 -60.213791232663198 -35.260939585479036 0 -35.260939585479036 122.47948295035167 0 0 0 0 -10.928616965021774 -76.346848218636296 0 -76.346848218636296 155.45355872813525 0 0 0 0 -149.01260106577632 30.083898353639597 0 30.083898353639597 224.31611373118358 0 0 0 0 -2.0318212152762101 -0.00062661569880329004 0 -0.00062661569880329004 81.003930086919809 0 0 0 0 -0.67171346340392279 -5.3989964502551544 0 -5.3989964502551544 20.415785206030051 0 0 0 0 -69.16135796558126 81.396769200300696 0 81.396769200300696 -38.016998697879899 0 0 0 0 -185.9234399969946 10.154445651332935 0 10.154445651332935 99.5749124814065 0 0 0 0 -12.655597582052366 -7.4577873298052708 0 -7.4577873298052708 20.682764554546097 0 0 0 0 -78.318530946775354 139.53496124377125 0 139.53496124377125 28.478147701196576 0 0 0 0 -2.7961554450906476 -4.4439474022880319 0 -4.4439474022880319 14.558945250203266 0 0 0 0 -17.522451405401426 -36.20186617272384 0 -36.20186617272384 95.296401893669099 0 0 0 0 -17.342216040875158 -20.813667269198504 0 -20.813667269198504 140.72220788493723 0 0 0 0 -36.832416259873753 37.837477271361422 0 37.837477271361422 60.738630437070242 0 0 0 0 -4.3380729304694796 -4.8910476367818774 0 -4.8910476367818774 69.538727624324565 0 0 0 0 -5.8961427237006907 -7.0183005515783163 0 -7.0183005515783163 76.113769305079984 0 0 0 0 35.636508145792163 23.17533984073998 0 23.17533984073998 14.246083469370205 0 0 0 0 6.6629786655721546 62.208594714596984 0 62.208594714596984 -37.855193590679846 0 0 0 0 -86.243709474716752 110.584189885245 0 110.584189885245 389.37312785283211 0 0 0 0 100.15889627815159 -17.52029188904271 0 -17.52029188904271 -56.73690729791997 0 0 0 0 42.828019233355121 -67.851516590930714 0 -67.851516590930714 190.2682042492379 0 0 0 0 66.114176179200342 -56.092487808951773 0 -56.092487808951773 44.335871871073323 0 0 0 0 1.1249176216191379 1.0344975616728576 0 1.0344975616728576 1.2773285022210388 0 0 0 0 31.018095706867598 -8.6001886681842734 0 -8.6001886681842734 -9.0504891508971923 0 0 0 0 4.5934538754143297 2.0376165390514274 0 2.0376165390514274 4.1081987159986539 0 0 0 0 28.01632949589478 -12.332231439981115 0 -12.332231439981115 16.691894400253659 0 0 0 0 19.615195239013644 4.0287380833433417 0 4.0287380833433417 13.407262605927826 0 0 0 0 23.414610488583321 5.6621678676056035 0 5.6621678676056035 3.1798609912184475 0 0 0 0 8.7649137400879198 2.8702503739327767 0 2.8702503739327767 22.778005132022372 0 0 0 0 0.49859799852288189 -1.2202372718680436 0 -1.2202372718680436 15.950072212826527 0 0 0 0 1.7806775870315894 -2.5875465926903445 0 -2.5875465926903445 12.652640692962663 0 0 0 0 -2.1965340864064729 -4.0655191677069524 0 -4.0655191677069524 20.884545025164698 0 0 0 0 -0.3686553132864594 -5.6621655427914579 0 -5.6621655427914579 15.643163737739044 0 0 0 0 8.8620510049913719 -13.560833279465442 0 -13.560833279465442 48.11538006272167 0 0 0 0 -12.27088844383286 9.3876997702973313 0 9.3876997702973313 43.906302268682339 0 0 0 0 5.2056015211652493 17.66179533779723 0 17.66179533779723 13.575372631446953 0 0 0 0 -2.4830908755699568 8.6033547578191758 0 8.6033547578191758 12.674191367492625 0 0 0 0 6.817381148928269 -9.0549957914327734 0 -9.0549957914327734 9.6960276704368056 0 0 0 0 75.918704099807528 46.661522693444567 0 46.661522693444567 -34.817226531777123 0 0 0 0 -13.020808044333307 30.007454348349711 0 30.007454348349711 -21.656049093140609 0 0 0 0 -1.4684444345807384 -3.3931015030433187 0 -3.3931015030433187 25.014043564394697 0 0 0 0 52.348397387750566 155.85450486165064 0 155.85450486165064 476.19912669971382 0 0 0 0 -81.764970996418583 29.892320452610875 0 29.892320452610875 15.283429132043238 0 0 0 0 2.0807986257503899 -2.1293158366643183 0 -2.1293158366643183 27.05883376224665 0 0 0 0 -22.17568666190623 87.807763743025134 0 87.807763743025134 -41.095696603500983 0 0 0 0 325.39202567236885 170.8597918151936 0 170.8597918151936 -25.973505053691042 0 0 0 0 -401.47626515995256 -40.935380961289411 0 -40.935380961289411 2488.5250102315367 0 0 0 0 131.90504575432479 -494.35559044106139 0 -494.35559044106139 627.83370079099404 0 0 0 0 0.61469381544678547 -0.35196189307205472 0 -0.35196189307205472 11.344648334609644 0 0 0 0 547.82402796021029 1397.9378899660833 0 1397.9378899660833 2494.1312305718784 0 0 0 0 1938.6273868599367 -1699.256348267395 0 -1699.256348267395 1000.8185973671061 0 0 0 0 639.29343958076345 -1461.5411763385528 0 -1461.5411763385528 2495.8208653178081 0 0 0 0 1.3376526150235635 -2.8394196397499041 0 -2.8394196397499041 12.95440640191643 0 0 0 0 40.685176802618088 578.3583707715843 0 578.3583707715843 837.29367918980643 0 0 0 0 -132.10992159699282 -141.71135930795208 0 -141.71135930795208 -4.3409235558465298 0 0 0 0 4.0075604378952994 -7.334183945217319 0 -7.334183945217319 29.532017538455676 0 0 0 0 295.462177202634 -263.12560247351041 0 -263.12560247351041 -7.4006805617391365 0 0 0 0 305.65720419187812 -112.8834108315823 0 -112.8834108315823 555.98758991431896 0 0 0 0 19.304357929076755 -7.6389988473669632 0 -7.6389988473669632 9.4596918922853277 0 0 0 0 261.02867948552785 -266.59574415391035 0 -266.59574415391035 303.45526399696973 0 0 0 0 -38.037319273085814 -111.48461400157248 0 -111.48461400157248 -87.385142361559701 0 0 0 0 79.726149996462155 -78.481259321241737 0 -78.481259321241737 -41.914530880945676 0 0 0 0 8.3410839438948532 -11.884601296789313 0 -11.884601296789313 14.926384690220054 0 0 0 0 -1.3322094444199744 2.4704696802918704 0 2.4704696802918704 25.792233385722 0 0 0 0 9.4089306915646773 -7.7339507892609163 0 -7.7339507892609163 26.804913421496167 0 0 0 0 5.2397548944577466 -11.811508270497143 0 -11.811508270497143 40.756045219488442 0 0 0 0 2.2748935231208858 -11.154230909307064 0 -11.154230909307064 35.796611588045153 0 0 0 0 -124.18499811388301 -53.308781895939319 0 -53.308781895939319 202.27013198596251 0 0 0 0 -48.291123594744477 -141.71444489850001 0 -141.71444489850001 78.904179213852331 0 0 0 0 -103.02488695442617 -42.092045292177772 0 -42.092045292177772 94.424620500736637 0 0 0 0 153.90290959973754 -276.31090402106202 0 -276.31090402106202 193.63760950148435 0 0 0 0 839.89977390510921 -488.65023175775423 0 -488.65023175775423 173.42449519442016 0 0 0 0 773.21089113603875 -555.49106368005414 0 -555.49106368005414 106.46375569234078 0 0 0 0 729.24622434963578 -930.13781529217022 0 -930.13781529217022 374.00037547993998 0 0 0 0 731.39608501668454 -1212.8784776431567 0 -1212.8784776431567 1196.2946854656839 0 0 0 0 466.8611596386155 -741.28264522065729 0 -741.28264522065729 595.77984538254532 0 0 0 0 1548.6845167625615 -1119.6864450554422 0 -1119.6864450554422 285.86800549335749 0 0 0 0 9.6295218792639652 -1.1174639226519787 0 -1.1174639226519787 0.40158997173995203 0 0 0 0 1328.729688081017 -88.357881842977804 0 -88.357881842977804 -389.73789019197284 0 0 0 0 9.0434742851775809 -19.013934803404481 0 -19.013934803404481 202.43079445515468 0 0 0 0 1246.6068935175531 -1023.6340334498382 0 -1023.6340334498382 1424.6024493235673 0 0 0 0 486.57310215734879 -1208.9899733325319 0 -1208.9899733325319 1835.5688905715433 0 0 0 0 1063.3149526345173 -611.94292282888819 0 -611.94292282888819 1354.1412715395491 0 0 0 0 261.43290763260313 -496.87928897316669 0 -496.87928897316669 1476.0471978230562 0 0 0 0 433.10776121322147 -892.72659117619878 0 -892.72659117619878 2499.4825395789267 0 0 0 0 -90.752359571768054 -251.35650701730265 0 -251.35650701730265 1735.580316008396 0 0 0 0 565.21036591959114 -1160.916235470344 0 -1160.916235470344 1458.0199674310588 0 0 0 0 -975.24165350355531 249.87528433823627 0 249.87528433823627 2500.6329733348794 0 0 0 0 -671.03309136238295 78.159463979685825 0 78.159463979685825 1958.9845874012753 0 0 0 0 -87.680918579950003 -179.53950168619485 0 -179.53950168619485 1306.5029065538729 0 0 0 0 261.52941748965355 -483.14178700655611 0 -483.14178700655611 790.40011648162908 0 0 0 0 -550.58773511348625 -263.95849025799544 0 -263.95849025799544 1419.7950763064437 0 0 0 0 -5.0792209621804183 1.0525166719047263 0 1.0525166719047263 1.6847883798219527 0 0 0 0 -289.45584544099529 353.13082972441043 0 353.13082972441043 -306.00273768886109 0 0 0 0 -736.86982028629836 322.46862245527518 0 322.46862245527518 485.64577218973864 0 0 0 0 -181.75445258986224 -277.34297778244036 0 -277.34297778244036 564.9097473857255 0 0 0 0 -448.78595816759525 -160.8032294378645 0 -160.8032294378645 784.27640589836301 0 0 0 0 264.27975063379631 -517.62003962927702 0 -517.62003962927702 447.2314496021645 0 0 0 0 -208.48149319465722 -317.28693997162554 0 -317.28693997162554 601.20557907194598 0 0 0 0 -303.87261705876426 -166.91445035611832 0 -166.91445035611832 477.569053594656 0 0 0 0 22.869401748444034 -582.94311692996416 0 -582.94311692996416 860.03257128049518 0 0 0 0 468.67333910050542 -732.33576128423738 0 -732.33576128423738 517.56174201429531 0 0 0 0 657.0547561270472 -747.19947287525429 0 -747.19947287525429 251.43827149023127 0 0 0 0 244.97724275297355 -561.75279280165705 0 -561.75279280165705 387.70828608384181 0 0 0 0 382.45728882351341 -580.56082620746747 0 -580.56082620746747 151.53571601356816 0 0 0 0 752.61712183680686 -695.99544484260696 0 -695.99544484260696 -36.792986304288206 0 0 0 0 622.98884479934179 -796.6549859532679 0 -796.6549859532679 216.70758430854767 0 0 0 0 809.74062104889776 -936.85157497513865 0 -936.85157497513865 225.06157946963458 0 0 0 0 -101.95430144826287 -299.66400688404246 0 -299.66400688404246 360.71557709231274 0 0 0 0 -37.613732769686067 -246.16248081573576 0 -246.16248081573576 203.32775637724262 0 0 0 0 429.54225780630918 -506.04976256333612 0 -506.04976256333612 -21.74213693378988 0 0 0 0 707.72862743195128 -580.62996734493208 0 -580.62996734493208 -1287.7275711661205 0 0 0 0 225.3368538787563 -866.67545596627679 0 -866.67545596627679 2996.2273995609648 0 0 0 0 67.19690151190207 37.149187018720113 0 37.149187018720113 -597.58425945187628 0 0 0 0 5.8561890496597258 -3.712507592032253 0 -3.712507592032253 1.3525330568981078 0 0 0 0 989.74902158835107 -1024.0989491294749 0 -1024.0989491294749 1553.1420178469198 0 0 0 0 1386.0025813614957 -680.39206361936522 0 -680.39206361936522 1794.1691166989476 0 0 0 0 896.60524663094941 -523.34413734615373 0 -523.34413734615373 156.74170066113584 0 0 0 0 579.36409475854327 -946.67394960979436 0 -946.67394960979436 1002.0611170675402 0 0 0 0 309.90405789863553 307.74357061742921 0 307.74357061742921 633.8727765835356 0 0 0 0 -0.13146373946264323 -0.77503358621386909 0 -0.77503358621386909 7.7643797947459063 0 0 0 0 281.32667081060049 285.86058956706256 0 285.86058956706256 245.35249244030274 0 0 0 0 245.22193495717011 -96.73963381456997 0 -96.73963381456997 -6.5618024621217046 0 0 0 0 329.40869158814303 -829.10245700557425 0 -829.10245700557425 1812.1200895612419 0 0 0 0 7.6717419970982519 -305.40982024600453 0 -305.40982024600453 1139.3159644833358 0 0 0 0 564.05279888347582 -1086.5328496966226 0 -1086.5328496966226 927.69948413230304 0 0 0 0 584.08944813099765 -862.83511224923859 0 -862.83511224923859 1239.7168451842226 0 0 0 0 1445.3566823471415 -740.74272551864851 0 -740.74272551864851 1077.57506303025 0 0 0 0 1015.7426865630194 -1288.2516798914075 0 -1288.2516798914075 325.06904406493413 0 0 0 0 410.79341155303655 -816.82160470750387 0 -816.82160470750387 592.55267137776536 0 0 0 0 509.51512812086503 -638.61378456965758 0 -638.61378456965758 420.46363807488524 0 0 0 0 -23.893714264949267 -85.958444411742676 0 -85.958444411742676 531.13576861959518 0 0 0 0 -61.797439618916542 -348.33931913936613 0 -348.33931913936613 317.12641463828186 0 0 0 0 -185.70702868592343 71.717080078411527 0 71.717080078411527 128.5649232246069 0 0 0 0 -76.277628704415292 105.8386529931413 0 105.8386529931413 38.305573172750883 0 0 0 0 -15.671285945488648 -112.6341542309965 0 -112.6341542309965 408.38375870419259 0 0 0 0 116.43214803837463 -266.8194693100013 0 -266.8194693100013 692.60968723101541 0 0 0 0 -8.3135693930821617 247.15420341366553 0 247.15420341366553 15.849441642778402 0 0 0 0 -39.961285604305885 102.72596071505541 0 102.72596071505541 414.94340086376178 0 0 0 0 -6.2384123575720878 246.71307090166374 0 246.71307090166374 685.86034467923241 0 0 0 0 238.56177721771155 133.12972921890469 0 133.12972921890469 -56.728913821920287 0 0 0 0 -216.3215480363001 260.87192411752039 0 260.87192411752039 78.361634368164232 0 0 0 0 -119.11401485116539 -50.312763710047875 0 -50.312763710047875 -291.02018493395008 0 0 0 0 -79.239950220126957 51.918485223082826 0 51.918485223082826 -75.610526224743808 0 0 0 0 270.17969300597906 -356.33000944890955 0 -356.33000944890955 241.18991962588188 0 0 0 0 87.14220442709302 -7.9640953912967234 0 -7.9640953912967234 -548.27744520589476 0 0 0 0 25.26284649717536 -30.012571822204336 0 -30.012571822204336 106.09646133832575 0 0 0 0 -5.0473720403749009 1.5025726176904755 0 1.5025726176904755 0.5407205038592906 0 0 0 0 -69.479212914772233 302.94036723115642 0 302.94036723115642 -243.89727739673981 0 0 0 0 -16.550423374914089 28.712372645753931 0 28.712372645753931 153.18428192163992 0 0 0 0 -2.7966965728207924 106.42976872846702 0 106.42976872846702 395.83551180759969 0 0 0 0 -121.62866250269099 -36.298332076865336 0 -36.298332076865336 439.59734145423863 0 0 0 0 41.686932753967085 -57.233403776823252 0 -57.233403776823252 4.0181299650394067 0 0 0 0 -141.05939174281343 25.349872768507339 0 25.349872768507339 713.5040698961966 0 0 0 0 133.70894429458303 120.64170123139775 0 120.64170123139775 101.92540286407893 0 0 0 0 -0.11139300962088772 -0.019513610431223682 0 -0.019513610431223682 3.0630104445999677 0 0 0 0 2.3851470918842779 -170.03002864319751 0 -170.03002864319751 374.87087343959138 0 0 0 0 -0.90539996799462585 1.6633377567521848 0 1.6633377567521848 1.5387077850612059 0 0 0 0 6.2496757686701585 80.26557263885843 0 80.26557263885843 379.81502460203774 0 0 0 0 -54.494220692034105 134.01159173662745 0 134.01159173662745 60.115944919755293 0 0 0 0 81.35636949873026 -47.039434075675672 0 -47.039434075675672 52.56846516855876 0 0 0 0 249.61850396661487 -53.399738025895203 0 -53.399738025895203 10.779849828046281 0 0 0 0 141.0868242198903 -231.10091755179019 0 -231.10091755179019 36.316783472342649 0 0 0 0 282.10466099561791 -151.59970036437153 0 -151.59970036437153 81.057199846822186 0 0 0 0 -1.2113809495059544 4.2057392712209918 0 4.2057392712209918 1.4890236176654241 0 0 0 0 226.67486654049605 -125.64851643761176 0 -125.64851643761176 98.504154708658461 0 0 0 0 81.880884664913651 76.074251699290471 0 76.074251699290471 -126.77398469051695 0 0 0 0 -0.74855818930835061 0.69705587949382419 0 0.69705587949382419 17.679388437174453 0 0 0 0 484.36181016808291 -449.60997778784804 0 -449.60997778784804 250.49585381276847 0 0 0 0 225.84127918531794 -88.383925952908612 0 -88.383925952908612 238.87016356877575 0 0 0 0 138.69192343735267 293.1323771407333 0 293.1323771407333 -610.88265801477246 0 0 0 0 16.163513349544246 74.442389438459941 0 74.442389438459941 10.340034956125237 0 0 0 0 179.90146543685569 157.93954012721952 0 157.93954012721952 -366.21511226602888 0 0 0 0 173.12163850001005 7.687005657987811 0 7.687005657987811 -308.10325089277467 0 0 0 0 -68.855799110135194 311.50110713725007 0 311.50110713725007 -231.74959338267217 0 0 0 0 290.76061442691332 -437.0215453210767 0 -437.0215453210767 492.96041246479581 0 0 0 0 162.88160446971574 -312.94650344486581 0 -312.94650344486581 638.59181741262 0 0 0 0 148.31666721254834 -453.68998982215999 0 -453.68998982215999 1101.1312109829305 0 0 0 0 362.32034710341753 -537.74142435786052 0 -537.74142435786052 555.18059437576812 0 0 0 0 301.91968601883264 -396.94096952011751 0 -396.94096952011751 521.71075927234779 0 0 0 0 228.34304560510549 -295.66717830956622 0 -295.66717830956622 428.72870067242911 0 0 0 0 380.44428193412244 -304.7397745239723 0 -304.7397745239723 153.49662433699996 0 0 0 0 146.20712207090179 -122.49291017418 0 -122.49291017418 200.89084687484137 0 0 0 0 269.1939400477944 -233.75561037502121 0 -233.75561037502121 191.23311200154421 0 0 0 0 179.01490406550926 -241.28239581564958 0 -241.28239581564958 255.90449526379234 0 0 0 0 148.95271385507493 -241.94098676967405 0 -241.94098676967405 359.14393129796372 0 0 0 0 124.25447583458541 -345.31316354947376 0 -345.31316354947376 526.72371310422022 0 0 0 0 59.361799219214305 -256.23268533642295 0 -256.23268533642295 521.07385212372174 0 0 0 0 25.340199136862111 -244.10416393551714 0 -244.10416393551714 527.84206044395251 0 0 0 0 51.380529168404678 -328.32614176820061 0 -328.32614176820061 645.09695020789513 0 0 0 0 -20.697956892947332 -291.92695571868899 0 -291.92695571868899 730.93086730902724 0 0 0 0 91.785764423773344 -413.58001720036918 0 -413.58001720036918 829.71615291789203 0 0 0 0 60.90457997247654 -275.03158368185177 0 -275.03158368185177 582.01579966963254 0 0 0 0 58.347343005418566 -179.79627239796537 0 -179.79627239796537 871.44147313700523 0 0 0 0 10.642702469909125 -163.79382595440438 0 -163.79382595440438 687.75730043443036 0 0 0 0 -7.2339779916864018 -204.05322954698022 0 -204.05322954698022 939.55399096682959 0 0 0 0 18.619867346999278 -17.152184199944813 0 -17.152184199944813 1.4732690091522445 0 0 0 0 80.572805447094652 -59.985380695463391 0 -59.985380695463391 -292.46415573462582 0 0 0 0 97.375710238497049 -146.34524043471902 0 -146.34524043471902 -583.82826379372773 0 0 0 0 14.246693453003346 -12.394541157012142 0 -12.394541157012142 1.5555511573102132 0 0 0 0 15.603140292642308 -256.27552053649924 0 -256.27552053649924 1524.7815737471974 0 0 0 0 179.60039102488179 -260.44228744205247 0 -260.44228744205247 1802.5127167462779 0 0 0 0 170.80767806401127 -378.09831215133454 0 -378.09831215133454 1076.0658122657205 0 0 0 0 -251.73940614924027 -248.78863509755865 0 -248.78863509755865 -32.504997525960789 0 0 0 0 -285.03547018508516 -27.501911191087856 0 -27.501911191087856 -15.738331184737035 0 0 0 0 -58.474086851280845 -111.9982048276579 0 -111.9982048276579 -29.290807089147393 0 0 0 0 -130.38497547632142 -152.75375651764625 0 -152.75375651764625 -0.33950334448491049 0 0 0 0 -198.56622705300924 -12.322622851956112 0 -12.322622851956112 378.51670334037044 0 0 0 0 -78.187807213704218 -167.92014447542351 0 -167.92014447542351 -57.498658942502516 0 0 0 0 131.96505148882017 198.70927369605261 0 198.70927369605261 412.73802056617569 0 0 0 0 188.59215129586107 -290.24155479035494 0 -290.24155479035494 -1.4419895512692165 0 0 0 0 168.4340594047635 -235.54190707097951 0 -235.54190707097951 274.28670403982687 0 0 0 0 -31.293842508841976 119.28827067161933 0 119.28827067161933 568.48255125267315 0 0 0 0 -5.836532428924218 0.99898865161706851 0 0.99898865161706851 4.0603183089767469 0 0 0 0 -305.54613563496105 -127.32227694095184 0 -127.32227694095184 483.8910021558404 0 0 0 0 -248.35722250795061 -151.94329922223551 0 -151.94329922223551 659.13842767142341 0 0 0 0 -252.41045586147902 -93.9384205614042 0 -93.9384205614042 503.37285435754166 0 0 0 0 -398.67484219983896 28.900712258343447 0 28.900712258343447 404.76387894499931 0 0 0 0 -16.230554502898098 -0.30419540089701513 0 -0.30419540089701513 7.355314040827146 0 0 0 0 -52.105314704121156 3.6671330656608916 0 3.6671330656608916 44.841536819280009 0 0 0 0 -113.2763539155776 -29.288050775081501 0 -29.288050775081501 317.77701442227044 0 0 0 0 752.46321928307657 714.66128727707837 0 714.66128727707837 670.21175323778698 0 0 0 0 485.66455682697659 -831.43999626718005 0 -831.43999626718005 989.21719131451391 0 0 0 0 -3.6548131708652072 0.75297639750707823 0 0.75297639750707823 12.587553375473902 0 0 0 0 -386.76731140231846 507.27555084298001 0 507.27555084298001 2495.2122953356593 0 0 0 0 -359.47194578379128 -148.74877602740708 0 -148.74877602740708 975.11292998524004 0 0 0 0 -328.00694618009715 -22.214228621687653 0 -22.214228621687653 1118.2625037576654 0 0 0 0 -294.67209442836293 -587.03507814493787 0 -587.03507814493787 2497.0311238155468 0 0 0 0 419.56131967003409 -89.633126265300234 0 -89.633126265300234 -60.086532976227318 0 0 0 0 -19.873691815246953 6.707747279290885 0 6.707747279290885 8.220404978010464 0 0 0 0 82.146317778348475 -10.153754110007867 0 -10.153754110007867 -115.23747813046793 0 0 0 0 -151.4265044307358 -75.246118357630621 0 -75.246118357630621 272.00345041950459 0 0 0 0 -39.938855761812192 -257.38673041016227 0 -257.38673041016227 65.602008288711659 0 0 0 0 -178.18115286427019 -134.59689802227876 0 -134.59689802227876 453.10938333816011 0 0 0 0 -1.2323205326160469 -0.5578902668716097 0 -0.5578902668716097 0.2599035737462323 0 0 0 0 -20.463248840680535 58.0902098425031 0 58.0902098425031 201.3070267423609 0 0 0 0 -25.21309850713169 -31.481791799156781 0 -31.481791799156781 218.26585731025625 0 0 0 0 -2.9392174787366621 -1.5480435616084378 0 -1.5480435616084378 -1.187849043595012 0 0 0 0 27.405632718913694 11.456803841847432 0 11.456803841847432 11.767726740323269 0 0 0 0 6.4783555380996063 -69.938225530675481 0 -69.938225530675481 102.60874867161328 0 0 0 0 -32.125033167302945 -119.85112652358021 0 -119.85112652358021 180.87870120571461 0 0 0 0 -20.527149690477909 5.5924244459838093 0 5.5924244459838093 3.0173486529915792 0 0 0 0 237.12682014749697 135.6517896096484 0 135.6517896096484 69.245446002747485 0 0 0 0 -128.81563050145201 -20.14712278576917 0 -20.14712278576917 72.812183928079321 0 0 0 0 -47.469311943136063 -113.33850904594146 0 -113.33850904594146 124.70715152441699 0 0 0 0 20.207315688407519 419.59334893926916 0 419.59334893926916 46.003556145515176 0 0 0 0 2.6792130972179238 4.6100079192048611 0 4.6100079192048611 8.0793652025314486 0 0 0 0 -135.6285968515493 872.8985041425658 0 872.8985041425658 2494.412067113466 0 0 0 0 59.948154006036063 -937.43554383527953 0 -937.43554383527953 2496.1482070619986 0 0 0 0 0.84357892438209037 -25.761993643798633 0 -25.761993643798633 1233.4002924741653 0 0 0 0 -24.528040453260651 -28.842007234692574 0 -28.842007234692574 1600.7002505173368 0 0 0 0 6.1823085184708653 12.516396465914625 0 12.516396465914625 19.568344049937508 0 0 0 0 -83.357505817024503 33.211672496167012 0 33.211672496167012 31.209720943530556 0 0 0 0 95.323241841950804 -19.539887632250611 0 -19.539887632250611 24.340843638317892 0 0 0 0 32.416368281901939 -177.978823358113 0 -177.978823358113 1561.3190990249714 0 0 0 0 1.3696516107155063 4.7111146738116005 0 4.7111146738116005 3.438030037704408 0 0 0 0 -5.5883856074756597 1.3997984873583391 0 1.3997984873583391 37.53809199643635 0 0 0 0 -2.170255633431653 -1.8941367119977599 0 -1.8941367119977599 8.8786874062197967 0 0 0 0 -11.284130403188122 -2.0384676180510723 0 -2.0384676180510723 60.623064020532183 0 0 0 0 -0.0090919936572975753 8.1831921312578064 0 8.1831921312578064 41.291464740555966 0 0 0 0 -23.943615061752066 1.725090447793761 0 1.725090447793761 12.237885660991239 0 0 0 0 -68.639542719010933 -30.956450798821606 0 -30.956450798821606 73.475217970859376 0 0 0 0 23.534643501413484 17.587283659311652 0 17.587283659311652 33.493393971588375 0 0 0 0 6.1421123674153932 -19.101119963546807 0 -19.101119963546807 73.74281684872949 0 0 0 0 -5.7797477587664616 -37.078972973511554 0 -37.078972973511554 111.97862046368027 0 0 0 0 -3.2684336281703388 -5.6418519252849535 0 -5.6418519252849535 10.298119088641158 0 0 0 0 -3.4890968634265249 -16.91173484132403 0 -16.91173484132403 52.526232913173089 0 0 0 0 0.063108321539223605 -47.609095795007306 0 -47.609095795007306 60.846996781823691 0 0 0 0 0.12091485198293719 -2.574072176901808 0 -2.574072176901808 15.771938837953357 0 0 0 0 -17.211653029988327 -34.428426306745678 0 -34.428426306745678 54.847523521195399 0 0 0 0 -7.6077201351354837 -19.569333949286374 0 -19.569333949286374 77.766665785238729 0 0 0 0 1.2908014009308379 -6.5706085187618015 0 -6.5706085187618015 16.57522427530256 0 0 0 0 15.827982085009154 -21.362274404418713 0 -21.362274404418713 52.096335601585452 0 0 0 0 115.07598484117779 -66.05112137991091 0 -66.05112137991091 -248.09080365760747 0 0 0 0 -29.720402909930115 -50.038657657260046 0 -50.038657657260046 112.62078640846448 0 0 0 0 -0.8802045327453889 -2.6103730155770535 0 -2.6103730155770535 6.5258491190027756 0 0 0 0 -0.028188715499753519 -185.23725217954052 0 -185.23725217954052 193.73180214320746 0 0 0 0 -162.01901678454101 -75.840622964275099 0 -75.840622964275099 653.27768817249307 0 0 0 0 3.3360891919141578 -3.6440339907844717 0 -3.6440339907844717 3.8863070120674195 0 0 0 0 352.7542602901608 -324.28955360251712 0 -324.28955360251712 321.21011065985658 0 0 0 0 -19.64865130370481 79.625812380054413 0 79.625812380054413 307.18528092357155 0 0 0 0 9.1873607673667852 -24.243332549034587 0 -24.243332549034587 43.403919711874892 0 0 0 0 19.514916577074857 -21.115050494874879 0 -21.115050494874879 8.2342008402854088 0 0 0 0 170.49068312399868 -40.031155316537479 0 -40.031155316537479 -18.503859520008973 0 0 0 0 16.548991280973496 -78.297898938937578 0 -78.297898938937578 41.968546822412463 0 0 0 0 20.867554116127838 -19.189097991027765 0 -19.189097991027765 0.52892992219740798 0 0 0 0 89.356598247070451 -112.49625380825546 0 -112.49625380825546 -29.556071869657899 0 0 0 0 26.382910979555959 -228.58655519854801 0 -228.58655519854801 471.02606102003892 0 0 0 0 -17.757260996768537 -264.19040706037777 0 -264.19040706037777 634.72379749266292 0 0 0 0 -1.7568616227374605 -260.56412412782447 0 -260.56412412782447 633.15588473495154 0 0 0 0 346.8320458382459 -143.35480780195212 0 -143.35480780195212 586.68741162599326 0 0 0 0 -31.29782716111643 -250.22626813874194 0 -250.22626813874194 887.49244565270783 0 0 0 0 -34.842369250265961 -263.34283798010256 0 -263.34283798010256 677.46921420584113 0 0 0 0 84.194380629042556 -158.26007498059494 0 -158.26007498059494 527.48492818030354 0 0 0 0 21.584491672596641 -242.94234910278465 0 -242.94234910278465 683.44265273841302 0 0 0 0 86.792243803747922 -249.43703214631347 0 -249.43703214631347 548.58967890058557 0 0 0 0 -0.24346125105997585 -258.87607571115223 0 -258.87607571115223 611.56362141821046 0 0 0 0 105.40932733359926 -315.28438292685723 0 -315.28438292685723 570.51475268598733 0 0 0 0 58.258533198997384 -333.04153694984416 0 -333.04153694984416 702.35733727941988 0 0 0 0 3.4457259477412663 -35.590428987349696 0 -35.590428987349696 2.7829752348393413 0 0 0 0 -1.5845517525631294 -0.18248827222305408 0 -0.18248827222305408 7.6884808387494559 0 0 0 0 7.9747493214177734 -9.238601754519312 0 -9.238601754519312 11.979743058298082 0 0 0 0 -7.2368678391430876 -19.078657016387297 0 -19.078657016387297 19.734038878590582 0 0 0 0 -12.19951047567929 -13.075452307553405 0 -13.075452307553405 25.963140476664194 0 0 0 0 -3.1142759089270839 -12.527487640943946 0 -12.527487640943946 19.917190109370097 0 0 0 0 -2.9009553806172335 -7.9558392508952238 0 -7.9558392508952238 30.743943573166689 0 0 0 0 -3.5542521401366685 -13.990854636204858 0 -13.990854636204858 23.464794343248286 0 0 0 0 -4.4470491441151125 -6.1624104279783296 0 -6.1624104279783296 28.469581882116472 0 0 0 0 13.767307371013885 -10.946426095028983 0 -10.946426095028983 15.207700408474921 0 0 0 0 10.825917167377156 -6.4495234591495318 0 -6.4495234591495318 28.487114217952694 0 0 0 0 33.351042006589523 -9.5906400238409333 0 -9.5906400238409333 15.478516388190428 0 0 0 0 16.507095188402218 -16.893361923379416 0 -16.893361923379416 25.957087317279729 0 0 0 0 52.929402672824608 -32.570000567714487 0 -32.570000567714487 23.934327813058189 0 0 0 0 69.216009877163742 -26.659460160483832 0 -26.659460160483832 19.649212068783754 0 0 0 0 65.907956745965521 -42.381918894848809 0 -42.381918894848809 28.39286457990238 0 0 0 0 34.62241893790474 1.8346410923991243 0 1.8346410923991243 4.677471811549367 0 0 0 0 103.43004888609994 -25.659723492005469 0 -25.659723492005469 7.409262852895381 0 0 0 0 7.2387352621599348 26.336447808190314 0 26.336447808190314 3.7211336664677219 0 0 0 0 81.951767861334133 -80.656666785521224 0 -80.656666785521224 76.695099567473335 0 0 0 0 147.41052811050508 -202.03542420158809 0 -202.03542420158809 270.84834016285185 0 0 0 0 26.634887708323731 -40.338934047794282 0 -40.338934047794282 76.528731853577142 0 0 0 0 2.0566189332545619 -1.7442401968820249 0 -1.7442401968820249 2.2444562993888511 0 0 0 0 153.29491595175369 -37.838591020242532 0 -37.838591020242532 3.1546487637497194 0 0 0 0 55.990636413024276 288.62139948018103 0 288.62139948018103 367.07790362969718 0 0 0 0 81.050737519486916 -27.438572220600179 0 -27.438572220600179 -19.688214877110113 0 0 0 0 1.7212083755833714 -2.7011377264091667 0 -2.7011377264091667 4.2431056028178773 0 0 0 0 0.63345150809345796 -8.795194524348517 0 -8.795194524348517 160.72816735218817 0 0 0 0 5.2617969910466726 -6.0066564202979364 0 -6.0066564202979364 6.9707514387876053 0 0 0 0 29.795268505689364 130.28503518107573 0 130.28503518107573 234.78120843328907 0 0 0 0 0.6781403516457889 -0.85763811841703586 0 -0.85763811841703586 1.8201519487200954 0 0 0 0 39.599070896723674 239.40039759760711 0 239.40039759760711 294.82353974308262 0 0 0 0 50.958395439456808 87.211385388223391 0 87.211385388223391 71.623020044113218 0 0 0 0 68.880769494861852 35.775174764351505 0 35.775174764351505 30.434583054211089 0 0 0 0 69.825754638232866 76.134350404869565 0 76.134350404869565 24.545852959301158 0 0 0 0 9.8651234644544061 -8.4143506413783911 0 -8.4143506413783911 6.9695846206423138 0 0 0 0 -52.031248583326487 -51.413713872361654 0 -51.413713872361654 293.70306596514138 0 0 0 0 151.35883961131913 -17.282633314393706 0 -17.282633314393706 -55.809617227223953 0 0 0 0 99.674464031326806 -48.111953900437356 0 -48.111953900437356 368.33976025765332 0 0 0 0 19.393113369751973 92.52519012435755 0 92.52519012435755 132.00720433652168 0 0 0 0 101.55694858233619 73.141594222480308 0 73.141594222480308 24.309668989704676 0 0 0 0 207.60826087254554 83.800660699009768 0 83.800660699009768 63.865856051671472 0 0 0 0 60.672832645738993 68.5448139821045 0 68.5448139821045 318.45002268362441 0 0 0 0 60.863796299107889 25.388239792443528 0 25.388239792443528 78.044599264408134 0 0 0 0 115.91482581003038 21.69880339149131 0 21.69880339149131 33.982838758720391 0 0 0 0 119.96294360767172 246.18023950575954 0 246.18023950575954 196.32484254637967 0 0 0 0 -198.96218764234891 154.18311178461499 0 154.18311178461499 570.2630309828719 0 0 0 0 168.13542242310757 -297.67105453494145 0 -297.67105453494145 51.170112614750167 0 0 0 0 15.409388688254495 -11.836723967025202 0 -11.836723967025202 8.5599360438552434 0 0 0 0 11.940526396098903 -43.387236134243267 0 -43.387236134243267 39.696096037388088 0 0 0 0 38.651733359136415 124.16261796993683 0 124.16261796993683 155.57345153458891 0 0 0 0 42.004612912229732 122.03823420493927 0 122.03823420493927 143.33166861938571 0 0 0 0 46.860829062223274 117.29923198246752 0 117.29923198246752 147.88699271018322 0 0 0 0 50.392020887291437 117.46806123620127 0 117.46806123620127 147.83928570909939 0 0 0 0 50.927543630917171 79.933818835052989 0 79.933818835052989 139.36274393140911 0 0 0 0 34.382711096527601 98.375378019305344 0 98.375378019305344 126.15156868307076 0 0 0 0 29.471842439630109 107.72469542535384 0 107.72469542535384 181.78166628260442 0 0 0 0 2.2751506023104042 -1.0212779398172351 0 -1.0212779398172351 3.0632396176803578 0 0 0 0 24.61896770994008 -145.35713056420582 0 -145.35713056420582 130.07761994643806 0 0 0 0 255.06735496719003 34.153204366132158 0 34.153204366132158 34.493824567143747 0 0 0 0 18.002232937604276 128.56260134140484 0 128.56260134140484 360.87019348173453 0 0 0 0 258.68198865042996 153.52878587953637 0 153.52878587953637 95.181773497813992 0 0 0 0 141.26900117192054 224.7432332051967 0 224.7432332051967 248.02964368897028 0 0 0 0 45.370094604360133 128.5098982184619 0 128.5098982184619 157.0753228218673 0 0 0 0 151.33647512779862 106.52457203704671 0 106.52457203704671 56.208479929982786 0 0 0 0 130.28572278957836 73.721012172686187 0 73.721012172686187 47.629545432369923 0 0 0 0 105.63561923987618 152.27121033546882 0 152.27121033546882 144.15809433030654 0 0 0 0 64.708676886453759 108.20202029154757 0 108.20202029154757 96.963313410671617 0 0 0 0 73.106966200786701 93.048934702686893 0 93.048934702686893 104.44287367252082 0 0 0 0 50.722876676885789 65.716722682725049 0 65.716722682725049 74.480151684780139 0 0 0 0 89.37908847747849 59.715040225883513 0 59.715040225883513 37.093243531478947 0 0 0 0 106.79674614985902 32.711732201914856 0 32.711732201914856 -13.755964755553578 0 0 0 0 98.203795411587635 75.385033167276561 0 75.385033167276561 60.837985054712021 0 0 0 0 53.801706518363062 36.542605847906998 0 36.542605847906998 61.331246305823697 0 0 0 0 35.018024018461801 -43.377486928463441 0 -43.377486928463441 -30.74623525668585 0 0 0 0 46.226124653536317 -1.0205998984674807 0 -1.0205998984674807 23.469276858690137 0 0 0 0 7.2335143883647106 9.6028191768136821 0 9.6028191768136821 -4.0306189932634879 0 0 0 0 -152.25401913283349 -112.78723249719224 0 -112.78723249719224 -0.73160033610474784 0 0 0 0 -3.6773691737179401 0.58107614295614418 0 0.58107614295614418 4.9531323874007711 0 0 0 0 134.40352597592027 1.2603061601166701 0 1.2603061601166701 -31.333479559596526 0 0 0 0 133.3921612352824 76.409282865431123 0 76.409282865431123 43.545258184285558 0 0 0 0 47.690726181443097 -68.036547684743709 0 -68.036547684743709 6.218364798984112 0 0 0 0 -4.8544637645372859 -0.31742935239162762 0 -0.31742935239162762 25.2692200225124 0 0 0 0 -2.7384318283170614 -3.7699832310654529 0 -3.7699832310654529 38.001816457071982 0 0 0 0 9.0819898281024507 -5.3382190538809482 0 -5.3382190538809482 27.973527932221714 0 0 0 0 -2.4171720540480237 -6.6986161141971934 0 -6.6986161141971934 29.197680155371927 0 0 0 0 -16.846828632603774 -11.283257751326119 0 -11.283257751326119 43.22992121762536 0 0 0 0 -2.4658589883853415 -1.8070619995671722 0 -1.8070619995671722 25.451377144084105 0 0 0 0 56.904066039753161 6.1103318556388331 0 6.1103318556388331 27.562552723729823 0 0 0 0 30.381033257403033 16.009106170674386 0 16.009106170674386 46.958418500164953 0 0 0 0 41.889606048554924 7.6888977479770801 0 7.6888977479770801 50.097983216557623 0 0 0 0 15.178819580891286 -17.639820049665104 0 -17.639820049665104 29.784063046617121 0 0 0 0 51.389603188616093 53.309844915003396 0 53.309844915003396 92.167750083677674 0 0 0 0 14.864465367952903 8.9719121555984884 0 8.9719121555984884 71.704714839534972 0 0 0 0 19.429790349155155 -17.641950738181549 0 -17.641950738181549 33.113755464705719 0 0 0 0 11.672608392287657 -12.753778680507821 0 -12.753778680507821 49.173048338459637 0 0 0 0 -828.30662554643641 -312.76600334647992 0 -312.76600334647992 1303.8146919568812 0 0 0 0 145.21028435831977 -744.56847758133517 0 -744.56847758133517 751.25293603402588 0 0 0 0 368.36128909885474 -221.54701655176245 0 -221.54701655176245 87.573365212787849 0 0 0 0 15.495867173155602 -9.1416968031967372 0 -9.1416968031967372 23.414050806300111 0 0 0 0 1.8835217670552993 310.67647584431438 0 310.67647584431438 -240.78902203417738 0 0 0 0 9.5741204174500893 1.5434052571159533 0 1.5434052571159533 7.2677229692467566 0 0 0 0 23.974645248208162 126.41964690178327 0 126.41964690178327 408.87997547775285 0 0 0 0 5.0047155237628722 -0.69951003255258781 0 -0.69951003255258781 0.45071735357337328 0 0 0 0 21.304989496947201 58.997070916612074 0 58.997070916612074 159.31980372845214 0 0 0 0 12.976357900843908 0.57657459227208907 0 0.57657459227208907 -0.72114964457565423 0 0 0 0 36.140935702145725 38.086000161218635 0 38.086000161218635 111.47818282311277 0 0 0 0 36.08383444620813 46.840966525257272 0 46.840966525257272 101.79335964860365 0 0 0 0 -133.36260155888158 -63.016387697819596 0 -63.016387697819596 569.36425306464207 0 0 0 0 955.42878016557461 -474.28146975840014 0 -474.28146975840014 -163.89927198654459 0 0 0 0 -131.18087243083556 -51.089095673720358 0 -51.089095673720358 342.38775161820922 0 0 0 0 156.32730667356554 -163.24817721967202 0 -163.24817721967202 207.40534975608409 0 0 0 0 26.459220081518083 32.914899675359109 0 32.914899675359109 77.326965032027914 0 0 0 0 65.497143359674283 -29.886912029352033 0 -29.886912029352033 1.6230088148929553 0 0 0 0 -29.871353970776909 130.82790538442396 0 130.82790538442396 307.50058627425358 0 0 0 0 37.866542922981353 -61.209082590148697 0 -61.209082590148697 21.371302271093782 0 0 0 0 -0.76338515316851385 -2.275791313714187 0 -2.275791313714187 27.386648379186322 0 0 0 0 -44.439968871663723 -46.043846653258754 0 -46.043846653258754 27.251615460653966 0 0 0 0 -1.6010732215113492 -3.8355236110505739 0 -3.8355236110505739 5.9890469712425327 0 0 0 0 -8.5756834937337771 -20.411003789226356 0 -20.411003789226356 6.9892759609795121 0 0 0 0 -5.2847805893252371 -61.992749688301615 0 -61.992749688301615 21.870791569152317 0 0 0 0 33.611524024747268 -18.088934775245491 0 -18.088934775245491 5.545606104288936 0 0 0 0 10.792674902711042 -11.092504699514848 0 -11.092504699514848 20.742598409767083 0 0 0 0 274.34645518046614 -369.30857820118467 0 -369.30857820118467 142.78166712079201 0 0 0 0 -138.64718861885922 -62.346083847907266 0 -62.346083847907266 475.55032770844809 0 0 0 0 350.92523171788707 -250.73923137188649 0 -250.73923137188649 21.592669597866916 0 0 0 0 -115.52406594091917 -381.588222056635 0 -381.588222056635 620.79323160074091 0 0 0 0 534.88661836294091 -454.71674482737365 0 -454.71674482737365 438.25576103583808 0 0 0 0 0.42063429794344298 -1.1250560038876252 0 -1.1250560038876252 9.9821091856545934 0 0 0 0 124.18451844788797 41.87810350230302 0 41.87810350230302 -108.52066870583621 0 0 0 0 3.3599041128585228 -3.1283174203738895 0 -3.1283174203738895 0.71891838102739314 0 0 0 0 71.614347718304998 -113.68000806840018 0 -113.68000806840018 643.82412021654409 0 0 0 0 -61.873652317617712 54.364605133407508 0 54.364605133407508 20.489068875360317 0 0 0 0 1.7739908271289622 -3.5458309179989698 0 -3.5458309179989698 9.3469648594089918 0 0 0 0 15.5012325811349 16.787171545124693 0 16.787171545124693 9.5767812054536989 0 0 0 0 -135.1143753155111 -47.44393071461127 0 -47.44393071461127 80.085867876570774 0 0 0 0 -59.728839899298691 -14.412316561824355 0 -14.412316561824355 -19.875966957120909 0 0 0 0 257.35573621020467 -285.05108133055978 0 -285.05108133055978 95.742782853394601 0 0 0 0 178.03344556230968 -307.14498025358444 0 -307.14498025358444 248.9675032301293 0 0 0 0 542.63267140377229 -517.28981621621278 0 -517.28981621621278 193.15816148499107 0 0 0 0 -0.11173901852855916 0.48122790306857732 0 0.48122790306857732 10.784703170839364 0 0 0 0 -144.70222045885248 189.72174424674654 0 189.72174424674654 289.71790504052478 0 0 0 0 -31.698397161023422 -73.934146105613763 0 -73.934146105613763 7.7197393016431306 0 0 0 0 -29.435368939934051 -139.94862019037919 0 -139.94862019037919 55.77367925958697 0 0 0 0 -0.94647682132228628 3.9844002793907372 0 3.9844002793907372 28.547139641616294 0 0 0 0 -7.8993418988680482 -3.0943825714779081 0 -3.0943825714779081 7.8843195886222528 0 0 0 0 -86.180127457098706 -36.246008141461061 0 -36.246008141461061 29.393535020761192 0 0 0 0 -3.7806419816060952 -6.4439903206766758 0 -6.4439903206766758 40.326760304310028 0 0 0 0 6.6076216020055654 -18.970625695534636 0 -18.970625695534636 51.156618634444385 0 0 0 0 -2.0736426549192402 -5.7518803081038641 0 -5.7518803081038641 38.216147993203776 0 0 0 0 -2.284925340938571 -7.9034464273699996 0 -7.9034464273699996 39.284664586097279 0 0 0 0 8.8707125042501502 -11.37990073490073 0 -11.37990073490073 30.040440269663122 0 0 0 0 -4.1692834687164577 -4.7982633585547774 0 -4.7982633585547774 38.347609288011881 0 0 0 0 -2.2679366203010431 -8.2444472320530622 0 -8.2444472320530622 30.875070222622526 0 0 0 0 24.088343216929388 -20.06378618265262 0 -20.06378618265262 31.623070124690798 0 0 0 0 53.663839789579015 -30.349477399820898 0 -30.349477399820898 30.560725643033948 0 0 0 0 23.634221890003573 -15.088129400659454 0 -15.088129400659454 34.116127915340456 0 0 0 0 22.910353095984647 -17.046237022374953 0 -17.046237022374953 34.138776895171759 0 0 0 0 -3.1866047019735042 -1.4517126219630185 0 -1.4517126219630185 -1.0565931315075421 0 0 0 0 38.713117185233386 -89.697047235684749 0 -89.697047235684749 -202.61418757986939 0 0 0 0 -0.59272551199016021 0.1105832619515148 0 0.1105832619515148 -0.15544967526634323 0 0 0 0 73.98012031116059 -69.3748287689059 0 -69.3748287689059 80.224100738865673 0 0 0 0 401.84516690285682 103.66018887012797 0 103.66018887012797 -454.85128884806363 0 0 0 0 -84.088088707486349 -169.94755191057357 0 -169.94755191057357 41.498482654455074 0 0 0 0 -1.3361832745104039 -17.693959055040068 0 -17.693959055040068 109.60730200860553 0 0 0 0 -180.62682925903255 69.537954691660843 0 69.537954691660843 629.52207341452413 0 0 0 0 230.97789161417313 -406.07494143496297 0 -406.07494143496297 495.02684393931122 0 0 0 0 674.98498559583732 444.40989234082463 0 444.40989234082463 333.34787810890339 0 0 0 0 -125.39257962203601 348.5180050824406 0 348.5180050824406 288.95251919071234 0 0 0 0 109.22649942785392 -459.61309120008627 0 -459.61309120008627 771.60786131280111 0 0 0 0 85.116576282008282 -243.38903069712171 0 -243.38903069712171 -283.88139156755642 0 0 0 0 28.118265295332094 101.02013700254975 0 101.02013700254975 -26.264529437865903 0 0 0 0 170.61342980173049 16.412999821499398 0 16.412999821499398 -26.591809048433788 0 0 0 0 3.5782914679466558 75.422220350278621 0 75.422220350278621 -46.784757488963805 0 0 0 0 -12.935874563559992 82.696250623026572 0 82.696250623026572 -3.6593378313737048 0 0 0 0 1.3305698751734027 -3.9283684210508731 0 -3.9283684210508731 8.5850929117147388 0 0 0 0 -36.387764263334816 56.866857552491751 0 56.866857552491751 -80.96629114449388 0 0 0 0 -426.66015878439111 -40.524984511786897 0 -40.524984511786897 80.271688854455533 0 0 0 0 115.0859615058489 32.869357274750655 0 32.869357274750655 25.652476285453304 0 0 0 0 93.77165622547227 44.449868891164442 0 44.449868891164442 27.955942802167556 0 0 0 0 136.49746293591579 30.929001918153517 0 30.929001918153517 20.810327400170536 0 0 0 0 1.0790000990816333 -2.528388312554263 0 -2.528388312554263 7.6734546955576945 0 0 0 0 -32.452099651515852 81.341027095804975 0 81.341027095804975 -353.87787473436401 0 0 0 0 117.56718212290889 49.349687941965385 0 49.349687941965385 28.838687406122517 0 0 0 0 130.3981027607299 61.07989402954945 0 61.07989402954945 30.88379029713542 0 0 0 0 115.844098909851 57.530607827373103 0 57.530607827373103 14.589110938555677 0 0 0 0 129.67438473991479 53.522959797286603 0 53.522959797286603 10.387740795151331 0 0 0 0 58.638223852103692 44.32285202276762 0 44.32285202276762 72.163112323694804 0 0 0 0 100.12084349808811 55.16036521676142 0 55.16036521676142 65.16284160807777 0 0 0 0 85.186682199259394 33.448819035957058 0 33.448819035957058 35.865700780159386 0 0 0 0 111.38530593040628 38.258028886173634 0 38.258028886173634 13.155950528416724 0 0 0 0 101.74455745816249 39.078622071421705 0 39.078622071421705 34.80318749836033 0 0 0 0 133.69562466014122 39.355312789401069 0 39.355312789401069 11.102528824761976 0 0 0 0 74.405965743090292 14.49455742049031 0 14.49455742049031 25.730120538079063 0 0 0 0 82.945652414347023 20.918035413862526 0 20.918035413862526 25.712070031618424 0 0 0 0 119.62273864260806 2.0392771170918422 0 2.0392771170918422 15.773829150566598 0 0 0 0 118.96513651359055 10.066432858449843 0 10.066432858449843 16.997508263555574 0 0 0 0 164.91294400663082 26.920004613653873 0 26.920004613653873 5.2458817755068594 0 0 0 0 126.10957654555909 32.808821610080486 0 32.808821610080486 5.5823657589426148 0 0 0 0 197.88970843954576 43.037510601134272 0 43.037510601134272 -2.3719131748803193 0 0 0 0 148.96093174906855 54.772733945841537 0 54.772733945841537 -5.1850290138099808 0 0 0 0 165.43100702724951 25.88574463094119 0 25.88574463094119 4.1506661278326646 0 0 0 0 166.31094727704476 24.368337433032139 0 24.368337433032139 9.5209864910139004 0 0 0 0 199.56715298021481 44.792917844493786 0 44.792917844493786 8.7732364233233966 0 0 0 0 224.76625540425766 13.024943968579464 0 13.024943968579464 11.677081771646044 0 0 0 0 174.3560490155478 -7.96936857957553 0 -7.96936857957553 38.833096639158612 0 0 0 0 146.7370662073688 -11.932798885328339 0 -11.932798885328339 26.242756676612771 0 0 0 0 175.62514798312168 -5.8524623704433907 0 -5.8524623704433907 26.857838254950821 0 0 0 0 121.75429861891189 -44.4725096017537 0 -44.4725096017537 66.560543634484929 0 0 0 0 103.62855665516054 -21.841216633611111 0 -21.841216633611111 44.101611437552492 0 0 0 0 87.842009376837495 -35.142680885213849 0 -35.142680885213849 46.958146296885388 0 0 0 0 112.77319762689513 87.722635353055011 0 87.722635353055011 8.7042349802286481 0 0 0 0 138.24680500212071 54.667845714557188 0 54.667845714557188 4.3341497773435549 0 0 0 0 237.01381383870194 64.279821825315594 0 64.279821825315594 5.669034297199687 0 0 0 0 197.04865433391205 41.225711343649891 0 41.225711343649891 4.0298491688881768 0 0 0 0 179.45083368328778 87.330486206421483 0 87.330486206421483 0.094182978205935797 0 0 0 0 324.13978275195768 1349.0679937738751 0 1349.0679937738751 -176.69179680556226 0 0 0 0 0.68237992852268503 -0.82616186405278214 0 -0.82616186405278214 5.3044374997153838 0 0 0 0 633.93980903685315 200.6457769545782 0 200.6457769545782 1348.7770655167842 0 0 0 0 -269.904302400495 -362.97463572018478 0 -362.97463572018478 632.3996383508188 0 0 0 0 0.54576970536219083 -1.6546032259297778 0 -1.6546032259297778 9.300171070590082 0 0 0 0 708.58535669063212 334.01762727929236 0 334.01762727929236 418.13291056125308 0 0 0 0 275.83707205156406 9.1059101046994328 0 9.1059101046994328 82.560560046709725 0 0 0 0 0.94434923744785682 -3.3417078388695565 0 -3.3417078388695565 7.2694155634895381 0 0 0 0 -225.54619545310152 -109.06691643952649 0 -109.06691643952649 -208.12206426946432 0 0 0 0 93.26771107702757 -71.042601136759913 0 -71.042601136759913 102.07589640113292 0 0 0 0 162.19686338205383 -46.578687391503991 0 -46.578687391503991 116.6329123292453 0 0 0 0 148.69364473861606 -20.171342823163286 0 -20.171342823163286 65.206769625677907 0 0 0 0 241.42138882804102 -64.188067844246689 0 -64.188067844246689 120.40238900236727 0 0 0 0 256.1637245549191 15.151213062930765 0 15.151213062930765 20.636066273553297 0 0 0 0 230.03030120149469 -38.543335399388525 0 -38.543335399388525 155.14905242467648 0 0 0 0 240.35153883290332 -14.256364943877998 0 -14.256364943877998 38.696658322418443 0 0 0 0 231.47492365866538 -13.133285177678772 0 -13.133285177678772 77.8332733605057 0 0 0 0 281.62750523076647 -6.6901457614731044 0 -6.6901457614731044 78.410266287980448 0 0 0 0 297.7923594711574 -67.100447232300212 0 -67.100447232300212 243.97916384064592 0 0 0 0 295.0615090145202 -35.386558976839297 0 -35.386558976839297 121.77943902055267 0 0 0 0 232.54309745406317 -27.712108039937448 0 -27.712108039937448 299.96566146623809 0 0 0 0 265.31871747323021 -139.65154611877733 0 -139.65154611877733 491.81364315575047 0 0 0 0 290.52713096917614 -99.136056460622058 0 -99.136056460622058 209.71660479754064 0 0 0 0 140.87938255064728 -18.786713234934723 0 -18.786713234934723 220.88765469937789 0 0 0 0 103.35182307018385 0.55817798152565956 0 0.55817798152565956 436.47355414053891 0 0 0 0 242.72760292347823 -76.044118873338448 0 -76.044118873338448 252.56188011624909 0 0 0 0 91.639876501231811 52.811928556708153 0 52.811928556708153 215.34069439902714 0 0 0 0 33.247171097467799 23.062993992316478 0 23.062993992316478 222.38910436467268 0 0 0 0 117.2024255454885 -74.129377654645396 0 -74.129377654645396 224.24836981292901 0 0 0 0 270.52805135808489 126.88964133287118 0 126.88964133287118 -78.65431174726109 0 0 0 0 110.91031728969347 169.98248158850765 0 169.98248158850765 163.18695159333583 0 0 0 0 175.44275668520913 184.67766288570419 0 184.67766288570419 279.2035086346732 0 0 0 0 119.24610685133507 143.09938422678351 0 143.09938422678351 248.44454364231206 0 0 0 0 364.67004900434767 84.172861221810308 0 84.172861221810308 -82.987640205792559 0 0 0 0 157.77644876847069 221.87838844670841 0 221.87838844670841 868.00380551441049 0 0 0 0 970.60167159037246 548.11312258260659 0 548.11312258260659 47.823071598919341 0 0 0 0 170.10247351600628 132.84317651690071 0 132.84317651690071 -37.338307582460402 0 0 0 0 169.14056496134162 166.96440746004373 0 166.96440746004373 -34.708297562661755 0 0 0 0 307.18251813031566 244.98221670028215 0 244.98221670028215 49.623494720450253 0 0 0 0 14.323586697190819 87.919169232648187 0 87.919169232648187 213.6159312842683 0 0 0 0 0.9502871373870394 -1.9098180076550157 0 -1.9098180076550157 2.2519444465926668 0 0 0 0 -448.64811204601619 -126.94390784273492 0 -126.94390784273492 -103.25161211627437 0 0 0 0 8.2431244334568419 53.544534541388202 0 53.544534541388202 55.022544635936356 0 0 0 0 -44.807003553713912 -4.4948820607651214 0 -4.4948820607651214 188.5139867990747 0 0 0 0 5.3036301440283751 5.0407286855643179 0 5.0407286855643179 59.799226102533794 0 0 0 0 -45.11623715285441 1.5232411788010722 0 1.5232411788010722 80.967074045545814 0 0 0 0 4.5937570205123848 10.027185050461412 0 10.027185050461412 28.533713264580001 0 0 0 0 103.55860638317517 0.51302331738497742 0 0.51302331738497742 -9.2590177625897923 0 0 0 0 23.767736546120432 59.473030247156203 0 59.473030247156203 -47.426813991245581 0 0 0 0 -87.887166680719019 56.425964409730113 0 56.425964409730113 -5.9671282687086205 0 0 0 0 -119.3910640078293 -27.926590212002338 0 -27.926590212002338 13.641352841779735 0 0 0 0 10.882914771843957 15.69717776259813 0 15.69717776259813 -4.0405398813054489 0 0 0 0 -12.172557214930748 -13.657023389294409 0 -13.657023389294409 -22.890282875554476 0 0 0 0 -35.394196564329832 42.394686914696649 0 42.394686914696649 29.799848945060148 0 0 0 0 -27.383269053735603 -1.1290731966546446 0 -1.1290731966546446 139.73499445753259 0 0 0 0 0.87733556291074066 1.7871351278820669 0 1.7871351278820669 3.953999410715582 0 0 0 0 -31.405912443898274 29.836225572093099 0 29.836225572093099 48.994620108162053 0 0 0 0 45.716915519867598 -48.562598103544588 0 -48.562598103544588 6.0521575829916401 0 0 0 0 1.02915111292164 -3.3769697514918118 0 -3.3769697514918118 20.182952855195254 0 0 0 0 282.76047236598868 -190.72791271567621 0 -190.72791271567621 -142.32906602664298 0 0 0 0 0.055504678667745111 -23.989174173402716 0 -23.989174173402716 -6.908440433369833 0 0 0 0 -2.1844914666228168 -3.9903968405966737 0 -3.9903968405966737 -3.3221292693128532 0 0 0 0 -10.27787266161522 -58.632012310215032 0 -58.632012310215032 35.575089402409503 0 0 0 0 -180.96049861635152 62.847854766840101 0 62.847854766840101 22.51240265211527 0 0 0 0 -10.672384782165409 -52.565377403672755 0 -52.565377403672755 57.948008016566746 0 0 0 0 38.780994743394416 -27.163703148862623 0 -27.163703148862623 63.352169657831837 0 0 0 0 -171.68104237107073 -95.891661902469423 0 -95.891661902469423 186.28855568448125 0 0 0 0 -242.21573327081455 51.667028659546304 0 51.667028659546304 81.234956974207307 0 0 0 0 -0.68280319609983586 4.2756013065944121 0 4.2756013065944121 59.290679123655977 0 0 0 0 -4.8430964344679417 -9.7869228417477245 0 -9.7869228417477245 0.21932307298591525 0 0 0 0 -214.7987224584183 15.29435506446589 0 15.29435506446589 65.353301615392411 0 0 0 0 -180.14144005639224 40.647459792402515 0 40.647459792402515 9.2637293920452066 0 0 0 0 -149.59306621364658 -13.913673284254401 0 -13.913673284254401 92.686465353155654 0 0 0 0 -183.79938166106786 45.467668588151355 0 45.467668588151355 66.745626448630901 0 0 0 0 -118.62565621760905 10.743574835674281 0 10.743574835674281 73.25302004248806 0 0 0 0 -123.69530497206733 -2.3343453010529629 0 -2.3343453010529629 61.872096641098778 0 0 0 0 -170.50632093387344 51.249733453350927 0 51.249733453350927 61.697153971730586 0 0 0 0 -164.26427266204183 17.907486192854776 0 17.907486192854776 78.119845438399352 0 0 0 0 -112.56204115709966 42.482029397677252 0 42.482029397677252 51.21672122300788 0 0 0 0 -78.104292421187438 -6.190165788779268 0 -6.190165788779268 70.299900153440831 0 0 0 0 -25.680450677110457 23.533986198752245 0 23.533986198752245 54.726385757624485 0 0 0 0 -39.384426174632154 3.9073335103221325 0 3.9073335103221325 46.920965187093316 0 0 0 0 -42.844314363114336 32.640830850188649 0 32.640830850188649 63.727376594337329 0 0 0 0 13.187675351087364 10.470343314751517 0 10.470343314751517 48.628092978797213 0 0 0 0 12.77096017104077 12.155538061508196 0 12.155538061508196 55.709305121970829 0 0 0 0 -0.27107703877345557 -5.5384424528765521 0 -5.5384424528765521 44.122590836195741 0 0 0 0 65.289600121426702 21.873643102051574 0 21.873643102051574 43.162973266546032 0 0 0 0 62.152410811672098 -10.706879866624149 0 -10.706879866624149 33.277402419982536 0 0 0 0 26.320871318783247 3.8439520172978519 0 3.8439520172978519 40.651784582589244 0 0 0 0 -32.777482225656968 -37.512726177303193 0 -37.512726177303193 80.722148235196073 0 0 0 0 -53.990007617868741 11.659116033239115 0 11.659116033239115 46.503926793251594 0 0 0 0 4.1626935364811288 -12.857549154054141 0 -12.857549154054141 54.793746373386966 0 0 0 0 44.808878793577151 9.7614357535439922 0 9.7614357535439922 129.98354824158741 0 0 0 0 10.573457190109821 -38.209265381454316 0 -38.209265381454316 99.644510148864356 0 0 0 0 -105.78141733155871 -21.024653501935973 0 -21.024653501935973 128.43237909438903 0 0 0 0 -108.88438223211199 24.263789425165442 0 24.263789425165442 47.474054316713591 0 0 0 0 -127.01919335241246 26.524450526943838 0 26.524450526943838 139.6935475287828 0 0 0 0 -45.694148337066508 32.334189034081646 0 32.334189034081646 48.051017217570916 0 0 0 0 -130.68378789060165 67.156363475199441 0 67.156363475199441 -13.0716359053622 0 0 0 0 -26.653884781052966 -23.740583887725734 0 -23.740583887725734 177.0338959202636 0 0 0 0 18.809222296736152 64.131724986349582 0 64.131724986349582 107.58138597902871 0 0 0 0 -50.564706581588325 98.868351399603853 0 98.868351399603853 161.24837538869542 0 0 0 0 55.584322426048857 90.091577991224767 0 90.091577991224767 50.364439730787126 0 0 0 0 39.624484093185856 162.75853552249828 0 162.75853552249828 85.931079696267261 0 0 0 0 18.741266510742207 178.53308160232336 0 178.53308160232336 -25.01562987906982 0 0 0 0 -3.3114537626315723 85.778932106652064 0 85.778932106652064 -42.535889982114895 0 0 0 0 -337.91347476952615 153.31469049797852 0 153.31469049797852 50.045521015839768 0 0 0 0 -148.88159992496367 114.52176089639579 0 114.52176089639579 78.513231875738711 0 0 0 0 -195.53282686615694 93.632104401578545 0 93.632104401578545 88.945194068961428 0 0 0 0 -137.64664089445932 118.99320484516829 0 118.99320484516829 -50.022276330091699 0 0 0 0 -53.492392091866577 76.534987273348634 0 76.534987273348634 26.595210397681512 0 0 0 0 -331.54090701166706 260.40108813192091 0 260.40108813192091 -16.543548976083912 0 0 0 0 129.42423581121534 -30.724555318077364 0 -30.724555318077364 -44.108431019980344 0 0 0 0 -185.9308704974278 130.2638540615626 0 130.2638540615626 -148.07822696025141 0 0 0 0 0.32232510069099085 2.7331886633522426 0 2.7331886633522426 6.2851176842479646 0 0 0 0 -289.3903084633364 107.11773818688471 0 107.11773818688471 42.752442194545438 0 0 0 0 -227.38871293786997 15.002023458557233 0 15.002023458557233 11.700949690603011 0 0 0 0 -222.16243374442774 38.786267612043957 0 38.786267612043957 99.53141955835963 0 0 0 0 109.30276670755563 -46.091075778194863 0 -46.091075778194863 3.6774122362585331 0 0 0 0 -68.477089836573441 -71.226661433360277 0 -71.226661433360277 73.88212021367508 0 0 0 0 -0.96357895356656464 -0.24530014556484936 0 -0.24530014556484936 27.201995978082152 0 0 0 0 -1.7597445523622823 -2.4408826222084201 0 -2.4408826222084201 16.180954787022586 0 0 0 0 66.361134513518437 -11.305785355012631 0 -11.305785355012631 11.80923504128441 0 0 0 0 92.072890382545893 -0.52175132963748183 0 -0.52175132963748183 38.548995893565007 0 0 0 0 50.779087695429212 -34.130060879000666 0 -34.130060879000666 52.310871777026478 0 0 0 0 -0.47636354660335201 -31.188678784928925 0 -31.188678784928925 23.413818876018922 0 0 0 0 53.101196582353396 -44.733156066468382 0 -44.733156066468382 13.40128682366776 0 0 0 0 1.3082890473338011 -18.985302114921069 0 -18.985302114921069 37.826958251003816 0 0 0 0 -15.645804077283628 -51.078212005635578 0 -51.078212005635578 56.783622522445512 0 0 0 0 -35.052863376416099 -21.856804978047876 0 -21.856804978047876 17.600867411891159 0 0 0 0 -0.7101021155840499 -28.716851775785472 0 -28.716851775785472 1.4227478037792025 0 0 0 0 -59.883605669542703 -59.774854186642187 0 -59.774854186642187 34.136923372210731 0 0 0 0 -38.10046060239938 -18.102605428412062 0 -18.102605428412062 -33.794131460213976 0 0 0 0 -10.652696866417095 -90.263455248214342 0 -90.263455248214342 10.019078734490904 0 0 0 0 -9.0128255272998103 -82.882898128915258 0 -82.882898128915258 -31.227510798933508 0 0 0 0 -12.624568922530671 -54.489900055486942 0 -54.489900055486942 10.035860588561263 0 0 0 0 32.7703025331341 -59.007408663728711 0 -59.007408663728711 13.113962759487549 0 0 0 0 2.9602997260340089 -29.709336254323716 0 -29.709336254323716 -0.58072302807704546 0 0 0 0 -82.578949560933779 -37.615149056382506 0 -37.615149056382506 184.39447969797402 0 0 0 0 -64.877386948367075 29.281504574018982 0 29.281504574018982 59.494310066289472 0 0 0 0 68.260908165641609 -38.866319799086341 0 -38.866319799086341 62.420227354294845 0 0 0 0 -23.640999453667064 -27.300411920085025 0 -27.300411920085025 27.391953114958596 0 0 0 0 -10.561636228311045 -10.439700878001531 0 -10.439700878001531 32.760547734018473 0 0 0 0 -4.0101955188547862 -29.596607254898117 0 -29.596607254898117 71.365961990944925 0 0 0 0 68.901481795780001 -52.28720788947976 0 -52.28720788947976 36.717912265165069 0 0 0 0 67.632707328695972 -56.789761993331922 0 -56.789761993331922 62.449720986791363 0 0 0 0 -0.3109392470590352 -0.93347755007613653 0 -0.93347755007613653 17.800674151363495 0 0 0 0 178.71887424956299 -49.343110449959568 0 -49.343110449959568 22.112020691718499 0 0 0 0 67.615962407132216 -56.510608500129138 0 -56.510608500129138 83.011648068611976 0 0 0 0 68.242682932663712 -38.629195094791385 0 -38.629195094791385 81.441641567609622 0 0 0 0 358.86565252203752 -172.36581267097517 0 -172.36581267097517 44.347550585473073 0 0 0 0 26.844910909841701 216.73197167454055 0 216.73197167454055 256.6161800231348 0 0 0 0 -0.067952735109716889 -0.89668883119283205 0 -0.89668883119283205 6.5057877865370273 0 0 0 0 96.793031986742335 13.579208596494937 0 13.579208596494937 -79.903135623755588 0 0 0 0 -118.90776284986742 -56.261602194590068 0 -56.261602194590068 79.234042926676921 0 0 0 0 -64.403026801936903 250.53466438077521 0 250.53466438077521 -61.114552759730941 0 0 0 0 28.706838492250881 171.7741738660261 0 171.7741738660261 -168.17101484469185 0 0 0 0 -156.65223136779696 24.815261902995189 0 24.815261902995189 -109.34391462197163 0 0 0 0 36.995553221611658 108.06165599604537 0 108.06165599604537 -35.787512718816288 0 0 0 0 47.668297988356954 79.683757678253869 0 79.683757678253869 7.5298592660983559 0 0 0 0 0.0041282526860251245 0.79376080769227819 0 0.79376080769227819 2.7565206196695442 0 0 0 0 128.06428227530643 -109.92543137465691 0 -109.92543137465691 346.36167561504044 0 0 0 0 -53.216576486959724 183.66343693709882 0 183.66343693709882 29.636533504923136 0 0 0 0 -150.3795615532099 141.65456957936112 0 141.65456957936112 404.07572414397328 0 0 0 0 107.72145344377111 200.76599674205318 0 200.76599674205318 121.94323219034413 0 0 0 0 -59.406950396605225 -76.581512553406355 0 -76.581512553406355 -37.987983356782934 0 0 0 0 -11.711118279792117 -45.585940765868145 0 -45.585940765868145 -66.724003384082607 0 0 0 0 -3.9451638829839908 -101.10699168192559 0 -101.10699168192559 -109.01312340910226 0 0 0 0 0.64734802466509178 -8.5750440370147309 0 -8.5750440370147309 40.586939134747048 0 0 0 0 -247.57530748738554 -101.63830798894151 0 -101.63830798894151 52.967242629063549 0 0 0 0 -36.269364797462458 -57.532290683944666 0 -57.532290683944666 -16.792759320404002 0 0 0 0 -95.148591392954472 -77.540969360087303 0 -77.540969360087303 -74.934340548858017 0 0 0 0 -14.105091663769372 -14.675769181974829 0 -14.675769181974829 51.617334185983054 0 0 0 0 116.48947165813843 -15.985862680054197 0 -15.985862680054197 -48.864091697407275 0 0 0 0 66.092029081479609 92.391842450349031 0 92.391842450349031 133.38306397468114 0 0 0 0 -96.162240702929921 -132.95537060740025 0 -132.95537060740025 -75.325309900905268 0 0 0 0 -420.65329775452483 150.79885778534936 0 150.79885778534936 465.06001595233101 0 0 0 0 -48.310226723852338 261.34241011845006 0 261.34241011845006 317.70829266004512 0 0 0 0 -3.7531955851970507 1.7420955359861736 0 1.7420955359861736 -1.3439386503389312 0 0 0 0 -69.216263329004335 -222.25571731909986 0 -222.25571731909986 205.86071095908119 0 0 0 0 730.38444430983088 258.80309609209689 0 258.80309609209689 -290.20335652045833 0 0 0 0 -13.398176019736638 47.178088067623321 0 47.178088067623321 214.0692996194789 0 0 0 0 -13.655758202943161 3.0606727232370758 0 3.0606727232370758 170.81135806228849 0 0 0 0 52.871724676956092 41.480376182273176 0 41.480376182273176 51.015977059127181 0 0 0 0 20.50321857526751 -7.2292254300036802 0 -7.2292254300036802 40.077585755057953 0 0 0 0 -32.139196604368408 31.593562846561326 0 31.593562846561326 100.6587295720537 0 0 0 0 -4.5296499180024163 25.728391167296415 0 25.728391167296415 34.808627006834946 0 0 0 0 -161.64987735883074 53.897126989194021 0 53.897126989194021 102.57516040356859 0 0 0 0 -71.483752521076894 81.358291743308655 0 81.358291743308655 3.6979704721799322 0 0 0 0 -13.303534993032752 2.0030640187079314 0 2.0030640187079314 10.903504027095236 0 0 0 0 14.869393191572271 -74.464726228339714 0 -74.464726228339714 26.805899179655057 0 0 0 0 8.7330085374042028 -40.868067246517057 0 -40.868067246517057 29.028745791575034 0 0 0 0 -0.22441001210609102 -78.1020278518954 0 -78.1020278518954 53.967845941493579 0 0 0 0 38.785836256264702 -49.082785462201173 0 -49.082785462201173 34.856968934384668 0 0 0 0 38.672276893783874 -51.421583141511746 0 -51.421583141511746 47.473637723980573 0 0 0 0 37.947434364098626 -18.054584134630204 0 -18.054584134630204 46.919240978345442 0 0 0 0 -4.9475881622615816 -45.119397566303633 0 -45.119397566303633 46.725762463594947 0 0 0 0 -9.0700630597632426 -49.515734451932985 0 -49.515734451932985 113.26183555278476 0 0 0 0 -32.933927303292421 -87.295359210412244 0 -87.295359210412244 54.113577779346087 0 0 0 0 -67.399982730414195 -42.321626013572313 0 -42.321626013572313 146.51909250174322 0 0 0 0 -73.905086646758662 -15.655001498571892 0 -15.655001498571892 367.01070299103958 0 0 0 0 -52.834858645598615 -204.46983609953531 0 -204.46983609953531 287.74466211220806 0 0 0 0 -18.935062929283959 -169.18589257740132 0 -169.18589257740132 -1.8530700871851877 0 0 0 0 -36.508024522568121 -99.517650488407526 0 -99.517650488407526 191.07164961305716 0 0 0 0 -426.29847017429438 -280.96613199181047 0 -280.96613199181047 508.14468885838505 0 0 0 0 271.07888994235213 147.08736270255758 0 147.08736270255758 -114.60153467834789 0 0 0 0 0.37310718122357356 -4.7098402170640536 0 -4.7098402170640536 25.217200621884416 0 0 0 0 226.82663902736772 87.295480318700356 0 87.295480318700356 -116.07734920375333 0 0 0 0 60.949923742658939 -306.37919786758903 0 -306.37919786758903 -314.83491585723823 0 0 0 0 -0.29049434112551853 -5.7068199580221659 0 -5.7068199580221659 36.39065005288959 0 0 0 0 -319.86402434949491 -43.616217841229172 0 -43.616217841229172 20.995600831352931 0 0 0 0 -124.02885212245246 85.954665009912787 0 85.954665009912787 -136.20418768559693 0 0 0 0 -89.492266307234331 1.8099154791852925 0 1.8099154791852925 394.51675762730883 0 0 0 0 3.020195842740236 -67.572211611283251 0 -67.572211611283251 -37.155613290993642 0 0 0 0 -47.612125375746928 -61.655928418249459 0 -61.655928418249459 4.0984209099042346 0 0 0 0 -37.05039162083267 -1.1117022394391824 0 -1.1117022394391824 -32.058181651666928 0 0 0 0 -138.42708615287029 -34.552500879794025 0 -34.552500879794025 55.537064979600473 0 0 0 0 -122.31247654050458 -50.881756622781722 0 -50.881756622781722 -18.806146368680857 0 0 0 0 -181.30065510238728 -3.7385348037023505 0 -3.7385348037023505 32.326828053151985 0 0 0 0 -109.26381767589783 -54.923854141068659 0 -54.923854141068659 51.518023833779807 0 0 0 0 -103.38343815575035 37.069249033169399 0 37.069249033169399 103.1153124600487 0 0 0 0 -70.304856738945091 -23.953132137692819 0 -23.953132137692819 174.74764984441299 0 0 0 0 -69.316817604909374 23.644291018294098 0 23.644291018294098 43.121460189036952 0 0 0 0 -13.534805068541118 -21.397732591812201 0 -21.397732591812201 108.12621576638389 0 0 0 0 -14.732236050896063 -13.228195608379338 0 -13.228195608379338 54.2644810566469 0 0 0 0 -21.358117265638839 -42.276203641205939 0 -42.276203641205939 75.592368265814002 0 0 0 0 39.148925485003929 -74.435427571112086 0 -74.435427571112086 66.063306984361589 0 0 0 0 59.961873364041821 -49.612451087729823 0 -49.612451087729823 34.796069584170937 0 0 0 0 24.665885495311002 -86.242496826829338 0 -86.242496826829338 202.76467738723113 0 0 0 0 -29.634671833837139 43.516717629302363 0 43.516717629302363 167.40775560778275 0 0 0 0 -407.46350734062776 -141.00160703628899 0 -141.00160703628899 201.92032089842769 0 0 0 0 -0.3403459914093192 -0.96369407876018265 0 -0.96369407876018265 0.13723002500123016 0 0 0 0 200.65437020073068 197.77710549589392 0 197.77710549589392 146.09788288692698 0 0 0 0 -65.794923349782948 128.99918525958083 0 128.99918525958083 257.01278595255189 0 0 0 0 -113.71849604322551 108.01597445733432 0 108.01597445733432 226.41329410769868 0 0 0 0 -51.151485206011301 37.137397491543425 0 37.137397491543425 76.85952545922737 0 0 0 0 -41.280050431094651 68.199693548061077 0 68.199693548061077 236.02822191406358 0 0 0 0 -9.5399469843509905 52.363215727877332 0 52.363215727877332 78.076149422251547 0 0 0 0 45.891014186566053 61.284335203842147 0 61.284335203842147 6.3025346139284011 0 0 0 0 0.59462407355334612 6.941281102014301 0 6.941281102014301 4.333860489564632 0 0 0 0 -16.631101667757065 64.4373949560391 0 64.4373949560391 37.827492213459664 0 0 0 0 -10.777348631522273 31.725278849931783 0 31.725278849931783 74.327065800307992 0 0 0 0 0.90926669963451445 10.917860476631063 0 10.917860476631063 49.311580308673001 0 0 0 0 1.4711469699716844 15.051201235373128 0 15.051201235373128 38.035121915374475 0 0 0 0 4.1664846203680188 20.640780797324361 0 20.640780797324361 29.733029618028304 0 0 0 0 -131.2218410235846 146.49230824514188 0 146.49230824514188 9.2332638962404872 0 0 0 0 24.875169330830431 174.06545156611901 0 174.06545156611901 48.554355742880034 0 0 0 0 -22.850241460049801 24.853494832326987 0 24.853494832326987 77.064031225778308 0 0 0 0 -91.284478582448173 135.6906007935645 0 135.6906007935645 40.450837729708383 0 0 0 0 -229.95589584852632 55.998326019673982 0 55.998326019673982 53.729622694731916 0 0 0 0 -10.082514163513451 -21.254336327856436 0 -21.254336327856436 184.65149524818116 0 0 0 0 17.063779600955058 -4.4451409188550315 0 -4.4451409188550315 121.73626101463014 0 0 0 0 18.329825222369436 0.54423576000044704 0 0.54423576000044704 20.618543661075819 0 0 0 0 -17.721221130290587 77.051514686564587 0 77.051514686564587 50.478501599711308 0 0 0 0 -3.189844018755073 22.584561993018756 0 22.584561993018756 35.985911907903073 0 0 0 0 -20.692948965814594 20.180613209175135 0 20.180613209175135 46.249686404972181 0 0 0 0 12.001951878342197 80.809044272607935 0 80.809044272607935 18.691977340291032 0 0 0 0 -15.0856844238956 -16.736384524399909 0 -16.736384524399909 117.94484254734198 0 0 0 0 -41.87405114223111 12.963322823721683 0 12.963322823721683 113.11871247332601 0 0 0 0 -30.395185802647347 28.825013799509179 0 28.825013799509179 67.055418008305423 0 0 0 0 -5.2458427492101816 17.692394519215085 0 17.692394519215085 43.053708851911217 0 0 0 0 8.6972393050664323 29.056038483362499 0 29.056038483362499 0.22641694366029697 0 0 0 0 24.725105686357438 7.5535582239390351 0 7.5535582239390351 7.5446096645573562 0 0 0 0 11.034795496917013 -13.002565441942352 0 -13.002565441942352 51.299550317202375 0 0 0 0 -0.98008434809068845 -0.076545408753259103 0 -0.076545408753259103 47.569266457448208 0 0 0 0 -3.7339707543643499 9.9347435408626552 0 9.9347435408626552 27.33027367131217 0 0 0 0 -165.25025959440734 -7.93158210316642 0 -7.93158210316642 317.2275337442461 0 0 0 0 -14.294488282961993 127.65354572048909 0 127.65354572048909 -21.923952154027575 0 0 0 0 -1.4212889431673157 11.550005654773322 0 11.550005654773322 6.8264007372562823 0 0 0 0 47.740702998358756 58.059401950906249 0 58.059401950906249 -42.074371727481775 0 0 0 0 -53.883612927489821 -7.3700454249637914 0 -7.3700454249637914 96.041091098780271 0 0 0 0 -0.89687324732792995 26.160113657920235 0 26.160113657920235 66.128352491272608 0 0 0 0 -1.5103332542484065 4.2614768343012877 0 4.2614768343012877 49.265304596997041 0 0 0 0 48.394271555822343 84.955864387986367 0 84.955864387986367 14.210180990623485 0 0 0 0 -182.7315576741571 52.934924063994913 0 52.934924063994913 186.06881071344833 0 0 0 0 6.8042218109133046 23.144929493792006 0 23.144929493792006 36.122101672081044 0 0 0 0 0.39164070998163503 15.772306878190697 0 15.772306878190697 34.130730921390047 0 0 0 0 11.453904187862918 2.0958264656546817 0 2.0958264656546817 44.685960507000345 0 0 0 0 1.895170768733335 -2.8876026431695649 0 -2.8876026431695649 3.1803755190273932 0 0 0 0 -260.44240707787912 -235.21109039199109 0 -235.21109039199109 334.88552730089941 0 0 0 0 245.32790532265653 -106.29917157177078 0 -106.29917157177078 43.512987752765184 0 0 0 0 307.2593118087384 300.46228363590126 0 300.46228363590126 -69.666860265735522 0 0 0 0 101.79194239756225 -277.78944142713226 0 -277.78944142713226 171.19475239045278 0 0 0 0 -26.598309119504847 3.0120002548319462 0 3.0120002548319462 85.294501922424388 0 0 0 0 -3.0054488337407186 9.2057250164192865 0 9.2057250164192865 21.91277084499616 0 0 0 0 11.024780407592971 -3.6889206961432137 0 -3.6889206961432137 7.1966056003293488 0 0 0 0 21.042164401872242 -62.81206390774696 0 -62.81206390774696 120.53948170731019 0 0 0 0 -2.6401748580929052 -38.910652841543197 0 -38.910652841543197 96.430456326806961 0 0 0 0 -22.992703822120234 -34.117298345677227 0 -34.117298345677227 168.52318765093514 0 0 0 0 -22.106544104714885 -35.108797708584461 0 -35.108797708584461 147.65490616344323 0 0 0 0 -62.483775908724056 -95.837911904098291 0 -95.837911904098291 147.83632576467789 0 0 0 0 -27.402481376402648 -70.910548636922613 0 -70.910548636922613 164.99473352030327 0 0 0 0 -21.24684695688029 -90.091959208104527 0 -90.091959208104527 113.81417490757303 0 0 0 0 -33.505476771860231 -120.22513185824937 0 -120.22513185824937 123.5414282168058 0 0 0 0 -34.524147436572548 -113.37314398254239 0 -113.37314398254239 158.78023681453487 0 0 0 0 -256.72500285624278 -40.510705759087614 0 -40.510705759087614 234.50012276501366 0 0 0 0 -94.912490493712539 55.857311491325163 0 55.857311491325163 42.351791006993153 0 0 0 0 10.73988357565525 1.9932916531437357 0 1.9932916531437357 -0.91922336626069523 0 0 0 0 -172.47666953355929 -246.88816138579205 0 -246.88816138579205 326.81407203543495 0 0 0 0 4.7771157792560652 -5.549606219513743 0 -5.549606219513743 12.351468977631839 0 0 0 0 25.826985416679918 6.9078437197495077 0 6.9078437197495077 -25.853057558805176 0 0 0 0 0.42456736917779381 -7.6724641239961784 0 -7.6724641239961784 35.370010249618645 0 0 0 0 16.782840698660067 -2.3506515781573398 0 -2.3506515781573398 12.777489646461618 0 0 0 0 29.93849000805676 -74.277532727777725 0 -74.277532727777725 210.56647056565635 0 0 0 0 17.300186370110168 -37.74904046474694 0 -37.74904046474694 224.14890043484775 0 0 0 0 -55.083564198257818 -37.935802843576312 0 -37.935802843576312 203.39265873466502 0 0 0 0 3.293831392406934 -0.29036660265665759 0 -0.29036660265665759 -0.14822582012845942 0 0 0 0 89.845203235990994 -121.23248470082763 0 -121.23248470082763 62.528102174624109 0 0 0 0 38.51278260411982 -12.183647431709687 0 -12.183647431709687 169.48789692119681 0 0 0 0 60.810880094926915 -68.416947624383283 0 -68.416947624383283 164.52305608955794 0 0 0 0 125.36259522119009 152.22731148022649 0 152.22731148022649 95.874056242755614 0 0 0 0 2.6966026628224427 -11.784261535874975 0 -11.784261535874975 28.398025634174701 0 0 0 0 -6.3947539109078777 -4.3221285059993875 0 -4.3221285059993875 6.2277549343626148 0 0 0 0 19.810327380660055 -5.1391718703016522 0 -5.1391718703016522 17.927109375290456 0 0 0 0 28.776163812950358 -7.3661851727192698 0 -7.3661851727192698 9.3151873089263972 0 0 0 0 -7.2551248454074084 -19.175217402207636 0 -19.175217402207636 56.74652153783245 0 0 0 0 1.117906715143115 -0.094305747953228547 0 -0.094305747953228547 3.3454388891608211 0 0 0 0 -19.531485573974578 -6.715256697836594 0 -6.715256697836594 27.269581703862059 0 0 0 0 -0.59958263460293892 0.047938147912645945 0 0.047938147912645945 16.719730982003966 0 0 0 0 54.952582376311966 -22.792611068824044 0 -22.792611068824044 13.942130555110452 0 0 0 0 131.45552429542613 -105.24139115615981 0 -105.24139115615981 -14.621334985394242 0 0 0 0 -85.816358580685403 -12.552489595866064 0 -12.552489595866064 166.13429557702329 0 0 0 0 12.846174593213306 -1.2944094002923521 0 -1.2944094002923521 5.7471180025750073 0 0 0 0 55.720594878659242 -31.280551723994449 0 -31.280551723994449 26.461746687375125 0 0 0 0 75.014314527732495 -62.024982646278659 0 -62.024982646278659 41.350507146899872 0 0 0 0 -2.0923812871431822 -0.19665697065718746 0 -0.19665697065718746 0.655398602448237 0 0 0 0 76.690269544831608 -9.5241928959421784 0 -9.5241928959421784 -0.54744245157053228 0 0 0 0 18.893530440791551 -12.581545118721806 0 -12.581545118721806 16.948560703240219 0 0 0 0 44.302439326958279 -35.65408969722921 0 -35.65408969722921 33.495622587113758 0 0 0 0 -132.9839122598882 -224.25887011029499 0 -224.25887011029499 -18.71980434134457 0 0 0 0 124.39643378526955 16.031004407588625 0 16.031004407588625 0.18320311064326233 0 0 0 0 358.71360478178116 493.36352811759207 0 493.36352811759207 125.83674706246711 0 0 0 0 3.7154123426283721 -1.9254008692730356 0 -1.9254008692730356 18.421487448881109 0 0 0 0 -32.389478685860126 6.516687297153112 0 6.516687297153112 19.82470946200192 0 0 0 0 19.479680448442245 27.677759083133424 0 27.677759083133424 5.9822356607073743 0 0 0 0 18.263920818081147 7.1222257659992465 0 7.1222257659992465 9.8555423168800189 0 0 0 0 346.04957301748755 237.9629035871294 0 237.9629035871294 -162.65366598589571 0 0 0 0 -21.016580128828707 42.030098207718765 0 42.030098207718765 21.82254123679013 0 0 0 0 8.5269216165876145 -1.7336262679710401 0 -1.7336262679710401 4.8916443913538927 0 0 0 0 6.5142707658899326 -20.70604004010238 0 -20.70604004010238 56.354337298876999 0 0 0 0 31.520854691085844 12.625426364209488 0 12.625426364209488 37.535779518766503 0 0 0 0 1.8967343682058799 -5.9476372107959214 0 -5.9476372107959214 46.55977910683572 0 0 0 0 149.68993925437786 180.76220369023758 0 180.76220369023758 316.3831725920063 0 0 0 0 8.3567011725925724 6.9787246162618075 0 6.9787246162618075 14.299089370359738 0 0 0 0 216.09863876021939 136.27096076737553 0 136.27096076737553 326.45655990902378 0 0 0 0 -336.62325350200899 578.84125161176598 0 578.84125161176598 2737.3877531953003 0 0 0 0 147.23872910328456 139.85473311100031 0 139.85473311100031 1631.7937619051518 0 0 0 0 -119.60672503808746 470.62292979244376 0 470.62292979244376 1990.2482451862197 0 0 0 0 178.40344850342433 308.43183462047091 0 308.43183462047091 2074.0963191623741 0 0 0 0 -132.30294606941345 -95.254696781841631 0 -95.254696781841631 1594.8701827875129 0 0 0 0 -0.85408108866240429 -1.0445168128211861 0 -1.0445168128211861 4.4860494848905859 0 0 0 0 -492.421206305564 156.86852650520814 0 156.86852650520814 2499.2652038213164 0 0 0 0 88.456346162219802 664.15973221703098 0 664.15973221703098 1846.0121422954689 0 0 0 0 344.29720493595875 224.81338565732403 0 224.81338565732403 1328.6755176033566 0 0 0 0 264.73640591331906 434.36523798796406 0 434.36523798796406 1508.165515819157 0 0 0 0 -0.84540939880697619 -0.85048869878181677 0 -0.85048869878181677 5.4912981604763758 0 0 0 0 131.7485042618521 858.04367917436821 0 858.04367917436821 2499.6401793499826 0 0 0 0 508.97328622751115 544.51490242715499 0 544.51490242715499 1671.7291817256264 0 0 0 0 -401.8493889435058 164.23150075240846 0 164.23150075240846 2271.2757830863593 0 0 0 0 765.24892082531653 -57.419269711379457 0 -57.419269711379457 1962.7670684176992 0 0 0 0 -18.276950348328 202.85938913019345 0 202.85938913019345 2337.8395490357034 0 0 0 0 0.59597211608552791 -1.331539699571465 0 -1.331539699571465 7.5751762341143802 0 0 0 0 166.93462146162554 645.9938562974512 0 645.9938562974512 1605.42272088748 0 0 0 0 281.18091621046881 -515.05637275366462 0 -515.05637275366462 700.51836179593374 0 0 0 0 -229.42094742544867 -34.976208371469511 0 -34.976208371469511 1348.5517337149504 0 0 0 0 -13.681116842944732 185.73300340911192 0 185.73300340911192 1077.8917113796342 0 0 0 0 -207.00778630222649 358.5804847012887 0 358.5804847012887 1536.0162383119459 0 0 0 0 -199.56011058508702 334.43053955137293 0 334.43053955137293 1609.5502188717219 0 0 0 0 102.99655277198386 569.19339996641884 0 569.19339996641884 962.11364503801815 0 0 0 0 -278.57180493580557 565.31866924094174 0 565.31866924094174 2499.198917587772 0 0 0 0 -79.367447075018603 -53.639611299389799 0 -53.639611299389799 783.97452404633077 0 0 0 0 29.008880408723314 -128.40518891075567 0 -128.40518891075567 431.09305384058825 0 0 0 0 -137.69675421964777 56.816132086441939 0 56.816132086441939 208.51939877458017 0 0 0 0 27.244145784801219 -51.595685279466124 0 -51.595685279466124 82.728159091213456 0 0 0 0 -56.260982471834943 -12.218908373051818 0 -12.218908373051818 524.853632803457 0 0 0 0 52.628340501285109 -13.442990850733622 0 -13.442990850733622 187.46452415597469 0 0 0 0 205.00116549467973 -12.795647444067072 0 -12.795647444067072 -45.468003649064485 0 0 0 0 12.727676336522476 26.801089993384426 0 26.801089993384426 32.517469721716424 0 0 0 0 -51.147218101019106 36.958777133546391 0 36.958777133546391 251.03088557386582 0 0 0 0 -16.263189472046275 214.61008853634303 0 214.61008853634303 -13.4316039948244 0 0 0 0 -155.37697932703077 311.68864084999677 0 311.68864084999677 -119.70068897235615 0 0 0 0 -106.63968368420524 65.477087283915807 0 65.477087283915807 -30.720496303219079 0 0 0 0 10.848533922467894 26.324687968698633 0 26.324687968698633 31.773769115266283 0 0 0 0 0.94201778357017474 9.4863624150944545 0 9.4863624150944545 4.5277314447191372 0 0 0 0 22.098053008145598 51.600387119879088 0 51.600387119879088 -74.654849550892322 0 0 0 0 216.77197468670226 30.379194868164632 0 30.379194868164632 -72.454841807980301 0 0 0 0 7.1358391901468394 14.673451510429004 0 14.673451510429004 37.971304463474553 0 0 0 0 7.3944212958372759 11.911058384268472 0 11.911058384268472 24.489234497174039 0 0 0 0 -1.3238727026741799 -45.517490161368187 0 -45.517490161368187 -18.420796231526765 0 0 0 0 -88.837156126418961 -29.039154303656687 0 -29.039154303656687 52.431135113383789 0 0 0 0 242.92614742184742 9.9105053974308248 0 9.9105053974308248 10.351964579098421 0 0 0 0 126.5385581591654 226.05941402354074 0 226.05941402354074 224.27376679913868 0 0 0 0 3.4454753879793074 4.0638458559156518 0 4.0638458559156518 4.3883332373299382 0 0 0 0 100.08203791126189 -43.56797847983762 0 -43.56797847983762 2202.81520969546 0 0 0 0 292.67925389979467 562.92257703357791 0 562.92257703357791 952.75750132253233 0 0 0 0 107.64686555126664 167.89846413288615 0 167.89846413288615 117.85903569254151 0 0 0 0 328.89595174057445 -328.12902291917635 0 -328.12902291917635 1975.3863150745456 0 0 0 0 -163.5947839254261 -370.97208183534167 0 -370.97208183534167 1991.4698022326738 0 0 0 0 -105.1189616432921 -156.63795335263057 0 -156.63795335263057 2290.5114822911328 0 0 0 0 -449.98450308935662 -175.61342824513122 0 -175.61342824513122 2155.8449219155227 0 0 0 0 -414.47127305924289 -46.680170638774598 0 -46.680170638774598 2288.1925148000009 0 0 0 0 -123.90172000526783 -294.695440800293 0 -294.695440800293 2499.4965782751078 0 0 0 0 -143.93134237866389 -533.87787668994133 0 -533.87787668994133 2005.0954674723289 0 0 0 0 -147.49373725529156 -507.74025774339316 0 -507.74025774339316 2145.9721094857196 0 0 0 0 -104.85521340736665 -619.06593604339105 0 -619.06593604339105 1788.4259134630047 0 0 0 0 0.84741073724077765 -0.64297848989502882 0 -0.64297848989502882 0.44841200402558101 0 0 0 0 -315.31295513373323 -467.45517076868418 0 -467.45517076868418 2027.8856245339011 0 0 0 0 3.3824522787338083 26.973317227282678 0 26.973317227282678 252.85836623337855 0 0 0 0 -0.16982508329620538 -1.832479745691856 0 -1.832479745691856 4.9335006311831293 0 0 0 0 86.595923914921201 -314.2463630928587 0 -314.2463630928587 1150.4748227711279 0 0 0 0 34.215455636382373 -207.05780311300259 0 -207.05780311300259 251.1160875756068 0 0 0 0 -2.1009976391732756 -2.1510254979112347 0 -2.1510254979112347 6.6222942267062876 0 0 0 0 199.65494710774675 -677.73338428331954 0 -677.73338428331954 1694.6406308928822 0 0 0 0 -233.91857734361869 -770.56857124803992 0 -770.56857124803992 2499.9391622803523 0 0 0 0 182.66111953114662 -794.83918596622243 0 -794.83918596622243 1675.8505991942839 0 0 0 0 763.92031656865618 -1596.4634891202513 0 -1596.4634891202513 2497.8085916603286 0 0 0 0 189.72880502253344 -814.46758734995842 0 -814.46758734995842 1565.9020946026358 0 0 0 0 -20.962318938032183 -339.74909192662744 0 -339.74909192662744 293.67222291012058 0 0 0 0 450.7985957619216 1123.8751599863481 0 1123.8751599863481 959.20685431469428 0 0 0 0 1.2417605350383569 1.8775119811321623 0 1.8775119811321623 8.2133433445716406 0 0 0 0 -95.079570081991463 26.576021782286261 0 26.576021782286261 139.41218177710562 0 0 0 0 10.112914699108725 22.01695413053524 0 22.01695413053524 30.704516882073541 0 0 0 0 -0.5943146367772747 -14.992848635306931 0 -14.992848635306931 1.2498503874064752 0 0 0 0 -47.776393255357107 -53.029880441949899 0 -53.029880441949899 18.660592772493146 0 0 0 0 204.48140148045047 -699.67187901900252 0 -699.67187901900252 1571.7661601473396 0 0 0 0 0.073142610723956114 6.0255491267522885 0 6.0255491267522885 22.046514241165088 0 0 0 0 138.78711408897573 115.53931101026637 0 115.53931101026637 1684.2797251704978 0 0 0 0 -366.03772006551526 -292.93724367718551 0 -292.93724367718551 2495.4441818858604 0 0 0 0 334.85862303436937 430.42238050616106 0 430.42238050616106 2106.2135767775972 0 0 0 0 -116.19730463193996 746.83128339332416 0 746.83128339332416 2497.3506049252483 0 0 0 0 349.76143387938004 643.78489451415408 0 643.78489451415408 1255.7804441299004 0 0 0 0 63.784920190268984 146.04388146964629 0 146.04388146964629 1863.0038407142747 0 0 0 0 2.2008137796393168 -0.9377669646967135 0 -0.9377669646967135 4.8110667476947135 0 0 0 0 261.00471471164417 404.19418289627674 0 404.19418289627674 2105.6247006789818 0 0 0 0 117.67011620073845 -125.69253829969693 0 -125.69253829969693 -208.94907104960635 0 0 0 0 4.6853526675238344 1.3011776524731857 0 1.3011776524731857 6.6195073719118431 0 0 0 0 -2.7220727725280085 18.487699742849145 0 18.487699742849145 -252.63165620893415 0 0 0 0 -1.0269123176023249 0.97065662757944793 0 0.97065662757944793 -1.8944397795921795 0 0 0 0 940.29527528047493 252.09619653033496 0 252.09619653033496 -428.67938351133307 0 0 0 0 335.5794530878145 -441.78472749017237 0 -441.78472749017237 -410.29966774234907 0 0 0 0 44.485938372937142 -152.48999199614173 0 -152.48999199614173 1569.3491516272243 0 0 0 0 264.56037863805165 278.23048866241197 0 278.23048866241197 179.12076110257112 0 0 0 0 124.77501205693211 130.00536540449502 0 130.00536540449502 162.77298443112068 0 0 0 0 48.993634940176207 -4.0576937693128912 0 -4.0576937693128912 63.085649433469143 0 0 0 0 369.54706195571384 116.51985625172938 0 116.51985625172938 3.5428843577719817 0 0 0 0 150.16063104906232 101.28517495911001 0 101.28517495911001 56.10324218646565 0 0 0 0 132.16110194534753 100.80890841391192 0 100.80890841391192 77.518820607563612 0 0 0 0 -220.13829517900876 -50.260514395115479 0 -50.260514395115479 212.30638723912398 0 0 0 0 271.40802153295135 293.5515602949572 0 293.5515602949572 -367.95014368469401 0 0 0 0 -0.72227584183633553 -15.515957090739676 0 -15.515957090739676 61.856611302442616 0 0 0 0 53.698658306364791 -14.138708028663018 0 -14.138708028663018 44.168742380747062 0 0 0 0 2.1021652957366612 -2.2200760212724084 0 -2.2200760212724084 2.4733903309561178 0 0 0 0 292.22619452379058 101.94047355604471 0 101.94047355604471 -46.120595344801586 0 0 0 0 301.29017937880207 4.3705441178969977 0 4.3705441178969977 -72.082318672683868 0 0 0 0 119.16687908937911 -9.6545936948591589 0 -9.6545936948591589 -47.035735836006552 0 0 0 0 342.81546421342773 -30.47803696713072 0 -30.47803696713072 73.67719707961237 0 0 0 0 191.89308605325687 71.656073534782308 0 71.656073534782308 34.19776227747343 0 0 0 0 173.6727676684668 112.69646871366285 0 112.69646871366285 -43.915293230758436 0 0 0 0 6.104413272570576 -5.9416818398408475 0 -5.9416818398408475 5.5902841432689652 0 0 0 0 121.616403670625 -149.69028629805507 0 -149.69028629805507 -96.580411862794335 0 0 0 0 114.65207079600776 35.766487498701736 0 35.766487498701736 0.16219419541607749 0 0 0 0 86.943012058197255 91.551911193044248 0 91.551911193044248 89.208097706441549 0 0 0 0 -3.4454655069516207 128.66384700822923 0 128.66384700822923 110.11949991181518 0 0 0 0 -76.013340352047976 -227.30810583242268 0 -227.30810583242268 78.066897264597173 0 0 0 0 285.44756503814824 5.2820580156130745 0 5.2820580156130745 162.800781081477 0 0 0 0 103.63677680889396 112.57273794711784 0 112.57273794711784 560.71010564560038 0 0 0 0 -26.395310986849609 73.30752614743119 0 73.30752614743119 583.70679922239015 0 0 0 0 -45.029141517049538 -51.90084094040526 0 -51.90084094040526 560.10393408598338 0 0 0 0 -21.786005739797474 279.55907365465646 0 279.55907365465646 631.05932527929735 0 0 0 0 153.81908584422308 158.81547766075823 0 158.81547766075823 73.976677600887342 0 0 0 0 2.8954433470191407 -2.6838933105322784 0 -2.6838933105322784 3.1898456471245815 0 0 0 0 248.1965266866132 48.029574203579614 0 48.029574203579614 -40.428502469237174 0 0 0 0 293.28821409446573 -206.70434067606266 0 -206.70434067606266 19.179280554407342 0 0 0 0 1.2595709281040701 -1.6610853054267221 0 -1.6610853054267221 2.5760964499699668 0 0 0 0 -29.572372947471194 28.552967871149576 0 28.552967871149576 288.10907721914748 0 0 0 0 313.52186255618244 -123.51037784533287 0 -123.51037784533287 184.23345428903212 0 0 0 0 87.693703217100619 192.98626684520218 0 192.98626684520218 299.35514043594412 0 0 0 0 -0.025704813226138601 -0.097660578298343292 0 -0.097660578298343292 5.8344864716552411 0 0 0 0 509.45677517041941 436.82639106949159 0 436.82639106949159 99.261424883159634 0 0 0 0 -258.55803210355066 -29.471299107642444 0 -29.471299107642444 135.30709119856857 0 0 0 0 -52.032651764390721 692.71304011804648 0 692.71304011804648 538.76093184387389 0 0 0 0 208.31643733355304 674.90293316951511 0 674.90293316951511 305.83928409305372 0 0 0 0 -193.65395448335039 43.211354959094848 0 43.211354959094848 214.89274141747762 0 0 0 0 -2.3216875499090293 47.125616313558609 0 47.125616313558609 45.6657627511089 0 0 0 0 128.68323108679056 54.845229334802696 0 54.845229334802696 215.13959068918439 0 0 0 0 17.435177265751491 -136.0514319622107 0 -136.0514319622107 460.55333108887424 0 0 0 0 375.37967857411104 -48.480225500692313 0 -48.480225500692313 82.606224738118271 0 0 0 0 2.424580307681961 -2.7529796163848168 0 -2.7529796163848168 3.9631133434332639 0 0 0 0 156.99216850529672 341.87642422746922 0 341.87642422746922 510.67598595103732 0 0 0 0 -79.309225078855434 87.604231988438642 0 87.604231988438642 307.62156869928049 0 0 0 0 -26.842282896402594 64.879762560744211 0 64.879762560744211 290.0404653264859 0 0 0 0 107.50568457486634 149.06334860507104 0 149.06334860507104 299.11651275232543 0 0 0 0 67.363069783301398 32.317425141026433 0 32.317425141026433 76.084877304193469 0 0 0 0 -93.952101986367779 125.74995551911934 0 125.74995551911934 343.99795160056055 0 0 0 0 321.91335665550469 192.63392416520873 0 192.63392416520873 119.63378764878075 0 0 0 0 5.5059931241121252 -6.8844769349257167 0 -6.8844769349257167 8.4233236670336407 0 0 0 0 -4.9137589986906534 147.64417266899471 0 147.64417266899471 226.48798293034451 0 0 0 0 -74.594794092454322 40.717341742194549 0 40.717341742194549 303.7855310232419 0 0 0 0 178.17385342076727 195.49132594128014 0 195.49132594128014 169.51871337022612 0 0 0 0 564.93642240670079 135.45133191803643 0 135.45133191803643 49.913166400119735 0 0 0 0 353.48731201967598 200.28659157860625 0 200.28659157860625 117.8796645358575 0 0 0 0 303.14131690126283 28.179302437987189 0 28.179302437987189 94.531160159730462 0 0 0 0 107.6409114220229 85.153423166288803 0 85.153423166288803 79.101535631464685 0 0 0 0 6.9486441995861714 -7.738106447397592 0 -7.738106447397592 8.0528998240073246 0 0 0 0 103.73777584301024 100.30127205017726 0 100.30127205017726 130.87066682939712 0 0 0 0 111.43868059759922 117.49757574943942 0 117.49757574943942 99.722697383732566 0 0 0 0 161.44488967345887 123.86014214523834 0 123.86014214523834 79.369909669350363 0 0 0 0 -1.9975543414744523 -0.38828256878467737 0 -0.38828256878467737 18.261958531454383 0 0 0 0 -101.15584959075534 -44.640342656240989 0 -44.640342656240989 83.121607956262324 0 0 0 0 151.63409160856281 73.602300061569849 0 73.602300061569849 81.068023606192355 0 0 0 0 -212.01932076731646 120.76600657131524 0 120.76600657131524 87.691438594728425 0 0 0 0 -148.20059257788387 -3.8705399976130153 0 -3.8705399976130153 30.924439801251296 0 0 0 0 -1.4783965192090487 1.2345945741547748 0 1.2345945741547748 -1.0273127164265161 0 0 0 0 -39.559131682217185 153.68584908826267 0 153.68584908826267 75.530217094569025 0 0 0 0 -11.713669789419441 79.617914614887979 0 79.617914614887979 255.58823767685044 0 0 0 0 -150.68702153295226 -113.54814275072948 0 -113.54814275072948 -126.52402299279527 0 0 0 0 -128.08950824592944 -146.26617690806228 0 -146.26617690806228 -81.604224167145503 0 0 0 0 -287.27224664563516 -136.21576906286057 0 -136.21576906286057 -27.320500446146326 0 0 0 0 -109.65027198385383 288.56478787042113 0 288.56478787042113 227.16794817049481 0 0 0 0 -0.44914923847545785 -0.2270359261568804 0 -0.2270359261568804 0.5808218864939424 0 0 0 0 46.068485441483489 -81.180977266832215 0 -81.180977266832215 100.70813674579108 0 0 0 0 -109.63028379066384 -91.704474178983105 0 -91.704474178983105 -130.9839464652292 0 0 0 0 -136.69884085480794 345.47555388679336 0 345.47555388679336 129.88928856913276 0 0 0 0 -35.779418688687315 162.24509607336012 0 162.24509607336012 -3.1325245306443321 0 0 0 0 -225.35861324160913 190.56239387977439 0 190.56239387977439 241.88140928802579 0 0 0 0 -11.701767068632961 297.62736388164706 0 297.62736388164706 247.53185206625938 0 0 0 0 -107.82605219568562 212.76354246124831 0 212.76354246124831 176.33513301540316 0 0 0 0 28.053961495775155 128.09379941051117 0 128.09379941051117 125.14816678000335 0 0 0 0 101.97360267564272 142.96465754532051 0 142.96465754532051 90.198222532879413 0 0 0 0 52.924856903639466 -11.319774395433955 0 -11.319774395433955 -42.701296388161012 0 0 0 0 63.280622423621026 162.16437165508688 0 162.16437165508688 243.76221736769025 0 0 0 0 339.26273262035056 303.3416792278897 0 303.3416792278897 235.10601515795082 0 0 0 0 -8.039891409909842 204.28879588723356 0 204.28879588723356 346.36938154262361 0 0 0 0 135.78249300123662 103.27475776702704 0 103.27475776702704 77.837145918724673 0 0 0 0 130.13532114324903 110.03553383665439 0 110.03553383665439 82.074542241894051 0 0 0 0 -5.2950993498055778 5.9427530457072182 0 5.9427530457072182 4.893045094124103 0 0 0 0 172.57173017314506 149.36859106683266 0 149.36859106683266 16.794517021707065 0 0 0 0 -3.105977559738367 -0.21931972590545801 0 -0.21931972590545801 27.634684889211552 0 0 0 0 35.689324423036396 37.582565416502689 0 37.582565416502689 222.68879834267227 0 0 0 0 -158.20937382842936 170.4024646298426 0 170.4024646298426 -94.301158720205422 0 0 0 0 -2.7044693513369324 6.1192176189946714 0 6.1192176189946714 0.17544675461336823 0 0 0 0 136.71315244172189 -178.02737348350183 0 -178.02737348350183 37.283053125473089 0 0 0 0 20.906151965765865 210.14677826145862 0 210.14677826145862 -146.14525694030453 0 0 0 0 253.82399544441262 -35.836609150718914 0 -35.836609150718914 179.41249882757347 0 0 0 0 662.06825264245504 510.38028621055219 0 510.38028621055219 205.11474956338938 0 0 0 0 1133.783905114735 1274.0825173280086 0 1274.0825173280086 1419.6609181159329 0 0 0 0 82.299949171268892 910.85711640598674 0 910.85711640598674 2496.1893428653293 0 0 0 0 -190.37420095556132 -537.18326827250712 0 -537.18326827250712 1092.7891142529461 0 0 0 0 0.034687482669659223 0.76033712909339801 0 0.76033712909339801 12.871281791206631 0 0 0 0 -118.47328104126339 134.92586536913825 0 134.92586536913825 956.82049264378156 0 0 0 0 109.20363356804586 350.16375139047966 0 350.16375139047966 463.46529438967707 0 0 0 0 246.3983488126016 781.30860721397869 0 781.30860721397869 1243.2563507649202 0 0 0 0 109.08756914214064 227.65946278008812 0 227.65946278008812 641.84432041570813 0 0 0 0 -181.48390123249609 354.12041428677821 0 354.12041428677821 1566.0688728646303 0 0 0 0 -207.20396423149359 335.23994779153492 0 335.23994779153492 1830.3052879769489 0 0 0 0 -77.361970033179546 11.415019815579399 0 11.415019815579399 943.03142491696121 0 0 0 0 -649.91312583209844 -155.29940525307421 0 -155.29940525307421 2498.3569164009587 0 0 0 0 -318.87612492032957 -162.37820455489941 0 -162.37820455489941 1475.1485081199821 0 0 0 0 -471.37597474338384 -831.29188981357095 0 -831.29188981357095 1456.2597268868071 0 0 0 0 55.090771079311949 -1201.3357229400226 0 -1201.3357229400226 2503.0743427560792 0 0 0 0 -471.36086806164889 -888.6700870934751 0 -888.6700870934751 2383.2102686839298 0 0 0 0 -144.88447432786046 -802.84563345434003 0 -802.84563345434003 -418.28189786099546 0 0 0 0 -441.3389401007056 -1120.4054304450538 0 -1120.4054304450538 593.84638988266795 0 0 0 0 -348.64052372232095 -1093.3513197571256 0 -1093.3513197571256 228.9787222286941 0 0 0 0 -339.57261968696571 -334.68297079757338 0 -334.68297079757338 229.30853587298543 0 0 0 0 -347.42327821951483 -609.49880875677354 0 -609.49880875677354 -100.61351364712391 0 0 0 0 -329.24189258360923 -312.36443110278185 0 -312.36443110278185 189.87261196250677 0 0 0 0 -296.27986726248588 -305.5213742002835 0 -305.5213742002835 721.77747237892436 0 0 0 0 -303.76719449412229 -235.69232265939456 0 -235.69232265939456 497.87629299780963 0 0 0 0 -420.52585140549684 -728.7775666919274 0 -728.7775666919274 810.67404432373769 0 0 0 0 -249.01975747202073 101.47659877601245 0 101.47659877601245 666.37509144919545 0 0 0 0 -339.87666864572878 -61.639798203062014 0 -61.639798203062014 425.26596544335086 0 0 0 0 -287.13582676911 -17.295415010629853 0 -17.295415010629853 309.88216141024009 0 0 0 0 -250.40277009740657 143.99416831040986 0 143.99416831040986 359.05663336927176 0 0 0 0 -99.096904593240566 135.4477527135833 0 135.4477527135833 397.65841357136765 0 0 0 0 -324.5254102782942 -32.68226938314001 0 -32.68226938314001 242.99342966776584 0 0 0 0 -271.01931281000202 77.462657053282385 0 77.462657053282385 152.37177584945803 0 0 0 0 -350.2788818489492 -132.83683219872842 0 -132.83683219872842 125.51747164585259 0 0 0 0 -312.14255476374524 -41.979523126994778 0 -41.979523126994778 67.971502239905135 0 0 0 0 -243.39802793748891 -49.274968872646923 0 -49.274968872646923 68.364410839212383 0 0 0 0 -86.877134593878452 -4.6609106575225496 0 -4.6609106575225496 -463.62439995236451 0 0 0 0 -96.666966526715157 363.00778666977385 0 363.00778666977385 2607.9080327728061 0 0 0 0 -0.39814530874959092 -4.7358207803720189 0 -4.7358207803720189 2.4020737396468528 0 0 0 0 21.064934011119931 -462.02218136846113 0 -462.02218136846113 -673.43832943279756 0 0 0 0 -264.53370965398676 -130.69997076865161 0 -130.69997076865161 -89.275650665498688 0 0 0 0 -183.98887453517239 -175.82744197827776 0 -175.82744197827776 -84.543076627967878 0 0 0 0 -272.00741166725754 -137.89830513131983 0 -137.89830513131983 115.19348129541407 0 0 0 0 -289.41801183737834 -350.49785268085753 0 -350.49785268085753 -88.744713923046902 0 0 0 0 -187.06496857565048 -200.02041903029976 0 -200.02041903029976 -221.42901283849596 0 0 0 0 -99.046136384811518 391.7924601379118 0 391.7924601379118 2495.9223886739333 0 0 0 0 -81.081999273025758 18.973041101907199 0 18.973041101907199 74.651022029060982 0 0 0 0 -119.26667368166591 75.605559372401785 0 75.605559372401785 15.479448482995281 0 0 0 0 -143.54434196489581 -17.941564446542202 0 -17.941564446542202 31.85389392975128 0 0 0 0 -153.4391804304862 -61.071163392125072 0 -61.071163392125072 -86.230205026710877 0 0 0 0 -93.742132120089707 61.201446535266996 0 61.201446535266996 -91.348654774569695 0 0 0 0 -1.4402053218307433 -11.522531013903128 0 -11.522531013903128 10.652973792278768 0 0 0 0 -61.523973072786703 -8.2142870148281872 0 -8.2142870148281872 89.380958659555972 0 0 0 0 93.963442482681089 -456.83141785466796 0 -456.83141785466796 2130.8799293689849 0 0 0 0 -0.7099119247050294 -2.2587735653741752 0 -2.2587735653741752 0.071223957441652885 0 0 0 0 -21.982014773087656 -48.431415408477733 0 -48.431415408477733 37.394945425065089 0 0 0 0 -27.628570042288516 -55.661242564360975 0 -55.661242564360975 70.911860537696839 0 0 0 0 -20.908193963084955 -58.158897815318852 0 -58.158897815318852 41.233928340233092 0 0 0 0 -1.1385231941310621 -0.890474476875462 0 -0.890474476875462 13.412058003758608 0 0 0 0 -188.10361771706204 23.436192108103342 0 23.436192108103342 47.330239073151745 0 0 0 0 -19.665428805647139 -15.227488646176596 0 -15.227488646176596 -5.367821101603397 0 0 0 0 38.375297731712749 7.511767361644857 0 7.511767361644857 107.71169256714893 0 0 0 0 -305.68027652639228 108.5222367281242 0 108.5222367281242 60.662051262704196 0 0 0 0 0.11877898859066427 2.7505625168836847 0 2.7505625168836847 3.7775648810411298 0 0 0 0 -85.542679970067923 -51.491435787001024 0 -51.491435787001024 105.7878930165773 0 0 0 0 46.568963852770551 -20.915265413822652 0 -20.915265413822652 15.220898801759404 0 0 0 0 118.01294517740462 118.49123072026896 0 118.49123072026896 34.707999173848123 0 0 0 0 -29.094422103170245 117.24894604630947 0 117.24894604630947 410.65520427956062 0 0 0 0 15.326444273455422 -78.54796318595163 0 -78.54796318595163 181.97886975383187 0 0 0 0 -0.26409926802588801 1.1757617505216182 0 1.1757617505216182 2.5302796713458062 0 0 0 0 -176.29960893582771 411.68281013880141 0 411.68281013880141 -162.66423909384184 0 0 0 0 19.849459105817232 -121.92544356488725 0 -121.92544356488725 584.34582293046026 0 0 0 0 -176.41478680358551 342.89838750771537 0 342.89838750771537 280.38531447133562 0 0 0 0 -115.69644374596426 266.94319568295259 0 266.94319568295259 364.01734646079558 0 0 0 0 -205.10221475540277 92.962595306113315 0 92.962595306113315 382.49756379310179 0 0 0 0 -27.765779951722052 321.14904971795403 0 321.14904971795403 165.07349380745507 0 0 0 0 -292.91114928335867 46.878055901694012 0 46.878055901694012 122.58944868565064 0 0 0 0 -197.49886308829736 17.041236509425289 0 17.041236509425289 1626.0819070546772 0 0 0 0 -310.45022586811797 213.16961541192055 0 213.16961541192055 1409.0945487612626 0 0 0 0 -264.67357474520452 128.99124217809378 0 128.99124217809378 1654.0395029773244 0 0 0 0 -591.39982801206281 274.07558233723557 0 274.07558233723557 2500.155700995424 0 0 0 0 -606.08822807668162 659.46812182184931 0 659.46812182184931 1271.279399298277 0 0 0 0 -455.8943233238615 145.42129423027473 0 145.42129423027473 1434.8382756267661 0 0 0 0 -304.50422187314382 47.368382750299133 0 47.368382750299133 1093.3453029504963 0 0 0 0 -270.69913030658677 -204.5416380832803 0 -204.5416380832803 1219.090151374945 0 0 0 0 -445.51776155911489 300.64801232577156 0 300.64801232577156 627.71537983195412 0 0 0 0 237.17075161407797 478.44005644497338 0 478.44005644497338 -501.43060039016564 0 0 0 0 -628.97451203260982 1103.8154221240734 0 1103.8154221240734 2496.0868991447933 0 0 0 0 37.584922012298648 121.04682969666101 0 121.04682969666101 -661.36527390787614 0 0 0 0 986.57563857277717 1031.7837946762402 0 1031.7837946762402 1092.859171311557 0 0 0 0 -6.1014978399028745 4.0166999230313891 0 4.0166999230313891 10.302028911295089 0 0 0 0 1.4451778611334383 0.32861540821698298 0 0.32861540821698298 8.886948032413283 0 0 0 0 -3.5060383428829964 -9.89483475908537 0 -9.89483475908537 2487.9009197981613 0 0 0 0 -262.29937822669899 49.830529282406133 0 49.830529282406133 -360.81076566858974 0 0 0 0 -826.7505717097838 382.89659347036377 0 382.89659347036377 347.36343937130732 0 0 0 0 -1.4748248077959565 -5.4197323636222734 0 -5.4197323636222734 43.412854943740854 0 0 0 0 -241.98208908134211 142.06299224325994 0 142.06299224325994 57.862756928185263 0 0 0 0 851.328078058561 236.69146815247768 0 236.69146815247768 56.76608827023847 0 0 0 0 -272.98298930360602 857.37195128509939 0 857.37195128509939 536.47330751206755 0 0 0 0 -234.73558559192452 -803.28191414879711 0 -803.28191414879711 236.01729617721492 0 0 0 0 1.5308564254079455 -8.037961334818581 0 -8.037961334818581 29.09102225474507 0 0 0 0 -122.85238273431696 38.385129729094388 0 38.385129729094388 -235.27351342205986 0 0 0 0 -358.06603269738764 120.37872202713061 0 120.37872202713061 1226.7491741838603 0 0 0 0 -134.27161777224103 -724.14467317670506 0 -724.14467317670506 -439.22988607308525 0 0 0 0 5.5502946494520042 -7.4517156353204541 0 -7.4517156353204541 8.3487549053604795 0 0 0 0 -427.3236879419801 -73.36738572372451 0 -73.36738572372451 1111.3567186751739 0 0 0 0 -339.47854748755651 182.37832949056678 0 182.37832949056678 413.41623001708285 0 0 0 0 10.318584917675095 -17.095268930422158 0 -17.095268930422158 20.945679057824879 0 0 0 0 -504.491143655001 -649.17534058499223 0 -649.17534058499223 -55.285012261851534 0 0 0 0 -575.7927956340086 -111.75190531824774 0 -111.75190531824774 381.89672442626124 0 0 0 0 -3.1158376677476554 -235.10648945680805 0 -235.10648945680805 378.50686492103887 0 0 0 0 -192.88169531773741 -157.42176493529041 0 -157.42176493529041 1257.9742526527825 0 0 0 0 -396.70392541323287 177.95931329527912 0 177.95931329527912 845.58921503452802 0 0 0 0 -482.9574006040383 -284.0228989544953 0 -284.0228989544953 21.897369276766767 0 0 0 0 -696.65673798768319 -931.14053279529435 0 -931.14053279529435 -194.90656436709833 0 0 0 0 10.849079194645668 -16.360523355977477 0 -16.360523355977477 19.061947293886295 0 0 0 0 65.018025482949753 -9.7011094158488049 0 -9.7011094158488049 -254.0122439936149 0 0 0 0 -57.03175767818243 -532.88816108550964 0 -532.88816108550964 -520.50773631016455 0 0 0 0 -761.96877601593019 -869.11651086955249 0 -869.11651086955249 44.3318992670238 0 0 0 0 -202.35207369298109 -179.57860716654159 0 -179.57860716654159 -194.33567822305577 0 0 0 0 -469.31784687812228 72.451641336371722 0 72.451641336371722 318.0704119100767 0 0 0 0 339.26697571832148 384.22334751969311 0 384.22334751969311 464.11489029138488 0 0 0 0 -356.59545604970526 -93.803155783264231 0 -93.803155783264231 923.48049400753825 0 0 0 0 23.176018365505911 -80.321596309564029 0 -80.321596309564029 960.42826817825312 0 0 0 0 886.90645341622383 -472.50898373860264 0 -472.50898373860264 -20.401726290704119 0 0 0 0 87.715485145761292 276.02427454077088 0 276.02427454077088 472.14065287515768 0 0 0 0 1.3294418501297889 -3.377172153211295 0 -3.377172153211295 9.4107580179174075 0 0 0 0 871.35613734782874 -243.37850898891605 0 -243.37850898891605 407.24370811824201 0 0 0 0 206.15933188515191 25.233801455441949 0 25.233801455441949 298.78987239888579 0 0 0 0 184.12771480922447 -27.99760375468577 0 -27.99760375468577 231.74012795684928 0 0 0 0 191.83113484402324 -18.120701233854618 0 -18.120701233854618 203.89719696628561 0 0 0 0 13.990508462210755 58.466613465163661 0 58.466613465163661 196.79971515175905 0 0 0 0 -93.629511112276987 73.559221228622562 0 73.559221228622562 233.58366553077479 0 0 0 0 -220.45738587256983 184.03847419697388 0 184.03847419697388 417.22046369369411 0 0 0 0 166.79762172264151 197.68814729779996 0 197.68814729779996 223.02644916107238 0 0 0 0 -218.44822958590589 132.94288613053988 0 132.94288613053988 303.64292883070664 0 0 0 0 -186.80639790653925 23.630427841150961 0 23.630427841150961 229.66271422638556 0 0 0 0 -255.06607235985189 -13.480297299973245 0 -13.480297299973245 404.15577825317223 0 0 0 0 -183.42767140557226 -112.81434163628421 0 -112.81434163628421 298.7852736048614 0 0 0 0 -203.20422100580799 -81.809688781341947 0 -81.809688781341947 294.81777118660864 0 0 0 0 -212.05407386290278 -105.30670212924457 0 -105.30670212924457 331.17457198426018 0 0 0 0 -182.73791289756036 40.759747557139121 0 40.759747557139121 205.92427807189074 0 0 0 0 -115.45303447747392 -11.788866691613919 0 -11.788866691613919 278.81755217196127 0 0 0 0 -47.456611646848103 -72.000100219518856 0 -72.000100219518856 165.50698850281611 0 0 0 0 61.567633623819859 113.45227006164657 0 113.45227006164657 213.86548387777862 0 0 0 0 21.62089141378658 46.699389630354062 0 46.699389630354062 223.17407338630557 0 0 0 0 -65.594847835977134 114.03388329409114 0 114.03388329409114 556.5271098225171 0 0 0 0 -54.997028114963143 123.34304403905335 0 123.34304403905335 424.68513081902847 0 0 0 0 -5.7064173030166785 75.259530020092939 0 75.259530020092939 406.51763305755009 0 0 0 0 -25.784305637079058 125.60248259635239 0 125.60248259635239 430.51055044049349 0 0 0 0 -3.2824726255690848 -37.833796716097083 0 -37.833796716097083 566.08222621884363 0 0 0 0 -8.6657741724449693 2.8607209787891748 0 2.8607209787891748 258.56042153877797 0 0 0 0 61.604315700646566 -286.03414891601466 0 -286.03414891601466 -17.063596610204286 0 0 0 0 294.24277404039361 -114.66398873556167 0 -114.66398873556167 211.1987915979114 0 0 0 0 80.21617733056479 -129.88130877768771 0 -129.88130877768771 227.66900416830924 0 0 0 0 81.828553935620675 -155.65408978748161 0 -155.65408978748161 292.14117892383649 0 0 0 0 -5.0141215642432826 -64.623294495146695 0 -64.623294495146695 312.23786612338205 0 0 0 0 -25.61636179999573 36.299445716766776 0 36.299445716766776 389.97402337502734 0 0 0 0 5.913852456309769 -43.951325198256654 0 -43.951325198256654 585.94356412153047 0 0 0 0 0.45598232749400669 -1.0168679556463114 0 -1.0168679556463114 1.1873464860661214 0 0 0 0 -20.902523367573167 87.319899370621158 0 87.319899370621158 119.60101063240018 0 0 0 0 30.439706932220474 -82.827931549748541 0 -82.827931549748541 121.75658527887859 0 0 0 0 -0.41502274531614614 -1.5239088402153547 0 -1.5239088402153547 2.0491621413205849 0 0 0 0 8.3660269277702355 16.793091259595542 0 16.793091259595542 158.13208111129293 0 0 0 0 -72.438267830828181 85.535928162490279 0 85.535928162490279 556.25947116091788 0 0 0 0 75.081582914726141 -55.47913864265638 0 -55.47913864265638 215.35377828631985 0 0 0 0 -70.879230852984278 79.947945065799203 0 79.947945065799203 360.68815977794668 0 0 0 0 15.635084278604154 36.221564433164701 0 36.221564433164701 132.83670963021757 0 0 0 0 68.094621396607693 -59.603384790245769 0 -59.603384790245769 -147.88649107817488 0 0 0 0 16.10800083577541 -11.446383091119753 0 -11.446383091119753 7.8381144536287426 0 0 0 0 80.053866343646632 7.484009235424935 0 7.484009235424935 -28.362557811141414 0 0 0 0 91.005287031220831 85.428816879903138 0 85.428816879903138 13.896909235280702 0 0 0 0 11.987899845301623 -8.6002019501965883 0 -8.6002019501965883 6.1906198044389189 0 0 0 0 101.41746689777074 -168.52843545627513 0 -168.52843545627513 195.99386243924278 0 0 0 0 200.50112831278375 166.36694489915999 0 166.36694489915999 143.76964009690096 0 0 0 0 321.71385474592171 89.346343396672751 0 89.346343396672751 35.281955324994669 0 0 0 0 111.49346100646392 71.682761106882595 0 71.682761106882595 36.258868029347241 0 0 0 0 71.31749163123294 54.852764483158651 0 54.852764483158651 51.355422589034902 0 0 0 0 68.30562457608336 14.499647516914877 0 14.499647516914877 -47.333768380051737 0 0 0 0 118.55503434213711 41.517997978415622 0 41.517997978415622 31.202205151208602 0 0 0 0 171.23117317752809 56.230838434542022 0 56.230838434542022 19.8563058228915 0 0 0 0 20.345900498981194 21.091838158519124 0 21.091838158519124 33.670376323626328 0 0 0 0 142.97760041682523 -0.30887722407062101 0 -0.30887722407062101 74.988562144022467 0 0 0 0 144.5626592211639 -115.24590664666636 0 -115.24590664666636 224.01309370116019 0 0 0 0 89.863293800144845 72.090339155933279 0 72.090339155933279 49.995483823985865 0 0 0 0 0.79508827730191289 0.13597510082894351 0 0.13597510082894351 0.14609813964920507 0 0 0 0 31.20191642350801 9.7260423626738373 0 9.7260423626738373 111.32332800160718 0 0 0 0 0.64695016126759097 0.023128369750379796 0 0.023128369750379796 0.16995732025056426 0 0 0 0 4.8281266526053059 83.768130164853176 0 83.768130164853176 230.04105839578096 0 0 0 0 -49.240534937036557 -22.712653596970746 0 -22.712653596970746 195.24862652329477 0 0 0 0 3.7994723401267407 -57.721013246155607 0 -57.721013246155607 47.857148664737451 0 0 0 0 62.953956157185644 -32.119951494536821 0 -32.119951494536821 30.485073669420633 0 0 0 0 -106.83159173500189 -138.56242301774802 0 -138.56242301774802 26.149842025555756 0 0 0 0 -32.147541115527247 -53.257850402702559 0 -53.257850402702559 97.694899112496216 0 0 0 0 -173.58676735172344 -139.96313781567028 0 -139.96313781567028 325.7386186965 0 0 0 0 -45.722323192827844 33.458504774310512 0 33.458504774310512 183.77530900511653 0 0 0 0 -1.2776702265398638 0.25814330684910891 0 0.25814330684910891 0.29370490357305135 0 0 0 0 -84.407589622188652 -106.52575229636665 0 -106.52575229636665 92.92797590234818 0 0 0 0 -278.63573487017993 169.37866293511843 0 169.37866293511843 174.94948220390955 0 0 0 0 -29.179268475918207 136.63630540133261 0 136.63630540133261 -3.7349276388438852 0 0 0 0 -1.0602088006137205 0.63931049024336106 0 0.63931049024336106 0.043099644446414731 0 0 0 0 -312.07389041786149 54.031956068450931 0 54.031956068450931 -2.6745009485885021 0 0 0 0 -316.71273062310212 -52.815978606631433 0 -52.815978606631433 52.673496459475473 0 0 0 0 -184.7139478810866 -58.62301156671009 0 -58.62301156671009 -9.2740124887628781 0 0 0 0 -211.9590917061463 24.718060880349896 0 24.718060880349896 22.658280161887205 0 0 0 0 -460.5990501977995 295.21856745904626 0 295.21856745904626 -121.2991566134011 0 0 0 0 637.54802024293349 -644.57504554108664 0 -644.57504554108664 168.92525571118449 0 0 0 0 -4.8812304410428649 0.62740669913077451 0 0.62740669913077451 11.747989337559073 0 0 0 0 160.05691911209766 -116.7350573706438 0 -116.7350573706438 17.954609764027055 0 0 0 0 -6.2668788022917852 -67.996568175135963 0 -67.996568175135963 45.942645549188768 0 0 0 0 7.01232497071328 -61.323509786694331 0 -61.323509786694331 -24.490079163652752 0 0 0 0 -27.01481285904481 -1.1076448369498735 0 -1.1076448369498735 -31.715243687590146 0 0 0 0 -24.431310840479568 -34.312476143843355 0 -34.312476143843355 101.59900448841393 0 0 0 0 285.18853011202066 -265.47064852939735 0 -265.47064852939735 273.65301277682045 0 0 0 0 -104.20214861894044 224.17232693454048 0 224.17232693454048 623.9036639650501 0 0 0 0 -268.70582659785993 50.471520232587721 0 50.471520232587721 548.43938023896965 0 0 0 0 31.31546182211185 78.395990302736635 0 78.395990302736635 274.61596045700293 0 0 0 0 -60.57237890340275 64.952801865848329 0 64.952801865848329 533.54535562994681 0 0 0 0 25.370322078046684 63.904391447184231 0 63.904391447184231 313.43465578557084 0 0 0 0 356.28305463827439 270.00840772581245 0 270.00840772581245 429.46450241058324 0 0 0 0 366.84873885371059 -132.23091399833149 0 -132.23091399833149 274.20728595277069 0 0 0 0 138.39202928154964 -214.86595923697382 0 -214.86595923697382 410.30566546020509 0 0 0 0 -644.35856287647573 500.53766610239245 0 500.53766610239245 36.36056392118077 0 0 0 0 -1.488221567697569 0.17830500896857715 0 0.17830500896857715 3.8425879511530363 0 0 0 0 592.97808506222839 -596.362017357897 0 -596.362017357897 601.10046409029292 0 0 0 0 48.758902754097676 -139.25566628934865 0 -139.25566628934865 721.9532558255753 0 0 0 0 -58.44970953625662 214.55478199777147 0 214.55478199777147 326.18520466147174 0 0 0 0 -120.33887660957532 -1.2178507796053282 0 -1.2178507796053282 520.81005271177173 0 0 0 0 -210.2777162120658 40.319111216235683 0 40.319111216235683 173.28088665093242 0 0 0 0 -13.264634610225173 22.680794162708381 0 22.680794162708381 236.62891406612925 0 0 0 0 -96.715010737319176 201.76245148910314 0 201.76245148910314 292.46747706988526 0 0 0 0 -145.49109894134659 16.325183862586641 0 16.325183862586641 47.96682642258088 0 0 0 0 -185.80848761205391 278.67680712790298 0 278.67680712790298 -270.23059627696796 0 0 0 0 -183.71267200009851 97.315371148743225 0 97.315371148743225 -99.987915006273852 0 0 0 0 -83.468322291304844 58.605565041148679 0 58.605565041148679 -224.14178733781137 0 0 0 0 42.032116259131271 41.043826206593621 0 41.043826206593621 -186.90392533726973 0 0 0 0 -1.3158354059519723 236.89217742176871 0 236.89217742176871 -145.57353382016299 0 0 0 0 53.574825908042158 19.649703033404172 0 19.649703033404172 94.112028052173201 0 0 0 0 161.64148551438751 154.57700098476769 0 154.57700098476769 256.96222993641038 0 0 0 0 33.185213883487322 100.46714927702426 0 100.46714927702426 264.55098932833027 0 0 0 0 -9.639816542594815 111.82971517804719 0 111.82971517804719 106.85742862859308 0 0 0 0 -11.049355559987191 -17.715035015634726 0 -17.715035015634726 100.43120359035879 0 0 0 0 35.737388834947296 83.466259362220626 0 83.466259362220626 10.272457279148966 0 0 0 0 -43.863214091298175 124.3254115572156 0 124.3254115572156 -138.21887834137397 0 0 0 0 -36.917851453922147 22.06160223645464 0 22.06160223645464 -40.395614660252249 0 0 0 0 62.429782592605989 61.003055404090219 0 61.003055404090219 -46.02247232154707 0 0 0 0 59.534570156599841 0.20225008384448984 0 0.20225008384448984 -11.353578979072608 0 0 0 0 95.103932866390551 61.266897880533747 0 61.266897880533747 74.939928560806095 0 0 0 0 84.275793900883855 -6.3996923857866932 0 -6.3996923857866932 -19.641748789592612 0 0 0 0 119.31561229514659 -48.86730143315333 0 -48.86730143315333 9.9107665046269631 0 0 0 0 130.61783123527198 -8.3961662834705351 0 -8.3961662834705351 -20.952970481802367 0 0 0 0 96.180146782803831 -3.1064801258813759 0 -3.1064801258813759 54.497441196364775 0 0 0 0 188.40040966852658 -11.463981890742545 0 -11.463981890742545 53.144592249127129 0 0 0 0 3.2177793852038121 -19.881724238583502 0 -19.881724238583502 41.58287557060703 0 0 0 0 30.200650203591977 -56.46413540805429 0 -56.46413540805429 70.861346491679456 0 0 0 0 51.408349728227449 -41.070469236679486 0 -41.070469236679486 23.491826547737674 0 0 0 0 56.188895910088377 -22.190178555613102 0 -22.190178555613102 -0.50155105311273473 0 0 0 0 62.511450036640781 -23.439101505535746 0 -23.439101505535746 -2.156061213438079 0 0 0 0 27.976125768641396 -23.424712198750058 0 -23.424712198750058 10.839723505515849 0 0 0 0 5.1106049098107178 -13.586105501331645 0 -13.586105501331645 26.857746305472403 0 0 0 0 9.9906384508376505 -7.3201894298241541 0 -7.3201894298241541 18.763010128315415 0 0 0 0 0.45193736745703106 0.018567891872710796 0 0.018567891872710796 -0.87042753067562151 0 0 0 0 20.598817297794085 -18.040212734700162 0 -18.040212734700162 22.924584274744575 0 0 0 0 -61.874930094405499 42.978719649271625 0 42.978719649271625 217.94242534625323 0 0 0 0 12.922556870017161 -11.919649108743258 0 -11.919649108743258 18.691594033358228 0 0 0 0 1.7664958487977085 0.65568661186049493 0 0.65568661186049493 0.52977142497611696 0 0 0 0 -70.639646548753262 21.476875352965635 0 21.476875352965635 554.78716886691313 0 0 0 0 2.9620088478568505 -237.05150813721707 0 -237.05150813721707 556.34883509662041 0 0 0 0 295.89101750151531 -34.295889356215412 0 -34.295889356215412 234.52534531063725 0 0 0 0 -59.23471784612866 104.59551915739303 0 104.59551915739303 524.7183096218796 0 0 0 0 -73.264392659613748 91.3170858893033 0 91.3170858893033 616.90561192564337 0 0 0 0 69.363400119162179 -87.555403333165032 0 -87.555403333165032 741.95180981960573 0 0 0 0 4.2825884903074725 -3.2936337381183542 0 -3.2936337381183542 3.119527588932268 0 0 0 0 306.49773694914416 -109.35919362537209 0 -109.35919362537209 459.45934368993744 0 0 0 0 174.20386579989781 94.708267106033304 0 94.708267106033304 232.89965665842442 0 0 0 0 142.55728877061097 -18.999595841488372 0 -18.999595841488372 24.723059528150998 0 0 0 0 1.5016200879634294 0.022566676199744506 0 0.022566676199744506 0.084059957200891322 0 0 0 0 -78.018632391340986 5.3314796160444615 0 5.3314796160444615 690.27281498379261 0 0 0 0 -16.013288183111399 8.1016677425268426 0 8.1016677425268426 17.925157861383013 0 0 0 0 -35.974499455286605 28.310173468667926 0 28.310173468667926 32.531853783364568 0 0 0 0 -5.4733627175483912 2.9937950784799456 0 2.9937950784799456 15.865361947291298 0 0 0 0 7.8078627963631106 21.940612822054845 0 21.940612822054845 63.031160085329248 0 0 0 0 -0.38950308396059796 1.3211184998517664 0 1.3211184998517664 3.7425048485073589 0 0 0 0 4.9130448649143919 5.3512144889129551 0 5.3512144889129551 4.9343127588760325 0 0 0 0 -1.1683868545269434 22.900278991628511 0 22.900278991628511 5.6622435647750535 0 0 0 0 -2.428281641747617 16.385010310610596 0 16.385010310610596 8.6726025601847141 0 0 0 0 23.547581098437377 27.25035869137173 0 27.25035869137173 -3.1554236924566794 0 0 0 0 13.596574806205354 17.961124704667782 0 17.961124704667782 -8.8610968937173311 0 0 0 0 8.0151362901409584 69.013104907361594 0 69.013104907361594 7.2045028181200905 0 0 0 0 -84.756951259530751 49.916193786450094 0 49.916193786450094 28.585200056417307 0 0 0 0 9.6746536196917532 0.1350556738616433 0 0.1350556738616433 24.727810561631486 0 0 0 0 10.517505305773739 31.6392426011098 0 31.6392426011098 -4.3660478661367961 0 0 0 0 33.367561553936639 53.189008600986199 0 53.189008600986199 14.949363889903907 0 0 0 0 10.567519390648158 35.46020932058309 0 35.46020932058309 17.395198592865199 0 0 0 0 -10.424820716365048 47.069110563967115 0 47.069110563967115 93.73574831274891 0 0 0 0 -1.3858470801737894 -22.338057476463291 0 -22.338057476463291 54.292738039071992 0 0 0 0 -14.092725497270521 29.67303025082856 0 29.67303025082856 16.963893740612548 0 0 0 0 1.856127631271137 7.6036229410536009 0 7.6036229410536009 37.447012229125676 0 0 0 0 -47.260315504963273 41.511074976693635 0 41.511074976693635 85.707651520639047 0 0 0 0 -17.894075916522979 41.861712745955629 0 41.861712745955629 120.81681796730845 0 0 0 0 12.750547044742234 -41.770807148259337 0 -41.770807148259337 118.56546094483929 0 0 0 0 55.170121126932145 -88.697832716941775 0 -88.697832716941775 146.5217732838355 0 0 0 0 4.0971943874520287 5.7624104070610755 0 5.7624104070610755 -2.1166688784082055 0 0 0 0 -29.962679546734762 -41.937576132375398 0 -41.937576132375398 180.36313494838396 0 0 0 0 -47.471643453832257 11.315588862984441 0 11.315588862984441 129.49438808642117 0 0 0 0 22.519415692671657 7.0569147579117271 0 7.0569147579117271 29.302765734864806 0 0 0 0 26.048101390131251 24.841500334667217 0 24.841500334667217 -11.021493307198398 0 0 0 0 0.64159099665293562 13.884099050408011 0 13.884099050408011 10.511122312224689 0 0 0 0 1.2110085361669505 4.1356627610991055 0 4.1356627610991055 -3.7911560018765584 0 0 0 0 -4.0607046363304562 -3.7873024775267368 0 -3.7873024775267368 21.728435925251688 0 0 0 0 -15.43839116790766 6.2450429277791457 0 6.2450429277791457 11.87897397714249 0 0 0 0 -11.586848642112045 15.061487391300034 0 15.061487391300034 11.603922821458582 0 0 0 0 -14.306456351973672 7.9649468166079576 0 7.9649468166079576 15.686349334977635 0 0 0 0 -20.989516563256188 6.4154115391984305 0 6.4154115391984305 26.909862310407334 0 0 0 0 -34.579062714475185 8.4607412301193108 0 8.4607412301193108 30.512452909228159 0 0 0 0 -28.279463452305208 12.746781121866661 0 12.746781121866661 15.899152764704922 0 0 0 0 -21.555686995218366 -0.46063025560670212 0 -0.46063025560670212 33.546086449961876 0 0 0 0 -56.318957449930167 34.255741057007981 0 34.255741057007981 8.6090928194935259 0 0 0 0 -47.541712136380738 -2.2743735679068777 0 -2.2743735679068777 62.476688806033053 0 0 0 0 -3.4838323791729024 1.5278211083691602 0 1.5278211083691602 6.6754659834669425 0 0 0 0 -13.548402391392486 2.4766187912709938 0 2.4766187912709938 15.980090785014909 0 0 0 0 -27.838397568555877 -14.495286281073277 0 -14.495286281073277 24.887817583411561 0 0 0 0 -16.760251750222778 8.2858209755249845 0 8.2858209755249845 20.288820949182991 0 0 0 0 -22.189584553407443 6.313044323612452 0 6.313044323612452 5.5880050740134362 0 0 0 0 -19.179681829036781 -0.90727719349524705 0 -0.90727719349524705 32.7199966234366 0 0 0 0 -19.257820333056316 3.0913397590411478 0 3.0913397590411478 29.211912500224571 0 0 0 0 -14.103125514433257 7.0982937636416175 0 7.0982937636416175 13.729882073672091 0 0 0 0 -9.8258996610948088 1.92394160474214 0 1.92394160474214 21.652295633768517 0 0 0 0 -9.9886541468844143 1.2451212782220864 0 1.2451212782220864 28.531659784950534 0 0 0 0 -9.6419961462060861 8.2147555873153202 0 8.2147555873153202 11.142049081835751 0 0 0 0 -13.239007326782712 17.894902866431948 0 17.894902866431948 27.041497432512188 0 0 0 0 -15.123388126008194 26.592879491072381 0 26.592879491072381 -9.2099778261035681 0 0 0 0 -6.4793484550072691 15.444738050822108 0 15.444738050822108 25.171184402157603 0 0 0 0 -45.640152857166527 114.33935162565399 0 114.33935162565399 -27.715126541001155 0 0 0 0 -19.537764324512636 25.382886480266279 0 25.382886480266279 -0.19913441580138169 0 0 0 0 -2.4510761441676299 15.71960351588922 0 15.71960351588922 5.353637001291375 0 0 0 0 304.16653486965879 -96.209089261537883 0 -96.209089261537883 -26.833019082018836 0 0 0 0 16.488372772816092 85.475692776696405 0 85.475692776696405 -62.657872853627396 0 0 0 0 -3.7558917051483505 -1.5872560109120322 0 -1.5872560109120322 2.679098101439453 0 0 0 0 -171.3018524260392 -114.10825650132847 0 -114.10825650132847 236.52920320970452 0 0 0 0 -119.97708295512342 57.577806629645181 0 57.577806629645181 86.941632394888984 0 0 0 0 -6.5310270805976698 1.6050012737794166 0 1.6050012737794166 31.752755372760632 0 0 0 0 -138.68398910549297 46.423126929577165 0 46.423126929577165 162.95619654747952 0 0 0 0 -10.530977167073615 13.954346307626111 0 13.954346307626111 28.393760873670544 0 0 0 0 -10.667402154456934 3.6092816891251438 0 3.6092816891251438 25.720865882978337 0 0 0 0 -13.316237639619601 12.071716612307682 0 12.071716612307682 55.325795386956088 0 0 0 0 -22.429285312798356 2.1442840290337699 0 2.1442840290337699 22.71818364322462 0 0 0 0 -2.078943980203626 -0.10648427025845209 0 -0.10648427025845209 1.7925909650060561 0 0 0 0 -9.0216209239786753 0.97975725523150814 0 0.97975725523150814 27.100172316676662 0 0 0 0 -30.817062243916524 87.211362205828323 0 87.211362205828323 -43.24854221656949 0 0 0 0 -42.016625473464501 169.50303409559319 0 169.50303409559319 5.0994250167842665 0 0 0 0 9.1441498969720101 78.182668320957589 0 78.182668320957589 -43.076389492287433 0 0 0 0 -55.570376189271258 81.055508852676326 0 81.055508852676326 24.475714426872401 0 0 0 0 -47.07263193055843 51.713123831475286 0 51.713123831475286 -27.617287470171902 0 0 0 0 -45.457038119057074 75.215380523074487 0 75.215380523074487 -13.220789008523298 0 0 0 0 -60.063073471294729 57.260672518556248 0 57.260672518556248 -4.2453895344053763 0 0 0 0 -36.248628610871265 33.454507401156434 0 33.454507401156434 66.520040195882302 0 0 0 0 -134.76787251310313 71.738307462034868 0 71.738307462034868 125.60056813231358 0 0 0 0 -125.99290835268448 79.851709007589307 0 79.851709007589307 91.078166783181814 0 0 0 0 -174.13108687642784 53.434881124586354 0 53.434881124586354 123.86463254104137 0 0 0 0 -167.58078915635735 95.901849670792672 0 95.901849670792672 140.13187939688214 0 0 0 0 -107.5070741341107 99.449941065057715 0 99.449941065057715 111.5279689978795 0 0 0 0 -24.95548363595838 206.76691634828353 0 206.76691634828353 83.767046124759645 0 0 0 0 -111.74272643265819 128.73881953001217 0 128.73881953001217 80.777831503924517 0 0 0 0 -81.425325067555747 165.92893347041547 0 165.92893347041547 118.34727886950986 0 0 0 0 -81.39403174225869 161.1674817742196 0 161.1674817742196 133.19048773617806 0 0 0 0 -200.68944992568839 123.40712453485685 0 123.40712453485685 183.44499931790642 0 0 0 0 -144.54754092762846 181.00412947519521 0 181.00412947519521 240.28069981750127 0 0 0 0 -86.670094763722375 20.314208353648382 0 20.314208353648382 162.27054848704313 0 0 0 0 -42.243817454583194 166.51523681750552 0 166.51523681750552 132.38943643430491 0 0 0 0 -199.94775172892406 65.725666460058562 0 65.725666460058562 114.76351496392499 0 0 0 0 -191.46213163034065 65.319197116983332 0 65.319197116983332 103.71730489677839 0 0 0 0 -185.72169276636444 -27.656182453902602 0 -27.656182453902602 -25.889035511175734 0 0 0 0 -282.71750784715653 -156.86901763053905 0 -156.86901763053905 -27.575309232895961 0 0 0 0 -8.1076934351302263 9.0700086037279739 0 9.0700086037279739 -2.4171620903757112 0 0 0 0 -510.68855146906401 -506.57873999439494 0 -506.57873999439494 -71.439716361904573 0 0 0 0 -252.81893871304658 -69.303101464586348 0 -69.303101464586348 -145.73328780758493 0 0 0 0 -309.79160498185342 -76.509616824627528 0 -76.509616824627528 70.273051133606486 0 0 0 0 -335.78957113193184 -17.250020451262685 0 -17.250020451262685 289.76868232149627 0 0 0 0 76.177003019349911 -34.492259063213396 0 -34.492259063213396 -9.2336653192344329 0 0 0 0 -25.501792905718503 -46.288945155829424 0 -46.288945155829424 33.631712848538882 0 0 0 0 -10.174689353443028 -3.3020968252792215 0 -3.3020968252792215 7.2993578369455463 0 0 0 0 -15.588528165623075 5.002821780864906 0 5.002821780864906 31.441039455094142 0 0 0 0 -125.28728407225628 44.816642783146847 0 44.816642783146847 61.019910873212666 0 0 0 0 -11.010316133277229 -10.764347883202845 0 -10.764347883202845 22.632730999144769 0 0 0 0 -14.209412775325575 -10.878711832005138 0 -10.878711832005138 -4.3410625046435598 0 0 0 0 -9.3457759510381475 4.6991799794872522 0 4.6991799794872522 28.285095050820871 0 0 0 0 -67.866931765637673 43.583950404760571 0 43.583950404760571 62.046287213719779 0 0 0 0 -41.232090586940558 -14.323172284247448 0 -14.323172284247448 64.050287147547351 0 0 0 0 -4.1773265461291658 -3.888262618121944 0 -3.888262618121944 32.65042004585063 0 0 0 0 -73.928406341260597 -23.005412654050815 0 -23.005412654050815 41.998875383795166 0 0 0 0 -3.2556739268722046 -0.3649203212622556 0 -0.3649203212622556 25.795745931604152 0 0 0 0 76.111275521845528 6.1506813490150307 0 6.1506813490150307 -79.12094598168369 0 0 0 0 -56.548896414618866 -39.694979063675419 0 -39.694979063675419 33.601321205922048 0 0 0 0 0.45119809459431703 2.3378576306147583 0 2.3378576306147583 17.360045150560232 0 0 0 0 -274.53148976922603 12.375095069374765 0 12.375095069374765 291.57618624511451 0 0 0 0 53.438713133506099 -34.990427172463114 0 -34.990427172463114 -62.905471766976916 0 0 0 0 -6.5481678916630699 28.710906878546666 0 28.710906878546666 23.063735585114955 0 0 0 0 0.11251604340325667 -3.3317480375706445 0 -3.3317480375706445 22.266098905116312 0 0 0 0 -128.3502154049861 -26.169671302720641 0 -26.169671302720641 90.632943210726808 0 0 0 0 -91.163152053527483 -37.971474306482378 0 -37.971474306482378 -10.23474844840166 0 0 0 0 132.93153780143166 35.184704471224904 0 35.184704471224904 -99.264232221592692 0 0 0 0 -12.400761045800209 -83.280962199272835 0 -83.280962199272835 -82.436911053011499 0 0 0 0 79.892948823800907 112.70606761209638 0 112.70606761209638 -126.91457702029948 0 0 0 0 40.844545046196799 -102.63012917118976 0 -102.63012917118976 -75.809216908415692 0 0 0 0 -259.98574267311733 -389.41664591769586 0 -389.41664591769586 544.1751847219075 0 0 0 0 507.09136677698092 -111.34647807682796 0 -111.34647807682796 -156.21654674618821 0 0 0 0 -556.69355040556297 -73.778148627173323 0 -73.778148627173323 189.28418833593082 0 0 0 0 -31.79669973052205 1.1086517031458243 0 1.1086517031458243 85.090483959340077 0 0 0 0 28.730585983198125 87.895877751976286 0 87.895877751976286 104.25571965619156 0 0 0 0 -0.92370387054329317 1.9613341195216374 0 1.9613341195216374 -4.0094091589995298 0 0 0 0 20.827328166171355 16.131362411175814 0 16.131362411175814 -7.533895672878316 0 0 0 0 -47.794150406939934 26.115863750842891 0 26.115863750842891 98.409029174657917 0 0 0 0 158.98822871901075 -149.63364632176945 0 -149.63364632176945 20.09692862610882 0 0 0 0 -22.153311491573731 -162.66461382210764 0 -162.66461382210764 287.85085933441496 0 0 0 0 9.8931724471410689 -243.65922578373045 0 -243.65922578373045 323.75956828033486 0 0 0 0 -351.42513331104954 269.90265971610938 0 269.90265971610938 11.89926995411804 0 0 0 0 155.56727170014096 -540.79772850361405 0 -540.79772850361405 381.87161087683171 0 0 0 0 -6.5075040357321265 3.2646024939850533 0 3.2646024939850533 20.761013122801497 0 0 0 0 -246.42903744941896 -52.43341793282525 0 -52.43341793282525 294.28521614110832 0 0 0 0 174.72580100891082 -215.20975170255315 0 -215.20975170255315 244.32560272559203 0 0 0 0 -240.49305030622145 79.861118021963136 0 79.861118021963136 -69.943262315577073 0 0 0 0 -276.61776282907977 141.52406355977621 0 141.52406355977621 -175.12053318276321 0 0 0 0 -271.47861348983224 191.22887452387766 0 191.22887452387766 -207.07170103767317 0 0 0 0 -90.704547024593921 86.175470548030717 0 86.175470548030717 -32.124438312734128 0 0 0 0 -4.8997732070020303 7.4349974321524472 0 7.4349974321524472 30.739999143624157 0 0 0 0 -231.35707447220921 222.24919821141475 0 222.24919821141475 -295.30751834439093 0 0 0 0 -320.46945672566017 149.08135163934094 0 149.08135163934094 380.38245698699848 0 0 0 0 24.735596787158102 -167.36597165879357 0 -167.36597165879357 272.01814909898894 0 0 0 0 -52.128415676209443 -227.63033118616659 0 -227.63033118616659 275.65277914558806 0 0 0 0 164.66196910967983 -551.23106854109346 0 -551.23106854109346 517.25635935337232 0 0 0 0 -565.4380723294189 -360.68028796890303 0 -360.68028796890303 1068.0347649407086 0 0 0 0 -371.53600778696728 -211.11008425171804 0 -211.11008425171804 1016.6670032820257 0 0 0 0 -338.70913239819401 106.45423467946421 0 106.45423467946421 -677.58568703814672 0 0 0 0 -0.52638892711645391 7.3171738309605354 0 7.3171738309605354 -0.15101959543825672 0 0 0 0 -1466.5272969947027 493.85678870789184 0 493.85678870789184 13.048883798997849 0 0 0 0 -886.27595499808558 689.44652861609575 0 689.44652861609575 -206.48866356602048 0 0 0 0 -280.11237656461253 -131.49241498398987 0 -131.49241498398987 85.666509266102366 0 0 0 0 -5.8533861626041706 -4.0683873618332349 0 -4.0683873618332349 8.2661816051628207 0 0 0 0 -239.7605531272111 -126.27361485887695 0 -126.27361485887695 -359.19296840631387 0 0 0 0 -237.56038235532151 -99.809205885727522 0 -99.809205885727522 -149.50654251459764 0 0 0 0 -201.21278315285781 1.2947724650143755 0 1.2947724650143755 0.97321664634216631 0 0 0 0 -119.44615914293081 31.974345808392016 0 31.974345808392016 -213.87720044013827 0 0 0 0 -132.10016055050983 64.60290012967539 0 64.60290012967539 -467.70219279037087 0 0 0 0 -132.64050560923715 107.76576549054448 0 107.76576549054448 -324.76200650884573 0 0 0 0 -325.39982599064933 122.54142068908095 0 122.54142068908095 -154.93909234150669 0 0 0 0 -108.22173876407305 -65.832039254622941 0 -65.832039254622941 -41.390783737951551 0 0 0 0 -155.5146898359485 41.621567641417641 0 41.621567641417641 -121.79235429667733 0 0 0 0 -109.69013897803507 -152.05591101680443 0 -152.05591101680443 65.333999203266558 0 0 0 0 -116.33102579571914 -134.68870262902942 0 -134.68870262902942 134.87450321103347 0 0 0 0 -230.95665472512519 -184.55198842732887 0 -184.55198842732887 113.36484760078565 0 0 0 0 -320.19262509879991 -63.101947847684073 0 -63.101947847684073 70.657693904362532 0 0 0 0 226.52760508014308 -173.21987071866806 0 -173.21987071866806 338.04875304910638 0 0 0 0 107.74823072019899 267.64794225495007 0 267.64794225495007 129.02160133175857 0 0 0 0 0.32289440927907842 1.0721801317439397 0 1.0721801317439397 6.6275664954916138 0 0 0 0 0.10823239595524636 -2.4809480838195075 0 -2.4809480838195075 8.3487325663387004 0 0 0 0 468.80207619473913 -362.54474945861875 0 -362.54474945861875 166.09524887343014 0 0 0 0 -212.01171397214966 50.031323307343882 0 50.031323307343882 454.47023075355173 0 0 0 0 -99.378688293279538 -171.53326395156364 0 -171.53326395156364 809.9586624634685 0 0 0 0 -27.017232440462976 447.42266149725765 0 447.42266149725765 1237.359844803168 0 0 0 0 129.62606642161427 -213.71965662677985 0 -213.71965662677985 792.92057887692317 0 0 0 0 -410.46026267048205 -248.36023746490923 0 -248.36023746490923 9.4687594926144811 0 0 0 0 464.14872849423409 -77.110465425068469 0 -77.110465425068469 -263.14428810764366 0 0 0 0 235.79633467841995 491.93374471360039 0 491.93374471360039 -344.7861989918174 0 0 0 0 78.460376422532818 -29.536857852866206 0 -29.536857852866206 20.322932721708639 0 0 0 0 -752.54941332842418 126.07394709374648 0 126.07394709374648 -90.910512990383722 0 0 0 0 -13.187425391801298 262.8635834664783 0 262.8635834664783 6.3668429813677676 0 0 0 0 -8.2959893627466954 281.66803632890878 0 281.66803632890878 -119.17620316102557 0 0 0 0 296.26727924662828 77.179004929584153 0 77.179004929584153 -139.43686826459088 0 0 0 0 236.10963245249422 192.74755561287111 0 192.74755561287111 139.8668338402822 0 0 0 0 -47.44286665918753 -234.01711921446486 0 -234.01711921446486 505.21558578405711 0 0 0 0 -21.371436699930655 -197.06335073964829 0 -197.06335073964829 -101.59774192825171 0 0 0 0 -62.880021383901749 115.32097623479967 0 115.32097623479967 329.82913807798468 0 0 0 0 -113.38717274235478 114.0018542133605 0 114.0018542133605 353.35663620534251 0 0 0 0 -24.287517440271586 288.26315682567292 0 288.26315682567292 448.03875546210861 0 0 0 0 -80.971668004601725 174.1415998071916 0 174.1415998071916 230.60376894044384 0 0 0 0 81.833990357719699 165.99939450929568 0 165.99939450929568 211.70503870295215 0 0 0 0 53.558393544065893 -52.518434394617543 0 -52.518434394617543 118.92152636671744 0 0 0 0 19.868679805396823 25.74280114465364 0 25.74280114465364 62.762080313244951 0 0 0 0 -7.0724616301154128 57.739056905500547 0 57.739056905500547 254.45692399285144 0 0 0 0 9.3343492050086994 -77.342297916524558 0 -77.342297916524558 338.00808205362046 0 0 0 0 21.137734400314855 42.34555651975279 0 42.34555651975279 262.11866440820086 0 0 0 0 10.292108396996809 -83.52205865029191 0 -83.52205865029191 165.18569537580424 0 0 0 0 37.060730457093086 -70.411427369491321 0 -70.411427369491321 105.11337732535412 0 0 0 0 103.01778167445741 204.82972155402877 0 204.82972155402877 99.409669212353037 0 0 0 0 -45.723706622022064 62.209788012080026 0 62.209788012080026 24.752478558819348 0 0 0 0 3.5303653020684829 2.0047577030682504 0 2.0047577030682504 0.49187481611024708 0 0 0 0 171.54734799699713 24.500449647465757 0 24.500449647465757 -12.169559051817032 0 0 0 0 -8.3640277949358506 68.044195409883969 0 68.044195409883969 369.52914489976501 0 0 0 0 -104.65899401627655 13.614636800835797 0 13.614636800835797 64.625083457303845 0 0 0 0 -77.690554683373762 103.03309242792602 0 103.03309242792602 361.07990094882189 0 0 0 0 189.43089968686661 -129.65764097374358 0 -129.65764097374358 205.00069970426921 0 0 0 0 -165.64573386655189 -100.9703790921194 0 -100.9703790921194 470.06914881426565 0 0 0 0 -74.645547626720898 -31.077704866127306 0 -31.077704866127306 276.91492514887432 0 0 0 0 253.62596267564072 11.005580637290223 0 11.005580637290223 279.96233981071418 0 0 0 0 1.2077244586517968 -1.7449994180491544 0 -1.7449994180491544 2.3283047762519757 0 0 0 0 -135.58827347375654 -95.462218906710405 0 -95.462218906710405 62.561456873256361 0 0 0 0 71.039241907198857 174.89867956445414 0 174.89867956445414 56.559907133920206 0 0 0 0 -22.313718874762117 -262.68057246878016 0 -262.68057246878016 -240.77448999991714 0 0 0 0 212.97281176282343 17.435911643869986 0 17.435911643869986 -252.73617208760334 0 0 0 0 58.450778892444774 73.392565299228181 0 73.392565299228181 101.27535994020582 0 0 0 0 48.853083431573452 63.579960623160332 0 63.579960623160332 123.98742689178289 0 0 0 0 -0.12542334144775058 -15.277473668540836 0 -15.277473668540836 22.188384523135561 0 0 0 0 74.697738206813938 64.392808237393183 0 64.392808237393183 99.843598649043997 0 0 0 0 25.540953368742578 77.035807215459499 0 77.035807215459499 18.150588452001102 0 0 0 0 83.709698014921855 -8.6007655688717932 0 -8.6007655688717932 -139.33627003535548 0 0 0 0 -26.13343468882249 -147.84399464600483 0 -147.84399464600483 -136.24489009277798 0 0 0 0 -70.083085298364722 -57.297204909277752 0 -57.297204909277752 18.741743569252904 0 0 0 0 6.1687995569612557 -4.7105275108701363 0 -4.7105275108701363 3.4093592358463525 0 0 0 0 41.149699406352738 -24.623969908678419 0 -24.623969908678419 -69.37067219266828 0 0 0 0 -0.1692193626151588 -13.688007455263623 0 -13.688007455263623 24.316473062894936 0 0 0 0 73.231198837862749 36.730818568313794 0 36.730818568313794 176.80882871080757 0 0 0 0 44.206339570472103 108.11466061900771 0 108.11466061900771 282.62531025844146 0 0 0 0 21.539479866461647 45.284300742763662 0 45.284300742763662 177.4971579018495 0 0 0 0 -19.274123615355165 -89.832643357819506 0 -89.832643357819506 -69.083642706153725 0 0 0 0 43.160281207620194 142.34562010584912 0 142.34562010584912 280.01026398106114 0 0 0 0 -0.275920281459761 -11.916890324412954 0 -11.916890324412954 21.25074983666179 0 0 0 0 107.70927435318595 148.20255011830704 0 148.20255011830704 279.17598764796094 0 0 0 0 -28.323015100402017 170.91384257305435 0 170.91384257305435 329.04361897362469 0 0 0 0 -51.952991557093355 81.371400607784381 0 81.371400607784381 300.64844989733319 0 0 0 0 -32.336442507864604 93.158223593578441 0 93.158223593578441 307.45154668674877 0 0 0 0 -66.086487089340608 33.601904619228662 0 33.601904619228662 321.69375833151935 0 0 0 0 11.990924887379379 -89.680843006557552 0 -89.680843006557552 515.26880228697428 0 0 0 0 145.26255338932623 -7.2449397105101525 0 -7.2449397105101525 125.07828390919386 0 0 0 0 337.3907078766868 -35.219074346377965 0 -35.219074346377965 192.43852041597347 0 0 0 0 32.579941163851572 35.599333886524619 0 35.599333886524619 190.29139032821695 0 0 0 0 31.819182386272473 3.365238808810318 0 3.365238808810318 324.54895618494629 0 0 0 0 6.5341673339708466 -6.7883695798135912 0 -6.7883695798135912 6.0060310085081472 0 0 0 0 -181.11153835001051 107.171519818344 0 107.171519818344 711.20453347468833 0 0 0 0 -166.33267089334504 112.68998839570645 0 112.68998839570645 501.73586313363961 0 0 0 0 206.04052276566711 -435.603789515774 0 -435.603789515774 -626.43230703655536 0 0 0 0 -209.4522039949843 -170.47540136510406 0 -170.47540136510406 501.71150683454897 0 0 0 0 -169.69124876972455 -276.79678370876195 0 -276.79678370876195 401.92311057076859 0 0 0 0 5.7669934954337805 -140.68665758679754 0 -140.68665758679754 62.870892474305037 0 0 0 0 -28.739685364264005 -326.95000058627784 0 -326.95000058627784 800.73465757796839 0 0 0 0 -141.1530202147519 -102.96107632116582 0 -102.96107632116582 435.9612721770618 0 0 0 0 -659.62311116055889 43.99308897438209 0 43.99308897438209 483.73851582421594 0 0 0 0 -1.7715136218541376 -0.4669556095832732 0 -0.4669556095832732 31.751118585425193 0 0 0 0 -356.35678655752508 732.32299708444577 0 732.32299708444577 1210.9767983199745 0 0 0 0 -180.22922811842182 79.610437283596184 0 79.610437283596184 28.516039327816543 0 0 0 0 -605.34804362366094 273.69606181028098 0 273.69606181028098 820.31745222643713 0 0 0 0 -7.7180465529427238 1037.4566792780208 0 1037.4566792780208 1413.3073825627716 0 0 0 0 737.87688426383647 254.16970915765023 0 254.16970915765023 557.89078744278959 0 0 0 0 20.632003161184912 -165.60360914282728 0 -165.60360914282728 325.95167887459411 0 0 0 0 -149.89685402039504 -162.004843922487 0 -162.004843922487 53.767610715014825 0 0 0 0 -98.357320248927863 -28.332916223578422 0 -28.332916223578422 240.91417444624039 0 0 0 0 -136.66152913778615 35.283632964727985 0 35.283632964727985 20.10250717227791 0 0 0 0 16.588567414977206 -1.9628682859424771 0 -1.9628682859424771 -3.4281573384289459 0 0 0 0 9.1874575156061837 -349.49365167904807 0 -349.49365167904807 -444.8499481869967 0 0 0 0 2.9286220587126013 -3.7197293156435398 0 -3.7197293156435398 11.819128324703374 0 0 0 0 -41.026352942293215 -452.26416338299714 0 -452.26416338299714 -429.18761922720751 0 0 0 0 200.03660176299218 -438.53350486544286 0 -438.53350486544286 -517.46025281971015 0 0 0 0 188.80892513383424 -510.98606659740926 0 -510.98606659740926 -473.58912902485463 0 0 0 0 16.224125718613323 44.81480774425836 0 44.81480774425836 -14.280800901578914 0 0 0 0 2.9326984476547295 21.21002486365478 0 21.21002486365478 -42.208923285512356 0 0 0 0 -40.289843038951403 114.47163067836027 0 114.47163067836027 -48.782115584021085 0 0 0 0 20.120862372877809 42.196595504462039 0 42.196595504462039 -95.056995959086635 0 0 0 0 -254.89844850578413 265.68143935051233 0 265.68143935051233 -2.4224137065102695 0 0 0 0 -6.7552258145769883 153.71364928090134 0 153.71364928090134 -33.977488723954593 0 0 0 0 201.64086842037113 43.651988810040848 0 43.651988810040848 -121.6482848686428 0 0 0 0 142.0291070334597 265.72200152229652 0 265.72200152229652 -103.61550688904754 0 0 0 0 149.03731172673088 -117.43360573325481 0 -117.43360573325481 -259.79351514592054 0 0 0 0 15.658938132100985 29.236622306230174 0 29.236622306230174 7.4948688410695468 0 0 0 0 10.322838634259409 -6.346994399109203 0 -6.346994399109203 3.4707761891399009 0 0 0 0 -36.748625153656576 -33.641107340084091 0 -33.641107340084091 6.7898996967161764 0 0 0 0 24.781406552635872 -18.779448111512465 0 -18.779448111512465 -33.150434069093535 0 0 0 0 153.65657592939607 263.13859508252926 0 263.13859508252926 297.56248587678419 0 0 0 0 -1.0167248464627989 -9.694840828699995 0 -9.694840828699995 18.325990590596476 0 0 0 0 -21.567252034440344 -54.720377247413126 0 -54.720377247413126 -30.621961280327014 0 0 0 0 12.716025791572918 -6.0941386887534463 0 -6.0941386887534463 -14.127059720771285 0 0 0 0 -17.959803691371917 -10.796045727908677 0 -10.796045727908677 2.6014265552330471 0 0 0 0 11.813242392951448 -7.71090817146235 0 -7.71090817146235 4.0744946502516157 0 0 0 0 8.6693997920247341 8.5079303778329631 0 8.5079303778329631 6.9416973146580858 0 0 0 0 7.923681421559877 -22.864020935676308 0 -22.864020935676308 3.156899162906484 0 0 0 0 118.09988175887452 -167.67540607604315 0 -167.67540607604315 -141.4806167768802 0 0 0 0 4.2206973917551096 -1.5198807565194912 0 -1.5198807565194912 -0.44506583364413999 0 0 0 0 740.7126426010816 396.89680257571399 0 396.89680257571399 59.172780501326997 0 0 0 0 36.880884428930415 -16.447963878370501 0 -16.447963878370501 -14.678507617425566 0 0 0 0 4.0474844648820474 -6.042798191745967 0 -6.042798191745967 0.27627246900978975 0 0 0 0 141.39638783454603 -151.40915066073694 0 -151.40915066073694 157.42380406186567 0 0 0 0 706.0944008581514 -44.25314520763277 0 -44.25314520763277 -130.96527950377276 0 0 0 0 638.8891907029456 -75.843350281509629 0 -75.843350281509629 -136.19901658929166 0 0 0 0 688.27831195156546 57.326440219328788 0 57.326440219328788 -76.245515914240968 0 0 0 0 595.53699676976112 24.348263929503446 0 24.348263929503446 -77.375498780365888 0 0 0 0 29.572136435602779 32.427747457826626 0 32.427747457826626 349.42233864103946 0 0 0 0 -514.58127225001135 -115.84897782845655 0 -115.84897782845655 -104.44374554239585 0 0 0 0 304.84963033931126 -504.09510557206886 0 -504.09510557206886 -24.220659463115226 0 0 0 0 242.52679033150815 -311.90702757409531 0 -311.90702757409531 -739.6864831806779 0 0 0 0 126.64462257564304 -170.18381937725644 0 -170.18381937725644 1474.8970277581502 0 0 0 0 72.95960788900004 37.956699954063879 0 37.956699954063879 879.93454279788375 0 0 0 0 486.61916025289702 -580.3954056411967 0 -580.3954056411967 1133.7410765281202 0 0 0 0 506.01291851889562 -61.784311106828682 0 -61.784311106828682 1119.4413394056719 0 0 0 0 352.01722501845245 -134.02155967022918 0 -134.02155967022918 367.67400902004374 0 0 0 0 -83.254668739356433 -212.72302406966719 0 -212.72302406966719 929.72916111913946 0 0 0 0 504.62541120882179 -283.42345663206652 0 -283.42345663206652 262.32766310072111 0 0 0 0 54.963782249275482 -85.031558488934934 0 -85.031558488934934 176.88923945070928 0 0 0 0 476.9088556159092 -92.729194745995301 0 -92.729194745995301 131.13914878087235 0 0 0 0 430.16510300075402 -334.03416134917097 0 -334.03416134917097 869.63288015998842 0 0 0 0 740.37516296698595 -287.72715173011966 0 -287.72715173011966 224.82892965291467 0 0 0 0 752.57955472102185 -275.97099274251377 0 -275.97099274251377 231.80405577700731 0 0 0 0 1.4601065109414377 -6.678318631940118 0 -6.678318631940118 -5.6533375356405884 0 0 0 0 668.4701957312418 -64.844035678070213 0 -64.844035678070213 224.26565933373422 0 0 0 0 1047.5787773340398 -350.01797781321875 0 -350.01797781321875 7.4996415684800013 0 0 0 0 -2.1683310788787082 -31.22858504056785 0 -31.22858504056785 -14.58799907897361 0 0 0 0 463.04676721086457 -28.55541736113878 0 -28.55541736113878 75.314112387306523 0 0 0 0 887.04076944280314 -17.571053941966966 0 -17.571053941966966 -195.97965823881168 0 0 0 0 -1.3260499945107496 -0.22339575680894797 0 -0.22339575680894797 0.60346569269432138 0 0 0 0 578.39205441503327 -126.0753307211744 0 -126.0753307211744 -65.603201463198275 0 0 0 0 631.16504212642462 340.29250168365616 0 340.29250168365616 214.0560877851749 0 0 0 0 298.60117014615435 864.42315179936486 0 864.42315179936486 1030.4372734689532 0 0 0 0 179.90922263976108 342.05099227613755 0 342.05099227613755 1218.5465363519979 0 0 0 0 343.32763726794019 -15.140655835173675 0 -15.140655835173675 1932.4852060434714 0 0 0 0 -1.0169041649778436 -4.0243750547928361 0 -4.0243750547928361 5.473195574613932 0 0 0 0 469.42382293830951 -256.27089400536534 0 -256.27089400536534 2345.0295970697262 0 0 0 0 1603.8477127905248 -263.02565352402235 0 -263.02565352402235 42.747526242594176 0 0 0 0 1365.3616376953996 -942.01655360898803 0 -942.01655360898803 1003.7550410491749 0 0 0 0 960.78711375167495 -658.02563183778693 0 -658.02563183778693 638.36867205857561 0 0 0 0 727.00828082604551 -60.941655819460721 0 -60.941655819460721 1274.5354474812957 0 0 0 0 1419.2797249532589 114.31387622941838 0 114.31387622941838 1303.0257679532879 0 0 0 0 620.97656699630011 -401.68196634652486 0 -401.68196634652486 1250.1636608917279 0 0 0 0 619.56289448467555 -191.46901602272555 0 -191.46901602272555 1193.6441409091785 0 0 0 0 397.35732704634984 -191.44595582216425 0 -191.44595582216425 1427.9501059936083 0 0 0 0 929.15879140553375 -557.80690114377467 0 -557.80690114377467 1584.0436649094045 0 0 0 0 382.37932825003963 -220.11628844868392 0 -220.11628844868392 1049.7939318646295 0 0 0 0 281.88938625240553 79.832393558092008 0 79.832393558092008 891.5187523794084 0 0 0 0 254.57586903868321 -20.63934988179426 0 -20.63934988179426 760.15727717459959 0 0 0 0 260.99471166996409 -43.634474833539571 0 -43.634474833539571 593.9722313060247 0 0 0 0 239.57411389669096 161.37118244674912 0 161.37118244674912 601.90903380744567 0 0 0 0 330.03186753681439 223.63768225694366 0 223.63768225694366 744.83068961338449 0 0 0 0 219.28829450144372 184.80758444270032 0 184.80758444270032 998.44564429776074 0 0 0 0 -2.3771887369418043 -7.2037015773133035 0 -7.2037015773133035 15.404664759694917 0 0 0 0 326.61924914832639 279.22901209513657 0 279.22901209513657 438.63935376569134 0 0 0 0 327.50797816880731 346.10281065370873 0 346.10281065370873 718.25532336011474 0 0 0 0 342.33888726531222 138.27574071715935 0 138.27574071715935 296.58713998491294 0 0 0 0 178.99926520579197 285.47646179491858 0 285.47646179491858 439.04225798855623 0 0 0 0 192.60069940330504 328.22891219992835 0 328.22891219992835 384.68911511388796 0 0 0 0 166.92097996591701 303.97881548958139 0 303.97881548958139 623.97207423430882 0 0 0 0 115.04260082622295 198.06841057708516 0 198.06841057708516 422.65060797832757 0 0 0 0 31.333622505834683 244.51706988390015 0 244.51706988390015 470.22105077448578 0 0 0 0 124.21698119853409 248.55761925757542 0 248.55761925757542 297.52321644780966 0 0 0 0 55.072390238626895 259.64490604067214 0 259.64490604067214 386.95603686152754 0 0 0 0 30.765918389787032 78.948972985468117 0 78.948972985468117 429.82096951611675 0 0 0 0 66.697044330544259 179.7897789817107 0 179.7897789817107 708.01621100698321 0 0 0 0 -153.25197720798224 99.467048917445936 0 99.467048917445936 468.10218568447453 0 0 0 0 -53.639458519918662 -113.44073793932876 0 -113.44073793932876 370.97504877678148 0 0 0 0 -177.35695046845694 10.906853294505709 0 10.906853294505709 249.70819743401808 0 0 0 0 113.48397513629845 -110.0696871509208 0 -110.0696871509208 680.30040922020271 0 0 0 0 46.704814354845439 20.373013915426782 0 20.373013915426782 430.20905730545928 0 0 0 0 182.46283150748195 -295.48987929557916 0 -295.48987929557916 299.75320683150494 0 0 0 0 385.84267958018245 -397.29823791493982 0 -397.29823791493982 -508.49159222053277 0 0 0 0 -56.517254274921015 -104.53347479799049 0 -104.53347479799049 147.25447781478942 0 0 0 0 -109.35413655664877 -279.92837907496414 0 -279.92837907496414 149.45404503562168 0 0 0 0 568.13237847979167 -1148.1592820603664 0 -1148.1592820603664 3655.9826725887651 0 0 0 0 3.1633119976461752 -5.0946111651748751 0 -5.0946111651748751 2.4627259582350796 0 0 0 0 553.61360235014126 -471.91504392534262 0 -471.91504392534262 -1366.3118547961712 0 0 0 0 632.18245815143348 -1197.529365816361 0 -1197.529365816361 -424.75361889453097 0 0 0 0 697.64810781990695 -1428.3969048737781 0 -1428.3969048737781 313.0358869171605 0 0 0 0 455.36269939242584 -1303.5761642559282 0 -1303.5761642559282 2012.2391819517798 0 0 0 0 194.35373205392932 -1126.0404429663777 0 -1126.0404429663777 2499.1357661519651 0 0 0 0 1134.5467822097366 -1467.9767998253701 0 -1467.9767998253701 1952.7160679132285 0 0 0 0 517.07858462565298 -998.7785270216209 0 -998.7785270216209 916.86438741445454 0 0 0 0 558.80418764271519 -649.71205517059207 0 -649.71205517059207 1033.365080325766 0 0 0 0 645.88868107551662 -684.5588609967599 0 -684.5588609967599 755.28123725888145 0 0 0 0 564.10249152566439 -657.73737424337742 0 -657.73737424337742 1031.0997690762233 0 0 0 0 561.06023260592974 -449.80172817124549 0 -449.80172817124549 356.28227151007013 0 0 0 0 437.36720329968864 -636.78393353277625 0 -636.78393353277625 595.98851106191432 0 0 0 0 193.74443157423957 -235.09389334521074 0 -235.09389334521074 600.15275912996731 0 0 0 0 346.88508979086782 -169.56535644533142 0 -169.56535644533142 478.37482215827185 0 0 0 0 379.25231718666623 -324.81189653935689 0 -324.81189653935689 847.40243266364268 0 0 0 0 502.87908103275822 -200.69908187842157 0 -200.69908187842157 938.11179796572105 0 0 0 0 552.87280328557767 -461.09328714759977 0 -461.09328714759977 1031.6389472115843 0 0 0 0 483.58389042874114 -302.8479121052369 0 -302.8479121052369 748.31058512281231 0 0 0 0 498.88864823628927 -180.38980883050863 0 -180.38980883050863 1336.2137690757445 0 0 0 0 899.68812697139253 -296.11528085204736 0 -296.11528085204736 1071.9289754197234 0 0 0 0 620.96074465920151 -414.12555966574291 0 -414.12555966574291 1207.1022778030892 0 0 0 0 631.82974278796132 -471.83435502327484 0 -471.83435502327484 943.1417426673288 0 0 0 0 537.26996623646323 -361.7482915329897 0 -361.7482915329897 1566.3418711908053 0 0 0 0 490.8530837876562 -508.02277280434282 0 -508.02277280434282 1142.0633603210699 0 0 0 0 539.64703640243238 -585.47301629806861 0 -585.47301629806861 1264.9835610805385 0 0 0 0 507.36254049084016 -957.40730511010588 0 -957.40730511010588 1376.8590778954022 0 0 0 0 181.67139523757197 -468.62813566812099 0 -468.62813566812099 1534.5365090946179 0 0 0 0 209.80470610819677 -683.38209998246384 0 -683.38209998246384 1987.2655921911683 0 0 0 0 -65.897179397919032 -358.05588198430451 0 -358.05588198430451 2498.9118185806656 0 0 0 0 -265.81217832143767 60.973743623372144 0 60.973743623372144 1738.5826744761762 0 0 0 0 -165.68841695115071 -78.574878980047288 0 -78.574878980047288 1780.3061079582012 0 0 0 0 442.70483655046831 -3.1712133556043227 0 -3.1712133556043227 1312.8545649785374 0 0 0 0 2.5190601891764164 -4.8190033101995304 0 -4.8190033101995304 9.5816038883034764 0 0 0 0 -185.94674704732552 -94.752934164369435 0 -94.752934164369435 109.95350516105464 0 0 0 0 -17.434411216584593 -1.282207845954872 0 -1.282207845954872 -4.7943840941807139 0 0 0 0 -171.58266611066142 -20.065204230364543 0 -20.065204230364543 74.375584237592193 0 0 0 0 -17.554493000130947 -3.1657719055183406 0 -3.1657719055183406 -34.21367377241404 0 0 0 0 -7.4063182008142121 -15.210071777692065 0 -15.210071777692065 -21.854753200283085 0 0 0 0 0.10163669002010467 -0.54353580356890063 0 -0.54353580356890063 2.0286461334503159 0 0 0 0 2.2081525324330697 -2.1957869639427656 0 -2.1957869639427656 -0.61575281233226065 0 0 0 0 -9.9644813710244389 -35.732314707821843 0 -35.732314707821843 -55.390267593829776 0 0 0 0 49.358288299161529 -0.015337248838477535 0 -0.015337248838477535 -73.772625295052421 0 0 0 0 1.1236363459641132 -1.8116642030651988 0 -1.8116642030651988 3.4573990025862287 0 0 0 0 -22.081844916153955 171.08186032616504 0 171.08186032616504 361.12759310887759 0 0 0 0 155.95628469174596 -48.673514503549086 0 -48.673514503549086 38.94330678544793 0 0 0 0 8.6304713915618834 31.940883212822882 0 31.940883212822882 12.200540013320278 0 0 0 0 -66.594401884910013 91.341350731626278 0 91.341350731626278 212.49931250408554 0 0 0 0 -65.108357528849837 -12.307485299784048 0 -12.307485299784048 15.482952855945769 0 0 0 0 -122.77015862293501 87.992122517702228 0 87.992122517702228 312.89605646072505 0 0 0 0 -76.308206101793076 72.361039812631134 0 72.361039812631134 226.15763294020871 0 0 0 0 -13.005278807483137 145.04313942595763 0 145.04313942595763 309.04447949348287 0 0 0 0 -46.033287591500937 105.29234758412622 0 105.29234758412622 268.98964764838456 0 0 0 0 -97.57437768478826 131.60209340487563 0 131.60209340487563 346.11067447252208 0 0 0 0 -67.386872236109411 153.11080352385579 0 153.11080352385579 387.42923949539716 0 0 0 0 -173.0415050217448 10.847079272314659 0 10.847079272314659 339.1814399938321 0 0 0 0 -115.26018996829771 17.979814084033023 0 17.979814084033023 237.21191366985295 0 0 0 0 -133.75985167432623 -59.787125899994862 0 -59.787125899994862 108.80603000771771 0 0 0 0 -128.5084303626511 -44.298244598780002 0 -44.298244598780002 87.496694079049121 0 0 0 0 -137.53333095253447 41.381939563747437 0 41.381939563747437 263.93198707879128 0 0 0 0 -152.48142525156669 -71.190769245380125 0 -71.190769245380125 129.12274561498634 0 0 0 0 -127.51087508863276 -122.42681509777367 0 -122.42681509777367 -68.402236906920734 0 0 0 0 -115.85817488240468 -146.21732430290331 0 -146.21732430290331 -52.843900741183461 0 0 0 0 -194.86614442576911 -218.29821658410401 0 -218.29821658410401 20.002847356445272 0 0 0 0 -107.16769780264553 -147.35726613660518 0 -147.35726613660518 -215.19455645882044 0 0 0 0 -199.5325833325436 -163.08587565888865 0 -163.08587565888865 181.65842564460036 0 0 0 0 -290.07299929607871 -140.04500454850131 0 -140.04500454850131 190.58488770883559 0 0 0 0 -181.28099188539841 -205.37092897105595 0 -205.37092897105595 -134.70674397881521 0 0 0 0 -107.30905946126973 -133.92613299137156 0 -133.92613299137156 -258.34259214860504 0 0 0 0 -24.757353255410749 147.43711095453909 0 147.43711095453909 2245.2929186888068 0 0 0 0 -9.0474024291924273 273.51102999327486 0 273.51102999327486 2502.9552514108509 0 0 0 0 -124.31404026798623 -260.60833448392259 0 -260.60833448392259 -328.6919975815108 0 0 0 0 -453.58384391864229 42.341017072878458 0 42.341017072878458 -321.86510553511471 0 0 0 0 -314.87782566247324 -294.83905807973133 0 -294.83905807973133 -124.92783659079805 0 0 0 0 5.0528886660393368 -14.010098202572536 0 -14.010098202572536 6.0509280400297705 0 0 0 0 -96.471177853429992 -280.8515078450655 0 -280.8515078450655 2495.7480503289589 0 0 0 0 151.67908472490799 -538.55759309497807 0 -538.55759309497807 1852.1275518045059 0 0 0 0 -655.94577624317151 51.695650557925546 0 51.695650557925546 2658.3868935408427 0 0 0 0 3.6094208599644944 -5.918500417647202 0 -5.918500417647202 -5.5054296738987318 0 0 0 0 -5.3520257279836514 -8.5078194364626611 0 -8.5078194364626611 10.745807773511668 0 0 0 0 456.72717524982511 -454.45887843044875 0 -454.45887843044875 429.46600535516336 0 0 0 0 0.49250031027593555 -3.8597887416813599 0 -3.8597887416813599 3.1358987682747284 0 0 0 0 -5.415656012266254 -20.795758293934341 0 -20.795758293934341 5.8994712657149648 0 0 0 0 -10.436470260852957 -19.34940472690505 0 -19.34940472690505 6.4070817305855599 0 0 0 0 4.0758146442187364 -10.246473267638162 0 -10.246473267638162 10.387277186066171 0 0 0 0 -12.914398187671168 -25.800557076287078 0 -25.800557076287078 3.5672818291495787 0 0 0 0 -1.4476142665751581 -8.2342401539935963 0 -8.2342401539935963 26.356912458504667 0 0 0 0 -1.1709146895766085 -9.2165103230720149 0 -9.2165103230720149 14.904152555833974 0 0 0 0 -10.095270456554999 -16.610368696157821 0 -16.610368696157821 9.8213960637003765 0 0 0 0 -28.741492284217657 -14.585778978198505 0 -14.585778978198505 15.125506516700625 0 0 0 0 -0.26203751780548912 -3.3626472117558279 0 -3.3626472117558279 7.2972439974680832 0 0 0 0 -444.35979460755294 522.25504550471487 0 522.25504550471487 2489.5527852853884 0 0 0 0 304.42404868938104 -364.68365452558828 0 -364.68365452558828 439.312794640231 0 0 0 0 172.31642852186218 836.7171923965725 0 836.7171923965725 2497.0973315606152 0 0 0 0 1.4119183813024356 -2.3936733943037396 0 -2.3936733943037396 6.8338786230823416 0 0 0 0 -50.117692021617799 208.48832597502951 0 208.48832597502951 1350.3852042458129 0 0 0 0 4.5744103745175648 -2.9535785612553269 0 -2.9535785612553269 8.5733129162332808 0 0 0 0 5.9810337257716544 7.2984436453878345 0 7.2984436453878345 15.964309723286298 0 0 0 0 3.3536374629762804 -2.6100961563734018 0 -2.6100961563734018 34.960625066323701 0 0 0 0 2.2270784755722519 -6.8876908738593059 0 -6.8876908738593059 15.482977448417174 0 0 0 0 1.322045025733587 -4.4589831832199707 0 -4.4589831832199707 30.529272489002324 0 0 0 0 -2.5529305651721659 -10.346855912385578 0 -10.346855912385578 7.0129401429177136 0 0 0 0 -55.887234838299065 -4.5357781375678314 0 -4.5357781375678314 3.0467469523609907 0 0 0 0 -14.62973653189033 37.656330742451246 0 37.656330742451246 -40.379408634174979 0 0 0 0 4.1416600984053957 -136.22766440210762 0 -136.22766440210762 117.13713808667671 0 0 0 0 39.076421162323072 -12.458581079918076 0 -12.458581079918076 -29.975966437046736 0 0 0 0 -4.1890185835815972 -19.515628004499206 0 -19.515628004499206 48.331395029052914 0 0 0 0 -73.937830906550744 15.548081380065014 0 15.548081380065014 96.408333904681058 0 0 0 0 98.72195226481 -259.19582173357048 0 -259.19582173357048 -77.312022960482864 0 0 0 0 2541.4216690810626 575.88140504216426 0 575.88140504216426 -381.63437280160724 0 0 0 0 -109.58566838475804 -149.48969888288048 0 -149.48969888288048 366.27067077482207 0 0 0 0 -60.876190192729382 -108.87010595684842 0 -108.87010595684842 152.80987002779148 0 0 0 0 5.8953002479593 16.587547333433275 0 16.587547333433275 0.66027388543092513 0 0 0 0 -75.99219541912953 -180.31981210920276 0 -180.31981210920276 139.99621862325148 0 0 0 0 -8.1990158681275034 -199.49069968153162 0 -199.49069968153162 216.84461528708198 0 0 0 0 -111.1994161081509 -131.92372804012484 0 -131.92372804012484 249.6929964547744 0 0 0 0 -95.710682024139714 -207.97462083569553 0 -207.97462083569553 253.79536234911961 0 0 0 0 -43.134999461101756 -126.05401886298569 0 -126.05401886298569 126.97880200832151 0 0 0 0 -65.568970125603641 -229.68215016000613 0 -229.68215016000613 86.054525767147425 0 0 0 0 -551.46780960336037 123.06918368257175 0 123.06918368257175 173.65888344548875 0 0 0 0 0.10412332583888606 1.90757989727976 0 1.90757989727976 6.8077884244239959 0 0 0 0 -96.940433260004383 -232.40458535905282 0 -232.40458535905282 269.35698413244245 0 0 0 0 141.96067964217713 -243.76866323999002 0 -243.76866323999002 204.6379019277083 0 0 0 0 -73.045073968109818 -79.952869872096016 0 -79.952869872096016 116.92684902654219 0 0 0 0 0.7575420230345502 -0.75266360924681308 0 -0.75266360924681308 0.15044557968346339 0 0 0 0 133.32523721155599 -117.08522950714178 0 -117.08522950714178 32.030237999904784 0 0 0 0 100.87076816212436 -236.11710767432669 0 -236.11710767432669 154.51078317190695 0 0 0 0 -6.0919584849314106 10.520245583178621 0 10.520245583178621 46.324109718516411 0 0 0 0 1.1086951832331806 10.897988046107457 0 10.897988046107457 43.860960583566339 0 0 0 0 1.5755981769257232 8.3517973065245315 0 8.3517973065245315 23.791201704756531 0 0 0 0 3.7094257093033534 53.194831995508174 0 53.194831995508174 4.348615323048616 0 0 0 0 -4.6868989644699468 -0.017033011394232744 0 -0.017033011394232744 63.065102352375106 0 0 0 0 -8.7236722024723008 -12.255528323502034 0 -12.255528323502034 59.272222720072094 0 0 0 0 629.70958692003228 1176.7492801031276 0 1176.7492801031276 339.85477188139339 0 0 0 0 -135.05148014534916 42.729081100951589 0 42.729081100951589 153.29241799826673 0 0 0 0 3.9754428297555933 -7.6798015151071013 0 -7.6798015151071013 64.419859864309728 0 0 0 0 12.656624664992705 3.0254175167610811 0 3.0254175167610811 76.46974496067196 0 0 0 0 5.0550288249460209 1.7757979320340382 0 1.7757979320340382 64.070065663770947 0 0 0 0 -2.376329903381702 -1.228427218455181 0 -1.228427218455181 63.242144457428367 0 0 0 0 -2.170656720220677 1.5800532060166006 0 1.5800532060166006 81.531158172620053 0 0 0 0 5.0336467975708157 -0.90120700006376353 0 -0.90120700006376353 2.6891007165634768 0 0 0 0 2.844937974909334 1.1351456355362899 0 1.1351456355362899 3.2581727568247274 0 0 0 0 14.109667760495995 -1.2213587927835761 0 -1.2213587927835761 81.816463461993408 0 0 0 0 8.1237042121972536 -7.3858382875478128 0 -7.3858382875478128 22.4344243097039 0 0 0 0 -0.58596260126387278 1.6016561486576393 0 1.6016561486576393 87.766533977999643 0 0 0 0 11.650170836251164 -0.9342863281872269 0 -0.9342863281872269 70.469467901224562 0 0 0 0 -195.03141872094835 12.679519539472494 0 12.679519539472494 2499.7151024026134 0 0 0 0 -86.189690396349306 -260.91994477275512 0 -260.91994477275512 1740.4611806807297 0 0 0 0 0.89866694548976378 -2.1652199098974592 0 -2.1652199098974592 5.6513576023341514 0 0 0 0 -53.220361335390223 -444.65134034042239 0 -444.65134034042239 2456.2460915471747 0 0 0 0 378.88768810918009 -698.44040700962069 0 -698.44040700962069 2499.5582946991608 0 0 0 0 548.13180378629568 -951.14733227544639 0 -951.14733227544639 1682.1130226108216 0 0 0 0 -8.925498136395845 -7.9499262021345203 0 -7.9499262021345203 20.84963929220612 0 0 0 0 23.054589548542978 -274.70527852945088 0 -274.70527852945088 3526.6192343820439 0 0 0 0 1.5517201162826175 1.0668262844721639 0 1.0668262844721639 2.805445794282349 0 0 0 0 -311.3523277495849 -152.68512192137496 0 -152.68512192137496 87.554578817725996 0 0 0 0 -7.3313723846675316 -13.884401065908605 0 -13.884401065908605 6.8726671367912786 0 0 0 0 1.5498888866341929 -0.74218070066719122 0 -0.74218070066719122 -0.069743550152395528 0 0 0 0 71.67197021514562 -118.21635889816389 0 -118.21635889816389 -92.851305990712717 0 0 0 0 -10.480449522283379 -16.188067192604649 0 -16.188067192604649 115.27316177600733 0 0 0 0 -2.7410315158554908 -3.1447636249843711 0 -3.1447636249843711 32.299304391312944 0 0 0 0 119.901364172591 174.80725494102808 0 174.80725494102808 125.2790470823893 0 0 0 0 -0.10348380121081391 -7.4246519924490713 0 -7.4246519924490713 -2.4126989059823245 0 0 0 0 -14.428088502132141 8.1422370638028951 0 8.1422370638028951 126.72951464073049 0 0 0 0 9.9582346066340506 22.280924835366022 0 22.280924835366022 97.051900792161177 0 0 0 0 -0.30859789572514273 7.2632037202765787 0 7.2632037202765787 11.615668016936979 0 0 0 0 162.51561688869356 657.215030821033 0 657.215030821033 1369.257452929116 0 0 0 0 48.373124985449408 348.75488809219314 0 348.75488809219314 868.67169361113338 0 0 0 0 470.73923042774584 1243.3902572045117 0 1243.3902572045117 1655.0186124509491 0 0 0 0 -18.953446211245421 470.97570501820883 0 470.97570501820883 2411.1588542652025 0 0 0 0 24.035912835530347 -86.110705290305845 0 -86.110705290305845 2652.632747826261 0 0 0 0 794.95430165782989 768.26083732885309 0 768.26083732885309 2501.9271835066584 0 0 0 0 237.2805060803239 270.48390595540695 0 270.48390595540695 -132.27082155925018 0 0 0 0 6.254867953846718 3.9122386327971981 0 3.9122386327971981 6.6533031132213836 0 0 0 0 -124.25175857978138 -77.413529708253918 0 -77.413529708253918 -80.020384547562571 0 0 0 0 626.45819756165815 644.54505806620818 0 644.54505806620818 225.9065498435375 0 0 0 0 113.90429520856469 196.31048869376536 0 196.31048869376536 495.85654459380021 0 0 0 0 155.61122108960217 138.68254547174729 0 138.68254547174729 80.598532542731846 0 0 0 0 -91.671304664769423 -159.8945518714645 0 -159.8945518714645 13.584357139538952 0 0 0 0 90.408717202025855 76.192385842179647 0 76.192385842179647 69.959799905533146 0 0 0 0 -256.18752375398287 -32.066991996263823 0 -32.066991996263823 164.24663414400129 0 0 0 0 235.38236703366192 -49.384910510518239 0 -49.384910510518239 178.58071594955254 0 0 0 0 245.43757667862002 388.70828311693185 0 388.70828311693185 805.14723587121262 0 0 0 0 -119.65589286163066 -310.25586723446031 0 -310.25586723446031 320.99484324209334 0 0 0 0 234.85061192640347 217.43816572464857 0 217.43816572464857 479.24098301341292 0 0 0 0 11.779609775735082 1.7691928541598827 0 1.7691928541598827 20.387443256702682 0 0 0 0 0.98407976773680628 0.6769367045899628 0 0.6769367045899628 6.6180092516090099 0 0 0 0 -0.38146176415420996 8.5403383174852934 0 8.5403383174852934 22.296368961937333 0 0 0 0 173.37875748525676 55.567444398460793 0 55.567444398460793 -184.17641990699849 0 0 0 0 -3.8723251931397504 -3.6375379645423997 0 -3.6375379645423997 39.080078085764683 0 0 0 0 -34.687774398475426 -6.0032765341966297 0 -6.0032765341966297 74.503022108096047 0 0 0 0 -1.6555481886900338 11.298660148559065 0 11.298660148559065 21.822627079847734 0 0 0 0 2.5335404611694798 13.873419057292267 0 13.873419057292267 13.002330214949325 0 0 0 0 -2.7881386237053332 3.108735334254348 0 3.108735334254348 14.750956058429097 0 0 0 0 -1.2029747598026006 7.5349145366908488 0 7.5349145366908488 26.785732122472837 0 0 0 0 -1.6638889624385911 7.6491268572935951 0 7.6491268572935951 23.842710988748877 0 0 0 0 -1.5321339645591934 8.1219171633965743 0 8.1219171633965743 25.092286276871164 0 0 0 0 0.13962657701011949 9.4082205412232724 0 9.4082205412232724 23.731605499167927 0 0 0 0 0.93432598836375291 10.510387355778221 0 10.510387355778221 71.439697578567575 0 0 0 0 6.2380495613276707 -1.7606729295875994 0 -1.7606729295875994 57.011323662962241 0 0 0 0 -0.45112144595123027 -0.037888846745772753 0 -0.037888846745772753 79.915815965825459 0 0 0 0 7.2483162560138226 -0.75823601728916401 0 -0.75823601728916401 61.431060556889861 0 0 0 0 -4.935802664673588 7.664785223591025 0 7.664785223591025 99.508879020824679 0 0 0 0 5.0742761357175823 18.644874061599694 0 18.644874061599694 38.773716103398328 0 0 0 0 -6.2379190538204057 5.3150272390666942 0 5.3150272390666942 64.347745334865976 0 0 0 0 7.9889710212419232 -25.389169246627716 0 -25.389169246627716 94.510185124650889 0 0 0 0 -1.1493104348049314 12.207269042901316 0 12.207269042901316 27.011654474350507 0 0 0 0 -1.5497917421182208 11.925188405608537 0 11.925188405608537 20.613158407829232 0 0 0 0 5.7778790164639986 7.4394128820713377 0 7.4394128820713377 15.119467714072016 0 0 0 0 -0.2940735483917023 14.539230915303023 0 14.539230915303023 9.5151782294520046 0 0 0 0 3.8477786833086611 20.781624223276594 0 20.781624223276594 20.894385586594581 0 0 0 0 4.9246824717243953 -2.8105527541792981 0 -2.8105527541792981 35.475706998404348 0 0 0 0 -4.6379112067943424 8.3283526525810885 0 8.3283526525810885 42.848077154005296 0 0 0 0 29.660361313945714 22.326548145236302 0 22.326548145236302 -12.430681282370642 0 0 0 0 -23.981382186361316 41.977305448861443 0 41.977305448861443 3.3135538328933762 0 0 0 0 0.70782851562784277 9.6502550987122504 0 9.6502550987122504 5.8833145419446566 0 0 0 0 52.286150209250536 56.125472749763503 0 56.125472749763503 5.1982521814788925 0 0 0 0 37.412510891442935 15.426102086799801 0 15.426102086799801 -3.3748444397497224 0 0 0 0 -0.87715927543922589 10.071701076172758 0 10.071701076172758 4.0338903355586808 0 0 0 0 0.23849738477241544 -7.8776990812291388 0 -7.8776990812291388 7.4829738373664441 0 0 0 0 31.15579995382177 23.675908367949887 0 23.675908367949887 -11.501699809930869 0 0 0 0 45.927682081752209 13.915682830833248 0 13.915682830833248 12.641674931946909 0 0 0 0 46.324325883331724 -0.79278832174168201 0 -0.79278832174168201 3.3215784029162023 0 0 0 0 -6.6921043531108353 1.169481607452326 0 1.169481607452326 11.068193945044186 0 0 0 0 13.62448697054208 -31.347660115883627 0 -31.347660115883627 13.403343223006232 0 0 0 0 -35.918924951788313 -21.220048451898037 0 -21.220048451898037 20.830419899648405 0 0 0 0 157.06631275935069 65.692535928857978 0 65.692535928857978 23.16447624718694 0 0 0 0 55.235755462336783 6.3150146953339572 0 6.3150146953339572 17.942439890481182 0 0 0 0 63.767185402512041 80.203100276827172 0 80.203100276827172 70.132584338331071 0 0 0 0 136.89661879204778 93.824718634474266 0 93.824718634474266 61.079153703147313 0 0 0 0 42.000691887940775 44.209496739553288 0 44.209496739553288 21.650830309881712 0 0 0 0 97.821484939368247 27.323684488001163 0 27.323684488001163 5.806197475962108 0 0 0 0 41.844776459904978 29.584802674688035 0 29.584802674688035 11.34050522094185 0 0 0 0 0.443202531632096 4.9241228160972241 0 4.9241228160972241 11.197606194968102 0 0 0 0 2.7409481514449676 5.8796132962418142 0 5.8796132962418142 5.7538015090198655 0 0 0 0 4.5565530463973687 1.7471730547622428 0 1.7471730547622428 7.7931663115014089 0 0 0 0 -0.17962323043608475 4.3515511202150066 0 4.3515511202150066 6.4103524911285348 0 0 0 0 0.97454744831753715 6.1239767758597736 0 6.1239767758597736 8.1143668417062145 0 0 0 0 1.7230145012037497 8.8894394031667616 0 8.8894394031667616 5.6125035461882362 0 0 0 0 1.9752513384931825 6.3448725925503169 0 6.3448725925503169 4.83050617187547 0 0 0 0 2.9674427830719932 9.3474124542328383 0 9.3474124542328383 -0.60586883055098184 0 0 0 0 -0.5472985514809352 2.4860759069852065 0 2.4860759069852065 -5.4918471244909597 0 0 0 0 -5.2669123739476618 4.5841883085668087 0 4.5841883085668087 8.0394393505994231 0 0 0 0 -5.6021995436033194 5.7228208487067604 0 5.7228208487067604 5.3082130144175608 0 0 0 0 1.0591752192700596 7.0391180828737561 0 7.0391180828737561 0.46564089611638337 0 0 0 0 -6.1220348258805188 -0.7413833456375869 0 -0.7413833456375869 0.30193438452261034 0 0 0 0 -19.175397253168057 1.7151185739057837 0 1.7151185739057837 15.408486242529762 0 0 0 0 -17.907646208108751 13.007372393164133 0 13.007372393164133 2.5639867421414237 0 0 0 0 3.2521217808635203 4.2592543033063492 0 4.2592543033063492 5.0630361333410576 0 0 0 0 207.8018143452482 93.193463887393591 0 93.193463887393591 261.69640043273102 0 0 0 0 -37.194548900390146 27.27893449892872 0 27.27893449892872 3.6667569654600811 0 0 0 0 -54.042584570128611 3.7443767168006161 0 3.7443767168006161 25.984789567737607 0 0 0 0 -134.82050097636238 42.054529306220502 0 42.054529306220502 689.83161198650487 0 0 0 0 -7.0135611072137181 5.1322467213030905 0 5.1322467213030905 -6.7063719682046212 0 0 0 0 0.58628097530009571 0.86562029557195785 0 0.86562029557195785 0.94317107356188501 0 0 0 0 4.0898687298551408 11.24807113325005 0 11.24807113325005 3.8302901758579537 0 0 0 0 3.6096982517307064 2.936215822623069 0 2.936215822623069 3.9433437438357544 0 0 0 0 3.0867201404111029 2.8516139349485456 0 2.8516139349485456 3.9691707353340462 0 0 0 0 1.8076721115999135 3.8454527478315867 0 3.8454527478315867 3.7081219759347732 0 0 0 0 74.490851060737441 -51.226898600165441 0 -51.226898600165441 41.419403410844097 0 0 0 0 3.4544013984825783 1.5631990658864368 0 1.5631990658864368 1.5600892415502443 0 0 0 0 0.057488139035513086 4.0246906253159977 0 4.0246906253159977 12.066958651470486 0 0 0 0 1.4150221842458244 1.1717244316661706 0 1.1717244316661706 5.808665225775087 0 0 0 0 150.1402564155087 495.37876349032013 0 495.37876349032013 573.89162538911296 0 0 0 0 219.68534419499088 125.30788049268085 0 125.30788049268085 277.0668481948087 0 0 0 0 -26.531254999636303 95.323230208978202 0 95.323230208978202 315.10158002091339 0 0 0 0 87.520126189214807 265.48509125797136 0 265.48509125797136 312.70822210217011 0 0 0 0 310.77857106585316 265.16165159815137 0 265.16165159815137 245.50296162145241 0 0 0 0 -0.70313587156668333 -0.5411340562483673 0 -0.5411340562483673 2.2039168463280987 0 0 0 0 -289.75622071387136 -420.47726331106333 0 -420.47726331106333 80.144406275052461 0 0 0 0 -135.11581824660669 -209.27164744029665 0 -209.27164744029665 -83.773973828472663 0 0 0 0 -332.56118765093652 -86.816817440427258 0 -86.816817440427258 201.7301854591351 0 0 0 0 -35.674639866638017 -276.97981325766887 0 -276.97981325766887 193.69063726614695 0 0 0 0 -150.4921870595854 -80.274274029229218 0 -80.274274029229218 416.53161351833842 0 0 0 0 -74.040388379003844 80.457971747106058 0 80.457971747106058 53.313221234086086 0 0 0 0 -131.63193037966994 56.03591226170829 0 56.03591226170829 309.27637325394608 0 0 0 0 7.2949855335184566 22.247575903835241 0 22.247575903835241 232.96881764575664 0 0 0 0 -180.60553280385443 13.416981314803706 0 13.416981314803706 167.32137177394907 0 0 0 0 105.09186760468918 51.196103568372564 0 51.196103568372564 177.81912118091714 0 0 0 0 66.080761167393803 13.285365612337046 0 13.285365612337046 485.21389132214244 0 0 0 0 166.1142729007006 197.88759049851069 0 197.88759049851069 176.35806038416922 0 0 0 0 90.638122489134275 59.370286080011283 0 59.370286080011283 100.899820259423 0 0 0 0 153.10325191529887 77.622371104000194 0 77.622371104000194 3.195803905642606 0 0 0 0 44.880852307339183 -23.868270425693481 0 -23.868270425693481 -13.604170866572531 0 0 0 0 1.0807245755910997 1.3853900075090593 0 1.3853900075090593 2.1595643076065585 0 0 0 0 -42.984295135248999 -277.59751505793793 0 -277.59751505793793 593.2285543136968 0 0 0 0 39.197993707419982 120.73091510321683 0 120.73091510321683 535.84152399190862 0 0 0 0 28.357892768215606 12.281317858483817 0 12.281317858483817 314.74794767940693 0 0 0 0 304.21915779396534 -47.551477542632711 0 -47.551477542632711 327.66371709473606 0 0 0 0 25.537760221818985 101.28911894001067 0 101.28911894001067 186.02786187698075 0 0 0 0 214.38387918333115 -160.4265627666864 0 -160.4265627666864 226.63666956330781 0 0 0 0 59.478385644881655 144.03276576745156 0 144.03276576745156 176.57337340421509 0 0 0 0 -15.72063917153514 69.820693278812541 0 69.820693278812541 164.30521945773216 0 0 0 0 -17.042117092898366 39.357346301992948 0 39.357346301992948 31.882062786542519 0 0 0 0 60.644104421531651 61.687098593785095 0 61.687098593785095 70.34619854608718 0 0 0 0 25.595621569736149 30.739836808087148 0 30.739836808087148 83.604667876279564 0 0 0 0 -183.14280691806022 136.04586949045279 0 136.04586949045279 117.50626542026293 0 0 0 0 0.22861606575048993 13.902045342098583 0 13.902045342098583 126.38184493910995 0 0 0 0 -345.75951409801905 217.81074042249384 0 217.81074042249384 278.46314085342419 0 0 0 0 -140.85064691219139 174.36491015184765 0 174.36491015184765 91.615741828529281 0 0 0 0 -219.23023326417913 -66.050011929042739 0 -66.050011929042739 204.99217544647581 0 0 0 0 84.62900287599507 87.764561909500117 0 87.764561909500117 49.71324617933351 0 0 0 0 18.96221182026602 144.4118833216844 0 144.4118833216844 390.64684283544193 0 0 0 0 4.5868752982599403 -196.91029637208885 0 -196.91029637208885 452.11874276831804 0 0 0 0 -113.23484044337653 -7.2133627310649899 0 -7.2133627310649899 212.05415450982673 0 0 0 0 -369.64849090127154 87.654630104705575 0 87.654630104705575 314.9758405806715 0 0 0 0 -2.7118245440535715 17.535110520125023 0 17.535110520125023 124.35793367648094 0 0 0 0 -87.816661554760913 37.247548109980926 0 37.247548109980926 -22.931254806369907 0 0 0 0 -244.24518117461389 -67.169777410468669 0 -67.169777410468669 -70.604746625303051 0 0 0 0 56.446034230651094 103.69263542879344 0 103.69263542879344 6.6245373057099641 0 0 0 0 -60.019712838306759 62.250122674049635 0 62.250122674049635 132.48370944371709 0 0 0 0 -9.0773107239836008 19.384751220139151 0 19.384751220139151 -37.206718434783397 0 0 0 0 3.4398359254993203 32.855740323331872 0 32.855740323331872 12.405170107439574 0 0 0 0 1.3060776127372089 20.667076181801562 0 20.667076181801562 2.7881282782171297 0 0 0 0 -34.483604477507242 19.88132709718775 0 19.88132709718775 21.099681551633694 0 0 0 0 -1.9557035826708216 18.732810512723518 0 18.732810512723518 36.61819829029082 0 0 0 0 -4.9321421905609597 11.016943826702374 0 11.016943826702374 19.804214306343006 0 0 0 0 25.402281562844792 95.300663065601839 0 95.300663065601839 33.337782019254519 0 0 0 0 -0.58681916082694352 3.3717716015014929 0 3.3717716015014929 5.8496017379626721 0 0 0 0 27.120760192864964 115.76121176834567 0 115.76121176834567 197.72263985253812 0 0 0 0 2.4292224699661915 0.29358145614868647 0 0.29358145614868647 -6.7784362455360139 0 0 0 0 54.801793373042642 108.49475309567549 0 108.49475309567549 26.360109643210308 0 0 0 0 54.781964023071623 107.35442377100117 0 107.35442377100117 100.8489844378928 0 0 0 0 20.559102686983522 128.90662953894844 0 128.90662953894844 87.323294018904562 0 0 0 0 51.975954323182123 155.58686348675474 0 155.58686348675474 59.97313919843873 0 0 0 0 -0.015648457887151829 121.98126219707683 0 121.98126219707683 709.87886033464019 0 0 0 0 -8.8873809738763541 61.068630446359748 0 61.068630446359748 126.15049738182643 0 0 0 0 141.98758845693271 222.05093513368774 0 222.05093513368774 73.506285495706834 0 0 0 0 -14.069214408997638 185.43540553603179 0 185.43540553603179 1316.4258613497732 0 0 0 0 -237.13842183278607 693.28365049679996 0 693.28365049679996 2497.0864356731254 0 0 0 0 -82.916246659001615 379.57811289212623 0 379.57811289212623 2103.1426194550731 0 0 0 0 -31.707818440158292 318.74336416603182 0 318.74336416603182 1409.4026289796093 0 0 0 0 -9.7608581939388444 752.06887428566552 0 752.06887428566552 1765.2550980528758 0 0 0 0 -76.332263643290432 1162.1110761935706 0 1162.1110761935706 2498.1021580235974 0 0 0 0 16.819948506282529 426.53919242993652 0 426.53919242993652 1633.882668830287 0 0 0 0 -164.02510540473673 836.86866727981032 0 836.86866727981032 1739.0197431097768 0 0 0 0 107.47259858587688 547.27395537060875 0 547.27395537060875 899.01621673580667 0 0 0 0 187.13140243640362 641.39115873067931 0 641.39115873067931 960.27363230529591 0 0 0 0 34.16900057757573 565.20493632550642 0 565.20493632550642 1006.0860436733128 0 0 0 0 3.7844790398773966 17.256036202117684 0 17.256036202117684 219.79462468408747 0 0 0 0 -28.288594430544947 65.078360940751736 0 65.078360940751736 -56.075656685206923 0 0 0 0 0.57736517234231943 -0.30733321300768068 0 -0.30733321300768068 1.8400700358100011 0 0 0 0 232.090106528615 376.32537484326895 0 376.32537484326895 735.53143000083946 0 0 0 0 0.13191797788677539 4.0079664951400815 0 4.0079664951400815 -0.45112512545973971 0 0 0 0 56.424428021751112 82.912514381314395 0 82.912514381314395 93.739096845820313 0 0 0 0 -122.54922849361412 -82.714420065662125 0 -82.714420065662125 239.28180514692212 0 0 0 0 2.3286433549529733 104.18045012012408 0 104.18045012012408 -6.1763617267133668 0 0 0 0 6.3401522458499073 19.647940276117879 0 19.647940276117879 -131.11239359867977 0 0 0 0 0.47563702884449366 1.6373275959593059 0 1.6373275959593059 0.76752615814206848 0 0 0 0 41.058239369589643 99.037032972242741 0 99.037032972242741 -76.380073030064523 0 0 0 0 -9.3424807410881385 125.7945328776259 0 125.7945328776259 16.234859050193336 0 0 0 0 -41.121447362249171 60.89424615232565 0 60.89424615232565 115.26217695277592 0 0 0 0 -17.608507756467315 130.99706230409356 0 130.99706230409356 28.87464768330392 0 0 0 0 -38.874249830280775 97.293690838603652 0 97.293690838603652 68.436452937610738 0 0 0 0 -41.509897774753995 52.272891872358741 0 52.272891872358741 47.755542745806451 0 0 0 0 -94.942069221935697 24.847376226840424 0 24.847376226840424 4.2326656386212562 0 0 0 0 -79.675336040451555 50.397181240674399 0 50.397181240674399 45.965664997063868 0 0 0 0 -63.14605969272688 54.268401903937047 0 54.268401903937047 -4.500569391719182 0 0 0 0 -0.73305447142449143 -0.58612359438304917 0 -0.58612359438304917 13.687745298448931 0 0 0 0 -4.0357425281897292 -3.8774807724475977 0 -3.8774807724475977 18.940754149734857 0 0 0 0 7.0729400713500326 -0.69651756785242469 0 -0.69651756785242469 17.45732418015541 0 0 0 0 1.6362672198380044 2.4330128757295455 0 2.4330128757295455 15.649849291702907 0 0 0 0 2.9954813178281938 0.92663275038466963 0 0.92663275038466963 21.448234297611634 0 0 0 0 -2.2382220604657923 8.5021639422877584 0 8.5021639422877584 42.638542997625848 0 0 0 0 -6.1658445572287519 7.2403584747153218 0 7.2403584747153218 51.941544616696774 0 0 0 0 -14.880314936425322 -5.4306757922013276 0 -5.4306757922013276 79.586888962512603 0 0 0 0 -6.6305471228913575 -39.159876956196968 0 -39.159876956196968 117.38671334763058 0 0 0 0 -5.5154700524143303 6.1056418405998301 0 6.1056418405998301 10.125552441765471 0 0 0 0 -0.086312748126729566 -4.9976059939607609 0 -4.9976059939607609 5.5704591253868116 0 0 0 0 100.49613270261716 83.28711939000641 0 83.28711939000641 25.234417699954065 0 0 0 0 0.70803972064663001 -1.4024330326372016 0 -1.4024330326372016 0.12875444545898063 0 0 0 0 348.3703551818702 -45.663413719936216 0 -45.663413719936216 159.4696832037298 0 0 0 0 267.74421142513711 82.511792360164691 0 82.511792360164691 3.7713900089656818 0 0 0 0 -33.939056404168412 494.11568373803311 0 494.11568373803311 979.60349445925385 0 0 0 0 26.663616814234501 52.978372148689232 0 52.978372148689232 583.75373714457965 0 0 0 0 1841.9245422092863 768.59889311915322 0 768.59889311915322 -17.703266379307024 0 0 0 0 815.52036867519587 1590.4205772800742 0 1590.4205772800742 1511.2171394823963 0 0 0 0 814.15405765481648 -1297.1158223406746 0 -1297.1158223406746 1236.7289018604788 0 0 0 0 -363.96020671548246 -672.01975249298266 0 -672.01975249298266 2496.5569493493531 0 0 0 0 3.1265661792543606 3.0695749695478298 0 3.0695749695478298 12.227002602947607 0 0 0 0 0.52416665192711309 9.1698002916141235 0 9.1698002916141235 29.715248417693488 0 0 0 0 -2.2300416122242455 2.5013216439239869 0 2.5013216439239869 12.261325875460738 0 0 0 0 180.23761890150075 23.79746469748352 0 23.79746469748352 -195.2708531597018 0 0 0 0 -67.511980869423041 216.91742828879796 0 216.91742828879796 304.94075829014037 0 0 0 0 -12.247099127164063 0.29023551817226689 0 0.29023551817226689 488.05882704127725 0 0 0 0 -104.7477781620297 -59.255344520708604 0 -59.255344520708604 450.51876398030436 0 0 0 0 82.39858974435144 -75.53641921522285 0 -75.53641921522285 -203.71418165534124 0 0 0 0 -52.45263847102791 301.1704589893634 0 301.1704589893634 533.5707889173791 0 0 0 0 -0.34063060578098947 -0.17715783310721633 0 -0.17715783310721633 0.311768486348587 0 0 0 0 143.85312196200425 -402.7397330742242 0 -402.7397330742242 995.03082383533911 0 0 0 0 -193.42234675064947 -290.89722255021479 0 -290.89722255021479 1515.8034722816083 0 0 0 0 -358.7234173075675 -181.68401023462502 0 -181.68401023462502 1517.7544474325489 0 0 0 0 -445.39466905885229 633.61667434272749 0 633.61667434272749 2499.1334334386847 0 0 0 0 -394.38403419837556 171.150811968997 0 171.150811968997 2199.1255038785603 0 0 0 0 -73.269501231848494 320.41127341752872 0 320.41127341752872 1656.1380035516922 0 0 0 0 -343.83322356451293 -144.17048884811084 0 -144.17048884811084 1567.7814847142581 0 0 0 0 13.772753147347316 215.99602040026366 0 215.99602040026366 1023.9899232756434 0 0 0 0 28.140582957662104 333.02379159756674 0 333.02379159756674 1073.4339375796553 0 0 0 0 -150.24289880263808 215.55409159167539 0 215.55409159167539 1145.172790091121 0 0 0 0 1.6582505570435757 1.0965924788413872 0 1.0965924788413872 0.38552634056016188 0 0 0 0 -70.568704669954286 -3.9725011370028369 0 -3.9725011370028369 -31.429362691444112 0 0 0 0 -183.67163796073913 -79.955281291000574 0 -79.955281291000574 1025.147424627241 0 0 0 0 -111.13910344952605 88.7901355344286 0 88.7901355344286 917.30733881951892 0 0 0 0 -0.58914402001228838 0.5999086540661267 0 0.5999086540661267 2.6343716627060445 0 0 0 0 -2.6353878893321365 20.998384795155289 0 20.998384795155289 28.278678485876299 0 0 0 0 -12.392767627423211 62.052966750852647 0 62.052966750852647 2.9287209277645161 0 0 0 0 23.780799610644323 29.967938392732322 0 29.967938392732322 31.231095544892014 0 0 0 0 2.0059357583500628 11.343046745547326 0 11.343046745547326 48.364581878714944 0 0 0 0 -19.461300249212186 39.180687504618618 0 39.180687504618618 49.868379645326058 0 0 0 0 1.9672661297871628 14.911137160786893 0 14.911137160786893 58.205030643641294 0 0 0 0 5.9000478924914432 4.7324083074272494 0 4.7324083074272494 51.548079566695378 0 0 0 0 8.1303810681497595 12.496452766830771 0 12.496452766830771 35.106896110315574 0 0 0 0 -12.701688886242096 17.748419058450963 0 17.748419058450963 93.074567372514139 0 0 0 0 3.2415838283053944 15.832105604567914 0 15.832105604567914 47.247987335063954 0 0 0 0 0.86952002166054743 6.0983303059234828 0 6.0983303059234828 11.302398420459966 0 0 0 0 2.867632675188247 2.8904238761751913 0 2.8904238761751913 25.501769302238245 0 0 0 0 -0.45971023423589941 2.1847058730636491 0 2.1847058730636491 25.360867741474067 0 0 0 0 -1.0545179907252873 -15.789692712467513 0 -15.789692712467513 23.308812778355787 0 0 0 0 -1.7666266761471479 -0.5293407632045728 0 -0.5293407632045728 3.5916461811175679 0 0 0 0 0.49966270467374618 1.0432460695315342 0 1.0432460695315342 7.4422425066088209 0 0 0 0 4.6671660062923479 3.9191748243720212 0 3.9191748243720212 16.280869025940774 0 0 0 0 3.0935686563536251 5.2947755376153509 0 5.2947755376153509 13.216095139610843 0 0 0 0 2.6990491403122583 1.8310358042917869 0 1.8310358042917869 9.5235375274642138 0 0 0 0 1.9081494867558559 5.3878386692399829 0 5.3878386692399829 7.4241699571905997 0 0 0 0 1.8755398253343287 10.992256630845077 0 10.992256630845077 28.75543404353084 0 0 0 0 0.13192503757724622 -0.39350926626522664 0 -0.39350926626522664 2.4036579190860721 0 0 0 0 -1.2818902424641381 -3.5164103763698336 0 -3.5164103763698336 17.792848726126039 0 0 0 0 8.4696545465071722 6.7197225787604111 0 6.7197225787604111 7.5483310815043296 0 0 0 0 0.19161520687134725 7.3040772074164124 0 7.3040772074164124 15.115134654581198 0 0 0 0 2.9799894923054389 1.9298468905889763 0 1.9298468905889763 2.7682497366619039 0 0 0 0 20.859375362905212 13.505196104481001 0 13.505196104481001 11.26446269878943 0 0 0 0 1.9087481895018925 2.9723457396758022 0 2.9723457396758022 12.468733893001627 0 0 0 0 2.4146663241475608 2.3193678546813317 0 2.3193678546813317 13.297449212492211 0 0 0 0 3.5806643798025144 -0.43747677480242686 0 -0.43747677480242686 7.2762187092563977 0 0 0 0 26.422948583616062 17.595754830428632 0 17.595754830428632 12.346393920568516 0 0 0 0 1.139850354051458 0.14251306051402679 0 0.14251306051402679 0.31401030002328412 0 0 0 0 -0.83767322919266007 7.6452272451788303 0 7.6452272451788303 17.475839693346643 0 0 0 0 14.171653365012503 -11.219669370548218 0 -11.219669370548218 17.389348839002196 0 0 0 0 -17.571039346152247 -0.19608143620280316 0 -0.19608143620280316 48.684193139833951 0 0 0 0 15.351810333845606 23.364458491683763 0 23.364458491683763 30.755144823895535 0 0 0 0 -14.21724143923484 -13.049596343837038 0 -13.049596343837038 22.431692529446991 0 0 0 0 -3.7730506655395857 -12.504393227172841 0 -12.504393227172841 1.1353145367756952 0 0 0 0 -1.9421912890697968 8.1144230231147958 0 8.1144230231147958 20.102950978754052 0 0 0 0 -5.1080611703283694 3.0277183245561901 0 3.0277183245561901 14.609856800991111 0 0 0 0 -0.02230048702995191 3.4742642723285826 0 3.4742642723285826 9.419939850231458 0 0 0 0 2.9870314167746397 -1.5709660042982279 0 -1.5709660042982279 1.6766992572628965 0 0 0 0 1.1795961094532119 0.33207345538322386 0 0.33207345538322386 0.18800933202675196 0 0 0 0 71.607725209575165 85.938028023250808 0 85.938028023250808 298.32161947193526 0 0 0 0 10.864611947488356 -25.998814387899984 0 -25.998814387899984 155.16283587613725 0 0 0 0 68.907688591846636 131.9772569839879 0 131.9772569839879 201.72030233613623 0 0 0 0 -2.1049439843463285 -1.728731446322854 0 -1.728731446322854 6.0354054438566322 0 0 0 0 119.14110377294764 222.48881369260198 0 222.48881369260198 282.1071859508138 0 0 0 0 85.244863713943687 124.57806678037741 0 124.57806678037741 190.29758770913031 0 0 0 0 -13.697562219067095 143.48411474540626 0 143.48411474540626 206.73669342596259 0 0 0 0 -14.827552038623708 156.2664122829392 0 156.2664122829392 125.77739541622577 0 0 0 0 7.1458064780418908 92.250576125308726 0 92.250576125308726 112.23185446523712 0 0 0 0 50.616105584370302 22.0087371510308 0 22.0087371510308 1.946416234903154 0 0 0 0 27.374849715586379 -0.91149368805781705 0 -0.91149368805781705 -7.2233694229471439 0 0 0 0 2.3249004562308908 -1.3041591389241631 0 -1.3041591389241631 0.82069743601844891 0 0 0 0 9.2185970418004217 69.781386753325933 0 69.781386753325933 188.95851655360093 0 0 0 0 22.305994267850792 6.8141429903334938 0 6.8141429903334938 10.588022755793645 0 0 0 0 9.3130166286603071 -3.7371613003342645 0 -3.7371613003342645 15.743340683246061 0 0 0 0 16.517479201373931 3.4373116540336923 0 3.4373116540336923 13.804344048607163 0 0 0 0 177.10016329590258 3.1914261088386411 0 3.1914261088386411 -84.516557557719352 0 0 0 0 87.410913585586059 229.93619390749518 0 229.93619390749518 168.47473157054628 0 0 0 0 -371.90146816443229 -151.94147790094939 0 -151.94147790094939 188.8992081170436 0 0 0 0 0.73477838398064499 -0.62494959803368033 0 -0.62494959803368033 0.48129824127094878 0 0 0 0 26.474834962308023 73.961811056055012 0 73.961811056055012 37.133749158747378 0 0 0 0 76.381201328573923 70.402297009906761 0 70.402297009906761 -117.02157600017381 0 0 0 0 9.9413730386162342 -36.540677487475477 0 -36.540677487475477 -64.997027513411012 0 0 0 0 -37.694758828420447 -36.702937001249666 0 -36.702937001249666 -1.9354477246088209 0 0 0 0 29.096454390494159 3.1743952301767422 0 3.1743952301767422 -3.3511175524326973 0 0 0 0 -0.048627870316749977 -21.053647533000913 0 -21.053647533000913 -2.49307092885374 0 0 0 0 -0.0050015137173886615 -7.1267839223437477 0 -7.1267839223437477 21.480292612070116 0 0 0 0 -14.229658924419368 -11.384123499286943 0 -11.384123499286943 20.761353904483258 0 0 0 0 1.6499663995905189 -3.5307882275716338 0 -3.5307882275716338 9.8922022007740651 0 0 0 0 -7.1431885226872964 -8.202389482918079 0 -8.202389482918079 22.030029470930458 0 0 0 0 2.4260495239800548 -12.060851600515889 0 -12.060851600515889 12.886997011941276 0 0 0 0 11.606056363518746 -7.59743273503409 0 -7.59743273503409 11.750547675415874 0 0 0 0 7.7884823910744672 0.049625943574937992 0 0.049625943574937992 38.03139073800412 0 0 0 0 7.0488611894600126 -4.8409005158318905 0 -4.8409005158318905 15.601339089073008 0 0 0 0 6.684188992800955 -6.7053809303906746 0 -6.7053809303906746 19.519322760097566 0 0 0 0 3.1184792638184717 -10.033891213039169 0 -10.033891213039169 20.145632176403524 0 0 0 0 9.8754307832093673 -2.3200565469596768 0 -2.3200565469596768 -0.69718870615179185 0 0 0 0 1.7343716906206408 -3.1580584546880601 0 -3.1580584546880601 6.5459827025754294 0 0 0 0 7.892574249921636 2.2496597886201926 0 2.2496597886201926 20.52102759538684 0 0 0 0 1.5874032523124697 -0.055976649207877927 0 -0.055976649207877927 2.4893202351358923 0 0 0 0 10.733291545833852 5.1507032265799353 0 5.1507032265799353 19.762191050191177 0 0 0 0 2.2156883987612801 -0.43615768960118828 0 -0.43615768960118828 2.9996168714479161 0 0 0 0 9.0616567253792972 1.7697808132361388 0 1.7697808132361388 16.776902580604656 0 0 0 0 5.8714479082345576 -1.5203744075115537 0 -1.5203744075115537 16.687513495067833 0 0 0 0 -1.6436211577250379 5.1010074112027723 0 5.1010074112027723 16.691743191913702 0 0 0 0 4.5385671411729618 -0.050272091233637184 0 -0.050272091233637184 15.078606253315229 0 0 0 0 0.95568508149281683 2.2593642681167694 0 2.2593642681167694 18.909441103867721 0 0 0 0 0.33572649576523345 -1.2727140328099393 0 -1.2727140328099393 15.220811592659118 0 0 0 0 -93.287683655201761 12.681909730868938 0 12.681909730868938 7.0726735922580701 0 0 0 0 -162.33659736198641 -8.7213411823786373 0 -8.7213411823786373 65.115185631730128 0 0 0 0 -99.016908448455268 53.795722451262009 0 53.795722451262009 95.645488460111665 0 0 0 0 -13.688386168102674 81.832216953025636 0 81.832216953025636 64.937134894731571 0 0 0 0 -71.198234004675101 80.227472868951736 0 80.227472868951736 109.24532025988447 0 0 0 0 -91.687961122758722 -2.9652487157800351 0 -2.9652487157800351 73.79922260281819 0 0 0 0 -34.517970820399796 24.639835645513813 0 24.639835645513813 39.088236640600371 0 0 0 0 -91.34937165413433 15.398241148468514 0 15.398241148468514 71.363461620654562 0 0 0 0 -137.74607741508015 44.445390036893514 0 44.445390036893514 41.460113777240622 0 0 0 0 -93.481893420634549 1.2272283734200755 0 1.2272283734200755 -22.804998460531351 0 0 0 0 -215.19285186649736 -62.424759822839405 0 -62.424759822839405 11.954072247928707 0 0 0 0 -2.9540939868196388 1.0196734817209006 0 1.0196734817209006 7.6999085660833657 0 0 0 0 -201.31166944727698 0.19524875236675143 0 0.19524875236675143 35.966098174772924 0 0 0 0 -167.52258670330139 48.317156442688429 0 48.317156442688429 20.19818810975994 0 0 0 0 -0.41247454384965282 -2.4401901742039538 0 -2.4401901742039538 25.602077271333457 0 0 0 0 -150.21343685300744 -57.549198386179341 0 -57.549198386179341 2.4540724829857936 0 0 0 0 -139.00371995381329 -35.246849899715016 0 -35.246849899715016 34.368090103089344 0 0 0 0 -136.37378600546327 0.55996790129711371 0 0.55996790129711371 5.1071213073155377 0 0 0 0 -0.36760050380286879 -1.5981841063611446 0 -1.5981841063611446 22.983339401702665 0 0 0 0 -262.88338442318013 21.516328896370396 0 21.516328896370396 49.487951825263735 0 0 0 0 -99.293102888435115 -45.002655905445863 0 -45.002655905445863 15.026521818159381 0 0 0 0 -110.92737085507673 -18.082045266492059 0 -18.082045266492059 6.6468272821593928 0 0 0 0 -22.531999226780044 -57.235075455901097 0 -57.235075455901097 15.129283901397571 0 0 0 0 -63.589907226732898 -5.4470025233713386 0 -5.4470025233713386 15.795306843574508 0 0 0 0 36.743019003537974 -31.526661251533369 0 -31.526661251533369 -4.681704546968831 0 0 0 0 -75.493198524435769 -52.294622184614127 0 -52.294622184614127 36.748379643922817 0 0 0 0 -83.468818826159122 -14.396967531050905 0 -14.396967531050905 10.127975026305648 0 0 0 0 5.7221755937617402 -10.222039034051704 0 -10.222039034051704 2.1723903640231583 0 0 0 0 -0.18950784249930058 0.20515513868041069 0 0.20515513868041069 1.6511479512518008 0 0 0 0 43.417328786736114 -51.667428290471435 0 -51.667428290471435 10.431748923263513 0 0 0 0 19.548272578964163 -34.914888936316856 0 -34.914888936316856 25.501896957881399 0 0 0 0 0.0065558105847642045 39.87565047670796 0 39.87565047670796 116.22813625590061 0 0 0 0 -20.792054866305747 -20.51544379646657 0 -20.51544379646657 59.172335502349597 0 0 0 0 -0.078369072886903465 0.045188932999195686 0 0.045188932999195686 0.87690532219053807 0 0 0 0 -0.0048268153874235047 28.269292289744044 0 28.269292289744044 -6.8662886366473685 0 0 0 0 65.280613091443669 -73.949376552143804 0 -73.949376552143804 224.58803082806116 0 0 0 0 79.310756416383953 -53.388664356214576 0 -53.388664356214576 31.196291969881713 0 0 0 0 -34.766536299943851 22.196382128958248 0 22.196382128958248 201.00169293148792 0 0 0 0 88.074128230749139 73.367632975965535 0 73.367632975965535 80.089123566671333 0 0 0 0 116.52708577631927 198.81219751825211 0 198.81219751825211 365.09511726594064 0 0 0 0 0.01812858100132873 -0.87744136992478161 0 -0.87744136992478161 3.9083804498368409 0 0 0 0 3.1435475229202501 -9.0548924015638477 0 -9.0548924015638477 20.981217607433791 0 0 0 0 2.6340091830082115 -1.8599944642964772 0 -1.8599944642964772 4.7047328110026001 0 0 0 0 10.64121016831055 -37.226345894443511 0 -37.226345894443511 120.93968418717122 0 0 0 0 8.9637216436568679 0.50902236894762609 0 0.50902236894762609 158.9733568208685 0 0 0 0 4.0184853761845716 -33.227790004057169 0 -33.227790004057169 165.38961129864401 0 0 0 0 33.503093639350823 42.997064571456576 0 42.997064571456576 97.952912685330375 0 0 0 0 27.980494290949991 -32.673225547696347 0 -32.673225547696347 84.087725292185496 0 0 0 0 41.405410655845628 -26.59359716414474 0 -26.59359716414474 79.025225141536794 0 0 0 0 -94.959005336534688 73.949769793151063 0 73.949769793151063 531.22031925199553 0 0 0 0 -3.3973590339032 -39.054510107103852 0 -39.054510107103852 343.79446128659765 0 0 0 0 -101.40281078427695 48.207477093583293 0 48.207477093583293 560.13279460605145 0 0 0 0 38.954243923625008 -227.09096424797463 0 -227.09096424797463 579.15996467451623 0 0 0 0 0.14296148117718763 0.037414834726689605 0 0.037414834726689605 1.4503250413197577 0 0 0 0 0.14752733060762727 49.621236989922693 0 49.621236989922693 451.90412461857341 0 0 0 0 -19.273532271482566 -111.97206141484639 0 -111.97206141484639 305.42233914283133 0 0 0 0 -18.932295601089642 -142.99391946145806 0 -142.99391946145806 539.82554068807804 0 0 0 0 -100.99698985906535 16.358384805844025 0 16.358384805844025 573.16628113141633 0 0 0 0 -138.68931321042854 -41.008766411410761 0 -41.008766411410761 507.35124943153278 0 0 0 0 -123.49222982754591 -122.1331448792771 0 -122.1331448792771 888.10736029967666 0 0 0 0 -232.16338524871551 89.099674253781814 0 89.099674253781814 579.93125960498583 0 0 0 0 -0.29597838482077882 -0.092935564800683323 0 -0.092935564800683323 1.1578105690731491 0 0 0 0 -63.571675895202986 -30.49036078116842 0 -30.49036078116842 59.308131688594585 0 0 0 0 23.397023902532908 -331.42757080215233 0 -331.42757080215233 629.55721333554538 0 0 0 0 -86.051166356221614 103.44775962116546 0 103.44775962116546 -10.800859119393863 0 0 0 0 69.452533245741336 -144.23770275474817 0 -144.23770275474817 -24.381921736003278 0 0 0 0 128.42140867402509 -482.63901492723016 0 -482.63901492723016 728.10108039662009 0 0 0 0 -0.1166617297717531 0.0002165799569766591 0 0.0002165799569766591 10.551475749723153 0 0 0 0 -98.236438348182631 517.73523449529421 0 517.73523449529421 1291.6707521439821 0 0 0 0 -233.27455868002988 65.809584615948552 0 65.809584615948552 1969.4344403507857 0 0 0 0 332.31280188785558 1146.975893762627 0 1146.975893762627 545.05357901476964 0 0 0 0 162.9688722055264 112.82832865544333 0 112.82832865544333 -34.237121394293354 0 0 0 0 -243.81101365647464 -81.296191427652957 0 -81.296191427652957 41.356580106148613 0 0 0 0 11.930801903239145 -15.057008071251431 0 -15.057008071251431 16.776358289758491 0 0 0 0 -45.699999546462919 95.74970884193317 0 95.74970884193317 337.26991266621917 0 0 0 0 -42.062025091766486 148.09404918874861 0 148.09404918874861 597.44023262455812 0 0 0 0 -17.365600804014321 5.5965240547666326 0 5.5965240547666326 23.18357030802872 0 0 0 0 -60.046208726221266 -45.366556692788436 0 -45.366556692788436 4.0694665361588704 0 0 0 0 63.778813384941714 59.593352307369059 0 59.593352307369059 44.119248894428893 0 0 0 0 63.554871523548172 29.044247186644498 0 29.044247186644498 140.31698562870588 0 0 0 0 -166.47628440889525 111.50079226849266 0 111.50079226849266 80.02677645078802 0 0 0 0 434.34056950875106 -97.473879948029207 0 -97.473879948029207 31.224607220425241 0 0 0 0 167.36030074373411 -284.71978773997034 0 -284.71978773997034 835.44172168368095 0 0 0 0 70.284229140158914 -455.54375526719014 0 -455.54375526719014 -147.31239559709047 0 0 0 0 161.52146672868503 137.35537903209479 0 137.35537903209479 35.228853831387823 0 0 0 0 108.72701354568926 -27.713609968348464 0 -27.713609968348464 41.619912117866988 0 0 0 0 -91.825241414908078 160.93238903442398 0 160.93238903442398 -131.93476460018428 0 0 0 0 -22.240010346981762 -547.0607173603712 0 -547.0607173603712 550.28355845690385 0 0 0 0 5.032839886753302 -6.7212453462373389 0 -6.7212453462373389 8.67991324792564 0 0 0 0 292.33859999665583 180.60682179855155 0 180.60682179855155 1887.4563939019135 0 0 0 0 -280.86656645455287 468.6862506137295 0 468.6862506137295 1750.8012687016162 0 0 0 0 301.06009683420007 74.515417392827658 0 74.515417392827658 -43.570340054531698 0 0 0 0 153.50133347987673 327.24260161411075 0 327.24260161411075 -219.30855711422919 0 0 0 0 203.13736538907347 -105.40014911910839 0 -105.40014911910839 1502.1897989734134 0 0 0 0 30.041031828648102 -422.20101941728353 0 -422.20101941728353 -258.49914727025316 0 0 0 0 -144.94559230939035 277.88888857253187 0 277.88888857253187 173.25412076192515 0 0 0 0 718.205634402143 -91.141326153854607 0 -91.141326153854607 21.875016460362531 0 0 0 0 435.26756359507425 552.44269341396011 0 552.44269341396011 98.230971133765706 0 0 0 0 -138.65605041737282 -1056.5556290663853 0 -1056.5556290663853 604.52718684591673 0 0 0 0 108.1385976590002 321.27681048038721 0 321.27681048038721 934.30850796127925 0 0 0 0 0.28778579488500622 -1.8796768329895031 0 -1.8796768329895031 3.4851813003303391 0 0 0 0 101.83902185849729 196.0753994095794 0 196.0753994095794 369.70585498310174 0 0 0 0 -1.2848145805297957 -3.0189747618548211 0 -3.0189747618548211 7.606398676566215 0 0 0 0 -142.81175359687796 96.826237620260457 0 96.826237620260457 199.6418886827596 0 0 0 0 3.5702188857923147 102.66220908345713 0 102.66220908345713 299.80936823171214 0 0 0 0 9.4961013804155812 134.10473935265054 0 134.10473935265054 250.54821197152341 0 0 0 0 -32.360288158235562 -16.832250796534936 0 -16.832250796534936 305.96205685060704 0 0 0 0 155.59581689546451 -116.74426749699705 0 -116.74426749699705 248.89048475717573 0 0 0 0 -39.987937481416338 -51.665043333439826 0 -51.665043333439826 597.01940614623891 0 0 0 0 38.159311371411377 -77.741225397247035 0 -77.741225397247035 236.69829309335182 0 0 0 0 71.83425894132597 -86.039216345599925 0 -86.039216345599925 115.68295337804739 0 0 0 0 -29.874561327632932 -143.07644296360013 0 -143.07644296360013 281.53523975559801 0 0 0 0 -13.447247299719038 -42.121555342120701 0 -42.121555342120701 328.25256765196536 0 0 0 0 -22.787175281924647 16.497755989636062 0 16.497755989636062 51.808614830115403 0 0 0 0 51.807716488026017 2.1432560756829844 0 2.1432560756829844 -74.481815499450022 0 0 0 0 49.446130236577119 34.373146208708931 0 34.373146208708931 7.6821020728966687 0 0 0 0 2.3004132730072797 -134.40800586558998 0 -134.40800586558998 -82.961334387087845 0 0 0 0 8.5454328931065362 -5.1888772319339154 0 -5.1888772319339154 3.7926082406738999 0 0 0 0 12.227168068181179 -17.201338963823034 0 -17.201338963823034 -5.1834063328350979 0 0 0 0 12.291840118478945 -39.550169497876141 0 -39.550169497876141 -17.031363528636575 0 0 0 0 123.31096751521636 0.25712064595791162 0 0.25712064595791162 -16.333636052813745 0 0 0 0 9.7442351786535468 -18.590041334958158 0 -18.590041334958158 -8.1009449719022655 0 0 0 0 24.069670515484177 -27.716918589547276 0 -27.716918589547276 -46.224037689476972 0 0 0 0 122.09234286211813 -158.23121666310544 0 -158.23121666310544 97.526475721231691 0 0 0 0 66.979575552984898 -49.702436133495212 0 -49.702436133495212 -55.008376460151339 0 0 0 0 16.939873065782734 -10.538893665424254 0 -10.538893665424254 -4.7243325273293522 0 0 0 0 27.452206147204947 -10.795262802211937 0 -10.795262802211937 -38.846376809269714 0 0 0 0 29.338545292916933 -27.183654346434196 0 -27.183654346434196 -50.197431600066921 0 0 0 0 39.738762582291201 -64.428410115018778 0 -64.428410115018778 -104.10724228570325 0 0 0 0 31.297787859568871 -15.859149560914375 0 -15.859149560914375 -53.679876968064491 0 0 0 0 72.76204451482954 22.290091745337122 0 22.290091745337122 -46.208403213284328 0 0 0 0 24.833916884636071 -18.931329597121788 0 -18.931329597121788 -16.587232512284515 0 0 0 0 1.3175893202239557 -3.5636013448472852 0 -3.5636013448472852 8.459757524843468 0 0 0 0 14.332753804204913 -117.4914882631565 0 -117.4914882631565 149.655773249091 0 0 0 0 7.9592861310156877 -33.59988042581972 0 -33.59988042581972 -83.300021258321067 0 0 0 0 8.3080578843605792 -1.1786028099556205 0 -1.1786028099556205 -14.085741833009109 0 0 0 0 11.361301045685309 -77.219151829284556 0 -77.219151829284556 182.20508736568445 0 0 0 0 44.247890794800696 -168.3960953030255 0 -168.3960953030255 172.81464395224248 0 0 0 0 33.854261402089833 -127.06032996533031 0 -127.06032996533031 129.20404178782337 0 0 0 0 108.94418859182952 -116.78449076257493 0 -116.78449076257493 156.19871215245075 0 0 0 0 17.004497792599068 -68.51315283117583 0 -68.51315283117583 182.64978803593476 0 0 0 0 105.61994832664641 -148.48166378738097 0 -148.48166378738097 120.55586937688713 0 0 0 0 11.109917246054323 -7.6108412009365054 0 -7.6108412009365054 -2.6604662684985385 0 0 0 0 53.216207682585264 -77.386549767337783 0 -77.386549767337783 45.984824026145361 0 0 0 0 13.986801741636263 -8.8437573755683729 0 -8.8437573755683729 -14.751778558778824 0 0 0 0 39.402569861543611 26.469623157344358 0 26.469623157344358 -41.986494603384926 0 0 0 0 24.241091735201962 -8.4394129761894874 0 -8.4394129761894874 -61.085415544614079 0 0 0 0 78.616098751196205 37.243861386828939 0 37.243861386828939 -32.434491869316844 0 0 0 0 144.10851855046644 70.81224905997351 0 70.81224905997351 39.95319936121814 0 0 0 0 192.27524795550585 -52.696403279853257 0 -52.696403279853257 8.8689562690415187 0 0 0 0 53.925434659823168 -26.14055910825482 0 -26.14055910825482 3.7908252205088502 0 0 0 0 43.565414672830684 18.492597394299082 0 18.492597394299082 14.423661611079297 0 0 0 0 44.115640218576431 58.553137453652141 0 58.553137453652141 29.38106112346577 0 0 0 0 -55.958295451641789 50.511556054923858 0 50.511556054923858 61.207852023653686 0 0 0 0 -29.459675987774972 15.91840857220086 0 15.91840857220086 44.469466674127034 0 0 0 0 -51.468919220115879 2.8387358816012238 0 2.8387358816012238 39.12012469691399 0 0 0 0 -1.7295196055611086 13.408027266188583 0 13.408027266188583 24.072553541860543 0 0 0 0 -16.226271631614281 -32.016895006706363 0 -32.016895006706363 37.752809994701238 0 0 0 0 3.9726481808891645 0.66407601262183391 0 0.66407601262183391 -2.0840431435794926 0 0 0 0 15.255131674690347 -56.397503201085783 0 -56.397503201085783 114.31873585316316 0 0 0 0 17.058528985980956 -20.34529881033086 0 -20.34529881033086 28.917038661107654 0 0 0 0 7.6607187974725548 5.527063098452345 0 5.527063098452345 -8.1807112484457321 0 0 0 0 16.310614997274762 -14.145255555347006 0 -14.145255555347006 -0.61665481282481949 0 0 0 0 10.714176838237563 -4.7360743809042418 0 -4.7360743809042418 -4.7320412670372463 0 0 0 0 -13.324393550607056 8.4397492333955597 0 8.4397492333955597 -11.464718031231314 0 0 0 0 -14.641021913636905 10.536547060219164 0 10.536547060219164 43.962210110834803 0 0 0 0 17.27015840016611 -20.418393166415626 0 -20.418393166415626 28.692764092382276 0 0 0 0 12.22703236806683 -81.218810653748733 0 -81.218810653748733 122.20941005014902 0 0 0 0 20.366009866080276 -27.21980178404192 0 -27.21980178404192 39.432218676549383 0 0 0 0 17.787739059544037 -73.139167868601362 0 -73.139167868601362 114.05672111467356 0 0 0 0 -53.186082837497452 -13.888632397782203 0 -13.888632397782203 114.90425077763757 0 0 0 0 12.952129505840276 -47.645596858368663 0 -47.645596858368663 101.1139039733971 0 0 0 0 6.8282812388936236 -47.990910306394653 0 -47.990910306394653 109.93658739221428 0 0 0 0 8.693937473499318 -41.508723073031433 0 -41.508723073031433 105.97326520521165 0 0 0 0 -14.177954776887248 -8.7665023306743208 0 -8.7665023306743208 82.675578227399598 0 0 0 0 -59.971250633728459 40.71174048010289 0 40.71174048010289 94.360396011601551 0 0 0 0 -8.6137703715788678 3.5107147097599665 0 3.5107147097599665 17.10557366938724 0 0 0 0 -4.9223328003976334 40.16368371360295 0 40.16368371360295 74.208119291302864 0 0 0 0 -22.541831234260869 -51.593926583787834 0 -51.593926583787834 113.2121122890203 0 0 0 0 0.11854888149935625 -51.030869986330799 0 -51.030869986330799 157.89848106768113 0 0 0 0 5.9657955622036667 81.388053549970209 0 81.388053549970209 228.03568631320741 0 0 0 0 -0.0023694558640880818 -17.721029300206283 0 -17.721029300206283 9.1553442211734364 0 0 0 0 1.7049604355244703 -0.025184130267319915 0 -0.025184130267319915 -0.82627979665733164 0 0 0 0 -19.763647990283371 -25.022583439010305 0 -25.022583439010305 52.373930349160219 0 0 0 0 -20.918270839235369 -15.209598781279055 0 -15.209598781279055 72.524017489413382 0 0 0 0 -0.68393808468885386 1.3575451365260989 0 1.3575451365260989 4.6513196876122436 0 0 0 0 -0.0031162319151551805 -2.2787066973978654 0 -2.2787066973978654 12.848793601937359 0 0 0 0 -5.9542635117096978 15.096183405148622 0 15.096183405148622 86.706138009845745 0 0 0 0 2.1593703862799885 -8.6404040299385088 0 -8.6404040299385088 16.398801096074749 0 0 0 0 -13.862953444193415 -2.2760699087048124 0 -2.2760699087048124 49.299931181565626 0 0 0 0 -3.1911920808562129 -2.4945968670678837 0 -2.4945968670678837 18.221229918838802 0 0 0 0 -5.7463356557236693 -13.910058543318883 0 -13.910058543318883 29.722877690379391 0 0 0 0 -11.888256314335393 -9.8586577072710497 0 -9.8586577072710497 62.054517459699127 0 0 0 0 -4.3391192785790444 -7.7496221105497796 0 -7.7496221105497796 36.019838638795107 0 0 0 0 39.522458365445345 -40.913180149371328 0 -40.913180149371328 97.304431655356893 0 0 0 0 7.4642507732161292 -27.83850011289276 0 -27.83850011289276 49.061805208087222 0 0 0 0 18.26086171832776 -17.374114921141881 0 -17.374114921141881 26.010902529975283 0 0 0 0 15.818873472411855 -13.221342046076579 0 -13.221342046076579 8.1866340278258463 0 0 0 0 11.815256214926194 -17.273142287158407 0 -17.273142287158407 27.080690776521806 0 0 0 0 15.343084963868023 -18.820599934464553 0 -18.820599934464553 27.032467362339958 0 0 0 0 5.400754798293729 -15.767442948184438 0 -15.767442948184438 23.40096541918966 0 0 0 0 17.877874608202546 -15.483007473012549 0 -15.483007473012549 26.880525573680643 0 0 0 0 13.924585232195549 -16.894809316347519 0 -16.894809316347519 18.629027184398524 0 0 0 0 4.9568551544657193 -2.1000407392102005 0 -2.1000407392102005 11.950693556055896 0 0 0 0 6.1709514980079803 2.3976699218728754 0 2.3976699218728754 39.125394475238863 0 0 0 0 2.4807879892778963 -6.2553252703353053 0 -6.2553252703353053 16.272440810791636 0 0 0 0 15.319429626129931 -17.627697660806007 0 -17.627697660806007 25.990864718172816 0 0 0 0 12.657565734211019 17.733256533047097 0 17.733256533047097 -29.201004882110283 0 0 0 0 -0.12919950383207279 -10.915806690944009 0 -10.915806690944009 28.717852068162756 0 0 0 0 1.5728098447469385 -2.85673930838594 0 -2.85673930838594 5.2427305531721231 0 0 0 0 0.43788686780675673 -1.8278192644577871 0 -1.8278192644577871 6.8101995133266513 0 0 0 0 0.014275449743635447 -11.366765006019014 0 -11.366765006019014 26.923634787875926 0 0 0 0 1.7433544416077424 -9.1784424233192112 0 -9.1784424233192112 22.894890128460247 0 0 0 0 1.2391758969363456 -7.0558880790695184 0 -7.0558880790695184 17.175536240265046 0 0 0 0 1.3194929110377007 -9.3030632479712949 0 -9.3030632479712949 26.917830090475036 0 0 0 0 4.2142652575651809 -9.5264844022458419 0 -9.5264844022458419 26.713787043787306 0 0 0 0 -0.82862780246341572 -6.5299084830039646 0 -6.5299084830039646 13.075277235911926 0 0 0 0 1.5832821755511284 -6.9729407841781637 0 -6.9729407841781637 18.032201987152547 0 0 0 0 8.9953826498169409 -11.49846236230438 0 -11.49846236230438 14.281559033478374 0 0 0 0 5.713998621634544 -8.103865278369085 0 -8.103865278369085 19.00987397403054 0 0 0 0 -3.1452763813849742 -121.97753796388133 0 -121.97753796388133 -207.99087277173385 0 0 0 0 -13.476392661233604 -110.32673535078357 0 -110.32673535078357 -105.8520825564774 0 0 0 0 -91.541949244551461 -107.6628947761219 0 -107.6628947761219 -17.12268683998991 0 0 0 0 -174.80033625748933 -133.13853319367263 0 -133.13853319367263 -44.549918959455681 0 0 0 0 106.06747846678536 77.87609494660137 0 77.87609494660137 218.93328050828131 0 0 0 0 -133.12824328883812 -272.6042363087472 0 -272.6042363087472 -196.84122191205188 0 0 0 0 11.383945831955877 -18.707185068870103 0 -18.707185068870103 19.438065011400766 0 0 0 0 92.526279114285899 73.577265393614653 0 73.577265393614653 292.40218167069543 0 0 0 0 76.608383174718256 -50.753741729509784 0 -50.753741729509784 -14.858942612275314 0 0 0 0 125.9776842969849 575.26505721431135 0 575.26505721431135 387.83988749976561 0 0 0 0 2.7189755515752605 -2.2394409608231882 0 -2.2394409608231882 2.3741259898263252 0 0 0 0 2.2685037048158154 15.761216596164122 0 15.761216596164122 85.76931269811179 0 0 0 0 -4.8187280621086757 -213.28624544353443 0 -213.28624544353443 113.69405878245743 0 0 0 0 -190.96855026390017 -59.457323685954179 0 -59.457323685954179 77.288641650062345 0 0 0 0 -189.65613280311163 183.49017929397178 0 183.49017929397178 98.181437502969175 0 0 0 0 2.6126318333583787 13.238247069365535 0 13.238247069365535 108.33869989274079 0 0 0 0 -324.13946570013809 7.7667677397621446 0 7.7667677397621446 328.81559498487695 0 0 0 0 -209.49433875694649 278.17459879293529 0 278.17459879293529 300.30802422446232 0 0 0 0 11.657697247225098 -11.310399155525189 0 -11.310399155525189 42.490091947915616 0 0 0 0 252.80407571973046 -198.39743517221359 0 -198.39743517221359 79.312843790763509 0 0 0 0 -147.88148301572181 -90.87849721674138 0 -90.87849721674138 110.18052122081099 0 0 0 0 -161.83432280231762 -273.29754133415554 0 -273.29754133415554 79.830461277444556 0 0 0 0 -149.19332105964358 -151.75482127740077 0 -151.75482127740077 34.79654712060983 0 0 0 0 0.20732005639052745 8.8740089961687119 0 8.8740089961687119 122.3625408449315 0 0 0 0 -46.326648596690994 80.52748146048998 0 80.52748146048998 118.04462514444276 0 0 0 0 -3.9201140368205349 -3.3461102996941214 0 -3.3461102996941214 46.833415889079816 0 0 0 0 -307.84415674527281 36.074050189635273 0 36.074050189635273 192.19055786306126 0 0 0 0 -81.693427060507616 123.97817475122247 0 123.97817475122247 733.88847097644611 0 0 0 0 -176.49623952536516 -132.57671368417141 0 -132.57671368417141 -23.946811845526099 0 0 0 0 66.417043347376421 -266.59962291400007 0 -266.59962291400007 32.712025023938622 0 0 0 0 137.72713106417558 -5.0345530122722266 0 -5.0345530122722266 -19.969000675810094 0 0 0 0 2.378445280247135 -2.6091951622063121 0 -2.6091951622063121 3.7115443434771578 0 0 0 0 66.624880970015511 195.87246973242509 0 195.87246973242509 519.98581648396487 0 0 0 0 67.459694468745283 -75.263444973948936 0 -75.263444973948936 510.69480060193018 0 0 0 0 49.946832642727372 40.590738993541891 0 40.590738993541891 347.04191683603858 0 0 0 0 2.972658140743988 153.97734822865823 0 153.97734822865823 282.29460591955285 0 0 0 0 -54.295287647552641 93.673248103212245 0 93.673248103212245 240.03290970287344 0 0 0 0 38.168097886710939 79.910604630436865 0 79.910604630436865 147.31464776299254 0 0 0 0 67.832881663563626 122.31734015200527 0 122.31734015200527 180.87012140481966 0 0 0 0 -44.194040994162833 63.532729036745877 0 63.532729036745877 166.85131457449916 0 0 0 0 -111.09480775316138 125.29761894581679 0 125.29761894581679 293.98837565223221 0 0 0 0 -28.845066595169783 155.43120220932542 0 155.43120220932542 251.02508468036649 0 0 0 0 -65.215193080794506 123.6331604126608 0 123.6331604126608 293.29750092052564 0 0 0 0 -41.460884761515558 125.13153498849351 0 125.13153498849351 240.76777966988448 0 0 0 0 -73.513236609668638 67.014578168913431 0 67.014578168913431 345.10008034730345 0 0 0 0 -64.542028191310919 98.108222126847977 0 98.108222126847977 255.51795485666662 0 0 0 0 -7.223907021805644 4.5906299307971494 0 4.5906299307971494 265.55010381205648 0 0 0 0 14.524894036952901 -21.058496832069068 0 -21.058496832069068 279.31134718200337 0 0 0 0 -19.595655463830894 52.348656476126052 0 52.348656476126052 213.68446074993699 0 0 0 0 -37.891119707556754 103.03466693825612 0 103.03466693825612 206.0737802641961 0 0 0 0 210.25522565180017 -57.564318026474211 0 -57.564318026474211 137.35416672857127 0 0 0 0 -4.6831724380537025 35.53196399074659 0 35.53196399074659 139.28723617499782 0 0 0 0 51.832734506983115 -145.79430651277653 0 -145.79430651277653 169.84530720456678 0 0 0 0 -32.21267767037034 12.053328519737988 0 12.053328519737988 -87.19264125348127 0 0 0 0 6.0751061976677256 -8.169794264247713 0 -8.169794264247713 11.070979593660496 0 0 0 0 -3.2902263216478786 76.438939892983399 0 76.438939892983399 79.500904055501451 0 0 0 0 -90.786400434639518 46.320389692336903 0 46.320389692336903 162.7411691999896 0 0 0 0 -258.96627061634285 -165.79418278053708 0 -165.79418278053708 82.196053635916257 0 0 0 0 -163.42910287254745 -174.9318480819602 0 -174.9318480819602 -10.496722032582511 0 0 0 0 -117.38639051972882 -201.95470805756122 0 -201.95470805756122 -243.06720073225733 0 0 0 0 7.5588367066767965 -12.800930756937689 0 -12.800930756937689 17.052085845388831 0 0 0 0 10.491817307594671 -14.009867484280811 0 -14.009867484280811 17.43590232366077 0 0 0 0 -105.06674184304211 -34.133072527029981 0 -34.133072527029981 -96.318215859566408 0 0 0 0 5.1234288642250778 -7.6981329381442833 0 -7.6981329381442833 9.3641720660933743 0 0 0 0 162.63870908511308 206.352025588385 0 206.352025588385 233.45914236941462 0 0 0 0 -159.54057172552257 -306.7672671917353 0 -306.7672671917353 -209.22086811825739 0 0 0 0 97.017065558511604 135.01866846196936 0 135.01866846196936 20.03448778566235 0 0 0 0 22.360840402820031 116.83744871524686 0 116.83744871524686 250.2644586148599 0 0 0 0 160.58224274239456 52.473275141481281 0 52.473275141481281 120.73468620527638 0 0 0 0 3.9851495304494975 -1.5994623963989625 0 -1.5994623963989625 0.17208564943163651 0 0 0 0 -90.648219756335607 -147.13664364211854 0 -147.13664364211854 171.6939237160841 0 0 0 0 270.53383259864722 185.32228424985806 0 185.32228424985806 46.252522563445382 0 0 0 0 377.31043617819842 -229.82308759570878 0 -229.82308759570878 -280.70754358309932 0 0 0 0 -124.33116292104023 142.73909195744272 0 142.73909195744272 309.4587475299777 0 0 0 0 -53.865638809362281 -376.83985540897629 0 -376.83985540897629 -129.77239281830407 0 0 0 0 14.709560051064654 -18.391426831290687 0 -18.391426831290687 22.179802929465808 0 0 0 0 -141.93685445371284 -72.955773427689564 0 -72.955773427689564 -217.7048109419411 0 0 0 0 -96.651917891716494 -19.346922816206643 0 -19.346922816206643 49.119466891641594 0 0 0 0 66.989569956199773 -0.97614351362972229 0 -0.97614351362972229 -115.65967429267039 0 0 0 0 17.380622977647697 -23.277342013605704 0 -23.277342013605704 21.844918601114529 0 0 0 0 4.4184505227956095 -84.310920882068331 0 -84.310920882068331 -75.662655828607967 0 0 0 0 2.8820705305671481 -2.3286868187691638 0 -2.3286868187691638 2.0240826059558117 0 0 0 0 -206.55832371661199 -348.69409236505453 0 -348.69409236505453 -252.62096613221547 0 0 0 0 60.100056457152277 405.69495857783204 0 405.69495857783204 495.16970104539359 0 0 0 0 68.601678688214633 -45.500100427845609 0 -45.500100427845609 -22.923436242599564 0 0 0 0 -354.67956552470332 11.841322784111981 0 11.841322784111981 588.2671736911725 0 0 0 0 342.2801819433007 124.06065931403282 0 124.06065931403282 -161.5766663847171 0 0 0 0 -2.7859389404469894 -4.4877147704491591 0 -4.4877147704491591 3.7653001492926776 0 0 0 0 -232.81439599742043 -297.88418288304092 0 -297.88418288304092 8.9382683566655032 0 0 0 0 0.95108162801310847 -0.7064023114800051 0 -0.7064023114800051 0.22826902308895569 0 0 0 0 15.764075495011639 -69.20528110759642 0 -69.20528110759642 75.60707688301045 0 0 0 0 59.789060100396455 61.969384713491309 0 61.969384713491309 153.66720418410114 0 0 0 0 67.641213556934417 24.596238361573342 0 24.596238361573342 245.54986647756505 0 0 0 0 239.40704760043309 114.49100296131292 0 114.49100296131292 184.86505620797834 0 0 0 0 98.953407449492261 26.347179592534303 0 26.347179592534303 31.427384091286513 0 0 0 0 -34.749409454987472 22.954629841187852 0 22.954629841187852 217.18041068753882 0 0 0 0 -170.89457833712004 -63.928627204317308 0 -63.928627204317308 193.09538516882458 0 0 0 0 29.870406468886358 10.276774464182381 0 10.276774464182381 140.03618597047625 0 0 0 0 82.772001436879691 -67.114753989706514 0 -67.114753989706514 -33.964556617902417 0 0 0 0 -1.9101375469095565 -3.9613383229764132 0 -3.9613383229764132 28.243686972165278 0 0 0 0 -8.3621146646282796 -3.330912440935208 0 -3.330912440935208 33.503168508153522 0 0 0 0 -4.5354398958270394 -1.2766363725313568 0 -1.2766363725313568 32.049591380153288 0 0 0 0 -10.03780665189106 -3.8597848521967535 0 -3.8597848521967535 49.447101296384062 0 0 0 0 -9.7894158407635494 1.556054895715782 0 1.556054895715782 7.1896759985944669 0 0 0 0 -16.049585734499033 -15.319251366479875 0 -15.319251366479875 44.635826171488588 0 0 0 0 -2.568030944624752 3.4062624717753351 0 3.4062624717753351 41.481647533277282 0 0 0 0 -15.258308403748742 -9.6922386081714649 0 -9.6922386081714649 35.194635051091609 0 0 0 0 2.332890623467577 -11.969140538126704 0 -11.969140538126704 25.383987037598644 0 0 0 0 -21.502004398009376 -7.2348691694860463 0 -7.2348691694860463 36.836795019804413 0 0 0 0 29.054623942864055 127.95044285501717 0 127.95044285501717 36.515499876226386 0 0 0 0 -57.012885959190044 -78.148897851855509 0 -78.148897851855509 97.428747790458146 0 0 0 0 -10.022866937302751 36.79609916973277 0 36.79609916973277 12.692927497195342 0 0 0 0 15.071698801566527 18.914142725388956 0 18.914142725388956 122.15579659157083 0 0 0 0 -38.965198112988219 92.040308304811333 0 92.040308304811333 172.53486276595504 0 0 0 0 -0.1173810756175957 -0.53074766695456788 0 -0.53074766695456788 4.0372362543986355 0 0 0 0 81.851845467333987 107.42089623490756 0 107.42089623490756 148.18294577034249 0 0 0 0 -32.621553150031104 -24.959483644692227 0 -24.959483644692227 21.389470519396127 0 0 0 0 4.5561790649730183 -8.9336284504492678 0 -8.9336284504492678 16.82218239831235 0 0 0 0 -16.107649635881899 -21.336957718725898 0 -21.336957718725898 17.360937261670188 0 0 0 0 -30.394934528459999 -27.22148646817368 0 -27.22148646817368 23.668031583823904 0 0 0 0 -16.543371922825003 -6.6714542697822594 0 -6.6714542697822594 30.870706662928569 0 0 0 0 -25.234278019765497 -20.771652676517988 0 -20.771652676517988 28.655691890540766 0 0 0 0 -21.587453590406767 -22.874868098639126 0 -22.874868098639126 15.037469944130862 0 0 0 0 -28.33577104240976 -17.738877847901676 0 -17.738877847901676 11.139163898304105 0 0 0 0 -26.991497010867533 -33.937786711576337 0 -33.937786711576337 2.3479982645512791 0 0 0 0 4.4033870589224531 -6.3588967603703068 0 -6.3588967603703068 10.58097525676817 0 0 0 0 139.10328503814208 155.96903494456137 0 155.96903494456137 129.63117367411905 0 0 0 0 136.96324614225978 174.83926595614321 0 174.83926595614321 233.10672679178242 0 0 0 0 113.42013487213444 123.03967005109735 0 123.03967005109735 237.62580491949484 0 0 0 0 144.40995961588487 137.06417136485834 0 137.06417136485834 140.06499134976184 0 0 0 0 107.03118310802529 209.52788082927509 0 209.52788082927509 223.1389790256726 0 0 0 0 133.54180662075669 150.77344555960735 0 150.77344555960735 125.35367084830068 0 0 0 0 35.681293331756024 68.916697044300236 0 68.916697044300236 139.30388630714151 0 0 0 0 112.20066117936949 39.946434579542256 0 39.946434579542256 45.303023185610073 0 0 0 0 133.48175712835655 94.290072779476759 0 94.290072779476759 33.426150296407286 0 0 0 0 -23.187219661992003 -11.915648034821061 0 -11.915648034821061 75.689049172808154 0 0 0 0 -27.877161464509754 -31.806333153646847 0 -31.806333153646847 19.524156343766663 0 0 0 0 -29.195092301670911 -27.938563394684934 0 -27.938563394684934 17.458462856462575 0 0 0 0 -21.641982251312584 -26.453330828615435 0 -26.453330828615435 -6.7838366595151456 0 0 0 0 -26.21704532912338 -11.766408273856541 0 -11.766408273856541 46.683309260377428 0 0 0 0 -20.808906163488246 -22.54891574724752 0 -22.54891574724752 11.479687824954453 0 0 0 0 -7.7575083560441271 -3.6396137877745787 0 -3.6396137877745787 34.706902603255003 0 0 0 0 -9.132684254380365 1.8295788869945682 0 1.8295788869945682 50.822244247319759 0 0 0 0 1.1429043340065579 9.4764585860341146 0 9.4764585860341146 62.695108968208544 0 0 0 0 -1.9233604769326575 -3.6533613088004131 0 -3.6533613088004131 38.650356656340591 0 0 0 0 -0.73308568290485709 9.9843146078201244 0 9.9843146078201244 48.081554850447901 0 0 0 0 8.5879954868438517 9.350957955179183 0 9.350957955179183 34.810698876903189 0 0 0 0 -10.489314364232769 1.7873177333367494 0 1.7873177333367494 55.132132967941288 0 0 0 0 -2.4339025763683821 0.88578246043834952 0 0.88578246043834952 45.280037342761716 0 0 0 0 -11.407439090703065 3.4445868906013857 0 3.4445868906013857 44.884998319656006 0 0 0 0 -1.8646216488282299 4.1216218020662723 0 4.1216218020662723 0.75569523931837779 0 0 0 0 -0.54106037845531318 -5.6753264574490458 0 -5.6753264574490458 28.27188656495855 0 0 0 0 -133.40261751176149 -179.99041428691999 0 -179.99041428691999 391.11903356190305 0 0 0 0 28.687795633033602 59.393077391920087 0 59.393077391920087 69.967576029564952 0 0 0 0 4.1207751275969704 5.7406053703066675 0 5.7406053703066675 5.8631114518972218 0 0 0 0 -0.021436379349353274 0.90145968730013237 0 0.90145968730013237 2.5535100758318237 0 0 0 0 -18.959469561026708 35.665653296418895 0 35.665653296418895 46.334622006836071 0 0 0 0 -69.472584365608327 3.6260023352333519 0 3.6260023352333519 119.78174329951435 0 0 0 0 -39.353228645608965 239.49033081319885 0 239.49033081319885 355.21828041324625 0 0 0 0 -72.47867617975885 -4.6423514409743802 0 -4.6423514409743802 122.62107973836828 0 0 0 0 46.358445263004114 43.062951505780802 0 43.062951505780802 35.548041383779491 0 0 0 0 39.099358574290022 16.662468067241207 0 16.662468067241207 4.6923410694580525 0 0 0 0 -3.1420100473706043 -12.239827364435769 0 -12.239827364435769 2.9597190406059326 0 0 0 0 3.5268286654459189 20.122254108760899 0 20.122254108760899 23.585273266697186 0 0 0 0 12.113312544590372 37.667995568805054 0 37.667995568805054 50.65154396075377 0 0 0 0 34.725115563053805 23.366973298310768 0 23.366973298310768 6.8037667796743335 0 0 0 0 9.838324218600718 15.766739366842899 0 15.766739366842899 24.577189837284095 0 0 0 0 8.887963900887371 10.341661611797463 0 10.341661611797463 10.824043585351319 0 0 0 0 4.2537064168477627 4.6675682868797423 0 4.6675682868797423 4.4065768742003542 0 0 0 0 3.2461876942359247 5.003427653354322 0 5.003427653354322 3.3994591547931208 0 0 0 0 9.0289643314149544 4.9847040176973678 0 4.9847040176973678 8.1714340490507311 0 0 0 0 0.85787037633963337 0.11150901445216732 0 0.11150901445216732 3.4814022448190372 0 0 0 0 12.927659151476746 2.0935316444411001 0 2.0935316444411001 1.7521002303110436 0 0 0 0 1.3313534157841787 -0.046213365872972645 0 -0.046213365872972645 5.4367438427798334 0 0 0 0 4.1818191945953096 6.0657798882545606 0 6.0657798882545606 5.3937772308864638 0 0 0 0 25.223636324012659 15.588309539216425 0 15.588309539216425 61.742823433480226 0 0 0 0 3.6699385676590168 3.6379650928065246 0 3.6379650928065246 1.9634656095386092 0 0 0 0 -0.34684807246412674 -0.99625529435434146 0 -0.99625529435434146 8.2428411248574776 0 0 0 0 11.254335275350059 8.2220931981646572 0 8.2220931981646572 9.1635334987513488 0 0 0 0 -33.209636729186968 -3.4372246079874458 0 -3.4372246079874458 124.22513718964183 0 0 0 0 32.808437110030354 -69.283136477773951 0 -69.283136477773951 54.365780114931113 0 0 0 0 12.1287440185788 45.238995845800673 0 45.238995845800673 25.173981449198436 0 0 0 0 48.415501285624487 4.3632918679722934 0 4.3632918679722934 15.250605365123192 0 0 0 0 45.22593589016833 -21.122173860385374 0 -21.122173860385374 91.011399352151784 0 0 0 0 -34.197755592480462 -61.173760038502223 0 -61.173760038502223 117.58432977170014 0 0 0 0 14.269325812793795 -69.089872404581001 0 -69.089872404581001 168.76301880524261 0 0 0 0 24.652264908198049 -32.674074638641287 0 -32.674074638641287 131.35939742813935 0 0 0 0 41.798703366261179 -41.876581690026796 0 -41.876581690026796 187.48691751568549 0 0 0 0 17.371898544970463 -94.609239288700337 0 -94.609239288700337 245.99485917437778 0 0 0 0 31.643314122668016 -55.408231708475796 0 -55.408231708475796 185.81913243062445 0 0 0 0 13.000962135127338 -40.823005551654205 0 -40.823005551654205 181.35853731858515 0 0 0 0 35.155118569866318 -43.465756702276849 0 -43.465756702276849 110.57568538740452 0 0 0 0 -1.2889656233728601 -66.861028014413023 0 -66.861028014413023 183.42145410700323 0 0 0 0 -19.583700542976658 -157.5200383659685 0 -157.5200383659685 363.31481278096908 0 0 0 0 -37.782586385459581 -134.17632295851945 0 -134.17632295851945 333.52631800102972 0 0 0 0 -56.980964082656101 -136.89462223762348 0 -136.89462223762348 508.2421699254628 0 0 0 0 -60.471703359959065 -238.04788671773713 0 -238.04788671773713 429.33475593608455 0 0 0 0 -24.073830067989547 -230.57281078933011 0 -230.57281078933011 417.68402555656212 0 0 0 0 17.330279755204174 -210.57982668396289 0 -210.57982668396289 370.19576866508578 0 0 0 0 -26.130042098155172 -222.63398466432773 0 -222.63398466432773 388.48603733086202 0 0 0 0 76.591655232099583 -175.17609940206967 0 -175.17609940206967 296.76198156369355 0 0 0 0 5.7118526006479442 -184.14060266802335 0 -184.14060266802335 319.33201003313297 0 0 0 0 160.96049582611522 -158.37033333417639 0 -158.37033333417639 262.28980554876398 0 0 0 0 43.614735629824281 -100.20071406621719 0 -100.20071406621719 246.56399873882583 0 0 0 0 75.320953894834929 -106.95777367634764 0 -106.95777367634764 198.02428341617633 0 0 0 0 14.499308309780645 -48.645263981807148 0 -48.645263981807148 186.8137270915613 0 0 0 0 3.612981475334891 -98.218660324513621 0 -98.218660324513621 258.36269149807413 0 0 0 0 26.401036394033326 -122.1002496643905 0 -122.1002496643905 249.8942447816371 0 0 0 0 -43.333548861101008 -32.704378389891644 0 -32.704378389891644 215.12685056414921 0 0 0 0 -1.6280474382801913 -62.60205736305943 0 -62.60205736305943 207.96983215412911 0 0 0 0 -7.6099382692482322 -8.9086098131665494 0 -8.9086098131665494 139.7130730077206 0 0 0 0 30.696809642042354 -46.917402807492181 0 -46.917402807492181 148.54681356197398 0 0 0 0 19.692859458287785 -28.491722486589424 0 -28.491722486589424 120.08037601209071 0 0 0 0 -25.964251320696349 21.991564504838607 0 21.991564504838607 102.52148618451611 0 0 0 0 -1.6637099171348382 -41.524960835260572 0 -41.524960835260572 50.410049432859523 0 0 0 0 8.2846733704773214 9.8404864936455851 0 9.8404864936455851 123.79744228050549 0 0 0 0 0.73180577127823199 -1.8791688774763315 0 -1.8791688774763315 234.21028031883179 0 0 0 0 -33.202647675932894 -84.045851934930397 0 -84.045851934930397 356.88394937514386 0 0 0 0 -38.821978239336204 -22.617399550044865 0 -22.617399550044865 435.58113033634436 0 0 0 0 -29.054559742609854 -13.844666396951652 0 -13.844666396951652 229.42264990997501 0 0 0 0 55.821704017673255 35.258629456078779 0 35.258629456078779 10.541257905162638 0 0 0 0 6.6472858638057062 6.6461847120475142 0 6.6461847120475142 8.6505707456271281 0 0 0 0 8.4450380553298601 15.241116219611285 0 15.241116219611285 13.731619970269094 0 0 0 0 48.397817734618911 11.37217526020504 0 11.37217526020504 -42.513555460787757 0 0 0 0 -31.557511576010256 -20.402375288740586 0 -20.402375288740586 48.361145553120878 0 0 0 0 -31.613824998243217 -7.200147903386096 0 -7.200147903386096 48.537647019893029 0 0 0 0 -15.709820409076201 37.323245442283223 0 37.323245442283223 -116.41488992451923 0 0 0 0 8.4134240843468859 7.5968483115003735 0 7.5968483115003735 3.1463654165030448 0 0 0 0 6.330952841427461 12.813447365624597 0 12.813447365624597 22.580632077675546 0 0 0 0 -1.7820359691741032 16.215842790155875 0 16.215842790155875 48.634592939335221 0 0 0 0 6.1012672041624683 8.8378144530015561 0 8.8378144530015561 32.594934380125778 0 0 0 0 -4.3965900011598933 8.6635897028681939 0 8.6635897028681939 32.875401086683269 0 0 0 0 1.7501075585505532 3.7585843489978288 0 3.7585843489978288 33.28671893491628 0 0 0 0 1.8351766390205739 4.3278461064946896 0 4.3278461064946896 32.835433700358408 0 0 0 0 0.93835133313405095 3.9802652236321592 0 3.9802652236321592 32.901138015310607 0 0 0 0 1.2563061702654288 -4.9046251498434064 0 -4.9046251498434064 27.173148153660065 0 0 0 0 -56.511641333809621 -74.520722269129692 0 -74.520722269129692 -26.665407841035631 0 0 0 0 1.9570476959307683 -1.4215366708653789 0 -1.4215366708653789 4.4462981769631753 0 0 0 0 27.355132564362066 32.14824840840447 0 32.14824840840447 -19.025594957238354 0 0 0 0 56.375946490678871 -2.4646431576347823 0 -2.4646431576347823 -70.279621888825204 0 0 0 0 -60.138302810790265 -45.766776039017714 0 -45.766776039017714 2.2246149446727941 0 0 0 0 5.5561973422290976 23.144999530066343 0 23.144999530066343 22.009013263632369 0 0 0 0 36.750429156702921 92.641781153921329 0 92.641781153921329 -13.302642840732005 0 0 0 0 202.29537687543962 -109.36654026080214 0 -109.36654026080214 80.11064180217727 0 0 0 0 -25.719620105520789 -67.966455304121155 0 -67.966455304121155 12.05255000924808 0 0 0 0 2.4011489750732 -2.4620228358883338 0 -2.4620228358883338 10.588656499684163 0 0 0 0 -99.868950485524692 8.6203830672529875 0 8.6203830672529875 37.436832660365326 0 0 0 0 27.932505466260409 -17.400059815809072 0 -17.400059815809072 22.303141807380598 0 0 0 0 -25.900188072642777 -47.513916385636549 0 -47.513916385636549 168.27029362579196 0 0 0 0 82.759064116342415 82.226622177615354 0 82.226622177615354 -95.391346254358723 0 0 0 0 73.718504306988507 -107.16831319287394 0 -107.16831319287394 75.874061926639115 0 0 0 0 37.665791357556373 -2.8845999230252346 0 -2.8845999230252346 -22.025580897170585 0 0 0 0 0.97650884707462282 -0.20044053887752966 0 -0.20044053887752966 -1.3681987052865168 0 0 0 0 119.33675338110697 -237.6491491237648 0 -237.6491491237648 263.55319594583852 0 0 0 0 4.1951161023744135 -87.606069310688326 0 -87.606069310688326 172.79017858664156 0 0 0 0 31.891184391664865 -121.56628062868185 0 -121.56628062868185 154.45638243730809 0 0 0 0 -15.7117416175779 -113.84093982851118 0 -113.84093982851118 275.40857659388712 0 0 0 0 -6.4383885820516298 -103.94225203792485 0 -103.94225203792485 276.38170894601353 0 0 0 0 -44.176674591910341 -110.48092282224025 0 -110.48092282224025 357.39591881967499 0 0 0 0 -56.311595568936809 -115.95576616901053 0 -115.95576616901053 434.22518356742512 0 0 0 0 -72.34658548050902 -83.505363829943235 0 -83.505363829943235 400.66537129547214 0 0 0 0 9.3600198708154494 213.15786858007777 0 213.15786858007777 177.87407836338753 0 0 0 0 -81.10344275906391 -10.830618446729204 0 -10.830618446729204 560.94326900523447 0 0 0 0 30.525722046455485 22.260122268718987 0 22.260122268718987 193.34408126765629 0 0 0 0 -87.947736934560453 28.487899329073116 0 28.487899329073116 335.07026930181473 0 0 0 0 -88.837204530429517 211.13693499802321 0 211.13693499802321 171.68182357315527 0 0 0 0 17.833890184409938 -41.087204712061521 0 -41.087204712061521 232.73183638641785 0 0 0 0 0.84453702507166106 -1.7495811345472081 0 -1.7495811345472081 3.9444320894849625 0 0 0 0 100.26197092175971 223.99866567368008 0 223.99866567368008 564.34453317551379 0 0 0 0 100.33362071343618 93.272094007967098 0 93.272094007967098 -41.75202324820566 0 0 0 0 40.012681760210398 109.41543755443126 0 109.41543755443126 284.72237460357428 0 0 0 0 144.16198018425166 -278.09257043135221 0 -278.09257043135221 484.15718941135856 0 0 0 0 343.11130282618979 -142.45505606335792 0 -142.45505606335792 -17.364168406658905 0 0 0 0 321.86529789544875 -437.06879939729697 0 -437.06879939729697 400.99642987997504 0 0 0 0 85.73495599187163 -133.57490283101197 0 -133.57490283101197 139.41971022276266 0 0 0 0 -50.468168551365579 -188.91856919241218 0 -188.91856919241218 904.82107776496559 0 0 0 0 67.163666835014737 -14.222118327124917 0 -14.222118327124917 1065.9827761499837 0 0 0 0 -3.4077338326253539 -331.61912107137005 0 -331.61912107137005 255.32003194394929 0 0 0 0 0.62483637401112979 -1.5009568937352569 0 -1.5009568937352569 3.4288636158807435 0 0 0 0 5.4390094823711479 191.57945824748094 0 191.57945824748094 531.49920765633215 0 0 0 0 285.09628644111308 -411.90970019534507 0 -411.90970019534507 268.66612291085039 0 0 0 0 87.741434321740599 -432.45769457011556 0 -432.45769457011556 800.50212755115354 0 0 0 0 -91.097149638240808 -126.8746132755623 0 -126.8746132755623 1058.3764551888235 0 0 0 0 -91.808530352546768 -51.384619426884456 0 -51.384619426884456 644.52047928878164 0 0 0 0 -54.882196030561317 -75.185637680348009 0 -75.185637680348009 402.10332633562211 0 0 0 0 78.491726000840117 -369.81237694148422 0 -369.81237694148422 383.97407649984234 0 0 0 0 -63.925030283826345 -270.26394456159323 0 -270.26394456159323 655.33306023428577 0 0 0 0 -2.1818764245945204 -214.67657046721433 0 -214.67657046721433 358.34072732551886 0 0 0 0 125.38758212869107 -209.71992422990661 0 -209.71992422990661 249.15447073292307 0 0 0 0 22.698850114774359 -117.78539792037373 0 -117.78539792037373 181.45071281524724 0 0 0 0 3.0211692694856538 -91.448770291252004 0 -91.448770291252004 187.43617662850011 0 0 0 0 79.25942130378462 -87.666101337785221 0 -87.666101337785221 130.49439295890625 0 0 0 0 107.16277711204589 -97.680122280478372 0 -97.680122280478372 104.55311941943364 0 0 0 0 145.02627905548343 -82.196537307931067 0 -82.196537307931067 94.527845064567373 0 0 0 0 84.469312449892186 101.00754506301655 0 101.00754506301655 -170.13263082662888 0 0 0 0 -28.093071655825952 89.661447052647418 0 89.661447052647418 26.37517941861006 0 0 0 0 3.6182420837212703 74.589832213314367 0 74.589832213314367 -21.670045087528706 0 0 0 0 38.131878484244226 18.640988425591786 0 18.640988425591786 -15.691443555377191 0 0 0 0 -77.389754663831354 -184.23609050331243 0 -184.23609050331243 -163.4588084393763 0 0 0 0 -112.69588864196339 -21.870480740912171 0 -21.870480740912171 24.696348884790496 0 0 0 0 -33.315435077122629 -59.090556707718861 0 -59.090556707718861 183.09939546827809 0 0 0 0 -7.6172209673472935 26.019278042864244 0 26.019278042864244 5.3199270589684602 0 0 0 0 75.727257421485774 16.66577656249865 0 16.66577656249865 -26.685359157527273 0 0 0 0 -174.3642045497877 148.00103123204644 0 148.00103123204644 156.0137688886025 0 0 0 0 -2.7369667636176018 -260.6879179588841 0 -260.6879179588841 274.89496544675785 0 0 0 0 -112.26082307969227 5.7992761358618736 0 5.7992761358618736 309.45498870213487 0 0 0 0 -99.906610226067642 -21.907064323742816 0 -21.907064323742816 -54.510671831840227 0 0 0 0 8.6834972703427411 129.99211964525784 0 129.99211964525784 -12.762155002106738 0 0 0 0 -3.4790413796381472 15.176658496136952 0 15.176658496136952 -1.8992591888854804 0 0 0 0 -187.40002429769129 24.479212148300576 0 24.479212148300576 47.867256120287493 0 0 0 0 -222.77750507428937 -168.2344359645067 0 -168.2344359645067 139.163791366449 0 0 0 0 0.61587223992524542 -2.6044501408841878 0 -2.6044501408841878 6.443794663256952 0 0 0 0 -106.22400494135263 37.696409544635571 0 37.696409544635571 64.087010982904758 0 0 0 0 329.25204604284772 -109.06159005432346 0 -109.06159005432346 108.47526055136768 0 0 0 0 -0.10795863859714672 0.49715285814907872 0 0.49715285814907872 1.4870137679132398 0 0 0 0 -1.1688990885427302 86.932334288380616 0 86.932334288380616 149.3599029747129 0 0 0 0 0.68305365589521649 -1.4911830603414291 0 -1.4911830603414291 2.5140035201327748 0 0 0 0 -147.82455648334144 -118.31999212042138 0 -118.31999212042138 59.543437526568596 0 0 0 0 93.195385372627243 -99.245924163169548 0 -99.245924163169548 -147.18789706817915 0 0 0 0 0.022936073581204752 -0.44610116785636578 0 -0.44610116785636578 8.6996952530332976 0 0 0 0 44.399751924810516 73.675283073804167 0 73.675283073804167 17.667759225631016 0 0 0 0 -2.3152442448445072 71.344051324467728 0 71.344051324467728 77.14726293989952 0 0 0 0 -3.676664060740567 1.0025611542970836 0 1.0025611542970836 5.0206409048508931 0 0 0 0 -21.495411467113627 10.18512907364493 0 10.18512907364493 126.22730058494926 0 0 0 0 17.6999362709048 27.591077819044585 0 27.591077819044585 133.34332359117252 0 0 0 0 -1.1741093999317842 1.2817116198904657 0 1.2817116198904657 24.079797602479971 0 0 0 0 4.1649518125741452 40.362724006088683 0 40.362724006088683 109.59013596435761 0 0 0 0 -51.356252723086072 48.653032687307132 0 48.653032687307132 114.48596233013086 0 0 0 0 8.3590070457148613 -1.5471106152017455 0 -1.5471106152017455 18.110992002722924 0 0 0 0 -304.2965500299033 -37.623281038904679 0 -37.623281038904679 489.59907607489731 0 0 0 0 -29.521041342080935 -282.0992586854627 0 -282.0992586854627 -332.87567440135899 0 0 0 0 -410.39030381040902 -112.92231135223847 0 -112.92231135223847 -82.058689956538728 0 0 0 0 -62.140199430190478 42.806307584171009 0 42.806307584171009 106.85045047104359 0 0 0 0 2.6364817369610982 -4.0451544001823976 0 -4.0451544001823976 4.0855741674930073 0 0 0 0 -1.2577351543686426 -0.19882224241332835 0 -0.19882224241332835 -0.51310225808592236 0 0 0 0 1.3847501044219825 120.00775473138492 0 120.00775473138492 121.81690269658475 0 0 0 0 -88.798392616979982 -293.84361945690034 0 -293.84361945690034 -239.99373095696501 0 0 0 0 53.343751291600711 39.279227450970211 0 39.279227450970211 56.781140996481554 0 0 0 0 1.6834712763712183 -3.4305748893316874 0 -3.4305748893316874 3.8663951218550068 0 0 0 0 -118.64026865369669 -162.03887948807824 0 -162.03887948807824 -313.90759194373095 0 0 0 0 -128.33894726626392 -244.75912126002459 0 -244.75912126002459 5.9532354311158997 0 0 0 0 -84.623150345671093 35.86718343242319 0 35.86718343242319 -49.760075601323479 0 0 0 0 18.26705034153747 -86.95769951705006 0 -86.95769951705006 -225.41589993076923 0 0 0 0 98.771700731578676 45.691318219523964 0 45.691318219523964 -46.134847118699327 0 0 0 0 -6.5564257470523444 107.47750214125335 0 107.47750214125335 159.82550849412655 0 0 0 0 -93.913306785218083 -30.701099232886918 0 -30.701099232886918 5.0707444692925492 0 0 0 0 -153.56671280739465 -222.85542878838169 0 -222.85542878838169 -154.05721740064109 0 0 0 0 24.300466940082515 -24.853723286523746 0 -24.853723286523746 -92.575221428087389 0 0 0 0 -216.72483776597619 -16.413977393651294 0 -16.413977393651294 -31.344627889640833 0 0 0 0 -25.609254851435253 25.911761834200661 0 25.911761834200661 51.109330959698127 0 0 0 0 96.600929802618339 -54.481293831151561 0 -54.481293831151561 -55.078607353250845 0 0 0 0 62.310843562999253 47.352320982514357 0 47.352320982514357 19.709881229937309 0 0 0 0 11.097228781776721 86.658505039256852 0 86.658505039256852 150.01824003209367 0 0 0 0 47.785830166219966 23.126621445637284 0 23.126621445637284 177.99366088756688 0 0 0 0 62.304030746978242 17.531899349092782 0 17.531899349092782 118.37118853482389 0 0 0 0 64.59135390044321 -16.671803575045487 0 -16.671803575045487 191.36145871848203 0 0 0 0 61.442364888578254 -38.186276801418899 0 -38.186276801418899 239.047874691787 0 0 0 0 88.93125933861802 -123.53490664042238 0 -123.53490664042238 224.14643170578347 0 0 0 0 106.69025417528792 -102.88937289271053 0 -102.88937289271053 153.78677457248705 0 0 0 0 93.667661539771871 -64.507400987400615 0 -64.507400987400615 83.9676578593062 0 0 0 0 104.03180577750709 -169.80403554131044 0 -169.80403554131044 78.627332140604267 0 0 0 0 109.36475915215124 -226.8682776454807 0 -226.8682776454807 210.08106034313096 0 0 0 0 88.460893169637529 -154.42880638146744 0 -154.42880638146744 254.43445572574274 0 0 0 0 85.487591183351469 -108.63659812099104 0 -108.63659812099104 163.5015946243584 0 0 0 0 44.462433576279636 -134.00858358633104 0 -134.00858358633104 252.04808700348076 0 0 0 0 76.535108747757477 -84.289454228762224 0 -84.289454228762224 158.14257285147323 0 0 0 0 11.708325136723943 -125.8829820644205 0 -125.8829820644205 303.71816895523079 0 0 0 0 54.960827543650339 -212.39342856450457 0 -212.39342856450457 280.91246857091028 0 0 0 0 -0.5582900303154652 0.12033502849568833 0 0.12033502849568833 0.91362103027685038 0 0 0 0 60.69685451568057 -218.41454023335609 0 -218.41454023335609 216.66445331317664 0 0 0 0 72.023020353930406 -71.446724670226104 0 -71.446724670226104 255.59737087834947 0 0 0 0 62.492740980554117 -108.74753904224599 0 -108.74753904224599 314.22291680455965 0 0 0 0 -22.034094123320756 -92.647837148295366 0 -92.647837148295366 473.60378696580324 0 0 0 0 77.178735437018986 -185.32842732696008 0 -185.32842732696008 310.13640959345503 0 0 0 0 281.06585718150461 -256.87886346389769 0 -256.87886346389769 332.53324441572477 0 0 0 0 277.29915146236817 -63.28076254168991 0 -63.28076254168991 306.5205012379738 0 0 0 0 44.290716919553233 -219.47496602589672 0 -219.47496602589672 672.55682103060826 0 0 0 0 -4.7881415508982172 -227.64875877997838 0 -227.64875877997838 408.22780483568204 0 0 0 0 104.25911294688922 -245.41420658238349 0 -245.41420658238349 351.37087658210658 0 0 0 0 90.269356374854397 -291.26629476546077 0 -291.26629476546077 450.80399533660966 0 0 0 0 -6.8194843205073994 -219.43038757680915 0 -219.43038757680915 382.33529598471796 0 0 0 0 2.9097022006624229 -237.56435973412681 0 -237.56435973412681 383.07150217497838 0 0 0 0 -54.951873405507285 -139.94186038948828 0 -139.94186038948828 321.18931377680201 0 0 0 0 -39.974097341194465 -187.44274196202605 0 -187.44274196202605 445.76466640582657 0 0 0 0 -38.303651161829293 -28.419474019909103 0 -28.419474019909103 223.3564320141777 0 0 0 0 5.7958360281454588 5.2035215733485529 0 5.2035215733485529 -41.8468037929415 0 0 0 0 1.6353617510754859 -1.8966954863286887 0 -1.8966954863286887 1.8085508844048377 0 0 0 0 18.019468279750072 -21.056228515437397 0 -21.056228515437397 -206.65287707842072 0 0 0 0 67.873150618537693 -291.42184071880365 0 -291.42184071880365 150.91867355749127 0 0 0 0 63.926788875711281 -248.23966280094464 0 -248.23966280094464 -105.69733465151512 0 0 0 0 109.99939579214151 -180.0474183913102 0 -180.0474183913102 -89.378471853517112 0 0 0 0 56.503164464823385 -114.69916424925759 0 -114.69916424925759 20.581103010801598 0 0 0 0 -19.319995828961407 -22.809890302996791 0 -22.809890302996791 9.0343513950138004 0 0 0 0 -0.013060861893755576 -0.42234139751855793 0 -0.42234139751855793 1.3455757495521254 0 0 0 0 0.029735432501946421 -21.044337219806039 0 -21.044337219806039 2.5945855473255506 0 0 0 0 -12.489360111632829 -7.2654779517652059 0 -7.2654779517652059 -7.7523168223269749 0 0 0 0 -71.400109490647836 -30.699846402319963 0 -30.699846402319963 38.794858084598673 0 0 0 0 -29.961848520567685 33.150671367999166 0 33.150671367999166 41.313887257500028 0 0 0 0 -0.70611062643611433 -82.058231096638337 0 -82.058231096638337 -6.9454536115590599 0 0 0 0 -28.382497793672169 9.6732694454021839 0 9.6732694454021839 161.19887128208939 0 0 0 0 0.028877688556309428 -0.26990887298885724 0 -0.26990887298885724 0.71551574273678398 0 0 0 0 -11.922678990811562 12.571988353804045 0 12.571988353804045 43.074586195387383 0 0 0 0 -9.0606741755554587 -26.61598162145674 0 -26.61598162145674 10.341801300197403 0 0 0 0 -22.98635297094259 -45.984756140682293 0 -45.984756140682293 121.61800959667016 0 0 0 0 -0.075368303761961741 -35.138908285112848 0 -35.138908285112848 122.88946727922303 0 0 0 0 -7.121383822960496 -30.638658788848261 0 -30.638658788848261 116.62971613739501 0 0 0 0 -63.930501213660527 -3.0285718644499866 0 -3.0285718644499866 102.14463760923536 0 0 0 0 30.591087473853776 -41.654811724278261 0 -41.654811724278261 87.932196561989258 0 0 0 0 -14.62095556902527 -62.245669402305793 0 -62.245669402305793 152.97859448338568 0 0 0 0 -15.393216621497778 -29.532240859713056 0 -29.532240859713056 148.11818295605917 0 0 0 0 -16.48178684211944 -2.0377332582662007 0 -2.0377332582662007 90.588090588871694 0 0 0 0 -17.447682454229714 -3.2903896943703614 0 -3.2903896943703614 86.015340751861061 0 0 0 0 -39.227534384254795 -42.905470035744656 0 -42.905470035744656 159.79201099216152 0 0 0 0 -27.374540779553172 -30.794415629747164 0 -30.794415629747164 85.89856550602417 0 0 0 0 -114.5921017917517 37.360850234661484 0 37.360850234661484 122.61819114167156 0 0 0 0 -62.977683229690683 -25.514186398921083 0 -25.514186398921083 98.892906923189003 0 0 0 0 -113.04771540222373 64.382829236900761 0 64.382829236900761 103.31574228320096 0 0 0 0 9.0107448334856599 -46.367691575134813 0 -46.367691575134813 123.19632330704917 0 0 0 0 13.054478785899619 0.6129517171648331 0 0.6129517171648331 102.61884863234445 0 0 0 0 13.193076064170512 -3.1611061607909505 0 -3.1611061607909505 63.785295555862831 0 0 0 0 67.288134422819354 -49.604172159000882 0 -49.604172159000882 46.859883940131112 0 0 0 0 -14.979140085208735 0.10944974623927095 0 0.10944974623927095 93.302415650342368 0 0 0 0 -41.391610781683994 3.1408538637842867 0 3.1408538637842867 83.455404643971178 0 0 0 0 22.482572128558786 -4.5433098118810449 0 -4.5433098118810449 116.15896655115648 0 0 0 0 -10.203473113397195 47.895659198085923 0 47.895659198085923 100.52975332160167 0 0 0 0 44.905143830617817 6.7580707921988505 0 6.7580707921988505 120.30151316037882 0 0 0 0 -33.736583758317465 23.921394647692068 0 23.921394647692068 139.8030142914904 0 0 0 0 -30.78008141611781 -37.871682045059515 0 -37.871682045059515 205.45072516829532 0 0 0 0 -40.028998481890085 3.3307495701883454 0 3.3307495701883454 134.71356013389595 0 0 0 0 0.38396551010009716 -75.247577011210524 0 -75.247577011210524 175.70957964806439 0 0 0 0 13.797544936938721 -65.275603268542909 0 -65.275603268542909 119.81814193376158 0 0 0 0 14.025340487116864 -65.86174102474979 0 -65.86174102474979 335.32856388401706 0 0 0 0 17.077096394382352 -79.491938367889816 0 -79.491938367889816 162.07539988946519 0 0 0 0 151.80571715497445 -21.476712842082634 0 -21.476712842082634 182.66671106925423 0 0 0 0 40.761086928654549 -185.55003123260212 0 -185.55003123260212 231.14274194491372 0 0 0 0 -8.7485923136687234 0.22109491368155432 0 0.22109491368155432 269.02049647415697 0 0 0 0 3.4846283126261994 -3.062151920977108 0 -3.062151920977108 -2.2186404890305624 0 0 0 0 101.40154302013343 -136.53546365436705 0 -136.53546365436705 236.2364014188388 0 0 0 0 10.910908652345825 -152.29464810238642 0 -152.29464810238642 268.4175569732426 0 0 0 0 22.553263205261828 -54.356753964362724 0 -54.356753964362724 245.9809380191582 0 0 0 0 9.9411443563312787 -96.555795850492359 0 -96.555795850492359 219.24012381007924 0 0 0 0 10.567497990812626 1.7292732003297715 0 1.7292732003297715 157.58036625514796 0 0 0 0 33.388612149956316 -52.143027731010534 0 -52.143027731010534 188.4994285206194 0 0 0 0 -8.4046195670744055 39.965918542467989 0 39.965918542467989 161.19501923513235 0 0 0 0 51.835383682321662 -44.252258345595692 0 -44.252258345595692 189.29087331674236 0 0 0 0 -2.3270617044104505 0.13160098145386456 0 0.13160098145386456 0.42254044133635205 0 0 0 0 19.117515895601173 -12.127003205372603 0 -12.127003205372603 257.72437255398108 0 0 0 0 203.5880229355862 -189.72079166827461 0 -189.72079166827461 187.92810919327894 0 0 0 0 683.33763284052293 223.99211626913711 0 223.99211626913711 -187.27100867551781 0 0 0 0 903.17685234587771 -320.92307284941489 0 -320.92307284941489 -57.84349031939928 0 0 0 0 -331.34026450583224 174.04690049965393 0 174.04690049965393 199.90915470809705 0 0 0 0 0.15154279150230021 0.92206653529725813 0 0.92206653529725813 4.8837845480914837 0 0 0 0 194.66587004334724 636.68530315294265 0 636.68530315294265 -110.84354160516523 0 0 0 0 -143.56034243771478 -87.094016320489573 0 -87.094016320489573 -1.2324367500914377 0 0 0 0 19.847313346085684 20.044671637662759 0 20.044671637662759 95.842211627463257 0 0 0 0 -10.437784759792702 2.737376981109044 0 2.737376981109044 -2.1849599012180647 0 0 0 0 -0.84839642948691107 27.733251225512504 0 27.733251225512504 73.922592943468771 0 0 0 0 161.90469283551647 42.221956372206478 0 42.221956372206478 93.120155249809613 0 0 0 0 77.455979812649275 110.16919381875414 0 110.16919381875414 103.28585419326009 0 0 0 0 -3.0457705091469052 -11.130405705971498 0 -11.130405705971498 5.4838469440437621 0 0 0 0 -3.1340013263852526 1.7102586178652146 0 1.7102586178652146 12.325151416865907 0 0 0 0 -2.8170213929302701 -0.31855411319013527 0 -0.31855411319013527 13.281357189413598 0 0 0 0 -15.223266438487371 -10.873968676956792 0 -10.873968676956792 20.920167374060838 0 0 0 0 -5.5376726452395815 8.8223140090158267 0 8.8223140090158267 20.379764878238348 0 0 0 0 26.632691651309415 50.906245360656612 0 50.906245360656612 64.763088291758322 0 0 0 0 6.7597966463258672 22.592195057575736 0 22.592195057575736 57.387513940535428 0 0 0 0 -32.148249907601894 2.1386726355376595 0 2.1386726355376595 55.175543388952065 0 0 0 0 -2.3289664057467689 9.9648924364046252 0 9.9648924364046252 22.856369185610674 0 0 0 0 13.49776330171494 27.47636132806656 0 27.47636132806656 32.582421604849515 0 0 0 0 -1.3221439400439685 8.9703353261317318 0 8.9703353261317318 32.567449375550183 0 0 0 0 -24.233721920784774 27.59204015690193 0 27.59204015690193 44.426120200507285 0 0 0 0 -6.4261634940523749 2.8177649873032351 0 2.8177649873032351 47.336334761188482 0 0 0 0 -4.97345114975451 11.699851557761576 0 11.699851557761576 44.636535764402652 0 0 0 0 5.1980834072591335 -6.8086329295401811 0 -6.8086329295401811 49.117020139412489 0 0 0 0 -4.0311396573256619 11.096628839321312 0 11.096628839321312 27.787961724528941 0 0 0 0 -5.7340908536165216 5.8930922667332197 0 5.8930922667332197 42.063893290134729 0 0 0 0 -2.2057899621346393 7.5131515659809693 0 7.5131515659809693 47.981143745575878 0 0 0 0 -39.896547460971306 7.1951970485224592 0 7.1951970485224592 74.003663413066533 0 0 0 0 -43.078173920174777 15.425867859627033 0 15.425867859627033 86.423864221635085 0 0 0 0 -37.551322126063496 2.797414119442692 0 2.797414119442692 69.856361846967047 0 0 0 0 -25.670403909816486 7.6516298313745708 0 7.6516298313745708 18.11162089164975 0 0 0 0 -30.273697399331468 25.935919557769012 0 25.935919557769012 80.784432002510584 0 0 0 0 -68.263843760847521 67.408356444379024 0 67.408356444379024 78.362417933837378 0 0 0 0 -17.263621761771493 0.96066978442562601 0 0.96066978442562601 97.20900181563178 0 0 0 0 32.051420178793933 11.258827423418552 0 11.258827423418552 89.069364493901958 0 0 0 0 45.31699309299367 -8.5752742417498666 0 -8.5752742417498666 113.34509168523073 0 0 0 0 -15.534875432749629 38.622089932272502 0 38.622089932272502 78.399333731722436 0 0 0 0 3.8019216450845761 17.944366769508633 0 17.944366769508633 100.02979636151576 0 0 0 0 4.852176045576357 8.9842824012084748 0 8.9842824012084748 117.08757027851243 0 0 0 0 24.090514577666568 16.295641851000255 0 16.295641851000255 113.56177137112172 0 0 0 0 -18.958592850923253 -8.4557752609398449 0 -8.4557752609398449 161.98292370105628 0 0 0 0 -34.538717193606146 29.51154791508452 0 29.51154791508452 126.88051370055473 0 0 0 0 -39.212338623677638 35.712446924731921 0 35.712446924731921 120.94826047396054 0 0 0 0 -33.165635504636811 16.065346583549399 0 16.065346583549399 23.374406646929856 0 0 0 0 -44.602297805212345 52.166196493052666 0 52.166196493052666 111.07439543076907 0 0 0 0 -53.565523560199495 81.583943801946589 0 81.583943801946589 67.356528629432432 0 0 0 0 -45.918396498735547 42.980605950244353 0 42.980605950244353 132.28798652494152 0 0 0 0 21.975115741190109 12.880914973240579 0 12.880914973240579 42.286364613653859 0 0 0 0 -3.6412470030193438 -2.2985203902183144 0 -2.2985203902183144 7.550966679192527 0 0 0 0 -77.610123371895213 56.088790512789274 0 56.088790512789274 157.57308672228282 0 0 0 0 -1.2418666811258887 0.23678169417921424 0 0.23678169417921424 7.9538694343566192 0 0 0 0 15.3296715874651 0.12821751781302737 0 0.12821751781302737 121.63294737560864 0 0 0 0 -2.6616032821332283 -0.99024507905050996 0 -0.99024507905050996 51.804832063728099 0 0 0 0 3.2499949654002815 -18.798358083769827 0 -18.798358083769827 34.163254313561239 0 0 0 0 11.05338015201238 8.2197760162671329 0 8.2197760162671329 174.61779904796276 0 0 0 0 -17.897026356240772 14.347749275068054 0 14.347749275068054 33.80910353512445 0 0 0 0 -14.05949200459014 19.237623008535593 0 19.237623008535593 35.304417851439212 0 0 0 0 -3.1116650198429641 9.5685960148475999 0 9.5685960148475999 32.178948121005305 0 0 0 0 -6.4588257511798162 -0.81464037150726654 0 -0.81464037150726654 51.653596786403796 0 0 0 0 -9.5630262181508954 -0.081612360867438838 0 -0.081612360867438838 52.792807998986973 0 0 0 0 -18.5310903690754 -7.0927739334620128 0 -7.0927739334620128 66.689920544384222 0 0 0 0 -20.01252923728407 -2.7279245267491206 0 -2.7279245267491206 60.86425878758746 0 0 0 0 -32.759163008558033 15.618398881546455 0 15.618398881546455 53.527248754151515 0 0 0 0 -25.830209180337988 1.6488010729444795 0 1.6488010729444795 66.267092738489737 0 0 0 0 -59.11415343680585 20.242895749586751 0 20.242895749586751 60.584948332165368 0 0 0 0 -19.372344522516272 37.818415865309362 0 37.818415865309362 -2.3156986318790587 0 0 0 0 -25.208626486278838 -0.5436624099384062 0 -0.5436624099384062 59.652251285733655 0 0 0 0 -29.606418580960785 30.220752095636271 0 30.220752095636271 79.362321712513221 0 0 0 0 -24.667479951453984 7.1344056656198518 0 7.1344056656198518 90.036805099443882 0 0 0 0 -8.8172465717810056 -11.780364018923137 0 -11.780364018923137 72.929747217480326 0 0 0 0 -23.117832555927421 12.226193879672792 0 12.226193879672792 83.926538965388318 0 0 0 0 -21.596782009135616 -8.2199366858039866 0 -8.2199366858039866 75.04321720309963 0 0 0 0 -4.1002907983270793 -1.8915570562339781 0 -1.8915570562339781 79.622506488565705 0 0 0 0 -9.0382872177481168 -12.653666522724961 0 -12.653666522724961 76.819803046208108 0 0 0 0 0.14347496943169968 -18.337898006917385 0 -18.337898006917385 102.19904564496392 0 0 0 0 -23.382009063751873 4.8774235166056314 0 4.8774235166056314 160.69795678647642 0 0 0 0 -23.054131432409847 62.355605250559165 0 62.355605250559165 168.82703550244514 0 0 0 0 -31.356525611698373 27.6807878735126 0 27.6807878735126 121.51079164803377 0 0 0 0 -30.953326734132247 30.305459228678956 0 30.305459228678956 80.260216575290542 0 0 0 0 -37.728645468447439 45.237779658717045 0 45.237779658717045 116.60565749599482 0 0 0 0 -35.687783958305914 47.292694498653873 0 47.292694498653873 113.45474656995793 0 0 0 0 -33.85541430879185 37.508007029206055 0 37.508007029206055 108.06820109629189 0 0 0 0 -32.108277290489703 41.300188165696454 0 41.300188165696454 122.83564802339242 0 0 0 0 -21.832844516462885 60.816633292546612 0 60.816633292546612 123.54444879338553 0 0 0 0 8.2340387698348145 37.82041222834232 0 37.82041222834232 21.075598551426083 0 0 0 0 -32.555794800721571 37.137675831705565 0 37.137675831705565 108.12576012672798 0 0 0 0 -30.780884306618816 32.729741981958796 0 32.729741981958796 70.275763772093342 0 0 0 0 -0.03066837690636167 -7.7841175682915837 0 -7.7841175682915837 -10.288319887811667 0 0 0 0 -0.033351530538781884 -0.049552310709437108 0 -0.049552310709437108 0.73469617935495535 0 0 0 0 24.556631539407057 93.374370537316281 0 93.374370537316281 119.82094801896892 0 0 0 0 10.651347044974045 61.745304190699244 0 61.745304190699244 50.118408965732669 0 0 0 0 -6.3834994124961044 -0.11169948046153877 0 -0.11169948046153877 65.275183768178977 0 0 0 0 -6.1582862690734075 7.6678082125436049 0 7.6678082125436049 66.515847114942517 0 0 0 0 -4.5927372029147229 1.3215154836470902 0 1.3215154836470902 47.161308446797193 0 0 0 0 -7.8438849930367178 -0.52369818394072354 0 -0.52369818394072354 65.160012163134525 0 0 0 0 -5.3064809895262091 -4.6200969610454194 0 -4.6200969610454194 69.959478640783345 0 0 0 0 -0.010366963559447509 -8.4442028259218205 0 -8.4442028259218205 70.925020673359541 0 0 0 0 -0.029972527025125324 -12.322994013316929 0 -12.322994013316929 66.566775611929188 0 0 0 0 -8.9853325424722748 -12.797574708879438 0 -12.797574708879438 66.770738686900586 0 0 0 0 -9.7367386247129204 -13.666988242526713 0 -13.666988242526713 68.133153296868841 0 0 0 0 -12.87043944610347 -18.963243288435478 0 -18.963243288435478 60.588838122464949 0 0 0 0 -7.5575696404840542 -16.503210110262444 0 -16.503210110262444 36.02499197985162 0 0 0 0 -15.975992359557196 -9.8345839020257699 0 -9.8345839020257699 66.292990754904167 0 0 0 0 -15.912842324718017 -9.5845733444421057 0 -9.5845733444421057 64.480026773235295 0 0 0 0 -7.0774203841863468 -2.2861701351521333 0 -2.2861701351521333 70.96319677685824 0 0 0 0 0.23058849671466858 -0.066870610915003681 0 -0.066870610915003681 -0.72214776548644011 0 0 0 0 -4.1849048832020657 -4.4104116654125392 0 -4.4104116654125392 56.879094516447367 0 0 0 0 -14.716963225219587 10.1325962514602 0 10.1325962514602 125.39252105946071 0 0 0 0 -2.1912848906032423 -7.8429755447687057 0 -7.8429755447687057 87.956576317897998 0 0 0 0 7.3428840557512203 10.216097733318747 0 10.216097733318747 71.908638247441559 0 0 0 0 -11.614612339018251 5.7961043305476778 0 5.7961043305476778 133.67206328697284 0 0 0 0 -0.04688004291885739 -0.22042234499183166 0 -0.22042234499183166 0.25030904652141572 0 0 0 0 0.69985837609403312 -1.8179473635864269 0 -1.8179473635864269 47.074521174625261 0 0 0 0 -12.541960674498299 -7.9346864317631116 0 -7.9346864317631116 64.598199008414667 0 0 0 0 -28.500554509468998 -26.613043530243885 0 -26.613043530243885 44.497943641181337 0 0 0 0 9.3490027673483098 -5.9665966366737848 0 -5.9665966366737848 39.951888125744517 0 0 0 0 -3.3625681579309976 -10.672294325690018 0 -10.672294325690018 35.927570422252757 0 0 0 0 -10.985347311516421 -8.3979193134036905 0 -8.3979193134036905 31.57178204509546 0 0 0 0 -2.3912338457515849 -7.8183636208667053 0 -7.8183636208667053 47.766677199603578 0 0 0 0 -27.537253905821444 -19.075014566011305 0 -19.075014566011305 82.504060079503688 0 0 0 0 -15.208178700716985 -17.463163459855423 0 -17.463163459855423 45.761244563011132 0 0 0 0 -2.4590485897520296 16.35883364561596 0 16.35883364561596 74.883312658705108 0 0 0 0 0.27952522277658431 1.1925086320952687 0 1.1925086320952687 81.113891071800026 0 0 0 0 0.95405400542495045 0.81008601255962276 0 0.81008601255962276 64.729709531136905 0 0 0 0 -7.7869485270359959 -4.7372818523726892 0 -4.7372818523726892 64.936355729470961 0 0 0 0 5.2171411039959201 -7.3963088482803414 0 -7.3963088482803414 67.203018028696533 0 0 0 0 -2.8252947245950093 4.8789250399150319 0 4.8789250399150319 35.579162697159148 0 0 0 0 8.4173613974585919 -0.71181860883370973 0 -0.71181860883370973 68.198865612994268 0 0 0 0 -5.1159595196991621 4.3939913654822291 0 4.3939913654822291 42.744170823782042 0 0 0 0 -0.4047332878893819 -5.6821327694854062 0 -5.6821327694854062 33.413424806432147 0 0 0 0 1.9288298457064457 -3.9615762110115611 0 -3.9615762110115611 87.58486881130375 0 0 0 0 9.1938978088575993 -3.6799005142347596 0 -3.6799005142347596 77.01771947137604 0 0 0 0 14.719948397547 -8.0235984803875908 0 -8.0235984803875908 73.000137559341965 0 0 0 0 -15.799338351929009 22.414898090384668 0 22.414898090384668 95.926213386981544 0 0 0 0 0.42040210548459145 -0.71637713255178426 0 -0.71637713255178426 14.668414961561453 0 0 0 0 -18.992073960908783 7.8337569584400626 0 7.8337569584400626 22.17750429714215 0 0 0 0 -9.9942759352251613 -8.2017517304034584 0 -8.2017517304034584 44.149732697744668 0 0 0 0 -11.023606011163793 -15.967950956372079 0 -15.967950956372079 28.005390882142819 0 0 0 0 -3.5238972045019485 -13.851228133369972 0 -13.851228133369972 36.196166965366132 0 0 0 0 -10.703472787805001 -0.85143314082313282 0 -0.85143314082313282 40.166508421392123 0 0 0 0 29.568818332746559 -41.085939496588253 0 -41.085939496588253 46.556353371273872 0 0 0 0 -6.9063240464941114 -5.8482618412286342 0 -5.8482618412286342 44.599446010461456 0 0 0 0 -8.7738880313299887 -9.6856749921062146 0 -9.6856749921062146 40.401964835793478 0 0 0 0 4.258284785797283 -15.528527174787662 0 -15.528527174787662 32.112238674163962 0 0 0 0 -9.5834736090988173 -11.582578622662368 0 -11.582578622662368 63.166925644684838 0 0 0 0 -8.7557399609431741 -19.066449538484449 0 -19.066449538484449 22.398974734875083 0 0 0 0 1.0938961933343494 -20.530912318803061 0 -20.530912318803061 31.359553074339033 0 0 0 0 0.23367009476338296 -2.3678930219646617 0 -2.3678930219646617 11.747703082569643 0 0 0 0 -4.7456487543557451 -1.4667195621211704 0 -1.4667195621211704 11.084392355119519 0 0 0 0 -5.5080007754177132 12.100248060995 0 12.100248060995 41.942990278461366 0 0 0 0 -14.380851513349626 -1.1091036177240312 0 -1.1091036177240312 41.289487454938353 0 0 0 0 1.771647497244885 5.728470984773594 0 5.728470984773594 28.308454316866118 0 0 0 0 -11.851520924505166 -1.0459974026452983 0 -1.0459974026452983 41.201817147994007 0 0 0 0 -1.1694402216831046 -13.127271781403728 0 -13.127271781403728 30.513294291551802 0 0 0 0 -17.681284299578692 -7.939997822715668 0 -7.939997822715668 20.843947013650904 0 0 0 0 1.2932383633780749 1.4299844175470042 0 1.4299844175470042 26.515726119060474 0 0 0 0 -9.7755628869298583 15.736088313603894 0 15.736088313603894 31.688476807079525 0 0 0 0 7.8258596173618571 28.159264768502908 0 28.159264768502908 28.981484544230625 0 0 0 0 -11.849230699886903 -0.66418915412577917 0 -0.66418915412577917 35.804366773387301 0 0 0 0 -3.906702443998995 1.8186006414645952 0 1.8186006414645952 18.500542117042784 0 0 0 0 0.68928530780794972 6.7919725708852638 0 6.7919725708852638 16.909243456348122 0 0 0 0 -0.52740313756498836 10.583133892288515 0 10.583133892288515 47.617126289354928 0 0 0 0 -11.20879406463871 5.1588968099677004 0 5.1588968099677004 39.307025496804272 0 0 0 0 -4.3219522111867263 -1.155552157373819 0 -1.155552157373819 15.2037088611755 0 0 0 0 1.089319560272088 -11.390206857959129 0 -11.390206857959129 25.45853398061081 0 0 0 0 4.2600702537201869 15.222704187784984 0 15.222704187784984 42.19671033443592 0 0 0 0 0.058672278769655861 -0.50946359112019479 0 -0.50946359112019479 8.4292638156952187 0 0 0 0 38.83038180279982 -76.636340209981427 0 -76.636340209981427 97.96293762872665 0 0 0 0 -3.3237130741276815 -6.7285348047807929 0 -6.7285348047807929 20.534779664132657 0 0 0 0 -2.8117796773010468 -2.1454857313695896 0 -2.1454857313695896 7.2970412507942513 0 0 0 0 -9.1555761126540176 -14.095567259058043 0 -14.095567259058043 41.373687656072434 0 0 0 0 -5.2912780170527185 -26.12058615107162 0 -26.12058615107162 71.319019123558974 0 0 0 0 -8.2473761125447567 -7.0358067445473864 0 -7.0358067445473864 41.419569443569912 0 0 0 0 -3.6427092194926658 -0.76348356732705724 0 -0.76348356732705724 52.78479177387635 0 0 0 0 -0.073712972357311113 -2.6819211704419077 0 -2.6819211704419077 9.5566433021948569 0 0 0 0 419.57378523862553 -153.51148630648822 0 -153.51148630648822 -176.57462509165634 0 0 0 0 59.602921268643058 86.747825422549795 0 86.747825422549795 52.035216387950641 0 0 0 0 -7.4033719307135808 2.76441077245385 0 2.76441077245385 56.650038586834228 0 0 0 0 108.43287277001673 114.37222024766743 0 114.37222024766743 129.98398735685623 0 0 0 0 -274.03300228343141 -38.561844343046687 0 -38.561844343046687 134.59387373820209 0 0 0 0 -85.77359129987417 -980.19415477789789 0 -980.19415477789789 -227.59615738449793 0 0 0 0 4.7928560901930126 5.9906015081796795 0 5.9906015081796795 58.532415265755844 0 0 0 0 1.6801436287406908 -4.005664363185133 0 -4.005664363185133 52.589760087204922 0 0 0 0 5.5181106989094815 9.516327444340277 0 9.516327444340277 75.631121347068984 0 0 0 0 5.8752932021294644 3.4930492149190968 0 3.4930492149190968 66.26685305677529 0 0 0 0 6.2140440527261944 0.9217196147001232 0 0.9217196147001232 64.414417039020918 0 0 0 0 -130.27331084882826 136.46685926390637 0 136.46685926390637 177.3444081259513 0 0 0 0 4.736868239455589 2.2053912435530947 0 2.2053912435530947 76.46766703670437 0 0 0 0 -5.3950618746185164 9.5425729979528455 0 9.5425729979528455 64.164867905545492 0 0 0 0 978.55340541765872 623.42699677269411 0 623.42699677269411 223.88138348011853 0 0 0 0 -6.6501466432628549 15.093090531711709 0 15.093090531711709 9.2293042864987314 0 0 0 0 0.34178751119968531 -1.2589000314260801 0 -1.2589000314260801 13.669110416118304 0 0 0 0 -13.346453510415586 13.645305696907599 0 13.645305696907599 69.448160488136637 0 0 0 0 1.4116083909484587 7.3074953091709176 0 7.3074953091709176 84.064830870403966 0 0 0 0 2.5609043203858164 14.08149939631403 0 14.08149939631403 62.724712799266854 0 0 0 0 116.14094185932055 77.386229527042815 0 77.386229527042815 -48.468093296898587 0 0 0 0 0.26709055608165722 0.66550072503483193 0 0.66550072503483193 -2.2024539623201491 0 0 0 0 -1.2441840272731834 14.704697484896286 0 14.704697484896286 -2.6810493404829856 0 0 0 0 -23.833521122935842 -34.954943188011384 0 -34.954943188011384 -38.711360644847446 0 0 0 0 34.76149183151945 186.34424958682939 0 186.34424958682939 47.482093978054763 0 0 0 0 -112.10530517255989 -4.5888523884714232 0 -4.5888523884714232 344.94741385143789 0 0 0 0 10.751212799031407 12.696715812049661 0 12.696715812049661 24.546381104788452 0 0 0 0 0.014908651978351006 -0.8763634017332862 0 -0.8763634017332862 -1.2563832389002201 0 0 0 0 -3.5867709062882795 13.234262429999944 0 13.234262429999944 97.519924540695683 0 0 0 0 -0.39328181529060657 20.842786125722341 0 20.842786125722341 19.482207206929161 0 0 0 0 -0.71750649190059024 0.251624709300728 0 0.251624709300728 4.5738358431851651 0 0 0 0 4.1896588703691746 15.691137363861429 0 15.691137363861429 4.0745919684946017 0 0 0 0 12.703754955085969 24.22069582293625 0 24.22069582293625 11.940795060698292 0 0 0 0 9.4450793096343943 44.496118201808713 0 44.496118201808713 175.79187366465339 0 0 0 0 0.71617289616443713 12.895864764388534 0 12.895864764388534 32.715766540808545 0 0 0 0 -0.38211873111502115 46.14127722469857 0 46.14127722469857 152.33281756729411 0 0 0 0 1.3893650064365182 1.2104194833116253 0 1.2104194833116253 35.334211479188525 0 0 0 0 8.9880482878986641 15.045391347281111 0 15.045391347281111 53.324423424935958 0 0 0 0 -1.8199367955498928 17.411591306903574 0 17.411591306903574 48.050037642278767 0 0 0 0 -0.026286369811714394 5.8298056072380859 0 5.8298056072380859 49.993514394540398 0 0 0 0 -3.1647593494734707 13.243248808916178 0 13.243248808916178 57.660256899289379 0 0 0 0 -7.7584023923325276 4.5709398612852965 0 4.5709398612852965 55.690035787018132 0 0 0 0 -2.1984989043710357 1.9112057014281163 0 1.9112057014281163 66.765312361748329 0 0 0 0 -14.101786304726685 -12.262485852272221 0 -12.262485852272221 49.9824456643546 0 0 0 0 5.5907560904046996 -5.7822684416678385 0 -5.7822684416678385 41.396101305661432 0 0 0 0 -2.7088214628481926 -7.3702356601776913 0 -7.3702356601776913 41.180434023321624 0 0 0 0 -8.3843920145033479 -4.9120781775418436 0 -4.9120781775418436 39.420156435284298 0 0 0 0 -10.701901454537296 -16.986847566808137 0 -16.986847566808137 26.017469453014201 0 0 0 0 -19.782419250651184 -4.5438890909426846 0 -4.5438890909426846 46.947832829911931 0 0 0 0 -5.4648805355617727 2.6913320326875692 0 2.6913320326875692 33.103511547400558 0 0 0 0 -36.992250700730679 3.3485486020963435 0 3.3485486020963435 33.215122399044049 0 0 0 0 -19.907429641496158 -17.822080638121406 0 -17.822080638121406 27.034191625150925 0 0 0 0 -3.7873760952277027 -2.9999417394465056 0 -2.9999417394465056 36.830707864560566 0 0 0 0 7.2284230300921086 16.468784609581505 0 16.468784609581505 13.00476338620382 0 0 0 0 1.2003835499054327 2.7561041997666678 0 2.7561041997666678 3.3802125250976758 0 0 0 0 -0.23905711268815549 0.0098238397760610496 0 0.0098238397760610496 0.15456452329561898 0 0 0 0 26.487930425169232 80.646558668391663 0 80.646558668391663 97.306953198625706 0 0 0 0 29.747303367543779 25.222492249456991 0 25.222492249456991 30.18857599257899 0 0 0 0 15.659279037123966 24.438684149674373 0 24.438684149674373 54.031346880125056 0 0 0 0 29.444451998693655 19.855870323444833 0 19.855870323444833 15.829074669825786 0 0 0 0 -40.874551097212084 1.7959166502914741 0 1.7959166502914741 45.01034058915684 0 0 0 0 -18.758087421837416 -3.7871731109626126 0 -3.7871731109626126 30.997299813869176 0 0 0 0 -24.34382197694589 -31.791331645508762 0 -31.791331645508762 82.820924023275438 0 0 0 0 -20.611970777470972 -21.742651444830699 0 -21.742651444830699 14.00453340257809 0 0 0 0 -25.502642068084462 22.284123655692383 0 22.284123655692383 -2.2278218752690009 0 0 0 0 -1.2930608619038186 0.59473746274971973 0 0.59473746274971973 7.0043844402414237 0 0 0 0 -0.024315202521007735 3.2786655046220403 0 3.2786655046220403 8.6817539187904913 0 0 0 0 -15.703323562514674 -29.95716524836098 0 -29.95716524836098 21.993623703412595 0 0 0 0 -10.687715246882187 -10.461815034759638 0 -10.461815034759638 74.074946167442249 0 0 0 0 -0.0046039898594152405 1.396391661335656 0 1.396391661335656 61.811320979970333 0 0 0 0 -0.94027074212466422 -1.0097441134421388 0 -1.0097441134421388 33.89222445533278 0 0 0 0 -2.0604335825824291 -13.694773745542989 0 -13.694773745542989 32.817418052771245 0 0 0 0 0.0090271459702707096 -0.0084072983700025361 0 -0.0084072983700025361 31.569337268731033 0 0 0 0 -7.9514193433390066 0.048728023106377805 0 0.048728023106377805 47.067039417568594 0 0 0 0 -0.0028811563809027075 -2.233650272450177 0 -2.233650272450177 48.88964248225966 0 0 0 0 -4.0489319144294127 6.7261295186181087 0 6.7261295186181087 40.316388977124006 0 0 0 0 0.901668496120692 11.243277741003112 0 11.243277741003112 31.74812375820693 0 0 0 0 -55.481739140754144 1.5148057929800416 0 1.5148057929800416 36.160729344577703 0 0 0 0 14.731741730060094 -37.388452909577609 0 -37.388452909577609 -3.0478972860000795 0 0 0 0 93.662504205614823 16.612979600948165 0 16.612979600948165 14.457854206033517 0 0 0 0 105.99031031533104 59.077854379813289 0 59.077854379813289 36.86447889401461 0 0 0 0 67.523020027191706 52.161978733756769 0 52.161978733756769 36.781324288618634 0 0 0 0 121.90216368963502 27.777519210540049 0 27.777519210540049 18.853696442442015 0 0 0 0 77.907177525099542 -27.180974505419726 0 -27.180974505419726 -6.2466955979107297 0 0 0 0 10.840355416736202 12.309375486860517 0 12.309375486860517 21.911005250782182 0 0 0 0 32.80342655709137 1.6500848536779813 0 1.6500848536779813 33.594006330892626 0 0 0 0 -0.6277792308524468 -0.37043414464883995 0 -0.37043414464883995 0.88165106140920102 0 0 0 0 42.173878010459703 47.251158280750133 0 47.251158280750133 37.695947246364085 0 0 0 0 30.138538699495257 6.0485184804056189 0 6.0485184804056189 26.41808401576418 0 0 0 0 5.2094651984355096 13.659478897374811 0 13.659478897374811 27.352703504890087 0 0 0 0 -6.4669235366053464 -4.6703674039089762 0 -4.6703674039089762 9.2954688128501886 0 0 0 0 -2.5792959006575984 0.20887633187521715 0 0.20887633187521715 12.110998848840609 0 0 0 0 -2.6795069542877172 -2.6403260253246117 0 -2.6403260253246117 13.819003955135486 0 0 0 0 3.0765629068591807 7.567833120886462 0 7.567833120886462 11.140160135044425 0 0 0 0 -2.7211075677314511 0.56726341015746584 0 0.56726341015746584 15.123522437817883 0 0 0 0 -2.4403491415887402 -2.9108161521726288 0 -2.9108161521726288 11.289215880407028 0 0 0 0 -6.6278115052547228 0.19903773298489114 0 0.19903773298489114 8.7587696927867 0 0 0 0 -0.54547354696842376 0.62600490615295712 0 0.62600490615295712 15.623175553122564 0 0 0 0 0.83857916640401697 1.2201963206346775 0 1.2201963206346775 1.962641299935683 0 0 0 0 -2.2798285568992469 -1.529525036717132 0 -1.529525036717132 16.761877291919518 0 0 0 0 6.9316776140349248 7.9732543641839584 0 7.9732543641839584 4.6935079867789682 0 0 0 0 4.0470691114705915 -10.378991282925199 0 -10.378991282925199 82.497484407365846 0 0 0 0 6.3125263238025582 -0.54966713404337497 0 -0.54966713404337497 5.689780186767166 0 0 0 0 1.7704733523974774 1.3574962851481018 0 1.3574962851481018 1.5152675342185518 0 0 0 0 9.3701880250285825 6.8120512684660781 0 6.8120512684660781 4.6404599077781299 0 0 0 0 20.344108443421646 32.561879644039436 0 32.561879644039436 134.09164245341162 0 0 0 0 -14.241305572119927 45.941401247274371 0 45.941401247274371 0.80644938717159675 0 0 0 0 -5.0943284964705384 42.515097639776172 0 42.515097639776172 195.47923971927958 0 0 0 0 -5.4417687046984327 59.166202387492433 0 59.166202387492433 221.62484265093372 0 0 0 0 25.694288387458073 78.017561747245054 0 78.017561747245054 132.08961110713972 0 0 0 0 5.9284383807753329 54.284228336089654 0 54.284228336089654 206.80365181399975 0 0 0 0 38.456110944870488 78.875445200108516 0 78.875445200108516 204.72284921481969 0 0 0 0 45.128635248930038 33.944240069722355 0 33.944240069722355 199.81339328563627 0 0 0 0 16.351855269214866 49.833390589068586 0 49.833390589068586 263.60349629871052 0 0 0 0 -3.5851702304462378 80.507591688590765 0 80.507591688590765 248.95623084983526 0 0 0 0 -18.353118458942845 59.334923782298574 0 59.334923782298574 222.64959094570077 0 0 0 0 55.168080321755951 92.717072711044239 0 92.717072711044239 162.85794141145743 0 0 0 0 12.449538165327795 131.88336709307623 0 131.88336709307623 262.36241736644661 0 0 0 0 -25.957773487960367 66.591798269091669 0 66.591798269091669 329.76292074502999 0 0 0 0 18.599929070745929 3.6920827701287635 0 3.6920827701287635 148.80053273818339 0 0 0 0 -5.0528872346267235 -7.354279892843806 0 -7.354279892843806 244.25830681836669 0 0 0 0 -25.404697031101705 -20.11912572258052 0 -20.11912572258052 590.68931064547724 0 0 0 0 3.9437795920778029 1.9631956726876609 0 1.9631956726876609 1.3495618291753786 0 0 0 0 145.2427282325425 29.920860442718549 0 29.920860442718549 -35.832848756589556 0 0 0 0 69.155263041156104 232.14103704929585 0 232.14103704929585 397.48010132897252 0 0 0 0 -19.06653633078804 -142.19050365495787 0 -142.19050365495787 377.13103335230335 0 0 0 0 290.4630871780264 46.411750920498889 0 46.411750920498889 90.733050023754913 0 0 0 0 -55.264003523567226 -47.273276849860849 0 -47.273276849860849 103.51459722557775 0 0 0 0 -38.871833329631045 4.0904021290807577 0 4.0904021290807577 -5.2378996122371291 0 0 0 0 -133.92544052457379 14.232991026212403 0 14.232991026212403 241.82887203744758 0 0 0 0 -131.09268682106449 8.5098406130746298 0 8.5098406130746298 239.17178473079366 0 0 0 0 -70.079235622008127 38.167002715326817 0 38.167002715326817 168.98739927673887 0 0 0 0 -78.191219697448105 68.133530170474842 0 68.133530170474842 196.81550750060705 0 0 0 0 266.19304870197539 184.87798602390467 0 184.87798602390467 73.237677999175503 0 0 0 0 -0.53467045050092565 195.18084961074419 0 195.18084961074419 389.88400409867904 0 0 0 0 -197.2926756472034 -68.81368881794333 0 -68.81368881794333 -136.76042797801347 0 0 0 0 -3.8846836431694984 7.2003376887307082 0 7.2003376887307082 13.615704511163131 0 0 0 0 -6.0454462989018793 10.498591256146028 0 10.498591256146028 40.117210377691663 0 0 0 0 3.6383818327522022 20.441926959640114 0 20.441926959640114 30.035046233417233 0 0 0 0 -9.7924028287343479 3.8900763209134048 0 3.8900763209134048 24.682401039353735 0 0 0 0 -1.9412793998068016 5.067691738023596 0 5.067691738023596 0.80047239370733791 0 0 0 0 44.907578571815293 -89.47260005733915 0 -89.47260005733915 -135.18873737029207 0 0 0 0 -176.3176810281293 -108.99365092244989 0 -108.99365092244989 -124.80831741627117 0 0 0 0 -140.34569723676896 24.847517204810174 0 24.847517204810174 267.9492003307023 0 0 0 0 -189.77582199112567 -96.538936967455811 0 -96.538936967455811 -125.29423667666367 0 0 0 0 -118.87806623104933 -154.34358337717214 0 -154.34358337717214 -103.75518671482132 0 0 0 0 0.29845598272196128 -1.3076511973300455 0 -1.3076511973300455 1.9258821653080958 0 0 0 0 -147.47624445656766 -118.46762016467255 0 -118.46762016467255 -139.4424097094161 0 0 0 0 -144.50456015146483 -127.72499876266374 0 -127.72499876266374 -124.2743673161167 0 0 0 0 -168.02490308396591 -2.7606458749251033 0 -2.7606458749251033 296.21379013208207 0 0 0 0 -132.61869609215864 0.56274406615375483 0 0.56274406615375483 212.72050294963992 0 0 0 0 -140.76210426743455 -88.532498144784768 0 -88.532498144784768 158.44104406902625 0 0 0 0 -159.58248591159281 -80.332284972151683 0 -80.332284972151683 271.29065523835379 0 0 0 0 -254.44109801770992 -32.842292557961628 0 -32.842292557961628 331.95803753643122 0 0 0 0 -21.85625715810238 -4.5781653630292567 0 -4.5781653630292567 15.413981006655376 0 0 0 0 -1.8363938781711768 -1.4388955944706012 0 -1.4388955944706012 14.366827285290242 0 0 0 0 -129.57089607064017 -207.76859327294551 0 -207.76859327294551 -96.184822041635925 0 0 0 0 -265.39956818862083 126.68911276487415 0 126.68911276487415 51.522130035373266 0 0 0 0 -0.57972870939232957 -4.5370044356017312 0 -4.5370044356017312 12.776103250532969 0 0 0 0 -17.304007448215089 1.5228787436863058 0 1.5228787436863058 10.881117866643763 0 0 0 0 -153.98293154681323 158.81789127011143 0 158.81789127011143 -160.11834268397797 0 0 0 0 -84.187879216780857 60.273748348048684 0 60.273748348048684 -21.179929220856138 0 0 0 0 -183.34119703770375 141.65395704135153 0 141.65395704135153 11.322632776827959 0 0 0 0 -93.306754643751901 49.840626840848927 0 49.840626840848927 60.669657163089141 0 0 0 0 -74.296007514905796 10.821674821581837 0 10.821674821581837 21.266332210325345 0 0 0 0 -58.339710708571147 63.474834704058594 0 63.474834704058594 18.002391452311713 0 0 0 0 -56.799199174147361 79.391670170400175 0 79.391670170400175 39.170889686138253 0 0 0 0 -104.09850898730656 97.47988082714437 0 97.47988082714437 46.947587699985888 0 0 0 0 -97.082057585271286 74.744916393936364 0 74.744916393936364 84.979938303265953 0 0 0 0 -53.783879240638271 72.396162370641832 0 72.396162370641832 59.0717895556445 0 0 0 0 -95.413643880776362 87.940242128694081 0 87.940242128694081 56.913742296725104 0 0 0 0 -134.76732379815076 80.370611199570703 0 80.370611199570703 73.961457825251273 0 0 0 0 -196.23946624466771 60.224695117016381 0 60.224695117016381 88.986630780855194 0 0 0 0 -97.507915645613139 75.557758829635532 0 75.557758829635532 53.749991867720382 0 0 0 0 -97.919815822475357 78.184752031418611 0 78.184752031418611 72.698112360638333 0 0 0 0 -130.89672806553244 62.876585132078617 0 62.876585132078617 102.7155990775791 0 0 0 0 -130.155984018249 49.761371077678632 0 49.761371077678632 89.032146142737474 0 0 0 0 -121.80425035583539 65.309660165628884 0 65.309660165628884 76.542560207697534 0 0 0 0 -132.1154585670829 73.161022836458869 0 73.161022836458869 74.587906312837731 0 0 0 0 -169.85088443783025 43.336467493107193 0 43.336467493107193 75.208372963652437 0 0 0 0 -192.82891402113091 77.540815614702296 0 77.540815614702296 77.355693935387535 0 0 0 0 -145.09737057927305 103.9349331873309 0 103.9349331873309 48.960376154602272 0 0 0 0 -110.92748036456805 81.233584375233477 0 81.233584375233477 43.537024112039944 0 0 0 0 -10.082421602056002 -3.1723368868338184 0 -3.1723368868338184 8.9724463679594919 0 0 0 0 -253.92346666309186 73.986918180607972 0 73.986918180607972 93.478361021305318 0 0 0 0 -0.62575365824371687 -0.29940868087746253 0 -0.29940868087746253 7.1990916362674398 0 0 0 0 95.79557926072539 69.202900667994982 0 69.202900667994982 101.74506295392348 0 0 0 0 -181.78891516528165 14.910356423686608 0 14.910356423686608 67.477717711502919 0 0 0 0 -113.31729374692077 34.121399724623188 0 34.121399724623188 37.376006941194646 0 0 0 0 -106.32260127340123 80.757692509039771 0 80.757692509039771 71.710632732487284 0 0 0 0 -118.1778938765201 73.92332024742791 0 73.92332024742791 125.33097806118894 0 0 0 0 -98.446668906835839 47.756326602742774 0 47.756326602742774 136.28019590920303 0 0 0 0 -0.089591695465873755 -4.0123465775476674 0 -4.0123465775476674 -0.52594491936685017 0 0 0 0 57.491797199152643 34.425532652225229 0 34.425532652225229 117.10955782668316 0 0 0 0 93.52196033943801 63.75773901334469 0 63.75773901334469 37.658335057214572 0 0 0 0 61.178330074177211 68.690634748309094 0 68.690634748309094 41.725761967158178 0 0 0 0 125.93415895049839 98.918161029567273 0 98.918161029567273 53.944651123474614 0 0 0 0 49.956037486581408 147.84634873406321 0 147.84634873406321 166.80572933879012 0 0 0 0 -19.155023748417079 75.818687965300342 0 75.818687965300342 74.899278829438117 0 0 0 0 -74.50203446309132 13.903280799585787 0 13.903280799585787 142.57470568868303 0 0 0 0 -58.076372455931846 59.781590198247159 0 59.781590198247159 69.754203520482406 0 0 0 0 -19.849232734608449 78.123893456642691 0 78.123893456642691 97.817553721506556 0 0 0 0 70.890693783820097 105.93069832281617 0 105.93069832281617 59.053438225157151 0 0 0 0 46.514089434916968 80.900217831240298 0 80.900217831240298 38.212916850879992 0 0 0 0 1.1270849661032116 79.033056621473406 0 79.033056621473406 50.427286774749518 0 0 0 0 -1.7874909367747023 93.988633873639628 0 93.988633873639628 46.448544604871131 0 0 0 0 -57.273311324536735 76.179404771508416 0 76.179404771508416 57.618362108783913 0 0 0 0 -49.83184172458823 91.783292284904746 0 91.783292284904746 56.579627936000179 0 0 0 0 1.3482396828420633 61.872632258038607 0 61.872632258038607 60.257578177508549 0 0 0 0 2.0198175507612177 77.311805515149899 0 77.311805515149899 46.133067414877587 0 0 0 0 51.584993631648103 56.656228533051035 0 56.656228533051035 47.044953848016121 0 0 0 0 45.414793800342181 65.432858151401661 0 65.432858151401661 37.0291893408139 0 0 0 0 72.210431449795578 70.032551068805333 0 70.032551068805333 35.950977418586263 0 0 0 0 73.269611013984104 49.567663283829461 0 49.567663283829461 27.211580546623736 0 0 0 0 8.6200457750310306 26.775508888746117 0 26.775508888746117 49.908741891274985 0 0 0 0 40.085185873489536 73.619710582319385 0 73.619710582319385 49.351259032378493 0 0 0 0 -0.94825107478041915 -0.30350113634380449 0 -0.30350113634380449 1.0822088510366825 0 0 0 0 26.256256301523536 38.030056927644182 0 38.030056927644182 31.732294486049796 0 0 0 0 5.1390974649802956 17.846340261181467 0 17.846340261181467 36.559132050722837 0 0 0 0 -55.61989337097657 12.299956236303842 0 12.299956236303842 69.542019029318908 0 0 0 0 44.27594163789945 70.09283970380784 0 70.09283970380784 40.347674076427211 0 0 0 0 -59.235516421442298 58.126882195159851 0 58.126882195159851 70.275344910900458 0 0 0 0 7.6918505517592166 23.002807797227433 0 23.002807797227433 71.065516157781531 0 0 0 0 19.356942775901189 36.833433702975526 0 36.833433702975526 41.598263153355219 0 0 0 0 7.9923633729458743 8.4899735536055232 0 8.4899735536055232 16.919877611238917 0 0 0 0 2.1740930606883921 2.1929728204922867 0 2.1929728204922867 34.552829270760412 0 0 0 0 2.2873523185821796 11.197101720638784 0 11.197101720638784 25.393761097657261 0 0 0 0 3.032300767252309 20.609195237801032 0 20.609195237801032 53.308523103374682 0 0 0 0 16.010080254676723 140.44685949066479 0 140.44685949066479 259.0233340373743 0 0 0 0 -63.11313933808924 78.921437241893727 0 78.921437241893727 338.36046617228203 0 0 0 0 -72.069894361051411 28.156772975307831 0 28.156772975307831 224.45068816718413 0 0 0 0 -88.732971197172446 27.493137703168031 0 27.493137703168031 249.22295849813963 0 0 0 0 -50.821357802466082 78.019536513558705 0 78.019536513558705 255.27156045853189 0 0 0 0 -62.908922101622011 40.236453390058159 0 40.236453390058159 183.94075255130883 0 0 0 0 -15.272514591662912 71.524072255109786 0 71.524072255109786 161.63991786728729 0 0 0 0 -14.232314223015237 63.17830337977648 0 63.17830337977648 150.71527187345782 0 0 0 0 11.169222028975355 81.884249542040379 0 81.884249542040379 169.96925882081268 0 0 0 0 -15.033130413110484 63.65326416491007 0 63.65326416491007 160.41930771206535 0 0 0 0 -75.527763859332481 49.092075639156974 0 49.092075639156974 187.7534496805456 0 0 0 0 -82.480610733480717 31.57198714860715 0 31.57198714860715 167.80924475886059 0 0 0 0 -101.3297601640661 48.290850919875083 0 48.290850919875083 165.40128288045526 0 0 0 0 -14.52124570956039 70.696586160142033 0 70.696586160142033 154.08944131131284 0 0 0 0 -53.996466715121642 25.386137328343466 0 25.386137328343466 129.8535235192976 0 0 0 0 -62.193208405014957 51.782679236828699 0 51.782679236828699 134.38623074104544 0 0 0 0 -102.73224599004607 52.637222359204316 0 52.637222359204316 138.01996002157102 0 0 0 0 -72.838583129894687 26.883269164449302 0 26.883269164449302 136.79301102325553 0 0 0 0 -109.30048792443631 47.926392311186646 0 47.926392311186646 97.420422777940985 0 0 0 0 -130.68512193567585 68.370660978587694 0 68.370660978587694 106.0416818948579 0 0 0 0 -104.20386376329407 43.573818505188683 0 43.573818505188683 116.0317739303282 0 0 0 0 -103.41216182336939 60.928748696955154 0 60.928748696955154 108.61202176724328 0 0 0 0 -115.22262595516077 44.499406817034469 0 44.499406817034469 140.04841371966177 0 0 0 0 -116.1059268960671 61.45117253801709 0 61.45117253801709 139.8303908064845 0 0 0 0 -113.35416532003001 39.230080786845065 0 39.230080786845065 148.72107477247482 0 0 0 0 -104.92563304169744 56.208580627440824 0 56.208580627440824 153.11959217512049 0 0 0 0 -103.97673906569253 35.37345146125881 0 35.37345146125881 158.40949274498416 0 0 0 0 -95.451771787607868 44.945023716914875 0 44.945023716914875 167.65294951369287 0 0 0 0 -112.07058295669049 45.460371543013025 0 45.460371543013025 162.99384823068976 0 0 0 0 -104.59271994935898 31.177454194748861 0 31.177454194748861 156.47770851073437 0 0 0 0 -105.33188582701041 29.809739359850937 0 29.809739359850937 182.8659354224219 0 0 0 0 -93.79573389124198 39.238094210624695 0 39.238094210624695 213.70234247128246 0 0 0 0 -96.8966302160552 23.645430496850167 0 23.645430496850167 173.17026157048531 0 0 0 0 -105.44191297925136 -2.460111691892962 0 -2.460111691892962 209.75871383421145 0 0 0 0 -99.274016524019316 -0.34991754380462226 0 -0.34991754380462226 173.09653170093952 0 0 0 0 -107.09756476898883 9.501580284893862 0 9.501580284893862 159.03706413254258 0 0 0 0 -107.22323845577193 10.646009889314882 0 10.646009889314882 194.51313255862624 0 0 0 0 -105.39359602598415 10.255525722619495 0 10.255525722619495 155.58415000756941 0 0 0 0 -93.348229673107198 15.851289929458289 0 15.851289929458289 144.80962995562004 0 0 0 0 -106.33195452966902 33.070765745302197 0 33.070765745302197 136.09414848800225 0 0 0 0 -110.55449758903706 25.829139471010421 0 25.829139471010421 171.46740485925693 0 0 0 0 -112.57781772324233 41.320445622171974 0 41.320445622171974 144.33670314293704 0 0 0 0 -113.11007183931775 53.108116152883554 0 53.108116152883554 130.1978090776247 0 0 0 0 -119.12572841124347 49.902198812182178 0 49.902198812182178 115.35155094604124 0 0 0 0 -125.32840059631053 61.757658005000849 0 61.757658005000849 135.33447865274502 0 0 0 0 -108.30866395109479 61.961078207037644 0 61.961078207037644 102.5587635433476 0 0 0 0 -104.71893196196743 48.843483151780674 0 48.843483151780674 118.6979207121185 0 0 0 0 -109.37551429094674 57.96695988254578 0 57.96695988254578 120.9303562422574 0 0 0 0 -81.563514397068502 68.339472441672115 0 68.339472441672115 86.289209071977893 0 0 0 0 -58.867804213276031 51.418562046390434 0 51.418562046390434 95.483973681912175 0 0 0 0 -94.636226369128963 25.885587322889478 0 25.885587322889478 108.20032180901035 0 0 0 0 -79.128015873178811 7.9083602026730659 0 7.9083602026730659 116.41588458320257 0 0 0 0 -86.500000955744326 40.56624850830849 0 40.56624850830849 115.19865784338617 0 0 0 0 -68.530179202460204 -10.5777228558145 0 -10.5777228558145 83.359244672199566 0 0 0 0 -1.0396704978564024 -0.22291012024412993 0 -0.22291012024412993 0.91861945846295612 0 0 0 0 -18.643877407157561 44.847604939051962 0 44.847604939051962 70.107810928529943 0 0 0 0 -70.178803339445949 -13.039967794753466 0 -13.039967794753466 99.255764992441982 0 0 0 0 -85.433878324365651 -20.028861773957033 0 -20.028861773957033 106.97138263527449 0 0 0 0 -94.852528517862083 -1.408767969442124 0 -1.408767969442124 116.35591823310824 0 0 0 0 -96.543929346760706 -12.154809351457516 0 -12.154809351457516 151.01207230293221 0 0 0 0 54.941564801910317 -75.574878369508951 0 -75.574878369508951 -29.291620008989412 0 0 0 0 -69.279508047362469 -50.356812525635178 0 -50.356812525635178 71.363813548545295 0 0 0 0 -90.077127546725023 -70.396268659798807 0 -70.396268659798807 114.39952107235149 0 0 0 0 -99.998597439942387 -21.696903207528521 0 -21.696903207528521 130.81072399580444 0 0 0 0 -105.23785440697065 -28.464722444266954 0 -28.464722444266954 197.76239828512189 0 0 0 0 -82.765600021164573 -28.373361608741106 0 -28.373361608741106 132.99790638788545 0 0 0 0 -66.519914285342111 -14.006190375152073 0 -14.006190375152073 60.377472385684086 0 0 0 0 -94.586301835790437 -28.012239731724549 0 -28.012239731724549 290.14126180660242 0 0 0 0 -106.10938769669701 -69.311922877976031 0 -69.311922877976031 201.92260715132215 0 0 0 0 -1.9643791638882249 -33.03659427108505 0 -33.03659427108505 -51.906164877160336 0 0 0 0 -5.2464861880494382 9.6756418355204517 0 9.6756418355204517 12.947868708399424 0 0 0 0 6.1545010631489276 0.20991807080281433 0 0.20991807080281433 87.147347847363562 0 0 0 0 -4.5191969337561204 16.65391405344235 0 16.65391405344235 95.261918787655304 0 0 0 0 -1.9804797973393287 17.355893748100726 0 17.355893748100726 37.619873418980177 0 0 0 0 -1.7246675379467433 -1.4122236718283432 0 -1.4122236718283432 21.073966572823039 0 0 0 0 -11.181138399548217 0.91114659361483064 0 0.91114659361483064 69.978808532898256 0 0 0 0 3.9372848162056471 -17.59746533807629 0 -17.59746533807629 80.995819867508544 0 0 0 0 -12.393123146960534 -2.6914136958439485 0 -2.6914136958439485 99.361760922962276 0 0 0 0 7.4315456573913252 -9.9220344795430719 0 -9.9220344795430719 62.943096848524874 0 0 0 0 50.591766792271756 8.1820785459676699 0 8.1820785459676699 68.447444270073902 0 0 0 0 18.446164332764965 -37.608115773247846 0 -37.608115773247846 53.849205048769363 0 0 0 0 2.9406390296535392 -20.255394530049671 0 -20.255394530049671 74.16681133172824 0 0 0 0 -94.09613775533154 65.183715507118904 0 65.183715507118904 204.05795731760554 0 0 0 0 -6.2784285156702149 10.764862817776937 0 10.764862817776937 70.966774215849 0 0 0 0 -37.122393848687352 0.70309908232957241 0 0.70309908232957241 82.868310409830883 0 0 0 0 -33.566399613662725 -17.902119024874992 0 -17.902119024874992 82.156524347723462 0 0 0 0 -2.0724127204266942 10.938884679748767 0 10.938884679748767 6.3667535258928876 0 0 0 0 -1.5210500104137736 19.020639259639665 0 19.020639259639665 60.121662603334698 0 0 0 0 -19.473483073787975 17.105512096859457 0 17.105512096859457 68.0703079784289 0 0 0 0 0.34038953953290729 15.602395586020975 0 15.602395586020975 67.674032646893465 0 0 0 0 -3.2971478018348535 10.490480873458438 0 10.490480873458438 -3.595459568128506 0 0 0 0 0.70340549474349245 13.591902849831968 0 13.591902849831968 65.405322171797707 0 0 0 0 20.522180151781868 30.120164646024932 0 30.120164646024932 108.71259353083406 0 0 0 0 26.271815118671384 11.619835935374795 0 11.619835935374795 67.66825418856024 0 0 0 0 1.3746503542206483 7.3271929090806225 0 7.3271929090806225 86.734614225246332 0 0 0 0 2.1113983728564563 13.526871123779529 0 13.526871123779529 57.629647100562579 0 0 0 0 -7.6651209836700218 4.3648600157175679 0 4.3648600157175679 54.113302662677597 0 0 0 0 -22.55881647130991 -1.6580231580410327 0 -1.6580231580410327 57.254136507190196 0 0 0 0 -13.694436685050277 3.4286134867470537 0 3.4286134867470537 50.490655134177359 0 0 0 0 -28.327203969784705 3.3049122744114356 0 3.3049122744114356 51.541029378626263 0 0 0 0 -1.4447509924436379 2.182528988531133 0 2.182528988531133 49.981229724490646 0 0 0 0 -18.084303697988616 -1.3048272916075803 0 -1.3048272916075803 49.723546254961548 0 0 0 0 -21.746185706981123 -8.7593367345616571 0 -8.7593367345616571 38.452871338704426 0 0 0 0 -2.1503836436249912 12.010998136151102 0 12.010998136151102 31.683605730941053 0 0 0 0 -1.4125186169643262 4.8607816298614068 0 4.8607816298614068 21.925654569464768 0 0 0 0 -1.5877280918302858 12.929651152189763 0 12.929651152189763 27.437680301743967 0 0 0 0 -7.9347592466619972 6.9440422293519077 0 6.9440422293519077 27.258521773284883 0 0 0 0 -8.2221271892694858 4.6535055329204624 0 4.6535055329204624 20.422519421670586 0 0 0 0 0.27506426401216544 2.7350917938250419 0 2.7350917938250419 11.092258382623008 0 0 0 0 -13.696306692600956 15.920474199378077 0 15.920474199378077 39.064097910872079 0 0 0 0 -24.452636210477067 6.6284018909791484 0 6.6284018909791484 39.317249017913127 0 0 0 0 -11.380312338897966 -2.9848898347299837 0 -2.9848898347299837 37.367705004584423 0 0 0 0 -21.535730136065695 -2.7647085307125963 0 -2.7647085307125963 40.179576732261921 0 0 0 0 -8.7254893256704236 -4.0996190180303529 0 -4.0996190180303529 37.589303877211933 0 0 0 0 -14.676260637198538 0.70556839670825866 0 0.70556839670825866 33.717498224075825 0 0 0 0 -9.6085895604774123 6.3031035185631481 0 6.3031035185631481 39.148457761377358 0 0 0 0 -0.26528988830614253 8.3798577068373561 0 8.3798577068373561 35.438439162724535 0 0 0 0 -8.0767934337764018 -1.1148386810309603 0 -1.1148386810309603 33.581655632838192 0 0 0 0 -4.3033205405206196 0.27070644359850604 0 0.27070644359850604 3.0516418944184984 0 0 0 0 -8.0869505045338883 -2.3654615115156048 0 -2.3654615115156048 31.861463782392093 0 0 0 0 -5.2079313016301967 0.66928456794084923 0 0.66928456794084923 19.287715567905252 0 0 0 0 -3.0975640478053315 0.32851941689742858 0 0.32851941689742858 8.6315896643933314 0 0 0 0 -4.0019099608823723 -2.0982453387852971 0 -2.0982453387852971 9.1483780053395112 0 0 0 0 -3.2861401578527722 -1.2219844107720856 0 -1.2219844107720856 8.76521439509267 0 0 0 0 -6.5639743447100045 0.59139413762022741 0 0.59139413762022741 22.755806263172417 0 0 0 0 -1.0041780579849728 1.1889233564288588 0 1.1889233564288588 5.3040572527115728 0 0 0 0 -1.5397377690678695 73.948330366867594 0 73.948330366867594 133.16279455412587 0 0 0 0 8.4946655997337075 11.233704906058847 0 11.233704906058847 92.913478286849568 0 0 0 0 0.11184763743173676 0.16108952890368755 0 0.16108952890368755 2.7836200194304368 0 0 0 0 36.64348121592775 13.199935894030205 0 13.199935894030205 10.724179920332972 0 0 0 0 12.365289365276112 -2.2676978577219415 0 -2.2676978577219415 15.036981457666116 0 0 0 0 -0.20774202073152992 14.76106511096441 0 14.76106511096441 25.243947988870787 0 0 0 0 0.3624631410702932 -4.7159613639648796 0 -4.7159613639648796 13.353671233751811 0 0 0 0 -1.1427089256009495 1.3060479419782354 0 1.3060479419782354 4.6983436062672297 0 0 0 0 13.417648100665247 9.9456644023484841 0 9.9456644023484841 15.003914266620995 0 0 0 0 -6.9953531887304052 -0.9242013722378033 0 -0.9242013722378033 22.450731910168543 0 0 0 0 -8.0238174637051998 6.0185957978355873 0 6.0185957978355873 29.679131843535288 0 0 0 0 0.70595942085265051 -5.0937773111181741 0 -5.0937773111181741 27.542977449928003 0 0 0 0 -2.6453064760674962 -0.16299774396903643 0 -0.16299774396903643 -0.26471570632855368 0 0 0 0 -1.7775462126783168 -0.087059994870287483 0 -0.087059994870287483 15.525734166789334 0 0 0 0 -4.0751653306788285 -5.7585575668163074 0 -5.7585575668163074 34.635293966934114 0 0 0 0 -8.3582268848988406 -3.7532459104968439 0 -3.7532459104968439 35.451974790026725 0 0 0 0 -2.6344921110503492 -6.772752670058253 0 -6.772752670058253 36.939643630612409 0 0 0 0 -10.887868528474428 0.14915023230059887 0 0.14915023230059887 44.411655885356595 0 0 0 0 0.37082202678084286 -11.245935126182303 0 -11.245935126182303 33.301767085944448 0 0 0 0 0.41271809235331602 -3.2217870931090147 0 -3.2217870931090147 45.40697924866673 0 0 0 0 -5.1809647066384059 -6.4724819493931136 0 -6.4724819493931136 45.397207246201589 0 0 0 0 0.63621903100556665 -8.8331874414652702 0 -8.8331874414652702 55.806550320219685 0 0 0 0 -8.2317188257907219 -0.60014644502734882 0 -0.60014644502734882 73.533315837499686 0 0 0 0 -9.1352278834037861 -4.8447011754215055 0 -4.8447011754215055 53.242708172972925 0 0 0 0 -6.5130339113238733 2.6743981327199435 0 2.6743981327199435 52.556141481812574 0 0 0 0 -16.652152346918228 2.5742653710094601 0 2.5742653710094601 66.161368490451423 0 0 0 0 -11.111292625003443 11.604839250838268 0 11.604839250838268 62.33491649500138 0 0 0 0 -12.278369615342399 10.78482296421771 0 10.78482296421771 83.763975615765958 0 0 0 0 -1.0634325961336799 8.3561549428741273 0 8.3561549428741273 69.075278436695953 0 0 0 0 -0.016372194373616367 -0.67227546321373666 0 -0.67227546321373666 99.695690548799575 0 0 0 0 24.637544403598895 14.307555920624509 0 14.307555920624509 86.553048282275995 0 0 0 0 8.304992618012875 19.729468049372372 0 19.729468049372372 137.53295114480238 0 0 0 0 17.050878162108347 2.1793144117982592 0 2.1793144117982592 102.7908767376357 0 0 0 0 4.965995734027274 -2.8696951215097215 0 -2.8696951215097215 65.459169537625712 0 0 0 0 18.79437348619831 18.415048350638244 0 18.415048350638244 85.610089679648809 0 0 0 0 11.77049404004174 19.447232454620462 0 19.447232454620462 74.948961392103229 0 0 0 0 3.7280613835282566 2.825758193499496 0 2.825758193499496 60.898939471777339 0 0 0 0 4.1376703381752122 -6.4017804557488489 0 -6.4017804557488489 76.572645963235118 0 0 0 0 15.937539164002374 28.783135292960651 0 28.783135292960651 111.27020007179908 0 0 0 0 23.903289406365388 24.700361416726309 0 24.700361416726309 98.41188344823604 0 0 0 0 15.755485387190674 37.950351854513428 0 37.950351854513428 93.778127438543379 0 0 0 0 31.35001232317336 29.386886555316778 0 29.386886555316778 96.337892084571649 0 0 0 0 -1.1097993183584549 22.108039262853708 0 22.108039262853708 94.555822146954597 0 0 0 0 17.623492116983471 22.952091815946915 0 22.952091815946915 93.353882496536244 0 0 0 0 2.7037372677586973 15.22021268487515 0 15.22021268487515 85.334394316363614 0 0 0 0 10.33983226010514 27.033573290555069 0 27.033573290555069 92.800635354753467 0 0 0 0 5.2996715145636699 28.699859760483378 0 28.699859760483378 109.08167404485721 0 0 0 0 9.0209340936175977 31.644419880779424 0 31.644419880779424 146.99553097023454 0 0 0 0 9.9095584982214859 29.765518970521043 0 29.765518970521043 108.28769922397623 0 0 0 0 20.407983873089506 43.490876067655336 0 43.490876067655336 99.662301699201635 0 0 0 0 41.064588625216857 -42.241102632578986 0 -42.241102632578986 85.913922384905163 0 0 0 0 9.484493080926768 -24.193131368068862 0 -24.193131368068862 120.47796315792993 0 0 0 0 8.6105629426101586 8.9757134243009205 0 8.9757134243009205 121.61494863667758 0 0 0 0 14.748973489566197 -1.5829174509563018 0 -1.5829174509563018 139.26393055041262 0 0 0 0 -4.4799038254768675 7.5563619875538279 0 7.5563619875538279 96.756237571065867 0 0 0 0 1.8271330317747925 5.6587565293921216 0 5.6587565293921216 121.56431673030602 0 0 0 0 3.2123698297045848 6.6314318175827793 0 6.6314318175827793 85.053672357011237 0 0 0 0 -10.59035353721265 -11.881256968405069 0 -11.881256968405069 95.538032558790292 0 0 0 0 -7.1932922961714212 -45.854427227044653 0 -45.854427227044653 45.800811029794204 0 0 0 0 6.845071952422586 -12.896854092803551 0 -12.896854092803551 73.582937821338419 0 0 0 0 -22.677805005445407 -29.804045188284363 0 -29.804045188284363 77.432685164863869 0 0 0 0 16.483895976305575 -3.2454294326453237 0 -3.2454294326453237 47.195533980440814 0 0 0 0 13.348908627031051 -29.773363827625872 0 -29.773363827625872 18.00231990354041 0 0 0 0 1.6259057101487997 -9.4923986229114234 0 -9.4923986229114234 50.722199750779509 0 0 0 0 -1.5449129912130957 -8.1486537285854865 0 -8.1486537285854865 68.16708979386749 0 0 0 0 -1.9228973288882116 16.123566661932273 0 16.123566661932273 85.38819602161675 0 0 0 0 3.0472340829428504 7.4379173762099526 0 7.4379173762099526 64.476006012788275 0 0 0 0 -4.2817441268457515 -0.7735263698396011 0 -0.7735263698396011 58.041234700511268 0 0 0 0 3.8681611827332745 4.5231705610558492 0 4.5231705610558492 56.814581907492538 0 0 0 0 5.0936989946385438 5.8367469808617898 0 5.8367469808617898 25.228592869752902 0 0 0 0 11.160146529695339 -20.677079629855143 0 -20.677079629855143 48.999799037930643 0 0 0 0 15.388482977856256 0.88578595775470603 0 0.88578595775470603 2.6857051211627549 0 0 0 0 -0.37648473296714968 0.22868188017312718 0 0.22868188017312718 0.087204322319582417 0 0 0 0 0.14889868159398389 0.30589075191482351 0 0.30589075191482351 0.50771432116328441 0 0 0 0 39.530362647034053 -62.97332641902176 0 -62.97332641902176 68.871711937236341 0 0 0 0 10.510750023939181 -31.845657639205456 0 -31.845657639205456 37.001445531001082 0 0 0 0 47.153590865244041 -60.574348528891278 0 -60.574348528891278 63.92719560943442 0 0 0 0 44.303536060768238 -59.553851067430514 0 -59.553851067430514 64.477662229823181 0 0 0 0 52.710222375928424 -65.828922734128355 0 -65.828922734128355 43.789140108434367 0 0 0 0 49.881840649144578 -70.103467144981551 0 -70.103467144981551 59.60086824434984 0 0 0 0 48.724354036810837 -64.716404959070132 0 -64.716404959070132 59.485981059799087 0 0 0 0 53.872542910141419 -74.056040980183752 0 -74.056040980183752 35.895270246280688 0 0 0 0 40.782006465757149 -63.464634515301441 0 -63.464634515301441 101.0349497069401 0 0 0 0 23.276987100385668 -55.167441885627341 0 -55.167441885627341 141.42760464356979 0 0 0 0 50.879031195683638 -48.129031520649733 0 -48.129031520649733 98.054216414639086 0 0 0 0 5.8622732061885472 -11.255227349960478 0 -11.255227349960478 46.947881565818534 0 0 0 0 -5.4672926528655807 -0.90564594134048093 0 -0.90564594134048093 41.099619580700164 0 0 0 0 4.0965658962832663 7.4725473695572191 0 7.4725473695572191 54.638229400668934 0 0 0 0 -9.1975129200009178 11.536275138525525 0 11.536275138525525 37.350999001428136 0 0 0 0 -8.001134257274316 -12.247020557653741 0 -12.247020557653741 41.17300439354949 0 0 0 0 -7.2722863337221497 1.9304934702195169 0 1.9304934702195169 29.511288259440335 0 0 0 0 4.7376715197833619 -10.103075521376013 0 -10.103075521376013 19.67163736859402 0 0 0 0 3.972022858461969 -3.669566012598807 0 -3.669566012598807 14.490554209991387 0 0 0 0 8.5990407700273863 -2.6825033340373921 0 -2.6825033340373921 17.244288603720634 0 0 0 0 -1.3130556673683316 0.13225608462716565 0 0.13225608462716565 0.10982733313225168 0 0 0 0 40.424777158061261 -37.100521454868613 0 -37.100521454868613 18.124571465988993 0 0 0 0 3.7745674640004836 -0.61588712639877485 0 -0.61588712639877485 20.369406774385425 0 0 0 0 3.4955362219147901 8.0691812836503232 0 8.0691812836503232 15.716420930279128 0 0 0 0 31.114599537437243 -35.681924743506897 0 -35.681924743506897 35.77631308677519 0 0 0 0 63.641196242951082 -51.359857295643451 0 -51.359857295643451 26.031505720555288 0 0 0 0 1.039114861133605 0.56468258992172338 0 0.56468258992172338 0.25682555522902817 0 0 0 0 -1.6381479131996457 -10.335287207544752 0 -10.335287207544752 29.984255174179907 0 0 0 0 33.145824187256949 -14.738718955333752 0 -14.738718955333752 10.483472186464496 0 0 0 0 13.434252252839087 -28.971097359493797 0 -28.971097359493797 44.17618325798685 0 0 0 0 32.918140786056028 -51.205709528239822 0 -51.205709528239822 68.13017948909328 0 0 0 0 43.193747006696867 -47.451741202849007 0 -47.451741202849007 40.95873550486067 0 0 0 0 41.590637618801338 -51.932596750833909 0 -51.932596750833909 45.229429909450118 0 0 0 0 50.16015446153142 -54.201850553632539 0 -54.201850553632539 38.186074409146386 0 0 0 0 51.36580149009751 -49.55379003926646 0 -49.55379003926646 37.481485419397359 0 0 0 0 48.764704031753354 -44.145844751463301 0 -44.145844751463301 31.885440222376928 0 0 0 0 57.305785556471164 -58.856282525484858 0 -58.856282525484858 24.913356951939932 0 0 0 0 52.740267716490052 -60.08059355057776 0 -60.08059355057776 35.043747831616201 0 0 0 0 51.796462053396681 -57.146244894225674 0 -57.146244894225674 43.440185978206728 0 0 0 0 53.520538199617476 -48.336040504291304 0 -48.336040504291304 30.392514512546768 0 0 0 0 53.17695977679432 -46.340439297870034 0 -46.340439297870034 26.706306343325195 0 0 0 0 42.074158661181173 -41.04427481703533 0 -41.04427481703533 62.779232921355288 0 0 0 0 47.410034216286476 -29.507548179066362 0 -29.507548179066362 34.916121510962512 0 0 0 0 40.812904219052143 -47.669294438002908 0 -47.669294438002908 40.989865661133081 0 0 0 0 43.363914162209767 -62.958436758875905 0 -62.958436758875905 65.913225179076107 0 0 0 0 28.882141431264017 -45.526515176939938 0 -45.526515176939938 84.630105016833113 0 0 0 0 31.80215625530036 -43.29772240571765 0 -43.29772240571765 62.492848990888433 0 0 0 0 59.010459510889632 -48.890426420588483 0 -48.890426420588483 126.15795058763615 0 0 0 0 3.284425871895289 3.8049637175237834 0 3.8049637175237834 4.4740811242936473 0 0 0 0 108.6329990779991 -74.693572189811675 0 -74.693572189811675 126.42220268905842 0 0 0 0 65.597178569969401 -86.915446988716212 0 -86.915446988716212 215.65861843984749 0 0 0 0 50.334113259083438 -88.816234274517228 0 -88.816234274517228 260.64130630788713 0 0 0 0 158.22735692156948 30.42050722773638 0 30.42050722773638 110.93314299159192 0 0 0 0 61.9984936959072 -36.625838218365971 0 -36.625838218365971 470.32896948566122 0 0 0 0 0.87603231678874671 1.4254890033150431 0 1.4254890033150431 2.3920440604454427 0 0 0 0 110.19706565477509 -52.17769462211254 0 -52.17769462211254 55.285291306221552 0 0 0 0 102.00767276800661 107.60373232291386 0 107.60373232291386 294.72050824406324 0 0 0 0 87.585214533582985 -16.065494580820086 0 -16.065494580820086 0.1313206584090949 0 0 0 0 54.849073984576535 -62.021539576821851 0 -62.021539576821851 63.92102963294019 0 0 0 0 0.39865539737235167 -0.033640368586034697 0 -0.033640368586034697 -0.029784615513591461 0 0 0 0 16.18240886023068 -46.915302428562427 0 -46.915302428562427 138.16074579538554 0 0 0 0 24.851754752852685 -53.717167823531781 0 -53.717167823531781 138.69892016140102 0 0 0 0 -13.766452192849357 -45.686134528505136 0 -45.686134528505136 150.1374207422341 0 0 0 0 -26.818095092249223 -40.77624326509067 0 -40.77624326509067 152.70713220228936 0 0 0 0 -6.5739567154257657 -58.481488355482725 0 -58.481488355482725 163.02184268329438 0 0 0 0 -3.7887440471299669 -50.396272352654705 0 -50.396272352654705 163.71596591333218 0 0 0 0 -25.527886476636752 -67.821008300383255 0 -67.821008300383255 161.92306176205602 0 0 0 0 23.936774253673775 -51.317480029047147 0 -51.317480029047147 161.96804544846282 0 0 0 0 8.3265023799845039 -60.895131144863626 0 -60.895131144863626 171.92175932960527 0 0 0 0 31.504163358612004 -67.195113532727191 0 -67.195113532727191 162.47398602510657 0 0 0 0 34.175446290585342 -69.764664285389699 0 -69.764664285389699 191.72973148724122 0 0 0 0 41.366817605778124 -60.819663069956732 0 -60.819663069956732 185.75088189512826 0 0 0 0 57.789425499676327 -87.89374996674087 0 -87.89374996674087 157.50257980099559 0 0 0 0 39.710510829703708 -71.179928110977926 0 -71.179928110977926 219.23325941107396 0 0 0 0 56.985302011268686 -92.281909648314468 0 -92.281909648314468 196.48999147729046 0 0 0 0 75.843855699793721 -84.434048525205071 0 -84.434048525205071 150.52800019284768 0 0 0 0 55.960296580754772 -100.06381684591224 0 -100.06381684591224 107.11055363558989 0 0 0 0 58.548122201707884 -77.648020528791676 0 -77.648020528791676 150.52705201089233 0 0 0 0 68.421069284683199 -85.390831025579246 0 -85.390831025579246 104.06471578240598 0 0 0 0 84.880264639592497 -61.971851392423559 0 -61.971851392423559 106.58094409604882 0 0 0 0 53.327115786183413 -61.421363906147235 0 -61.421363906147235 128.05705167171982 0 0 0 0 59.807851740011301 -74.350872155115212 0 -74.350872155115212 147.58159747804712 0 0 0 0 54.014423489634282 -58.637927873493027 0 -58.637927873493027 126.65341510516919 0 0 0 0 76.624233257804917 -59.360005802103842 0 -59.360005802103842 111.06418258303893 0 0 0 0 75.628445836232004 -63.594399295002859 0 -63.594399295002859 134.12861131126556 0 0 0 0 1.549292489994702 0.37347389002844622 0 0.37347389002844622 -0.55435095309968574 0 0 0 0 113.07043202112845 -101.59895569135551 0 -101.59895569135551 110.62487914752455 0 0 0 0 60.75154644075792 -54.690429697649961 0 -54.690429697649961 116.50080857118155 0 0 0 0 90.732855074518739 -77.988914116176602 0 -77.988914116176602 106.65280423776312 0 0 0 0 17.324436100967887 -5.6128136980260024 0 -5.6128136980260024 86.350301075312018 0 0 0 0 4.8082403194468917 5.3523831538358166 0 5.3523831538358166 6.0079965972028191 0 0 0 0 36.325349235206886 -39.793720531450163 0 -39.793720531450163 -1.7773648888032767 0 0 0 0 85.629481490018406 -73.034177887973783 0 -73.034177887973783 40.802936710948416 0 0 0 0 46.879300678650338 -25.741921149759946 0 -25.741921149759946 16.071452300486271 0 0 0 0 55.264995128475221 -46.152651912214424 0 -46.152651912214424 4.3395853498950601 0 0 0 0 47.406910546993458 -50.958210318291094 0 -50.958210318291094 12.438640800115536 0 0 0 0 45.819490473464612 -45.037481596762518 0 -45.037481596762518 -9.0727016507589724 0 0 0 0 17.117390393330425 -58.445142753480468 0 -58.445142753480468 -13.743665983667597 0 0 0 0 -23.701306595998176 -64.629621962958481 0 -64.629621962958481 -10.598286114109214 0 0 0 0 41.124466244065843 -51.930862638517283 0 -51.930862638517283 -16.027560428934521 0 0 0 0 4.1489237802197749 -50.666019780597708 0 -50.666019780597708 -10.576717045449186 0 0 0 0 -23.70814722328214 -58.574640395017923 0 -58.574640395017923 -0.31186442349280696 0 0 0 0 -26.559999393310136 -76.050991367796087 0 -76.050991367796087 -12.393177992635174 0 0 0 0 26.674696079200658 -62.353782056852651 0 -62.353782056852651 -7.3332738445678842 0 0 0 0 24.070632814802593 -65.619856244447874 0 -65.619856244447874 21.736889036750654 0 0 0 0 23.386247580914642 -66.568915611234843 0 -66.568915611234843 -11.384210089901899 0 0 0 0 31.367997289298728 -54.381252453935303 0 -54.381252453935303 5.3773765185615048 0 0 0 0 47.109199988617547 -71.531502305304457 0 -71.531502305304457 28.700464409463166 0 0 0 0 47.675525309699879 -67.248622738581616 0 -67.248622738581616 -2.479986180398555 0 0 0 0 55.220594242422521 -60.795944522193167 0 -60.795944522193167 6.236714689177461 0 0 0 0 91.576012609851887 -58.499355190475399 0 -58.499355190475399 69.42325575495488 0 0 0 0 74.80498034362472 -53.760836120844033 0 -53.760836120844033 69.827439900196623 0 0 0 0 100.336613039241 -54.843164535541291 0 -54.843164535541291 43.73837871903379 0 0 0 0 101.34520142005749 -51.227096474522114 0 -51.227096474522114 46.698046309029451 0 0 0 0 109.59264862998589 -71.948751994423219 0 -71.948751994423219 63.361967754302896 0 0 0 0 -114.34485171287088 -76.065098182065412 0 -76.065098182065412 -3.8448656679975102 0 0 0 0 100.90376282656825 -55.296362567602046 0 -55.296362567602046 40.860259194596438 0 0 0 0 100.50738007756445 -53.496448525154847 0 -53.496448525154847 40.554814590304886 0 0 0 0 -176.94116388121802 -19.223460960751254 0 -19.223460960751254 40.049250283336733 0 0 0 0 -49.645298342729802 -49.803386218271044 0 -49.803386218271044 -7.1119579312216956 0 0 0 0 -78.002731938984653 -71.53892469505081 0 -71.53892469505081 -6.894041653489694 0 0 0 0 -151.41700026088074 -66.740407962468453 0 -66.740407962468453 17.398719080811134 0 0 0 0 -122.12697870983902 -39.568675355709274 0 -39.568675355709274 16.932735919253901 0 0 0 0 -90.379436616378371 -46.779587350494694 0 -46.779587350494694 15.198631226707221 0 0 0 0 -25.221227747933881 -62.341482328309212 0 -62.341482328309212 -7.013261357018223 0 0 0 0 -74.728281734471238 -30.234132956815301 0 -30.234132956815301 7.0868287872872315 0 0 0 0 -72.341810143392649 -39.51959549926687 0 -39.51959549926687 11.15076151167159 0 0 0 0 -7.8363186533133558 -28.805981652287301 0 -28.805981652287301 5.5927848026476568 0 0 0 0 -130.36772293921058 10.362230266269762 0 10.362230266269762 19.120333538739942 0 0 0 0 -64.356315429543884 16.404331061728954 0 16.404331061728954 9.1689478105399758 0 0 0 0 -37.91376913366912 7.5375918866629945 0 7.5375918866629945 11.981485269709083 0 0 0 0 101.39633012076956 -50.241420630001812 0 -50.241420630001812 43.014517972798785 0 0 0 0 101.9689035605561 -48.865633331872232 0 -48.865633331872232 46.043175835016882 0 0 0 0 99.644442837911811 -46.005473804125359 0 -46.005473804125359 43.641360908019124 0 0 0 0 99.460913830732807 -45.462325097203575 0 -45.462325097203575 49.710489497127128 0 0 0 0 74.600426086178686 -33.982068632394657 0 -33.982068632394657 57.430874772438074 0 0 0 0 90.267790735469134 -40.074342690964841 0 -40.074342690964841 46.68384226316266 0 0 0 0 73.100925433752309 -31.331455101215397 0 -31.331455101215397 57.062329612913345 0 0 0 0 35.60363131345639 -31.59352526353905 0 -31.59352526353905 85.742106640314887 0 0 0 0 75.924326651668252 -44.222046393169876 0 -44.222046393169876 56.914646030047152 0 0 0 0 51.377936277223853 -51.14635045529576 0 -51.14635045529576 106.28698596731556 0 0 0 0 43.229880480816746 -34.743176018417216 0 -34.743176018417216 86.708939008625748 0 0 0 0 40.826754372958703 -41.942660440534382 0 -41.942660440534382 114.13813414474862 0 0 0 0 60.551203759805929 -56.271630111620198 0 -56.271630111620198 108.97363075450994 0 0 0 0 -43.445346295120544 -25.288618503038379 0 -25.288618503038379 136.12599706982655 0 0 0 0 0.61969905973433015 -31.22229392862755 0 -31.22229392862755 121.75863765358372 0 0 0 0 6.3809924988559032 -37.676293572276336 0 -37.676293572276336 122.21236405688478 0 0 0 0 -1.2733604746325682 -23.298289711575308 0 -23.298289711575308 101.28528158772679 0 0 0 0 -16.697440856771834 -24.563139324014628 0 -24.563139324014628 101.94501201878302 0 0 0 0 18.960547905898125 -6.0203887357329222 0 -6.0203887357329222 63.633730054010812 0 0 0 0 33.797405306315341 -24.653386488629621 0 -24.653386488629621 60.686959556933289 0 0 0 0 -4.9227886738019606 1.0144491095979902 0 1.0144491095979902 58.234417431805923 0 0 0 0 -39.091837430150463 -36.029682226424484 0 -36.029682226424484 52.975553943665545 0 0 0 0 27.907369942966398 10.02054246514399 0 10.02054246514399 43.13480513678951 0 0 0 0 79.026836985766749 -9.6287275078575476 0 -9.6287275078575476 41.056950687911012 0 0 0 0 120.31162262160751 -33.125781131064286 0 -33.125781131064286 36.847397043264209 0 0 0 0 38.610551358908879 -13.928652140129088 0 -13.928652140129088 57.080522159987595 0 0 0 0 92.089913860019806 -29.476412792195333 0 -29.476412792195333 41.081268847658066 0 0 0 0 85.938451936118327 -30.608143655823369 0 -30.608143655823369 45.859107863077952 0 0 0 0 104.20456503048445 2.348115319837234 0 2.348115319837234 60.613742433524749 0 0 0 0 119.09821864499463 -14.432871318924299 0 -14.432871318924299 40.759611990499252 0 0 0 0 79.008441419606243 -22.353007966288715 0 -22.353007966288715 42.002610077232021 0 0 0 0 70.631564399452145 -2.4384222092339769 0 -2.4384222092339769 86.685188441522769 0 0 0 0 43.373529037423395 -25.439580268619466 0 -25.439580268619466 70.733512756523851 0 0 0 0 -128.36925775825966 -386.80794685406363 0 -386.80794685406363 920.40942462232852 0 0 0 0 63.861136716594046 -55.829485543697956 0 -55.829485543697956 91.49566398203433 0 0 0 0 0.074323431398500617 1.7195055704393205 0 1.7195055704393205 7.1736340164727181 0 0 0 0 198.21677623035998 -104.43345587810472 0 -104.43345587810472 -39.326980097859632 0 0 0 0 -35.491270930219343 -7.8119644313992467 0 -7.8119644313992467 7.927431116146181 0 0 0 0 -31.484208455967959 -30.306593999249799 0 -30.306593999249799 -39.334202559119149 0 0 0 0 76.682635239934427 -44.555163108779198 0 -44.555163108779198 3.9147387607808923 0 0 0 0 11.168138924833329 -81.116419344834867 0 -81.116419344834867 156.27459282728159 0 0 0 0 16.556897185433627 -95.969229957299831 0 -95.969229957299831 125.28549105403101 0 0 0 0 23.458264012895597 -91.139040893001948 0 -91.139040893001948 125.33444743340078 0 0 0 0 27.994489771088411 -86.659552383796836 0 -86.659552383796836 95.535156348749297 0 0 0 0 28.669349658561259 -82.400966578206862 0 -82.400966578206862 116.32346773626341 0 0 0 0 39.98317712052085 -68.250624379077635 0 -68.250624379077635 80.398268066855962 0 0 0 0 43.051420280111415 -85.256472455810581 0 -85.256472455810581 58.47725280465238 0 0 0 0 51.800672085602628 -65.533358669300469 0 -65.533358669300469 33.70172676279617 0 0 0 0 41.418369431461997 -76.454010848876351 0 -76.454010848876351 53.244518837746 0 0 0 0 32.229355326644509 -87.574058392150619 0 -87.574058392150619 80.764628927252488 0 0 0 0 44.117346371724125 -95.671014017832931 0 -95.671014017832931 50.234610349303694 0 0 0 0 52.057185191126337 -83.489408894565713 0 -83.489408894565713 19.318745971744647 0 0 0 0 -14.755456045775645 -44.267883619409986 0 -44.267883619409986 12.568766107171541 0 0 0 0 19.927855459620332 -68.621838201099308 0 -68.621838201099308 21.741690668539377 0 0 0 0 41.789855583048734 -64.53362945765366 0 -64.53362945765366 18.268279549549334 0 0 0 0 34.110406430729199 -113.12313946405629 0 -113.12313946405629 128.84640909612062 0 0 0 0 89.93382569743153 -105.31160442658802 0 -105.31160442658802 46.795600303448737 0 0 0 0 36.021126594107045 -102.56274905609462 0 -102.56274905609462 80.504081309786557 0 0 0 0 31.857720000083646 -113.98487591726735 0 -113.98487591726735 128.79953976190836 0 0 0 0 -91.320310054275069 184.58378693128998 0 184.58378693128998 -33.664288584892347 0 0 0 0 114.65441140340727 -42.689222117493046 0 -42.689222117493046 40.156270740797481 0 0 0 0 26.721176880193525 242.7482291192282 0 242.7482291192282 -111.68009537854232 0 0 0 0 3.1679330447723553 5.5075832699158624 0 5.5075832699158624 9.9916865570318976 0 0 0 0 110.92904763543675 -46.798017824141425 0 -46.798017824141425 41.179325707271346 0 0 0 0 176.17416390136714 -210.74822185867379 0 -210.74822185867379 109.05028130586652 0 0 0 0 227.43097384460634 -137.33304698010761 0 -137.33304698010761 -5.4264526789302181 0 0 0 0 218.08986024686601 -38.281244849524228 0 -38.281244849524228 -37.970145193263306 0 0 0 0 154.65727276544749 -51.475009840891289 0 -51.475009840891289 -33.433328110142611 0 0 0 0 102.10935268095636 -123.32399048954539 0 -123.32399048954539 73.431168963419623 0 0 0 0 38.280668063151097 -80.130806308981846 0 -80.130806308981846 49.703955668219351 0 0 0 0 106.70327767576964 -40.056010806365521 0 -40.056010806365521 -16.811207398044644 0 0 0 0 -5.8596662129093602 -19.540855425242626 0 -19.540855425242626 2.1538944152998738 0 0 0 0 15.286884171102429 -24.585699003117043 0 -24.585699003117043 -5.6132203655724879 0 0 0 0 -43.624395146257484 -15.314317973639845 0 -15.314317973639845 6.1847292103630025 0 0 0 0 -75.614799871904324 34.808899735035084 0 34.808899735035084 7.6313489010062767 0 0 0 0 30.583280317747267 39.944102703171666 0 39.944102703171666 -31.295307406646316 0 0 0 0 53.778853848772997 28.408194486037246 0 28.408194486037246 -25.934222279473033 0 0 0 0 62.110276953267203 15.334231849588832 0 15.334231849588832 -48.969887635597843 0 0 0 0 736.32454335989678 177.98923980777909 0 177.98923980777909 -512.28582301407005 0 0 0 0 151.84477128480648 272.10986973758554 0 272.10986973758554 -198.35982878282084 0 0 0 0 268.1679447843635 267.26210418943083 0 267.26210418943083 -288.05485926682013 0 0 0 0 221.06235982814269 -132.76367571877927 0 -132.76367571877927 2.4580955098645063 0 0 0 0 1059.1165756154824 -96.515936403608066 0 -96.515936403608066 -516.89875397091771 0 0 0 0 785.8382445125626 -483.03480362114897 0 -483.03480362114897 22.197744346485706 0 0 0 0 -42.629084739155587 85.381877318446641 0 85.381877318446641 399.29583668304258 0 0 0 0 78.914238813693373 -249.75927782968211 0 -249.75927782968211 675.19890348063564 0 0 0 0 8.0100904808687119 -68.323596826707217 0 -68.323596826707217 232.2991122083622 0 0 0 0 49.296914121559894 -160.32418926440732 0 -160.32418926440732 250.289347644386 0 0 0 0 6.391967256654425 -35.636242154423599 0 -35.636242154423599 192.28138905778906 0 0 0 0 14.797534791487124 -77.925372564925055 0 -77.925372564925055 157.0623848539617 0 0 0 0 -5.3020488984220719 15.093671436807199 0 15.093671436807199 210.20708484487841 0 0 0 0 -0.21566100479553896 0.11077922506368765 0 0.11077922506368765 0.50101012280384793 0 0 0 0 21.147893950558682 -65.192970819745824 0 -65.192970819745824 175.49507681047544 0 0 0 0 16.025226152845789 -105.07373913821357 0 -105.07373913821357 167.64838755725941 0 0 0 0 20.641108004838316 58.423039751407487 0 58.423039751407487 121.06718365414645 0 0 0 0 21.182179250338322 39.189038458737059 0 39.189038458737059 87.03800884870725 0 0 0 0 19.765719959971648 34.258511793086655 0 34.258511793086655 124.29355887595011 0 0 0 0 7.607211061507769 58.671104435597954 0 58.671104435597954 192.1298890618782 0 0 0 0 23.321382509120667 36.15436654952282 0 36.15436654952282 107.22707556240857 0 0 0 0 -34.750927193374991 97.249679791336348 0 97.249679791336348 190.70235662734922 0 0 0 0 16.631713665985899 28.180265505503485 0 28.180265505503485 210.9635797211522 0 0 0 0 32.221087492659535 69.662089602265041 0 69.662089602265041 134.20539449174248 0 0 0 0 21.112517484957152 96.849858833995313 0 96.849858833995313 50.048387763315986 0 0 0 0 25.307736001843637 13.453979547032304 0 13.453979547032304 -53.454312007772387 0 0 0 0 -45.103293928012135 -51.094118094801161 0 -51.094118094801161 -3.263680042073247 0 0 0 0 -5.916995795278126 -14.255398394841905 0 -14.255398394841905 19.657204713987085 0 0 0 0 -7.7921061338506661 -8.106536525262527 0 -8.106536525262527 42.483103099242726 0 0 0 0 38.777746657759053 65.814719310207693 0 65.814719310207693 68.75586608354206 0 0 0 0 28.890485845515286 13.000832434157928 0 13.000832434157928 16.541830154226773 0 0 0 0 22.954993546576475 17.264687924120381 0 17.264687924120381 53.486673048406374 0 0 0 0 28.916153676444083 41.65166820977538 0 41.65166820977538 84.725294579033289 0 0 0 0 -371.2909149835956 -83.695503766562979 0 -83.695503766562979 46.903629287837248 0 0 0 0 217.60278313550378 17.828942991380245 0 17.828942991380245 -136.9431293111702 0 0 0 0 858.15973444900101 -418.77197516921296 0 -418.77197516921296 -388.15834859152528 0 0 0 0 -129.80378638409866 264.83236196596772 0 264.83236196596772 -6.2243129859107285 0 0 0 0 169.94221391224983 -428.55220780714444 0 -428.55220780714444 138.3948186998532 0 0 0 0 -0.11100966151226066 0.35673939342553851 0 0.35673939342553851 11.17958126042393 0 0 0 0 -78.277066982640463 -256.03819798685799 0 -256.03819798685799 292.08164617371222 0 0 0 0 149.70922930464076 -348.23756063689689 0 -348.23756063689689 -104.02423546680075 0 0 0 0 113.34571146086273 -349.97052581468597 0 -349.97052581468597 82.436635794969334 0 0 0 0 186.15941610097616 -117.97503001946461 0 -117.97503001946461 16.236444486872642 0 0 0 0 67.56941060625195 3.5490887590094644 0 3.5490887590094644 -387.88084623107625 0 0 0 0 219.25810572110277 -267.88265499247791 0 -267.88265499247791 -303.88195919375721 0 0 0 0 -56.448389200883412 362.49596388698228 0 362.49596388698228 627.55872798108612 0 0 0 0 365.92500123734408 -434.84964954305178 0 -434.84964954305178 -365.84867857970858 0 0 0 0 -42.424915883167728 125.79551640038608 0 125.79551640038608 638.72967318524752 0 0 0 0 -259.39626638316008 473.80438134178257 0 473.80438134178257 1018.5815590503407 0 0 0 0 3.7722736484752462 -2.9637870445474626 0 -2.9637870445474626 2.7009260723837087 0 0 0 0 1.4862469938594947 -1.1892984564288156 0 -1.1892984564288156 0.69589614702761793 0 0 0 0 -14.384676203075287 -154.81741588055411 0 -154.81741588055411 -47.125207228299161 0 0 0 0 -18.507634799300376 -153.76568904834494 0 -153.76568904834494 220.4041979793692 0 0 0 0 -53.625899037876025 6.4517085183324525 0 6.4517085183324525 511.74367484060349 0 0 0 0 -106.43831976804768 -102.61502030621887 0 -102.61502030621887 507.21172841577209 0 0 0 0 241.8124408099543 -49.70280688587809 0 -49.70280688587809 286.46985323885747 0 0 0 0 -237.02450422518172 -247.88668989980579 0 -247.88668989980579 -161.88876197878199 0 0 0 0 10.107678012147971 -99.576400686153647 0 -99.576400686153647 291.41092721094901 0 0 0 0 5.9890694392941333 -7.6804245228065895 0 -7.6804245228065895 7.6311599581312564 0 0 0 0 106.40026129320336 -8.073687062413228 0 -8.073687062413228 -47.346879136024654 0 0 0 0 102.48367333071928 -153.78973071689688 0 -153.78973071689688 234.23327223234082 0 0 0 0 -61.373323213087133 -63.673717170164309 0 -63.673717170164309 333.76230419626154 0 0 0 0 -69.999155521256057 48.700091584752045 0 48.700091584752045 305.24397689607576 0 0 0 0 -48.862334494909391 -102.63400595311327 0 -102.63400595311327 549.32336121583648 0 0 0 0 54.755486296996423 -67.090692897261761 0 -67.090692897261761 517.08282088107808 0 0 0 0 -50.156408535323081 -125.43772110086172 0 -125.43772110086172 452.88840016735776 0 0 0 0 -78.643841958890334 -30.693576375513658 0 -30.693576375513658 504.89537869784544 0 0 0 0 -85.7386936626026 -81.163672953962305 0 -81.163672953962305 320.63516708259704 0 0 0 0 -26.363990514287533 38.833988302669894 0 38.833988302669894 364.45023549629695 0 0 0 0 -26.162564756912616 52.911903700223775 0 52.911903700223775 258.12500670675945 0 0 0 0 -23.484490424376872 16.878938266800105 0 16.878938266800105 349.76612047116214 0 0 0 0 -15.28392628729398 67.76101045050018 0 67.76101045050018 656.07132964084667 0 0 0 0 165.65131040202823 90.787134481633984 0 90.787134481633984 337.34497707730043 0 0 0 0 541.55838384786762 51.236884724681659 0 51.236884724681659 284.34192820756289 0 0 0 0 16.683892852679037 -27.46739929632713 0 -27.46739929632713 505.35828241147101 0 0 0 0 5.5355192087016558 -1.3903503724516995 0 -1.3903503724516995 0.77882710001397726 0 0 0 0 233.83923471058142 362.83808336588481 0 362.83808336588481 -76.898585194350744 0 0 0 0 284.6579139146329 314.91210770771067 0 314.91210770771067 752.69786674206262 0 0 0 0 348.66470270012996 -172.71355175040844 0 -172.71355175040844 288.55154635848885 0 0 0 0 60.482376650264712 223.29010016502434 0 223.29010016502434 241.59967952765146 0 0 0 0 -95.561794058422947 107.45756865732255 0 107.45756865732255 274.51125511740975 0 0 0 0 26.036544730934111 -128.6696830957153 0 -128.6696830957153 1015.8489676943827 0 0 0 0 470.25345866790894 -160.17615565210144 0 -160.17615565210144 395.60547701918404 0 0 0 0 36.811997651513934 16.770246724193044 0 16.770246724193044 192.62543575769814 0 0 0 0 -6.5467223796199505 -19.661667481565019 0 -19.661667481565019 230.09460906940149 0 0 0 0 33.906007290109301 69.837581732781473 0 69.837581732781473 297.60726424152949 0 0 0 0 1.2155759217580662 -3.2004266215265886 0 -3.2004266215265886 10.849094654443789 0 0 0 0 -86.043488291508396 -491.15967007649044 0 -491.15967007649044 1337.5142630052687 0 0 0 0 -83.311188503229346 219.31036402690734 0 219.31036402690734 981.41956847681286 0 0 0 0 143.62556462972202 1174.2832435608077 0 1174.2832435608077 466.01483518125315 0 0 0 0 143.04624888912019 -200.91103387612384 0 -200.91103387612384 597.14015539765023 0 0 0 0 0.0753533194098778 -0.81047067227368685 0 -0.81047067227368685 -0.28243213629667707 0 0 0 0 -154.11709015324095 166.178599731742 0 166.178599731742 241.42638798804546 0 0 0 0 23.85899315343076 260.11785481251172 0 260.11785481251172 218.8677057975583 0 0 0 0 -4.7785707049680468 280.35937743492104 0 280.35937743492104 217.89114532405438 0 0 0 0 -87.521338669393003 275.63908864444693 0 275.63908864444693 283.84454430971527 0 0 0 0 -60.830151982868756 116.89148964665583 0 116.89148964665583 230.56737779013065 0 0 0 0 128.68425086715092 -112.70929171354874 0 -112.70929171354874 71.415246406795632 0 0 0 0 -78.550493877589247 136.4736638869872 0 136.4736638869872 470.85325761612694 0 0 0 0 -33.468223828143209 135.59799383648715 0 135.59799383648715 -52.675948363976204 0 0 0 0 -66.622699103666037 -29.070957496838673 0 -29.070957496838673 44.044830643688329 0 0 0 0 2.0281602870678834 -3.9358406186491397 0 -3.9358406186491397 -2.758567718580764 0 0 0 0 -190.4562668226381 -157.02171194491348 0 -157.02171194491348 40.844162906035308 0 0 0 0 213.05273746288935 -64.101244994708395 0 -64.101244994708395 -77.60779136781639 0 0 0 0 313.19185485743378 -184.2187355330916 0 -184.2187355330916 33.639398066745343 0 0 0 0 211.2334438937871 -42.259352241127317 0 -42.259352241127317 -106.95406373687001 0 0 0 0 -165.32653777904147 -154.92585707443777 0 -154.92585707443777 173.87511323011495 0 0 0 0 188.71088393135381 -20.170724791887551 0 -20.170724791887551 -103.15033252986905 0 0 0 0 1.0290788641510324 -3.9601351559670999 0 -3.9601351559670999 7.1628478912925004 0 0 0 0 2.5533328399745963 -0.74017106160284385 0 -0.74017106160284385 0.13007075106409616 0 0 0 0 36.631163341417633 -62.225384852503339 0 -62.225384852503339 107.64763794606552 0 0 0 0 198.99079175896691 -42.72577374163302 0 -42.72577374163302 -81.151425396960803 0 0 0 0 -133.13553867735192 -63.183349114713565 0 -63.183349114713565 23.745384375601134 0 0 0 0 -105.54138132254461 -55.011356261116816 0 -55.011356261116816 -13.4873013874967 0 0 0 0 -78.012495920630556 -20.543408115576312 0 -20.543408115576312 50.254339368584624 0 0 0 0 -35.285969047415811 -32.81428168353068 0 -32.81428168353068 13.601311712227471 0 0 0 0 -93.752294514463074 -74.161959393890356 0 -74.161959393890356 17.12012245132064 0 0 0 0 -38.211765948074827 -39.375434502951975 0 -39.375434502951975 51.187926451428211 0 0 0 0 -158.23082995121115 -59.250211139187741 0 -59.250211139187741 30.640739476595627 0 0 0 0 -91.345283046280343 -76.128435753911617 0 -76.128435753911617 -70.890528440184426 0 0 0 0 6.0235273689435651 -8.5655615701615346 0 -8.5655615701615346 8.745360548257807 0 0 0 0 -100.90843613271431 -90.179000206675482 0 -90.179000206675482 -25.22873560689186 0 0 0 0 12.884956400509736 -16.179516296520887 0 -16.179516296520887 -47.35226773245904 0 0 0 0 78.104735985969 -41.043562118561567 0 -41.043562118561567 44.539793824129447 0 0 0 0 10.714900492504739 18.720280817595722 0 18.720280817595722 113.25306115748026 0 0 0 0 0.69524291493235957 -1.7453135189068689 0 -1.7453135189068689 1.2775485599886096 0 0 0 0 1.0092847471603363 5.8977634385200872 0 5.8977634385200872 16.635756228457467 0 0 0 0 -51.271417595070943 -51.215269189996889 0 -51.215269189996889 51.63925524125807 0 0 0 0 6.3232144974504081 -24.873541275099342 0 -24.873541275099342 51.452745878679707 0 0 0 0 3.8372353905359677 -3.2863251699868385 0 -3.2863251699868385 1.948147747160629 0 0 0 0 -41.44305375214708 68.724464168622944 0 68.724464168622944 316.45775342245088 0 0 0 0 21.125973980389062 -7.6790938508365798 0 -7.6790938508365798 65.871989656791357 0 0 0 0 -16.92218620022868 12.999529561795271 0 12.999529561795271 147.21001850662651 0 0 0 0 -1.3788969587251358 26.207335194551888 0 26.207335194551888 193.41242979215167 0 0 0 0 -10.602974867211742 15.302348080000229 0 15.302348080000229 225.1639724490833 0 0 0 0 12.549765540267799 -24.243895634564979 0 -24.243895634564979 93.814235059766361 0 0 0 0 111.44686932992875 242.96659041655766 0 242.96659041655766 283.1359419056007 0 0 0 0 -37.768153445356575 57.734691923799801 0 57.734691923799801 345.23540982659506 0 0 0 0 7.9771699878576054 -4.1961477757329746 0 -4.1961477757329746 2.0425304371119175 0 0 0 0 34.688162513787638 -70.110439717962436 0 -70.110439717962436 129.56385522762139 0 0 0 0 63.741922525740279 143.10940225066361 0 143.10940225066361 132.53484256525371 0 0 0 0 -55.12291158033031 -36.689481871735552 0 -36.689481871735552 104.48140869032977 0 0 0 0 2.1349021514760853 -8.5846414713214489 0 -8.5846414713214489 30.693590549840977 0 0 0 0 -103.05044231264839 -24.027372044331059 0 -24.027372044331059 113.18097397482597 0 0 0 0 -58.048579564275599 29.940685491106706 0 29.940685491106706 66.503537571708875 0 0 0 0 11.203363129708578 41.326821266613479 0 41.326821266613479 143.50395798224781 0 0 0 0 13.878781972373417 -12.802934114957679 0 -12.802934114957679 69.462337529676006 0 0 0 0 37.847972220854899 51.149692926954231 0 51.149692926954231 216.07822808045057 0 0 0 0 17.554433695646367 1.8586753223280539 0 1.8586753223280539 215.87030828060665 0 0 0 0 56.22102265686226 39.938316953835965 0 39.938316953835965 163.23353483944084 0 0 0 0 48.892654084601418 9.7305719621381286 0 9.7305719621381286 161.86632276896853 0 0 0 0 36.627077145649309 -8.7791108904784778 0 -8.7791108904784778 140.97155077607749 0 0 0 0 40.711638333681549 -18.584549161387258 0 -18.584549161387258 275.26615798451348 0 0 0 0 14.00752377293793 78.105024759297521 0 78.105024759297521 386.28407038758724 0 0 0 0 -62.732679764278146 16.656489737816628 0 16.656489737816628 -5.8905180177857801 0 0 0 0 0.82025034377428341 -0.063455835378089631 0 -0.063455835378089631 -0.92280604706467528 0 0 0 0 45.033417291809201 -47.461444451782882 0 -47.461444451782882 168.71837204586154 0 0 0 0 48.450379060447005 -51.401072613121187 0 -51.401072613121187 54.386053247908421 0 0 0 0 39.643961253282669 -2.1520532893846394 0 -2.1520532893846394 128.93970698847806 0 0 0 0 32.652430221338847 -42.2168278514348 0 -42.2168278514348 52.039666652777669 0 0 0 0 32.965313174056519 -44.121313645743612 0 -44.121313645743612 51.079204033710994 0 0 0 0 0.58701533799583494 -0.16805949706527912 0 -0.16805949706527912 -1.9769297227972444 0 0 0 0 32.096636397696329 -35.258663373577292 0 -35.258663373577292 24.438088417121435 0 0 0 0 -30.550496036238428 -21.190801729131181 0 -21.190801729131181 69.513053720975222 0 0 0 0 -62.692347076059036 -77.024089452236694 0 -77.024089452236694 31.235096436530512 0 0 0 0 3.9332057059988577 -13.610472177838473 0 -13.610472177838473 45.816092435762606 0 0 0 0 -196.50737722815325 -50.574637657183303 0 -50.574637657183303 95.41691621886639 0 0 0 0 4.8819942419065683 -45.366452691367158 0 -45.366452691367158 42.336025053307822 0 0 0 0 -148.82651933089801 -3.6973437965534686 0 -3.6973437965534686 101.87055556696578 0 0 0 0 -99.294845722481455 52.551040028238276 0 52.551040028238276 127.61704524159722 0 0 0 0 -68.702601327400316 45.65698394910396 0 45.65698394910396 74.019923765978092 0 0 0 0 -11.07588137091567 14.655803565091308 0 14.655803565091308 55.40971757018383 0 0 0 0 15.474713786111181 66.478695951092959 0 66.478695951092959 27.062252945275759 0 0 0 0 -90.891801430921987 14.682168742256181 0 14.682168742256181 23.040601876879805 0 0 0 0 -3.2820073745997522 6.1336707443123881 0 6.1336707443123881 3.9426426850244596 0 0 0 0 0.18816273977189257 -13.366114562936644 0 -13.366114562936644 61.108055735483781 0 0 0 0 -20.04937052854234 -51.602287124834675 0 -51.602287124834675 42.863701338135797 0 0 0 0 -0.5661946976956802 -4.7984508130725736 0 -4.7984508130725736 5.9164752719251865 0 0 0 0 -61.81145009339474 23.904135386269559 0 23.904135386269559 7.1058876997140032 0 0 0 0 -62.546302541828027 29.457354781843605 0 29.457354781843605 19.288817429925984 0 0 0 0 -46.089998822563757 31.368391190267175 0 31.368391190267175 10.59708959114414 0 0 0 0 -77.833831817043801 34.488427934782976 0 34.488427934782976 45.442219883001599 0 0 0 0 -53.44810963055761 25.053608732875546 0 25.053608732875546 36.974138106603277 0 0 0 0 -77.551799468704303 68.350037065262768 0 68.350037065262768 -27.152936131984461 0 0 0 0 -185.88768760466138 27.657274900479024 0 27.657274900479024 138.42217435165003 0 0 0 0 -42.881374709470151 -25.17935229588511 0 -25.17935229588511 117.8084777582153 0 0 0 0 -70.652080799320686 -26.332760202065401 0 -26.332760202065401 117.97992910266908 0 0 0 0 -33.590286713996875 0.78734710205117153 0 0.78734710205117153 67.991700184826186 0 0 0 0 -85.848605360117077 -33.037532212485985 0 -33.037532212485985 -31.131193583867571 0 0 0 0 -79.494430446985973 0.21077966587745323 0 0.21077966587745323 53.174359167802322 0 0 0 0 169.98177945557927 -31.98347191130415 0 -31.98347191130415 -56.482176632698611 0 0 0 0 172.76618510871322 -104.69497035202039 0 -104.69497035202039 1.6062135514112015 0 0 0 0 37.826929230259111 -146.26095597059793 0 -146.26095597059793 262.21277306264528 0 0 0 0 342.59187752600388 -145.53880482784552 0 -145.53880482784552 1.5587513429272803 0 0 0 0 0.12315636420528431 -1.5380779447176804 0 -1.5380779447176804 2.79041489894108 0 0 0 0 189.04523086984662 -32.72731599486724 0 -32.72731599486724 113.505620779335 0 0 0 0 -15.19475228861188 45.777121818722662 0 45.777121818722662 228.06512212344023 0 0 0 0 -12.061904895744988 15.582924515918421 0 15.582924515918421 88.976232362623705 0 0 0 0 6.0706379595561089 57.869359447589432 0 57.869359447589432 33.992795086516708 0 0 0 0 -68.810271027559793 45.280956875285483 0 45.280956875285483 103.25037912041171 0 0 0 0 -23.506188063115815 -11.448386961252254 0 -11.448386961252254 97.432628277634649 0 0 0 0 -17.674856541708422 -0.12432442010504019 0 -0.12432442010504019 108.46899990689781 0 0 0 0 -42.945042118590607 -42.356390552373341 0 -42.356390552373341 123.49703915142527 0 0 0 0 33.640152677237197 -95.153476221794335 0 -95.153476221794335 153.55731573222874 0 0 0 0 -60.479093574783647 -124.49655837596947 0 -124.49655837596947 300.42231851229008 0 0 0 0 -99.391426546287747 -30.595069386325122 0 -30.595069386325122 179.36939379292744 0 0 0 0 -56.64411501865618 -60.401972508623658 0 -60.401972508623658 175.77530554068289 0 0 0 0 -51.129258895834141 -73.509453638795094 0 -73.509453638795094 206.92793217128565 0 0 0 0 -28.592482348519525 -68.484584956440813 0 -68.484584956440813 177.15468356755082 0 0 0 0 -19.129499700594408 -73.150125401489277 0 -73.150125401489277 139.13629236954876 0 0 0 0 -60.527857282958252 -40.77182991954578 0 -40.77182991954578 135.77834675234772 0 0 0 0 -18.140595270231529 -60.178719608182291 0 -60.178719608182291 118.46435373512213 0 0 0 0 -56.248910515938178 -33.652397208756156 0 -33.652397208756156 132.37080810917541 0 0 0 0 -61.044114729319006 -47.702650556762819 0 -47.702650556762819 95.001755073331879 0 0 0 0 -117.99516910886462 -42.588744205218973 0 -42.588744205218973 123.0442356825115 0 0 0 0 -5.5934273174614191 -59.6407819882279 0 -59.6407819882279 92.301162185540306 0 0 0 0 -181.65906844926968 104.69897581931582 0 104.69897581931582 30.618480591620028 0 0 0 0 -159.89512870750428 38.928316545414418 0 38.928316545414418 62.655366445054824 0 0 0 0 -182.88153417253181 42.291696913460328 0 42.291696913460328 81.611729297765123 0 0 0 0 -107.7525303957526 -7.3331465934625157 0 -7.3331465934625157 116.22425137541723 0 0 0 0 -96.954205342705279 -11.743540034414764 0 -11.743540034414764 97.854881230041428 0 0 0 0 -134.53554685815033 56.957192497056894 0 56.957192497056894 72.962197431159439 0 0 0 0 -77.511996909469985 24.343583610960195 0 24.343583610960195 90.542375647095469 0 0 0 0 -56.322478185115244 15.834170116437235 0 15.834170116437235 75.964736425536103 0 0 0 0 -53.56226941959352 -40.067937757274194 0 -40.067937757274194 115.31372852586219 0 0 0 0 -81.330423343873804 -18.25543083870798 0 -18.25543083870798 117.57804476171441 0 0 0 0 -48.069999999118295 -40.984149568343128 0 -40.984149568343128 126.50284467598976 0 0 0 0 -17.692309979181971 -10.848445589779658 0 -10.848445589779658 90.196453425029176 0 0 0 0 -45.478283591860304 30.940813491259178 0 30.940813491259178 73.256996338830504 0 0 0 0 -52.61922599783378 30.634916010723828 0 30.634916010723828 74.95053656402888 0 0 0 0 -79.377382632065974 69.325265747236699 0 69.325265747236699 34.979249226911634 0 0 0 0 -69.098735964381149 81.231401950139116 0 81.231401950139116 36.821527851010615 0 0 0 0 -27.722494621610394 50.065600769066805 0 50.065600769066805 5.8498640345569584 0 0 0 0 -8.1722738181936485 23.697867615180169 0 23.697867615180169 53.949232861471167 0 0 0 0 -24.080614574204873 28.287732364341991 0 28.287732364341991 70.874575828653178 0 0 0 0 -30.422708645577586 43.104181976663313 0 43.104181976663313 53.926901556716757 0 0 0 0 -27.623569822703416 40.680368531070826 0 40.680368531070826 55.972039033244073 0 0 0 0 -29.052792512265455 22.626228761151651 0 22.626228761151651 78.585238920786651 0 0 0 0 -55.036553189093411 84.826124806379084 0 84.826124806379084 44.835858015161648 0 0 0 0 -49.28887109178072 98.338832900601119 0 98.338832900601119 -8.455247948268152 0 0 0 0 -2.324993925471952 25.840824036906447 0 25.840824036906447 61.941608698143511 0 0 0 0 -48.826548052012186 111.16148897383391 0 111.16148897383391 8.0614974556228844 0 0 0 0 6.9183691788338058 19.692877923677543 0 19.692877923677543 -9.6267646968859708 0 0 0 0 -135.24612542364662 64.590629033962614 0 64.590629033962614 23.225253281303594 0 0 0 0 -111.71945158524947 101.62552946493815 0 101.62552946493815 -64.849081553409633 0 0 0 0 -111.40896080328719 112.68204222372151 0 112.68204222372151 44.818498203283525 0 0 0 0 -120.16361665085435 50.67351951629098 0 50.67351951629098 58.029376346341451 0 0 0 0 -1.5401083341593989 8.1376608463583082 0 8.1376608463583082 53.086459692725199 0 0 0 0 -32.034573569328984 36.869515863781317 0 36.869515863781317 58.692200736513769 0 0 0 0 -37.772384831360455 34.653022908886669 0 34.653022908886669 79.571372140339008 0 0 0 0 -31.780736083582269 40.5937092490949 0 40.5937092490949 60.894938381235988 0 0 0 0 -39.476447075807073 40.926623950481371 0 40.926623950481371 63.725957028320408 0 0 0 0 -36.759250438854224 46.673670856118633 0 46.673670856118633 55.558209275921399 0 0 0 0 -38.909589550636383 43.511425919380144 0 43.511425919380144 54.152910403937994 0 0 0 0 -36.232027844077493 43.595816297557576 0 43.595816297557576 55.613220535657092 0 0 0 0 -53.052590013422218 38.420245924079609 0 38.420245924079609 54.349082285274562 0 0 0 0 -42.356366946583933 50.262501083354437 0 50.262501083354437 41.669810011794652 0 0 0 0 -46.21268150854155 27.824779454943382 0 27.824779454943382 49.703552738481449 0 0 0 0 -37.004093840675807 30.381407119148207 0 30.381407119148207 50.231107758236249 0 0 0 0 23.121857347258356 -4.431574414626084 0 -4.431574414626084 52.944612296090781 0 0 0 0 -288.44470289155493 567.45090286638151 0 567.45090286638151 -178.6135697463385 0 0 0 0 -475.61312008928053 362.92621047911234 0 362.92621047911234 199.29804265986604 0 0 0 0 20.609338303275763 -16.140643411155907 0 -16.140643411155907 64.434257042514218 0 0 0 0 9.232794809420577 16.783898368578292 0 16.783898368578292 21.664091117735204 0 0 0 0 -169.84076236315741 541.66374624577657 0 541.66374624577657 274.4209619093599 0 0 0 0 -161.53592311899729 79.767683927668259 0 79.767683927668259 123.93837614039512 0 0 0 0 -171.99462108275816 11.887296686720219 0 11.887296686720219 -196.78137820918573 0 0 0 0 61.303703957539369 -116.18287546724969 0 -116.18287546724969 250.64003964827862 0 0 0 0 42.79570761054913 4.2872863522898115 0 4.2872863522898115 113.11101134930504 0 0 0 0 -63.539475559498214 -95.316839979352153 0 -95.316839979352153 105.32648953711032 0 0 0 0 -162.44528434672293 22.115484761689004 0 22.115484761689004 84.797239263814845 0 0 0 0 6.4225735966615387 12.452909617922167 0 12.452909617922167 30.560823708161344 0 0 0 0 -177.83605504828222 1.4371340703291935 0 1.4371340703291935 57.032380610820837 0 0 0 0 -248.91786075966959 194.3733955133066 0 194.3733955133066 -29.261096209156676 0 0 0 0 12.180119497854321 4.858125840554294 0 4.858125840554294 45.061618521001947 0 0 0 0 -339.07114420227543 110.72341955922104 0 110.72341955922104 67.546054610415013 0 0 0 0 -251.73995051791951 108.1204140091213 0 108.1204140091213 29.712083783480921 0 0 0 0 -340.51859138322266 28.879629615923477 0 28.879629615923477 63.55309055208636 0 0 0 0 -19.932235618317463 14.196726492633388 0 14.196726492633388 72.322014376944026 0 0 0 0 -14.74576238850932 28.896152988496397 0 28.896152988496397 57.281109281896534 0 0 0 0 -46.789697286786122 30.925890235095721 0 30.925890235095721 58.889429198590733 0 0 0 0 -24.671640587401725 14.964461567812577 0 14.964461567812577 33.57372575178124 0 0 0 0 -36.296163901926775 43.227294190554403 0 43.227294190554403 44.109564467973541 0 0 0 0 -28.513424799290078 39.216838574814574 0 39.216838574814574 58.895218562955506 0 0 0 0 -36.429492152429702 43.54000592841453 0 43.54000592841453 56.249506256499444 0 0 0 0 -40.265720498889095 37.656071913930646 0 37.656071913930646 58.976689066714243 0 0 0 0 -38.102945038005601 46.7165929359644 0 46.7165929359644 53.408933499125851 0 0 0 0 -36.963878232588286 41.059116121738953 0 41.059116121738953 54.393726332868027 0 0 0 0 -37.261852143311899 40.947114236099878 0 40.947114236099878 59.721140627256318 0 0 0 0 -37.130421388980267 42.57959015837605 0 42.57959015837605 59.42755627391125 0 0 0 0 -32.746642845891529 38.738017761610536 0 38.738017761610536 62.739040695278163 0 0 0 0 -37.576530535322036 43.001645907288548 0 43.001645907288548 64.497148211215745 0 0 0 0 -36.884212795440362 44.225812996339641 0 44.225812996339641 58.414790756842194 0 0 0 0 -35.748395327200342 48.647618236469043 0 48.647618236469043 45.628658036333945 0 0 0 0 -30.129045989784572 40.724171541192845 0 40.724171541192845 55.600937985769633 0 0 0 0 -29.87779968994505 39.860322528276811 0 39.860322528276811 48.77942955479557 0 0 0 0 -16.810186981136212 30.287222048907552 0 30.287222048907552 49.265553653902032 0 0 0 0 -25.566714304192828 33.101761452283426 0 33.101761452283426 58.749564365835568 0 0 0 0 -35.455349341583769 42.288206305068343 0 42.288206305068343 60.446485280467641 0 0 0 0 -36.133160494990648 40.729733146091689 0 40.729733146091689 62.345876873167072 0 0 0 0 -15.945789134201732 25.262955909411176 0 25.262955909411176 66.690463778541925 0 0 0 0 -31.9358746984974 34.397059813432179 0 34.397059813432179 67.223754577253203 0 0 0 0 -26.868703786644573 29.994779990873326 0 29.994779990873326 70.209873484993295 0 0 0 0 -14.93373209679703 11.532775352563931 0 11.532775352563931 47.577089901405543 0 0 0 0 -7.1478339309169314 35.050370056274915 0 35.050370056274915 76.946926108237221 0 0 0 0 8.0494257596865282 -25.628946871994913 0 -25.628946871994913 30.64314085623937 0 0 0 0 13.374930275158476 -2.4504530672156761 0 -2.4504530672156761 85.628282351167854 0 0 0 0 -14.046726424614462 4.4052081192503465 0 4.4052081192503465 96.90419080472293 0 0 0 0 20.234511381913762 8.6422688257157461 0 8.6422688257157461 7.1162124605883719 0 0 0 0 18.217676846624272 15.156945469311268 0 15.156945469311268 12.480649164046099 0 0 0 0 12.879106049727625 9.6889563975202009 0 9.6889563975202009 8.6124846575512493 0 0 0 0 13.096327959896371 9.3253206488543583 0 9.3253206488543583 8.4807507088298735 0 0 0 0 0.46046465059180264 5.1876453439219858 0 5.1876453439219858 8.3430804865674872 0 0 0 0 10.596372105290357 8.5817366936457802 0 8.5817366936457802 9.0375846840042868 0 0 0 0 -2.5868126267146181 6.9051584955341241 0 6.9051584955341241 10.49680176640868 0 0 0 0 -3.3756587072834918 13.480845184077225 0 13.480845184077225 44.04458579040579 0 0 0 0 11.129553755090228 7.1696761686565651 0 7.1696761686565651 12.177229057308068 0 0 0 0 13.791100254415142 18.446710323893058 0 18.446710323893058 8.3889036578184459 0 0 0 0 16.836479985145161 14.638663609052401 0 14.638663609052401 12.972390371518088 0 0 0 0 9.3553274061441698 27.766200011215915 0 27.766200011215915 2.8140117360401291 0 0 0 0 10.272837454387513 30.661255785272033 0 30.661255785272033 10.941309524927419 0 0 0 0 14.666947274695303 20.899139321834468 0 20.899139321834468 11.488544481519057 0 0 0 0 -6.5124368343629158 26.643441991375539 0 26.643441991375539 25.173784086749947 0 0 0 0 1.5238011302171799 28.055229265752587 0 28.055229265752587 20.834978720138679 0 0 0 0 -23.787378392546998 42.447826368727874 0 42.447826368727874 28.13660453162629 0 0 0 0 -3.0024317142160726 38.169896780801992 0 38.169896780801992 9.4082707689576637 0 0 0 0 -12.118151933228546 39.552456422698924 0 39.552456422698924 27.800276882547394 0 0 0 0 -16.861875664333184 50.811200677435409 0 50.811200677435409 10.365615035259907 0 0 0 0 -24.442700428338071 42.607323484911831 0 42.607323484911831 36.754495761584622 0 0 0 0 -29.495509681144085 49.243898056576199 0 49.243898056576199 30.412289265718755 0 0 0 0 -2.0540692928293538 44.805350489843931 0 44.805350489843931 11.845690262174003 0 0 0 0 0.40636571579807423 44.336749092180526 0 44.336749092180526 -7.7315250378051132 0 0 0 0 -15.681435328065618 64.449678689499478 0 64.449678689499478 -11.836751140927845 0 0 0 0 0.77527883181892321 57.757362854204985 0 57.757362854204985 -24.817242141963561 0 0 0 0 9.8490058297961127 48.554918051329253 0 48.554918051329253 -16.093795530955504 0 0 0 0 12.550409081220096 35.104831766818734 0 35.104831766818734 -5.5395767815803083 0 0 0 0 37.177732551417364 20.951383739824678 0 20.951383739824678 -19.830086831490007 0 0 0 0 34.624541066425081 39.797533475441014 0 39.797533475441014 -43.645258236343807 0 0 0 0 45.384691954917798 30.484836679228124 0 30.484836679228124 -36.928099159620615 0 0 0 0 65.302161707571145 30.648858742983862 0 30.648858742983862 -57.150894868653722 0 0 0 0 88.296130770511354 -5.2564140381686002 0 -5.2564140381686002 -35.405478066212254 0 0 0 0 48.587219898047806 23.024738464159327 0 23.024738464159327 -48.977622864105342 0 0 0 0 62.420134793584566 -2.150683545894708 0 -2.150683545894708 -19.60670041094545 0 0 0 0 45.870262770406043 -7.0641471654062116 0 -7.0641471654062116 -16.437233764000212 0 0 0 0 47.632735194722386 -16.738239682158934 0 -16.738239682158934 0.79382922618424345 0 0 0 0 28.422097665245929 -0.80349170060276265 0 -0.80349170060276265 -5.5144595104388827 0 0 0 0 39.321331364477828 4.6736744575462126 0 4.6736744575462126 -7.051603330168291 0 0 0 0 34.788807757825452 16.712231525164498 0 16.712231525164498 -25.758871743209966 0 0 0 0 27.469415091091832 29.348739913489226 0 29.348739913489226 -21.601045344586055 0 0 0 0 22.053144862707995 16.909820025541649 0 16.909820025541649 -2.0550549290221625 0 0 0 0 22.589661482484189 19.351588412179126 0 19.351588412179126 -7.3231563015706342 0 0 0 0 19.333617745878541 6.9541215004235823 0 6.9541215004235823 5.9328076258243527 0 0 0 0 22.430451843318224 10.181693243854625 0 10.181693243854625 9.2904650453694444 0 0 0 0 29.212832297840578 -5.7420309254141557 0 -5.7420309254141557 15.459004794671955 0 0 0 0 24.787483119596345 -16.885273502877453 0 -16.885273502877453 14.916852927120544 0 0 0 0 23.112163847600641 -11.318806939846354 0 -11.318806939846354 10.654158133651208 0 0 0 0 22.318368475002217 -8.6450057365953512 0 -8.6450057365953512 20.259026398814058 0 0 0 0 10.677824709556262 -11.432961750774666 0 -11.432961750774666 19.753475046631138 0 0 0 0 19.919501757966714 2.1780756222305229 0 2.1780756222305229 31.928108280737433 0 0 0 0 25.523534181756986 -6.6764528485805386 0 -6.6764528485805386 17.591699450245869 0 0 0 0 17.705003608788957 -10.551267175300381 0 -10.551267175300381 61.304493261764947 0 0 0 0 14.258091813192095 -12.784072320950145 0 -12.784072320950145 77.170970216324349 0 0 0 0 24.948076713704722 -7.4794940443243831 0 -7.4794940443243831 63.333913155889604 0 0 0 0 50.42415557536242 -27.841036140584038 0 -27.841036140584038 66.265711971754172 0 0 0 0 -1.5974033878864549 2.4700288600216456 0 2.4700288600216456 63.703046068794137 0 0 0 0 3.8449475212191828 -19.940184469080123 0 -19.940184469080123 73.875426915357821 0 0 0 0 -8.6888855410418273 -1.972839747713806 0 -1.972839747713806 71.218431026682083 0 0 0 0 -85.296856135128635 37.230948372781654 0 37.230948372781654 54.082574545012903 0 0 0 0 -80.162082061687443 32.689298003175281 0 32.689298003175281 50.549688509978068 0 0 0 0 -50.711214252575246 48.089520041144624 0 48.089520041144624 41.398222594340155 0 0 0 0 -57.593679075658713 55.832199319293977 0 55.832199319293977 37.619483183234479 0 0 0 0 -33.797749064598577 59.006157269375535 0 59.006157269375535 18.93150379241888 0 0 0 0 -27.185905669440217 57.794348056652325 0 57.794348056652325 19.018834323107995 0 0 0 0 -64.926927804777193 62.021698256387708 0 62.021698256387708 37.972118412287273 0 0 0 0 -55.103093742259716 84.199660156823029 0 84.199660156823029 -5.5384629926791149 0 0 0 0 -43.918640980166629 80.641533915765422 0 80.641533915765422 -4.4903435271271519 0 0 0 0 -99.766089287120678 91.863404201209732 0 91.863404201209732 14.423234657066132 0 0 0 0 -113.12081531664754 50.08661507680381 0 50.08661507680381 71.66101157031926 0 0 0 0 -194.21778570059479 110.97227858359872 0 110.97227858359872 26.119768832672662 0 0 0 0 -109.12249566359729 147.00456913273308 0 147.00456913273308 -81.274808596265757 0 0 0 0 -99.096679114071435 110.96662555158628 0 110.96662555158628 -15.124099240056239 0 0 0 0 -2.5882911036030976 75.976350790558996 0 75.976350790558996 -39.570959339267574 0 0 0 0 -53.928935821585128 88.346049596391822 0 88.346049596391822 -4.8060583112987842 0 0 0 0 -27.924869201021238 116.12654239734229 0 116.12654239734229 -86.466183324944723 0 0 0 0 -7.7544283238371463 76.805606241544865 0 76.805606241544865 -39.413099052753751 0 0 0 0 30.521734203269489 63.107921188842624 0 63.107921188842624 -74.649561452587477 0 0 0 0 53.506193424151206 30.336354706508928 0 30.336354706508928 -51.216524212094328 0 0 0 0 -23.092274910765354 82.842533346442451 0 82.842533346442451 -71.188969389878139 0 0 0 0 20.74366363140814 32.158411024909583 0 32.158411024909583 -65.786978597947837 0 0 0 0 26.007857162293874 85.958052913053052 0 85.958052913053052 -110.45264641216727 0 0 0 0 -349.2540000456757 132.95538003798902 0 132.95538003798902 -95.882513043050949 0 0 0 0 -105.71560468317415 94.946967858291146 0 94.946967858291146 -115.19246306741661 0 0 0 0 -55.202432415175736 135.82368820845477 0 135.82368820845477 -136.00391523807502 0 0 0 0 -111.36820535526113 74.77603689650914 0 74.77603689650914 -93.108264931595841 0 0 0 0 1.5179658756059098 102.64172377868863 0 102.64172377868863 -115.98280066297889 0 0 0 0 -93.056074847005576 149.09105547354022 0 149.09105547354022 -165.89878713793269 0 0 0 0 1.9468377884866048 8.4408596709672423 0 8.4408596709672423 -6.5843206424437755 0 0 0 0 -373.39746623808333 289.69050419837913 0 289.69050419837913 -150.34966306735942 0 0 0 0 -285.38005790503905 284.06995998835987 0 284.06995998835987 -225.54340878104495 0 0 0 0 -1.2853568078198299 0.74110406330007894 0 0.74110406330007894 12.17410116679569 0 0 0 0 -24.785098057869959 18.595418087459166 0 18.595418087459166 95.851500509983453 0 0 0 0 -3.8218796229406458 10.165724258190226 0 10.165724258190226 68.007459034974616 0 0 0 0 -162.67715656852553 -7.0431805396696063 0 -7.0431805396696063 59.604856206017757 0 0 0 0 -18.344645054104603 9.9336090910092025 0 9.9336090910092025 107.46930130089459 0 0 0 0 -32.017823154715302 -12.35828476468987 0 -12.35828476468987 169.77324809494894 0 0 0 0 -8.602658961117033 38.034081921132291 0 38.034081921132291 18.652936640420883 0 0 0 0 -8.2173987307250229 21.943411799702972 0 21.943411799702972 -43.263328081345435 0 0 0 0 27.764319679836092 0.26571080672209746 0 0.26571080672209746 -102.30905610547711 0 0 0 0 -18.307992894332529 39.002698325963138 0 39.002698325963138 85.002087525148454 0 0 0 0 13.47711754672558 68.27688186495601 0 68.27688186495601 -102.93933038020714 0 0 0 0 67.105398812534986 119.72055475636444 0 119.72055475636444 -39.154192489433626 0 0 0 0 -10.846483594166687 38.421154771450851 0 38.421154771450851 14.42499699036809 0 0 0 0 -25.139626472152315 62.882925170771557 0 62.882925170771557 -43.829493139450619 0 0 0 0 -14.233500735370399 -33.747813602567476 0 -33.747813602567476 143.08189700666117 0 0 0 0 -1.5948252671587397 53.879600915417541 0 53.879600915417541 -37.590573772624339 0 0 0 0 -0.79552675061031408 10.238022348062039 0 10.238022348062039 0.49100069352319053 0 0 0 0 -2.2478448574765935 23.410727483103983 0 23.410727483103983 -31.820135539936018 0 0 0 0 -8.0827014595433653 6.2778152908121214 0 6.2778152908121214 24.70149873651927 0 0 0 0 6.545739957851719 10.67214428092063 0 10.67214428092063 -45.285112147727403 0 0 0 0 -0.76529788731200021 2.9538899029378811 0 2.9538899029378811 -6.3067432525897686 0 0 0 0 49.757629487738086 -59.727934765298414 0 -59.727934765298414 343.44160467043548 0 0 0 0 2.5727249841074809 -45.881779423099943 0 -45.881779423099943 349.61574914328594 0 0 0 0 36.001152102122433 3.2864171981345862 0 3.2864171981345862 368.6924158471229 0 0 0 0 24.017869948191219 -25.950790156366565 0 -25.950790156366565 299.14121550182608 0 0 0 0 0.97196765508462857 2.8722234925821795 0 2.8722234925821795 -5.7315252166296773 0 0 0 0 103.59555448077663 -61.902303910301271 0 -61.902303910301271 191.99767378010802 0 0 0 0 49.391506339364241 -117.57757171605772 0 -117.57757171605772 285.13378695452411 0 0 0 0 71.004796017210992 -45.484310730806101 0 -45.484310730806101 219.91586399536209 0 0 0 0 130.27620793647657 -21.722061271313578 0 -21.722061271313578 222.98842691985192 0 0 0 0 249.00312598048254 -88.338310613826707 0 -88.338310613826707 246.84504732569621 0 0 0 0 87.247694678066182 -28.886988354366622 0 -28.886988354366622 294.15127190490966 0 0 0 0 50.695507687540612 -84.430789902693505 0 -84.430789902693505 192.96679412952108 0 0 0 0 35.60109909452467 -45.8525495447102 0 -45.8525495447102 101.54643827332256 0 0 0 0 -57.669275683312662 35.698131816914611 0 35.698131816914611 143.34203760798846 0 0 0 0 71.866934509669591 54.079531959316228 0 54.079531959316228 227.55914314612528 0 0 0 0 89.326365260494583 -32.980365091307249 0 -32.980365091307249 164.78847613700782 0 0 0 0 26.757498281714106 -30.131256933073018 0 -30.131256933073018 87.682965702835645 0 0 0 0 5.8803422957147085 8.1810574809359267 0 8.1810574809359267 10.255820956330624 0 0 0 0 -176.96035434956184 178.43229811553101 0 178.43229811553101 -162.86140089218679 0 0 0 0 8.5065652620816028 2.3174371579038961 0 2.3174371579038961 -1.2322864597229355 0 0 0 0 -179.01190609974361 113.26938584331754 0 113.26938584331754 -159.08354978454736 0 0 0 0 -3.6047516771338906 41.901169063348789 0 41.901169063348789 -184.23994252455304 0 0 0 0 -159.42937299448715 130.94204576585435 0 130.94204576585435 -120.60161422232341 0 0 0 0 44.178348414184597 -45.26438480688148 0 -45.26438480688148 82.651087885940797 0 0 0 0 -146.02391765691681 395.0789006136547 0 395.0789006136547 -380.9884503061694 0 0 0 0 116.03697158646844 198.03149508647766 0 198.03149508647766 -529.44286462508535 0 0 0 0 8.9534634121254797 13.632010287892957 0 13.632010287892957 17.373810496712196 0 0 0 0 15.488229782299641 1.8930809962294006 0 1.8930809962294006 -4.3973462250696684 0 0 0 0 13.108249696089842 2.9499016244808445 0 2.9499016244808445 -3.1908678783183859 0 0 0 0 10.807316431779752 1.6146557389428295 0 1.6146557389428295 -3.2378960970658071 0 0 0 0 5.9444238698088157 5.1716375376418 0 5.1716375376418 -13.625565964983252 0 0 0 0 14.146909617712708 1.3049384636815375 0 1.3049384636815375 -0.6650417536002351 0 0 0 0 15.184662870405205 2.1714321708840423 0 2.1714321708840423 -7.1728002188746984 0 0 0 0 6.8845997147121807 6.9867095354456978 0 6.9867095354456978 0.15384250347415218 0 0 0 0 8.5234093668701689 7.2505866103165317 0 7.2505866103165317 -7.4465096515777986 0 0 0 0 -52.0223863713627 145.34459843894729 0 145.34459843894729 -188.35835729902465 0 0 0 0 11.490128516637531 4.3726716517875346 0 4.3726716517875346 0.44870392494149058 0 0 0 0 -33.981007614690384 68.562989286233915 0 68.562989286233915 -141.57506061811364 0 0 0 0 14.911994522678469 4.7136619660996075 0 4.7136619660996075 -4.7468448526669818 0 0 0 0 14.619939624761173 5.0493451017027837 0 5.0493451017027837 -1.2964896715348004 0 0 0 0 -44.671944051336141 85.318609604453741 0 85.318609604453741 -82.19341667993649 0 0 0 0 -15.501209850016494 109.55291902984754 0 109.55291902984754 -143.14569656263848 0 0 0 0 -34.554565725898101 187.50954607770836 0 187.50954607770836 -135.8788823716651 0 0 0 0 -52.413807706421721 89.403357853205307 0 89.403357853205307 -139.14905157040266 0 0 0 0 2.7601086709521088 2.4585980363367561 0 2.4585980363367561 2.836549989459769 0 0 0 0 2.0519963877009104 -531.84924003277229 0 -531.84924003277229 556.26580820493109 0 0 0 0 24.335637092634897 -164.74581614298222 0 -164.74581614298222 368.27197408136999 0 0 0 0 283.43416570474324 -240.86762190298396 0 -240.86762190298396 254.92774487646238 0 0 0 0 -636.35530097825267 -394.71191385212842 0 -394.71191385212842 725.24043231169344 0 0 0 0 -6.3242841712933959 13.984146507078089 0 13.984146507078089 2.6078051407037464 0 0 0 0 -1.9292203388647522 6.6309176127942919 0 6.6309176127942919 -2.8117199514672393 0 0 0 0 -1.2146845367874288 7.9362931612498251 0 7.9362931612498251 4.1026147078580664 0 0 0 0 -95.750976517560048 -35.106790786405327 0 -35.106790786405327 244.34444500051904 0 0 0 0 -4.4973345334080967 9.5062941345555245 0 9.5062941345555245 12.018261644949707 0 0 0 0 -139.8508654843742 93.564372328776244 0 93.564372328776244 336.07377620524858 0 0 0 0 -3.7142388220709108 -1.3257476920989575 0 -1.3257476920989575 28.443312918534275 0 0 0 0 586.16606510680504 148.87718537226465 0 148.87718537226465 255.65308373294647 0 0 0 0 -35.886385538559807 221.79344909344218 0 221.79344909344218 43.780190374638551 0 0 0 0 -6.5893500416324127 4.6501986963680437 0 4.6501986963680437 5.6968643858568448 0 0 0 0 -145.98103278131634 43.139137419351528 0 43.139137419351528 66.914616767484404 0 0 0 0 -78.413799239551736 12.350067354476778 0 12.350067354476778 80.145749268703184 0 0 0 0 -61.206902527002967 58.774003184676985 0 58.774003184676985 46.126383315691783 0 0 0 0 -58.749630484993759 49.916162299748976 0 49.916162299748976 -19.028938810180989 0 0 0 0 -6.760615496601531 24.219669583320865 0 24.219669583320865 26.656123576343816 0 0 0 0 -10.043757346157012 18.717193476511611 0 18.717193476511611 15.75508203002687 0 0 0 0 18.121843281634938 30.70404929133656 0 30.70404929133656 31.044084453140385 0 0 0 0 3.038310586352317 4.5298855772624407 0 4.5298855772624407 3.5539734985512439 0 0 0 0 41.08296691650051 81.693497756910801 0 81.693497756910801 94.696534537477419 0 0 0 0 9.7475778596774436 20.091166276332004 0 20.091166276332004 22.166974752361597 0 0 0 0 -42.623268441921027 22.475370281696087 0 22.475370281696087 27.548636725160577 0 0 0 0 61.497707043651928 -35.477957194241753 0 -35.477957194241753 -32.18238266230037 0 0 0 0 7.1620247836348216 6.2648414293621499 0 6.2648414293621499 5.1617106184096997 0 0 0 0 -8.5639713645047131 3.1980239044981289 0 3.1980239044981289 9.3470024562595597 0 0 0 0 -17.519978994968028 -35.674285511573544 0 -35.674285511573544 127.39324799715541 0 0 0 0 -38.478967158690963 -4.0466918342590361 0 -4.0466918342590361 192.21493252014625 0 0 0 0 -64.441697561351702 -111.44191036801203 0 -111.44191036801203 93.990874209317553 0 0 0 0 47.625131350700997 -53.80553541176414 0 -53.80553541176414 -116.09784537603991 0 0 0 0 47.803241240936813 1.6581842679370311 0 1.6581842679370311 60.91832350291952 0 0 0 0 4.7079228849549963 3.3959950812313764 0 3.3959950812313764 5.5090863568984787 0 0 0 0 11.735595943704725 7.6341815105045825 0 7.6341815105045825 5.1356497645323032 0 0 0 0 -42.865315887518591 111.92546265867713 0 111.92546265867713 -24.458818594096783 0 0 0 0 -48.304584452958807 117.19126999631953 0 117.19126999631953 11.235744891451759 0 0 0 0 -23.951016045619781 85.593331277794277 0 85.593331277794277 -29.021096076502431 0 0 0 0 7.2318450300087989 -57.057552822483558 0 -57.057552822483558 -23.971768711133336 0 0 0 0 56.878304853710688 14.381707828255458 0 14.381707828255458 57.543831501719978 0 0 0 0 13.287025974102562 -43.618741819147544 0 -43.618741819147544 92.010423614703541 0 0 0 0 46.387651140473736 56.116491689470422 0 56.116491689470422 46.102068625452375 0 0 0 0 22.628696493930875 -31.211920458645181 0 -31.211920458645181 64.964998505911353 0 0 0 0 7.2823220354238174 -33.873387950376127 0 -33.873387950376127 78.0144265859999 0 0 0 0 -5.7207345536779783 10.232442773598944 0 10.232442773598944 18.52092533771868 0 0 0 0 -10.572286383246592 24.726960506823161 0 24.726960506823161 25.109821208890935 0 0 0 0 -48.323361632823342 17.222657083188096 0 17.222657083188096 23.853455315972496 0 0 0 0 -0.78609800816086239 -0.81537975968256404 0 -0.81537975968256404 1.3042946895111527 0 0 0 0 -72.013454755762893 32.932379761958146 0 32.932379761958146 157.75122743482643 0 0 0 0 92.722415682367227 -29.354694200423182 0 -29.354694200423182 -23.404552584892372 0 0 0 0 31.343368380480115 -30.268870613370382 0 -30.268870613370382 13.159043379188006 0 0 0 0 6.9374369728418515 26.117679561422847 0 26.117679561422847 17.872713815741008 0 0 0 0 28.940632596495561 35.906560035735311 0 35.906560035735311 -45.97813203548867 0 0 0 0 45.553612217461477 -15.639306620063508 0 -15.639306620063508 -53.668293726579577 0 0 0 0 -30.724627607346747 -10.386332772657624 0 -10.386332772657624 13.788501193674165 0 0 0 0 -9.714081662189983 6.4434517463223528 0 6.4434517463223528 5.6753179339066264 0 0 0 0 1.1461243859416452 2.7968018961889243 0 2.7968018961889243 5.371987874709788 0 0 0 0 4.1676681125945834 3.3529255981629831 0 3.3529255981629831 2.7277079628966021 0 0 0 0 -1.5953351830764859 4.9862812500741711 0 4.9862812500741711 5.7517227445932804 0 0 0 0 5.8847270388114339 3.3716458959534066 0 3.3716458959534066 8.0317949572054204 0 0 0 0 1.6979925403057088 3.6066369158798466 0 3.6066369158798466 3.1805737803841652 0 0 0 0 -2.0774837032518008 52.217641400296998 0 52.217641400296998 -11.570017245270719 0 0 0 0 36.603125635442609 12.306072927072819 0 12.306072927072819 -12.795003992127022 0 0 0 0 3.4783659769266793 4.5564848488044234 0 4.5564848488044234 5.3802322194967758 0 0 0 0 -0.048415210850243584 -6.7324361091075957 0 -6.7324361091075957 -7.6383324571870617 0 0 0 0 49.459496777334607 -26.917725012215669 0 -26.917725012215669 41.416184475325281 0 0 0 0 5.0915217955013485 6.182067176906429 0 6.182067176906429 5.0020854721567858 0 0 0 0 20.683793459713343 28.650665564731753 0 28.650665564731753 25.748134510766249 0 0 0 0 3.9533835798674772 0.93615779236642993 0 0.93615779236642993 9.5145202173789585 0 0 0 0 6.4263040608143456 8.217997056270157 0 8.217997056270157 6.9964355333345978 0 0 0 0 1.4783013654455504 0.8405549850153804 0 0.8405549850153804 -1.4064353190360492 0 0 0 0 -0.051549105504701487 1.9688007446489166 0 1.9688007446489166 2.5990375698311881 0 0 0 0 -12.461523324627706 -21.322963057529705 0 -21.322963057529705 128.55725186128984 0 0 0 0 35.658069872248234 -69.177987399016274 0 -69.177987399016274 70.865103328165333 0 0 0 0 14.239825507989281 6.5044645582893281 0 6.5044645582893281 0.90502327852664166 0 0 0 0 28.998842039106876 -28.431604327561217 0 -28.431604327561217 0.66320054620155133 0 0 0 0 1.3954492273151848 0.65067139919194261 0 0.65067139919194261 0.35456812574706476 0 0 0 0 -33.317609163127258 47.269263284466433 0 47.269263284466433 -19.797424602642423 0 0 0 0 27.635477849818699 28.41729772243707 0 28.41729772243707 -97.449311521942946 0 0 0 0 -22.461169315042525 8.5963127645736677 0 8.5963127645736677 19.487326550210128 0 0 0 0 6.9878384130011 7.0204945428458814 0 7.0204945428458814 -1.8807555874918762 0 0 0 0 33.162126590594198 3.6271285509210429 0 3.6271285509210429 -25.605623435712914 0 0 0 0 -20.711858995368857 -42.523618662000445 0 -42.523618662000445 -35.570229779550573 0 0 0 0 -24.801445474606226 27.126970066854483 0 27.126970066854483 53.981250935888966 0 0 0 0 2.9231243334661254 4.8641364674367864 0 4.8641364674367864 6.0194339271709518 0 0 0 0 5.6309011791814045 4.2434811687535365 0 4.2434811687535365 2.3730945041499751 0 0 0 0 7.7876186336321354 3.4618170105465254 0 3.4618170105465254 0.82842941638434509 0 0 0 0 4.5716869238743563 1.7535105994429152 0 1.7535105994429152 -1.5243570241186006 0 0 0 0 6.4254409744639762 5.4386434577487819 0 5.4386434577487819 2.7987504322124863 0 0 0 0 7.1440137614681589 6.0227152993975324 0 6.0227152993975324 -1.4855146839145164 0 0 0 0 26.599294502782868 11.135120259674295 0 11.135120259674295 -13.15843271889571 0 0 0 0 13.325778637919484 4.7412960904766805 0 4.7412960904766805 -0.98371676419992582 0 0 0 0 69.389278033759183 -12.062292179085489 0 -12.062292179085489 -91.905893876704795 0 0 0 0 30.123337595036901 -46.624921519789496 0 -46.624921519789496 -58.497468890825985 0 0 0 0 86.517472525114044 46.01129298046726 0 46.01129298046726 46.58365014087758 0 0 0 0 69.953156607929486 12.082719722922775 0 12.082719722922775 5.4446742097666174 0 0 0 0 96.851712570703967 18.129402827580634 0 18.129402827580634 5.2559633954660967 0 0 0 0 67.94558240596325 -6.3732231189678714 0 -6.3732231189678714 23.529648387047928 0 0 0 0 81.844329761044719 32.458332809306739 0 32.458332809306739 -8.4716402624180773 0 0 0 0 28.582901992154802 6.0386202161826077 0 6.0386202161826077 -75.813474534981651 0 0 0 0 75.753083161529503 -18.542670275062846 0 -18.542670275062846 -67.491953909731819 0 0 0 0 1.505907912096518 4.876429368800018 0 4.876429368800018 -1.1064394116974654 0 0 0 0 -131.73462567842944 -49.23299228810356 0 -49.23299228810356 -58.370695287740091 0 0 0 0 5.5879246794544581 1.9464034881462062 0 1.9464034881462062 -0.77557853603461524 0 0 0 0 163.60998057622783 -103.20665863344766 0 -103.20665863344766 5.526153522747336 0 0 0 0 66.995735279040218 -10.941741346056006 0 -10.941741346056006 -51.34670997824287 0 0 0 0 2.5608012764120378 3.3533984451560954 0 3.3533984451560954 2.9899359653503126 0 0 0 0 44.185017114894436 38.458418076588714 0 38.458418076588714 -100.07650574926811 0 0 0 0 20.926480528142747 -75.099089562993868 0 -75.099089562993868 97.56692133116303 0 0 0 0 31.085186400092425 -80.822677770902374 0 -80.822677770902374 134.70354511094774 0 0 0 0 83.063365015063937 -143.24347335943094 0 -143.24347335943094 195.16270630167128 0 0 0 0 64.549836759413665 -108.70123275578226 0 -108.70123275578226 90.004902560001938 0 0 0 0 172.43298196311753 -125.79305117104741 0 -125.79305117104741 58.279210564505775 0 0 0 0 91.788498104757309 -49.718481725747552 0 -49.718481725747552 258.19771771318665 0 0 0 0 171.72438088363504 -145.34060244125112 0 -145.34060244125112 198.63552347483346 0 0 0 0 109.11805641981209 -104.01813055262028 0 -104.01813055262028 199.5558558995258 0 0 0 0 112.53976021351355 -143.56047207238771 0 -143.56047207238771 352.76603858004091 0 0 0 0 98.00899939491228 92.373916145072144 0 92.373916145072144 128.42476697396341 0 0 0 0 0.39758458913901951 0.23725496768147991 0 0.23725496768147991 3.5993137560625996 0 0 0 0 -13.008259555132099 72.812447606505884 0 72.812447606505884 464.92322236288601 0 0 0 0 31.900918078979885 152.43917009837423 0 152.43917009837423 346.00656658809748 0 0 0 0 47.671890208423065 -87.183196216185024 0 -87.183196216185024 132.36413400753531 0 0 0 0 16.587893054568212 -51.921239807406891 0 -51.921239807406891 224.20471677092428 0 0 0 0 27.145321065016105 -63.770874385050774 0 -63.770874385050774 136.36700636136811 0 0 0 0 56.734734620133167 -79.028654679263127 0 -79.028654679263127 65.625267739544483 0 0 0 0 32.417405790443809 -127.74185084554483 0 -127.74185084554483 185.43230358188521 0 0 0 0 29.317897545027336 -133.05997984761416 0 -133.05997984761416 274.93666028362713 0 0 0 0 35.766726914350329 -101.43871235242841 0 -101.43871235242841 201.18798737782345 0 0 0 0 17.153570588347065 -132.22605154611665 0 -132.22605154611665 261.91451040200809 0 0 0 0 -0.43076007362743596 0.38547584601602125 0 0.38547584601602125 1.1558312586021628 0 0 0 0 134.57011816894919 -94.022091051998359 0 -94.022091051998359 169.5736846673808 0 0 0 0 17.407512664737624 -56.063036212794032 0 -56.063036212794032 282.37752582769099 0 0 0 0 198.66800553172834 57.431307791057407 0 57.431307791057407 339.61244880971208 0 0 0 0 88.874183001764777 -110.15560455625382 0 -110.15560455625382 378.15048914361978 0 0 0 0 107.34337202625102 -15.324124388160271 0 -15.324124388160271 372.26072235618403 0 0 0 0 164.54675893358626 -59.994117111162268 0 -59.994117111162268 311.28675585138262 0 0 0 0 137.18639226626829 -98.484714692865964 0 -98.484714692865964 440.53676933595125 0 0 0 0 292.00419884448775 38.979893399640787 0 38.979893399640787 378.33804807923298 0 0 0 0 162.03791121688846 82.700432641326188 0 82.700432641326188 507.55496289378425 0 0 0 0 168.69232167658356 27.139969329746236 0 27.139969329746236 341.51561180981662 0 0 0 0 -0.3785054525201712 0.62620781333039588 0 0.62620781333039588 1.1732230628967173 0 0 0 0 93.091702358730799 42.587262390021351 0 42.587262390021351 380.41736300633056 0 0 0 0 82.816256558377063 -9.0579763570749492 0 -9.0579763570749492 351.58041730821787 0 0 0 0 101.62911633604961 -95.426353223760543 0 -95.426353223760543 266.28745870939747 0 0 0 0 86.518639939296918 -58.8955846781937 0 -58.8955846781937 220.44756173161568 0 0 0 0 60.70259316782176 -59.855817795778421 0 -59.855817795778421 318.73286613203527 0 0 0 0 48.690863965071003 -62.951827547576613 0 -62.951827547576613 214.43864940961794 0 0 0 0 50.216876892694927 -83.811612213052285 0 -83.811612213052285 275.67560337951727 0 0 0 0 78.474984392817532 -75.960529963485897 0 -75.960529963485897 269.27446810526817 0 0 0 0 15.268707961376663 -33.066425867573798 0 -33.066425867573798 283.01897348072089 0 0 0 0 14.192642047323716 -33.665331091724511 0 -33.665331091724511 333.08122323033604 0 0 0 0 9.0070910837534939 -10.268001658652793 0 -10.268001658652793 323.72271314953105 0 0 0 0 21.637284461886338 -11.086854344193853 0 -11.086854344193853 300.68612851828584 0 0 0 0 26.952345668902126 -36.452836030352046 0 -36.452836030352046 408.99831948211067 0 0 0 0 8.7290169452844566 -14.369895904019359 0 -14.369895904019359 247.09821053255291 0 0 0 0 -3.7597234605432277 19.762112514585169 0 19.762112514585169 253.97820445201796 0 0 0 0 -3.8725347347608476 14.532671463621227 0 14.532671463621227 266.15358060898143 0 0 0 0 -7.53128576686413 14.67180573679434 0 14.67180573679434 286.74262004094544 0 0 0 0 8.7025214298032552 -12.193540826447133 0 -12.193540826447133 251.75591057342535 0 0 0 0 23.091739602095913 -61.644500359339872 0 -61.644500359339872 250.55775937337967 0 0 0 0 17.284004384569698 -35.923487667547306 0 -35.923487667547306 205.3539975645399 0 0 0 0 13.924705473505014 -43.692425525614453 0 -43.692425525614453 188.11866685837595 0 0 0 0 13.917860776503403 -36.838438547769329 0 -36.838438547769329 173.98314596732325 0 0 0 0 14.165524048272346 -11.69150292139966 0 -11.69150292139966 203.00464753021151 0 0 0 0 -1.457192316959663 -50.924242604531173 0 -50.924242604531173 150.38886901331716 0 0 0 0 -2.6356814929322354 -52.255063150842034 0 -52.255063150842034 164.14892039739061 0 0 0 0 23.730782095031373 -21.531351896097476 0 -21.531351896097476 161.12344758567497 0 0 0 0 -17.644701659418828 -53.156764908268087 0 -53.156764908268087 153.7552807703978 0 0 0 0 9.3404418546313082 -44.753218722227757 0 -44.753218722227757 127.79807628432172 0 0 0 0 35.994845959888153 -3.9776806027657585 0 -3.9776806027657585 144.82056888543957 0 0 0 0 30.6502281629339 3.7608522084046854 0 3.7608522084046854 134.74654698806989 0 0 0 0 8.8318307984334297 -9.3329256395072662 0 -9.3329256395072662 202.05770190304611 0 0 0 0 19.888946916156328 17.068606020904554 0 17.068606020904554 227.50329278613208 0 0 0 0 11.704231198596517 -18.440643047477352 0 -18.440643047477352 186.36675068624754 0 0 0 0 19.098435785856509 7.9610391905589495 0 7.9610391905589495 173.41446461499618 0 0 0 0 43.534380279741072 37.994642624093103 0 37.994642624093103 199.63509266356414 0 0 0 0 2.6677082432640873 22.85676419406991 0 22.85676419406991 227.19246517087595 0 0 0 0 2.4051749479008322 43.589120595497661 0 43.589120595497661 242.33292836432884 0 0 0 0 6.8159819296708974 46.239863230737683 0 46.239863230737683 208.18017020124535 0 0 0 0 20.029422589514525 69.228466017502797 0 69.228466017502797 224.32324313640493 0 0 0 0 -10.282022041134042 69.465465672070422 0 69.465465672070422 254.16066046229389 0 0 0 0 84.495180663686938 159.28391015590387 0 159.28391015590387 304.84647631233383 0 0 0 0 50.679668467752435 -3.4362946696273866 0 -3.4362946696273866 117.27974043136055 0 0 0 0 106.60344013005624 68.449382782870089 0 68.449382782870089 168.37031903096795 0 0 0 0 22.268652628092866 73.596091474977584 0 73.596091474977584 219.61220231233165 0 0 0 0 234.49874141096257 106.62172387511964 0 106.62172387511964 124.51454704549246 0 0 0 0 3.7241602067916455 2.3272358034689589 0 2.3272358034689589 0.71879534742305395 0 0 0 0 70.653565624517 -13.961324674322896 0 -13.961324674322896 8.2494862734893104 0 0 0 0 -1.7291427364737046 -0.20848825030043372 0 -0.20848825030043372 375.16336412460078 0 0 0 0 0.68033054900992318 0.53215741029792696 0 0.53215741029792696 0.63233833780940696 0 0 0 0 -253.5847922478797 -56.461386874128038 0 -56.461386874128038 -182.79897604366124 0 0 0 0 217.78637161416577 169.94081283393098 0 169.94081283393098 -86.91972750525747 0 0 0 0 -3.3425103037073427 -19.51948006757857 0 -19.51948006757857 144.33339580082975 0 0 0 0 -10.792192333070261 20.723443316504927 0 20.723443316504927 124.15697922252002 0 0 0 0 -26.154746954905022 19.877618141610583 0 19.877618141610583 240.09223454599851 0 0 0 0 43.313362845230131 30.755810142291011 0 30.755810142291011 27.578363451109908 0 0 0 0 5.4391302269665651 4.2096532398364488 0 4.2096532398364488 1.3601359118459737 0 0 0 0 1.3234895493838508 -42.595602953560956 0 -42.595602953560956 -18.557255025923951 0 0 0 0 1.2561587024534067 -1.1906086238047777 0 -1.1906086238047777 -1.6552178264603796 0 0 0 0 54.813018655129781 81.23953898470063 0 81.23953898470063 57.190259553510259 0 0 0 0 28.461211326231023 89.83383019847679 0 89.83383019847679 155.88674921411439 0 0 0 0 -20.877120326693785 22.720483515739033 0 22.720483515739033 186.52463872428052 0 0 0 0 15.744171791928238 82.386872071656398 0 82.386872071656398 200.15587839706859 0 0 0 0 11.823115014865834 26.927808544038271 0 26.927808544038271 100.2369770151272 0 0 0 0 11.234939998012983 3.5922375107962736 0 3.5922375107962736 0.42605827348162872 0 0 0 0 2.1068303449916064 0.20859250371356097 0 0.20859250371356097 -0.37168769641813526 0 0 0 0 -16.889030616300943 78.126888957800475 0 78.126888957800475 160.00146859678352 0 0 0 0 -55.963242368571855 23.374553722156634 0 23.374553722156634 103.5436724441679 0 0 0 0 55.356399550469632 -4.9863368144069682 0 -4.9863368144069682 -6.4007191832733383 0 0 0 0 44.188110838518696 95.126415863460352 0 95.126415863460352 125.54918764180184 0 0 0 0 6.2711517226183915 3.1671777225732356 0 3.1671777225732356 0.62550896423837221 0 0 0 0 73.737659710715434 128.93205988228692 0 128.93205988228692 172.605769216716 0 0 0 0 24.797570217464454 46.494754641993495 0 46.494754641993495 274.51784266972754 0 0 0 0 2.0238861257839744 62.891965897981208 0 62.891965897981208 304.93333891240763 0 0 0 0 -21.341994340947167 42.616939276103949 0 42.616939276103949 275.739928223682 0 0 0 0 -10.309533344404826 51.223994072726782 0 51.223994072726782 238.83687543792621 0 0 0 0 -27.318814171785789 43.674925955274375 0 43.674925955274375 235.81898238464055 0 0 0 0 -4.5892979020409257 56.820613558214973 0 56.820613558214973 193.33881186208964 0 0 0 0 4.5031498212490533 49.21387973815763 0 49.21387973815763 232.45927970591583 0 0 0 0 -13.384057711681635 42.456502313929377 0 42.456502313929377 230.0603336639906 0 0 0 0 
</DataArray>
<DataArray type="Float64" Name="cross_section_updated" format="ascii">
1 1 1 1 1 1 1 1 1 1 1 1 1 0.011225076897582915 1 1 1 1 1 1 1 1 1 0.010280711261158641 0.010953573669033543 1 1 1 1 1 1 1 1 1 1 1 0.012291986133176591 1 0.010697433976966791 1 0.010926434883805696 1 1 1 1 1 1 1 1 1 1 1 1 1 1 1 0.011405153019471167 1 1 1 0.01336399150398733 1 1 1 1 1 1 0.010131183581549432 1 1 1 1 0.011039883771420468 1 1 1 1 1 1 1 1 1 1 0.012377061910942403 1 1 0.012209993624307237 1 0.010657451745043621 1 1 0.011646680842857568 1 0.013004334950579243 1 1 1 1 1 1 1 0.012040557890111436 1 1 0.011808777304365387 1 1 1 1 0.012842919985762482 0.010000255854158077 1 0.010111130509428135 1 1 1 1 1 1 1 1 1 1 0.010554591069623191 1 1 0.011587818913981883 1 1 1 0.01198680151339223 1 1 1 1 1 1 1 1 1 1 1 1 0.013271898689534481 1 1 1 1 1 1 1 1 1 1 1 1 1 1 1 1 1 1 1 0.009918100027570282 1 1 1 1 1 1 1 1 1 1 1 1 1 1 1 1 1 1 1 1 1 1 1 1 1 0.010226462594061883 1 1 1 1 0.010359096711778225 1 0.0097873680771875735 1 1 1 1 1 1 1 1 1 1 1 0.010202798035228366 1 1 1 1 1 1 1 1 1 1 1 1 1 1 1 1 1 1 0.009589143772959715 0.0089316005509580236 1 1 1 1 1 1 0.0106048525365714 1 1 1 0.010604990828849355 1 1 1 1 1 0.010494032271713435 1 1 1 1 1 1 0.010508308122201798 1 1 1 1 0.009779806533041599 1 1 1 1 0.011362843055252592 0.014483593406958008 1 1 1 1 1 1 1 1 1 1 1 1 1 1 1 1 0.010202936327506323 1 0.010126703808495251 1 1 1 1 1 1 1 0.01002630207141051 1 0.010389195784102185 1 1 1 0.010506483486115936 1 1 1 1 1 1 1 1 1 0.010381407863464342 1 1 1 1 1 1 1 0.010154534038189016 1 1 1 1 1 1 1 1 1 1 1 1 1 1 1 1 1 1 1 0.00989636403008122 1 1 1 1 1 1 1 1 1 1 0.010849203775395604 1 0.01516674680955731 1 1 1 0.016183333541630755 1 1 1 1 1 1 1 1 1 1 1 1 0.0097142032342885914 1 1 0.017091875150689842 1 0.014271545336648917 1 1 1 0.0086687517123507189 1 1 1 1 1 1 1 1 1 0.0099595727005136296 1 1 1 0.010200117292590875 1 1 1 1 1 1 0.0099935985530607337 1 1 1 1 1 1 1 1 1 1 1 1 0.010048403409270521 1 1 1 1 1 0.010756450717461466 1 0.011014216923007296 1 1 1 0.016651129539028985 1 1 1 1 1 1 1 1 1 1 1 1 1 1 1 0.0099696319978797229 1 0.0099902596231310429 1 1 1 1 0.010008474273369634 1 1 1 1 1 1 1 1 0.0096093295019775704 1 1 0.010325888078592395 1 0.0086025775426017068 1 0.015061628573248248 1 1 1 0.0086223093290781153 0.010043377958257743 1 1 1 1 1 1 1 0.012407676666899852 0.011751381650692909 1 0.0097422325481382466 1 0.0134870372458211 1 0.010179292208053961 1 1 1 0.010108131205744015 1 0.014567511196681576 1 0.015380223151633782 1 1 0.0098815074353881174 1 1 1 0.013174732745918696 1 1 1 1 0.0096855961724435155 1 0.0099253528355592573 1 1 1 1 0.013849111029469983 1 1 1 1 1 0.0099877669969997643 1 1 1 1 1 0.010030333219038628 1 1 1 0.0098922008430731533 1 0.010190523281399218 1 1 1 0.011781758174333678 1 1 1 1 1 1 1 0.010594404460472695 1 1 1 1 1 0.010466698115181182 1 1 1 1 1 0.010571755831773159 1 0.01008737273247988 1 1 1 1 1 1 1 1 0.01001752463366652 1 1 1 1 1 1 0.010005608459356056 1 1 1 1 1 1 0.010011902320655543 1 1 1 1 0.010895796753389796 1 1 1 0.0099805146986701246 1 1 1 1 1 1 1 1 1 0.010243025880088196 1 1 1 1 1 1 1 1 1 1 1 1 0.010559470703064386 1 1 1 1 1 0.0099768896024178492 1 1 0.0099090024413401243 1 1 1 1 1 1 1 0.010044370863900304 1 1 1 1 1 1 1 0.010152041069573585 1 0.010028549147553594 1 1 1 0.010641992704052666 1 1 1 1 1 1 1 1 0.010312577845863842 1 1 1 1 0.010336646367108696 1 1 0.010785655820554838 1 1 1 1 1 1 1 1 1 1 1 1 1 1 1 1 1 1 0.012772795301783872 1 1 1 1 1 1 1 1 1 1 0.011213884599394765 1 1 1 0.010828379317601246 1 1 1 1 0.019981039377056593 1 1 1 1 0.018980914710463759 1 1 1 0.011112635315932677 1 1 1 1 1 1 1 0.010964942259406169 1 1 0.017382902283109725 1 1 0.012947014641464144 1 1 1 1 1 1 1 0.010323912000330813 1 1 1 1 1 1 1 1 1 1 1 0.010174155860081998 1 1 1 1 1 1 1 1 1 1 1 1 0.010961493420268696 1 1 1 1 1 1 1 1 1 1 1 1 1 0.014244589195241067 1 1 0.010002485001469183 1 0.015232727456491816 0.01449455520707525 1 0.015487456407248247 1 1 1 1 0.014655081915523125 1 0.0092087269798309997 1 1 0.012701423283365827 0.013216095074467421 1 1 0.0098109817123611023 1 1 1 0.0096523550787390965 0.011770693132562234 1 1 1 1 1 1 1 1 1 1 1 1 1 1 1 1 1 1 1 1 1 1 1 1 1 1 0.010008951821962674 1 1 1 1 0.011490042355185789 1 0.0099763463110040633 1 1 1 1 1 1 0.010037919880487984 1 1 1 1 0.01289354264116277 1 0.010100816558461274 1 0.014030250314566233 0.012572449123999923 0.010313537325792987 0.0099030413674285316 1 0.009959110773318602 1 1 1 1 1 1 1 1 1 1 1 1 1 0.014554758826622959 1 1 1 0.0096862091179167106 0.010000999063043454 1 1 1 0.013661545125284877 1 0.013991068128004765 1 0.01415226207099262 1 1 0.011319324926544786 0.012750345700515751 0.010408658661860684 1 0.010447656394292812 1 1 1 1 1 1 1 1 0.010145327328127762 1 1 1 1 1 0.012347666139674703 0.012597506941722491 0.0099951840171526966 1 1 1 0.010069697813563644 0.013995351916201982 0.012562585141953707 0.011726514839267732 1 1 1 1 1 1 1 1 1 1 1 1 1 1 0.0099031089624905099 1 1 1 1 1 1 1 1 1 1 1 1 0.010646311136746366 1 1 1 1 0.0099874811745758081 1 1 1 1 0.012032438205960536 1 1 1 1 1 0.0099339396813404833 1 1 1 1 1 1 1 1 0.011367496895189519 1 1 1 1 0.010065838456275523 0.01005546968622577 1 1 0.011050912221740164 0.011772356991949017 1 1 1 1 0.0103260706265197 1 0.010242553720536332 1 1 1 1 1 1 0.010013438294175012 1 1 1 0.011151915675304996 1 1 1 0.01022412487879408 0.012324971788142453 1 0.015608103296965424 1 1 1 1 0.010388815616670505 1 1 1 1 1 0.010554506945078508 1 0.012568871336308591 0.011984120398793428 1 1 1 1 1 1 1 1 0.013771983745386187 1 1 1 1 1 0.0096272932903172133 0.0096291437694892047 0.011372618527268993 1 1 1 1 1 1 0.010113980382031894 1 1 1 0.012929231284713986 1 1 1 1 0.011701363012396429 0.010507489282951137 0.016119859409457177 1 1 1 0.010270830738482941 1 1 1 1 1 1 1 1 0.0098205176345685947 1 1 0.01002384937341777 1 1 1 1 1 1 1 1 1 1 1 1 1 1 1 1 1 1 1 1 1 1 1 1 1 1 1 1 1 1 1 1 1 1 1 1 1 1 1 1 1 0.010039326024809886 1 1 1 1 1 1 1 1 1 1 1 1 1 1 1 1 1 1 1 1 1 1 1 1 1 0.010063175398227674 1 1 1 0.010106568786552649 1 1 1 1 1 0.013021500559631534 1 1 1 1 0.011134726649366133 1 1 0.012499073824089758 1 1 1 1 0.012954818642882525 1 1 0.012864677832339664 1 1 1 0.0094749712961980075 1 1 0.010068407686973884 1 1 1 1 0.017096154327615708 1 1 1 1 1 1 0.010079769230346198 1 1 1 0.017602901056326663 1 1 1 1 1 1 1 0.010220786794963171 1 1 1 1 1 1 1 1 1 1 1 1 1 1 0.017396509242399782 1 1 1 1 1 0.010653926288525965 1 1 1 1 1 1 1 1 1 1 1 1 1 1 1 1 1 1 1 1 1 1 1 1 1 1 1 1 0.010100730038441788 1 1 1 1 1 1 0.0099913077796567207 0.014388254054102871 0.0096287130204837663 0.010363446090089842 1 1 1 1 1 1 1 1 1 1 1 1 1 1 1 1 1 1 1 0.010212982109443151 1 1 1 1 1 1 1 1 1 0.013216510249104443 1 1 0.014129712983734295 1 1 1 1 1 1 1 1 1 1 1 1 1 1 1 1 1 0.010011788945435918 1 1 1 1 0.012277144780189772 1 1 0.012093095773266711 1 1 0.011281463473345868 1 1 1 1 1 1 1 1 1 1 1 1 0.010079369950969112 1 1 1 1 1 1 1 1 1 1 1 0.010247668303396015 1 1 1 0.011460836825942507 1 0.010736467969910363 0.012730605502072263 1 1 1 1 1 1 1 1 1 1 1 1 1 0.00938273920510653 1 1 0.010964838828114921 0.010383151679098621 1 1 1 0.010031548868036711 1 1 0.009094169816284383 1 1 1 1 0.01035045628772085 0.010330142017054648 1 0.011147487712911861 1 1 1 0.009991049464246218 1 1 1 1 1 0.011534383995863363 1 1 0.010272067607867736 0.010049472287929542 1 1 0.010063856030619931 1 1 1 1 1 1 1 1 1 0.0099973673352461833 0.009981968911421139 1 1 1 1 1 1 1 0.010078689935156981 1 1 1 0.010014776139158618 1 1 1 0.010982044355148674 1 1 1 0.011655659165688342 1 1 1 1 1 1 1 1 1 1 1 0.011555302184224951 1 1 1 0.010058673504185973 1 0.01208843490112008 1 1 1 1 1 0.0096822038186426384 1 0.013361256795421 1 1 0.013151960080195091 1 1 0.0099993842309198337 0.0094982874713327413 1 1 1 0.0097323782403453303 1 1 1 0.010162079379201466 1 1 1 0.013350589686235507 1 1 1 1 0.011475517549570316 0.01315834696501109 0.010727066158472631 1 1 1 1 1 1 1 0.011183108300463863 1 1 1 1 0.0098273753961402484 0.010040120136471032 1 1 1 1 1 1 1 0.009901103226109171 1 0.0098181661747403972 1 1 1 0.0099353721486603302 1 0.010494893821368666 1 1 1 1 1 1 1 1 1 0.010838779859115013 1 1 1 1 1 1 1 1 1 1 1 1 1 1 1 1 1 1 1 1 1 1 1 1 0.012004381305542702 1 1 1 0.0099881139625118427 1 1 0.0098140282620114306 1 1 1 1 1 1 0.010014160032609149 1 0.011647179985505244 1 1 1 0.0098426191886477506 1 0.010000436346787014 1 1 1 0.01055081003999056 1 1 1 1 1 1 1 1 1 1 1 1 1 1 1 1 0.010250711824980703 1 1 1 1 1 0.012795250458459324 1 1 1 1 1 1 1 1 1 1 1 0.010154534781200868 1 1 1 1 1 0.01033011075600325 1 1 1 1 1 1 1 1 1 1 1 1 1 1 0.0099132465818715324 1 1 1 0.012190705944076086 1 1 1 1 1 1 1 1 1 1 1 1 1 1 1 0.011020681999146287 1 1 1 1 1 1 0.0099841444590997429 1 0.010115186115539881 1 1 1 1 1 1 1 1 0.0098664207128018669 1 0.0098115556154780136 1 1 1 1 1 1 0.011721180713741014 1 1 1 1 1 1 1 0.0099921522327913251 1 0.011016813854931308 0.010920171814516929 1 1 0.010991936631537922 1 1 1 1 0.011104634525125157 1 0.010943946910989157 1 0.010515432406471915 1 1 1 1 1 1 1 1 1 1 1 1 1 1 1 1 1 1 0.010727185233975242 1 0.010562968877634443 1 1 1 1 1 1 1 1 1 1 1 1 1 1 0.016280317926868019 1 0.010131748282372257 1 1 1 0.0080526346893433839 0.010417000876772345 1 0.010069322904335796 1 1 1 1 0.010030241669893017 1 1 1 1 0.011891975536664661 0.011214205489022784 1 1 0.012331229394540497 0.010684492298403875 1 1 0.010581918734882432 0.01063614939377798 1 1 1 1 0.011414310283796886 1 1 0.0099894356925124914 1 1 1 0.015003557903699337 1 0.010066820739959487 1 0.0099572464491430174 1 1 1 0.012351169160251193 1 1 1 0.012212795513860413 0.012052418470247746 0.0098700574757433993 0.0098645377439730078 1 1 1 1 0.010524957703109791 1 1 0.010655067505886628 1 0.011646468227879429 1 0.012235394313297031 1 1 1 1 1 1 1 0.010412615848979527 0.011603278690779088 1 1 1 1 0.010237508575548586 0.011068405760619984 1 1 0.011260174678652665 1 1 0.012258283789740834 1 1 1 1 1 1 1 1 1 1 0.010014377714152372 1 1 1 1 1 1 0.012866986063028869 1 1 1 0.012756667992825951 1 1 1 0.011190686134485118 1 1 1 1 1 1 0.01026092359226239 1 0.011474807342330962 1 0.013259814846807667 1 1 1 0.010206315094355194 1 1 0.013838687411587678 1 1 0.010118152610215354 1 0.01247586874465614 1 1 0.010483452636822379 1 1 1 1 0.0089821901110269282 1 1 1 0.01006492529413865 1 1 1 1 1 1 1 1 1 1 1 1 1 1 1 1 1 1 1 1 1 1 1 1 1 1 1 1 1 0.015223332316024994 0.0093127683240245406 1 1 0.009758924768491814 1 1 1 1 1 1 1 1 1 0.013217957256291877 1 1 1 1 1 1 1 0.0099865895515558658 0.011288403244528206 1 1 0.01353199069294613 1 1 1 1 1 1 1 1 1 1 1 1 1 1 1 1 1 1 0.01417150659049838 1 1 1 1 1 1 1 1 1 1 1 1 1 1 1 1 1 1 1 1 1 1 1 1 1 1 1 1 1 1 1 1 1 1 1 1 1 1 1 1 1 1 1 1 1 1 1 1 1 1 1 1 1 1 1 1 1 1 1 1 1 1 1 1 1 1 1 1 1 1 1 1 0.0091808857547252647 1 1 1 1 1 1 1 0.010030536289010683 1 1 1 0.01058343276444954 1 0.0099091436802137191 1 1 1 1 1 1 1 1 1 1 1 0.010071608178150631 1 1 1 1 1 1 1 1 1 1 1 1 1 0.011026137822203052 1 1 1 0.010055114934735394 1 1 0.012624795204968578 1 1 1 1 1 0.011547904803181089 1 0.010118933601199439 1 1 1 1 1 1 1 1 1 0.018328762235823248 1 1 1 1 1 1 1 0.01080865172726107 1 1 0.010309036940346423 1 1 0.011984145067119409 1 1 1 1 1 1 1 1 1 1 1 1 1 1 1 0.010323019376423534 1 1 1 1 1 1 1 1 1 1 1 1 1 1 1 1 1 1 1 1 1 1 1 1 1 1 1 1 1 1 1 1 0.0101997954480006 1 1 1 1 1 1 1 1 1 1 1 1 1 1 1 1 1 1 1 1 1 1 1 1 1 1 1 1 1 1 1 1 1 0.010094022577019565 1 1 1 1 1 1 1 1 1 1 1 1 1 1 1 1 1 1 1 1 1 1 1 1 1 1 1 1 1 1 1 1 1 1 1 1 1 1 1 1 1 1 1 1 1 1 1 1 1 1 1 1 1 1 1 1 1 1 1 1 1 1 1 1 1 1 1 1 1 1 1 1 1 1 1 1 1 1 1 1 1 1 1 1 1 1 0.018784763442286231 1 1 1 0.0099740264157478723 1 1 1 1 1 1 1 1 1 0.019979708667544633 1 1 1 0.012588504506221907 1 1 1 1 1 0.010278126804440218 1 0.009923417815125431 1 1 0.019162546503437614 1 1 0.0099782068857065479 1 1 1 1 1 1 1 1 0.0097874201837008443 1 1 1 0.011580366690092578 1 1 1 1 1 1 1 0.0095276732030005543 0.013134909011127493 1 1 0.010427132747331345 1 1 0.0077716192181033969 0.019401211956684938 1 1 1 1 1 1 1 1 1 0.0099687139289169405 1 1 1 0.014060081216084066 1 1 1 0.014133379162931985 1 1 0.013719606797328443 1 1 0.010480232248397713 1 0.012774449574976435 0.012190492208912544 1 0.0087119785822901193 1 1 1 1 1 1 0.011377388927633233 0.0078105960040877748 1 1 1 1 1 1 1 1 1 1 1 1 1 1 1 1 0.0082612348384945092 1 1 0.010046697239786406 1 1 1 0.009274133440625467 1 1 1 1 1 1 1 1 1 1 0.011103744142686282 1 1 1 0.011221683034525145 1 1 1 0.012882225896976433 1 1 1 1 0.010556221844401591 0.011556799970638465 1 0.0095458247045960218 1 1 0.013396165781275723 1 0.011018358217230913 0.011861968109450683 1 1 1 0.010946720887846902 1 1 1 0.011634053261469501 0.012280997458954735 1 1 1 1 1 0.011309705043941496 1 1 0.01200815170885948 1 1 1 0.010690322980014736 1 1 1 1 1 1 1 1 1 1 1 1 0.011280177415397 1 1 1 1 1 1 1 1 1 0.0099228051996015938 1 1 1 1 1 1 1 1 1 1 1 1 1 1 1 1 1 1 1 1 1 0.010099149463466166 1 1 0.010166380358363059 1 1 1 1 1 1 1 1 1 1 1 1 1 1 1 1 1 1 1 1 1 1 1 1 1 1 1 1 1 1 1 0.012241094128145698 1 1 1 1 1 1 1 0.011139092973588201 1 1 1 1 1 1 1 1 1 1 1 1 1 1 1 1 1 1 1 1 1 0.010182368524180002 1 1 1 1 1 1 1 1 0.011553837584296678 1 1 1 1 1 0.012667072473165222 1 1 1 0.010181035137720692 1 1 1 1 1 1 1 1 1 1 1 1 1 0.01105713365277549 0.010405411164316387 1 1 1 1 0.011113234888868544 1 1 1 1 1 1 0.0093852783532119149 1 0.01111719150848087 1 1 1 1 0.010412037695804508 1 1 1 1 0.0099069871296184504 0.0096410272782467745 1 1 1 0.015489600713387033 1 1 1 1 1 1 1 1 1 0.015315118507386385 1 1 1 1 0.0098591126356851952 1 1 1 1 1 1 1 1 1 1 1 1 1 1 1 1 0.015107625777020982 1 1 1 1 1 1 1 1 1 0.010010995320440742 1 1 1 1 1 1 1 1 1 1 1 1 1 1 1 1 1 1 1 1 1 1 1 1 1 1 1 0.014660389609937003 1 1 0.01397315607515941 1 1 1 1 1 1 1 0.011727306194406057 1 1 1 1 1 1 1 1 1 1 1 1 1 1 1 1 0.011256513680382444 1 1 1 1 1 1 1 1 1 1 1 1 1 1 1 1 1 1 1 1 1 1 1 1 1 0.013227388200680517 1 1 1 1 1 1 1 0.014434325909177502 1 1 1 1 1 1 1 0.010167710538570915 0.015142313924456341 0.0099105301151201051 1 1 1 1 0.013353931943252609 1 1 0.01113207346395448 1 1 0.01120175928323504 0.015114052024911871 1 1 1 0.0099997945440319126 0.010090884241997946 1 1 1 1 1 1 1 1 1 1 1 1 1 0.015528746551266698 1 1 1 0.014527501445238764 1 1 1 1 0.010380720986660166 1 1 1 1 1 1 1 1 1 1 1 1 1 1 1 1 1 1 1 1 1 1 1 1 1 1 1 1 1 1 1 1 1 1 1 1 1 1 1 1 1 1 1 1 0.010457632977595634 1 1 1 1 1 1 1 0.016369652292919135 1 1 1 0.0099676871022897906 1 0.012594907485798102 0.011308790734319455 1 1 0.014337975717556049 1 0.0092890636915881862 0.010779188510347832 1 1 0.012767297591979178 1 1 1 0.010046024366562056 1 1 1 1 1 1 1 0.014244673262060597 1 1 0.012407713228143609 1 1 1 1 1 1 1 1 1 1 0.0093862747022763222 1 1 1 1 1 1 1 1 1 0.013262392938575833 1 1 1 1 0.014592563289944606 0.010288483063672641 1 1 1 1 1 1 1 0.010042376697811346 1 1 1 1 1 1 1 0.0096840011972542592 0.011145972321913947 0.013060297830735389 1 0.0096996785953596572 0.01253856702422009 1 1 1 1 1 1 0.0099976922324022735 1 1 1 1 1 1 1 1 1 1 1 1 1 1 1 1 1 1 1 1 1 1 1 1 1 1 1 1 1 1 1 1 1 1 1 1 1 1 1 1 1 1 1 1 1 1 1 1 1 1 1 1 1 1 1 1 1 1 1 1 1 1 1 1 1 0.010006254945835052 1 1 1 1 1 1 1 1 0.014029399878313116 1 0.010944687784111593 1 1 1 1 0.013044352247768239 1 0.014013331951927215 1 1 1 0.012250559106106564 1 1 1 0.013351823049708902 1 1 1 1 1 1 1 1 1 1 1 1 0.010015328890374136 1 1 1 1 1 1 1 1 1 0.010034784735698682 0.0073326326754785624 1 1 0.012379110805777215 1 1 1 0.0095472304034908556 0.01391384485102729 1 1 0.012123089333018127 1 1 0.012245292813737447 1 1 0.011347504103830255 1 0.013601478428491916 1 1 1 0.010101022079499198 1 1 0.016075087542283029 1 1 1 1 1 1 1 1 0.013074851247343105 1 1 1 0.012479321717242326 0.011977009906885151 1 1 1 1 1 1 1 1 1 1 1 1 0.010073038116512858 1 1 1 1 1 1 1 1 1 1 1 1 1 1 1 1 1 1 0.0099250346266421905 1 1 1 1 1 1 1 0.010038123694582369 1 1 1 0.010419376522316051 1 1 1 1 1 1 1 1 1 1 1 1 1 1 1 1 1 1 1 1 1 1 1 1 1 1 1 1 1 0.014598478820359851 0.0096549749809502032 1 1 1 1 1 0.011145320928413407 1 1 1 1 0.010329124555290935 1 1 1 1 1 0.0095419891887220838 1 1 1 1 1 1 1 0.0088579302805577142 1 1 1 1 1 1 1 0.010175930873172893 1 1 1 1 1 1 1 1 1 1 1 1 1 1 1 1 1 1 1 0.011357076651890709 1 1 1 1 1 1 1 0.010214047421290565 1 1 1 1 1 1 1 1 1 0.010009945160038608 1 1 0.010709587229879036 1 1 1 1 1 0.009587073979356325 0.0098214973055447182 1 1 1 0.010541663959724666 1 0.010588462236737902 1 0.010771777927166357 1 1 1 0.010507951689690096 1 1 1 1 1 1 1 0.010535724262189647 1 1 1 0.010007293672097149 1 1 1 0.01142425276628106 1 1 1 1 1 0.011365690660255161 1 1 1 0.0097533311763067891 0.010100076101318977 1 0.010195541908270862 1 1 0.0098937728653390612 1 1 1 1 0.010264887407381689 1 1 0.010119910626121708 0.010030831935587658 1 1 1 0.011042382239629202 0.010326917356991819 1 0.011499958231106614 1 1 1 1 1 1 1 0.011034522772537195 1 1 0.012239610830704942 1 1 1 0.011533126922236951 1 0.01224382386299484 1 0.010320663815953297 1 1 1 1 1 1 1 1 1 0.010787271344138026 1 1 0.011892081330574716 1 1 1 1 1 1 1 1 1 1 1 0.0099901093402543738 1 1 0.0099790599208547728 1 1 1 1 1 1 1 0.0099515687233710012 1 1 1 1 1 1 1 1 1 0.012566400976316448 1 0.012175057322979781 1 0.010815703023977954 1 1 1 1 0.014364724662441708 1 1 1 0.013525112536347446 0.010427616394039425 1 1 1 0.010200905268141922 1 1 1 1 1 1 1 0.010359982465629169 1 1 0.011192060961731982 1 1 0.011407194634460315 1 1 1 1 1 1 1 1 0.013129253335576612 1 1 1 1 1 1 0.0098222790384541077 1 1 1 1 1 1 1 1 1 1 0.010296785813969507 1 1 1 1 1 1 1 1 1 1 1 1 1 1 1 1 1 1 1 1 1 1 1 1 1 1 1 1 1 1 1 1 1 1 1 0.011463190341423372 1 1 1 1 1 1 1 1 1 1 1 1 1 0.013646822412080001 1 1 1 1 0.014802230615037056 0.012495702534785736 0.010944923213622745 1 1 1 1 1 1 1 1 1 1 1 1 1 1 1 0.013526490963065192 1 1 1 1 1 0.013058187135847322 1 0.015220295884591365 1 1 1 1 1 1 0.014742794871587557 1 1 1 1 1 0.011103724710116641 1 1 1 1 1 0.013196976836527192 1 1 1 1 1 1 0.010107537866398 1 1 0.015060264691100162 1 1 1 1 0.0099356619027809179 1 1 1 1 1 1 1 1 1 1 1 1 1 1 1 1 0.01063552050937277 1 1 1 1 1 1 1 1 0.010755895034708777 1 1 1 1 1 1 1 1 1 0.011804282975241415 1 1 1 1 1 1 1 1 1 1 1 1 0.009925783508744691 1 1 1 1 0.009792547596003091 1 1 1 1 1 1 0.0097418632359366729 0.011375879669211388 0.010035331346111885 1 1 1 1 1 0.01118801233940632 0.011058806462177759 0.0099839811172660574 1 1 1 1 1 1 1 0.011831957142254003 0.011255465603420339 1 1 1 1 1 1 0.010864995837930533 1 1 1 0.011743950512829684 1 1 1 1 1 1 1 1 1 1 1 1 0.011133211864804647 1 1 1 1 1 0.010158708777884048 1 1 1 1 0.010062649721296031 1 1 1 1 0.010400423195753119 1 1 1 1 1 1 0.012750317045566907 0.01175506053554235 0.010000995370243515 1 1 1 1 1 1 1 1 1 1 1 0.010415259383747143 1 1 1 1 1 1 1 1 1 1 1 1 1 1 1 1 1 1 1 1 1 1 1 1 1 1 1 1 1 1 1 1 1 1 1 1 1 1 1 1 1 1 1 1 1 1 0.010395454528149448 1 0.0099904806733956113 1 1 1 1 1 1 1 1 0.010713764824724463 1 0.0093202873610885601 1 1 1 1 1 1 0.010607335652121233 1 1 0.0099219984856289429 1 1 1 1 1 1 1 0.010047751854403634 1 0.010055634427073726 1 0.010336914702802303 1 1 1 1 0.010611633460534188 1 0.0099235910279901127 1 1 0.0099719679428479022 1 1 1 1 1 1 1 1 1 1 0.011657261226241894 1 1 1 0.011012097086576271 1 1 1 1 1 1 1 0.010336093779533958 1 1 1 1 1 1 1 1 1 1 1 1 1 1 1 1 1 1 1 1 1 1 1 1 1 1 0.010079734038087797 1 1 1 0.010149155022007264 1 1 0.010069449810757521 1 1 1 1 1 1 1 1 1 0.010718850813008487 1 1 1 1 1 1 1 1 1 1 0.0099733111497543776 1 1 0.009780987388856268 1 1 1 1 1 1 1 1 1 1 1 1 1 1 1 1 1 1 1 1 1 1 1 1 1 1 1 0.010572323804538552 1 1 0.010699901435435061 1 1 1 0.010228916341150208 1 0.01071691747343553 1 1 1 1 1 1 1 1 0.0099379361404306771 1 1 1 0.010240303745337506 1 1 1 1 1 1 1 0.0098329900851390345 1 1 1 1 0.0097463318989658727 1 1 0.010982449406638589 1 1 0.011277619705421906 1 1 1 0.012864223695980691 1 1 1 0.010007152256292711 1 1 0.010105976535211614 0.010920478404224613 1 1 0.012552350249869752 0.0099860745069771575 1 1 1 1 1 1 1 1 1 1 0.010333194932624365 1 1 1 1 0.010705604571536784 1 1 1 1 1 1 1 1 1 1 1 1 0.0096964115849627504 1 0.013175295185363443 1 1 1 1 1 1 0.010012674277192195 1 1 0.01009940936501038 1 1 1 1 1 1 1 1 1 1 1 1 0.010588903030144663 1 1 1 1 0.011764859650923967 1 1 1 0.010043900484035011 0.011197869642796367 1 1 1 1 1 1 1 0.010340635650961629 1 1 1 1 1 1 1 1 1 1 0.010987238885367782 1 1 1 1 1 1 1 1 1 1 1 1 1 0.0096137670724930225 0.012354853005517844 1 1 0.010163583531535072 1 1 1 1 1 1 0.01286136879209653 1 0.012630738858995023 1 1 1 1 0.010170683594229719 1 0.0081022057866790547 1 1 0.014000154531404838 0.01000840466350192 1 1 1 1 1 1 1 1 1 1 1 1 1 1 1 1 1 1 1 1 1 1 1 1 1 1 1 1 1 1 1 1 1 1 1 1 1 1 1 1 1 1 1 1 1 1 1 1 1 1 1 1 1 1 1 1 1 1 1 0.010895082734269068 1 1 1 1 1 1 1 1 0.011124546196019809 1 1 0.011313230749871808 1 1 1 1 1 1 1 1 1 1 1 1 1 1 1 1 1 1 1 1 1 1 1 1 1 1 1 1 0.011558998641779087 1 1 1 1 1 1 1 1 0.010839197219149346 1 0.011172388018234404 1 1 0.010012616618403478 1 0.009558319392582804 1 1 1 0.011282619540428251 1 1 1 0.010153943889107777 1 0.011867834955725371 1 1 1 1 1 1 1 1 1 1 1 1 1 1 1 0.010062871213682994 1 1 0.010181996024421269 1 1 1 1 1 1 0.010576634478905824 1 1 0.01028146193959874 1 1 0.010226060381783208 1 1 1 1 1 0.010068647098400458 1 1 0.010027827383580535 1 1 1 0.013953995851047471 1 1 1 1 1 1 0.0095794169137512434 0.014507775417056668 1 1 1 0.010283000827803666 0.011775460792949775 0.0095022122727476104 0.010001999175796861 1 1 1 0.010548695360513555 1 0.010104253936483544 1 1 1 1 1 0.010720112519248225 1 1 1 1 1 1 0.011338972102294084 1 1 1 1 1 1 1 1 1 1 1 1 1 1 0.0099224375646831415 1 1 1 1 0.0099772454955586384 0.0099413198565833742 1 1 1 1 1 1 1 1 1 1 1 1 1 0.010037437796110354 1 1 0.009866366498359121 0.010858315035124905 1 1 0.010589673308202754 1 1 1 1 1 1 1 1 1 1 0.010221762531673355 1 1 1 1 1 1 1 0.009961842514190411 1 1 1 1 1 1 1 1 1 1 0.010001942267780214 1 1 1 1 1 1 1 1 0.0098399088273005159 1 1 1 1 1 1 1 1 1 1 1 1 1 1 1 1 1 0.010252179464318951 1 1 1 1 0.010295342576844654 1 0.01014178133505334 1 1 1 1 1 1 1 1 1 1 1 1 0.012604871102078162 1 0.013667470898070438 1 0.010244798653125029 1 1 1 1 1 0.010049747355967512 1 0.011836359524171638 1 0.014986968536464699 1 1 1 0.012229069444623616 0.012533025225657635 0.010366654181941286 1 1 1 1 0.01072633321803176 1 1 1 0.0089241031246559809 1 0.010214601201270775 1 1 1 1 1 1 1 0.013760131185655685 1 0.0089174412902153291 1 1 1 1 1 1 1 0.014474847026738746 1 0.009999681806722012 1 1 1 1 1 0.013509959680152214 1 1 1 0.012207494851253177 0.010063286779447149 1 0.011205447253724441 1 1 1 1 1 1 1 1 0.011057033121093244 1 1 1 1 0.010001503045924882 1 1 1 1 1 1 1 0.013722965307771576 1 1 1 1 1 1 1 1 1 1 1 1 1 1 1 1 1 1 1 1 1 1 1 1 0.01133755637896508 0.010338633652313073 1 1 1 1 1 0.011638901680714969 0.013199498437861883 0.0099947746228519901 1 1 0.01127210076752853 1 1 1 1 1 1 0.010692783075941839 1 1 0.01131056514195612 0.010520156490880776 1 1 1 1 1 1 1 1 1 1 1 1 0.010473189103104408 1 1 1 1 1 1 1 1 1 1 1 1 1 1 1 1 1 1 1 1 1 1 1 1 0.0085686539631661448 0.01070926034726972 1 0.0082086209144208114 1 1 1 1 1 1 1 1 1 1 1 1 1 0.0097927940218105018 1 1 1 1 1 1 1 0.0093699375796327776 0.0099990655706519264 1 1 1 1 1 1 1 1 0.0083083443780227056 1 0.012933448079031292 1 1 1 0.010142621387545535 0.013285363900966796 0.01037109098252228 1 0.01003529253242301 1 1 0.018422508085378726 1 1 0.018032459437821492 1 1 1 1 1 1 1 1 1 1 1 1 1 1 1 1 1 1 0.010106870919822621 1 1 1 1 1 1 1 1 1 1 1 0.0099151401126157529 1 1 1 1 1 1 1 1 0.0099767596964579486 1 1 1 1 1 1 1 1 1 1 1 1 1 1 1 1 1 1 1 1 0.010192459027908805 1 1 1 1 1 1 0.017422320706510702 0.016482586583784757 1 1 1 1 1 1 0.015319433297367457 1 1 1 1 0.010335171180146192 1 1 1 1 1 1 1 1 1 1 1 1 1 1 1 0.010363571203730174 1 1 1 0.011023225380656943 1 1 1 1 1 1 1 1 1 1 1 1 1 1 1 0.010024062910002834 1 1 1 1 1 1 0.0100657422527822 0.01023423064366045 0.010120952471793114 1 1 1 1 1 1 0.011499883486851343 1 1 0.011465478057635951 1 1 1 1 1 1 0.010223687062606164 1 0.011082565556735036 1 1 1 1 1 1 1 1 0.0097511098292793336 0.015552686020692029 0.010775764725207795 1 1 1 1 1 1 1 1 1 1 0.012816463119620664 1 1 0.012128148808443704 1 1 0.010721788650828901 0.014489201293474977 1 1 1 1 1 1 1 1 1 0.011809104490070589 1 1 1 1 0.010393792472552748 0.0091203068808869067 1 0.01145733402846276 1 1 1 1 1 1 1 1 1 0.010604635891592874 0.0099922623224420852 1 0.010069403461625718 1 1 1 0.011240815142130305 1 0.010225261439903119 1 1 1 1 1 1 1 1 1 1 1 1 1 1 0.010317063674312427 1 1 0.010112663455263893 1 1 1 0.010991138567113572 1 1 1 1 0.01039263510885197 1 1 1 1 1 1 1 1 1 1 1 1 1 0.010878020933392881 1 1 1 1 1 1 0.010306797947647918 1 1 1 1 1 1 1 0.013088713665898734 1 0.013778620606189663 1 1 1 0.012903702087172026 1 1 1 0.0099403383154963235 1 1 1 1 1 1 0.0098111245160141369 1 0.012647236709868618 1 1 1 1 1 1 1 0.013060875989393981 0.012182746556287177 1 1 0.01064252452951959 1 1 1 0.013518536475338854 1 1 0.011057648342415252 1 1 1 0.01220193748733114 1 1 1 1 1 1 0.010086772637324494 0.011317679656890664 1 1 1 0.011217379337539626 0.011430143793623648 1 0.010198678428015858 0.012328054314456896 1 1 1 0.012044413766317982 0.010017621714689683 1 1 1 1 1 0.010081619941401561 1 1 1 1 1 1 1 1 1 1 1 1 1 1 1 1 1 1 1 1 1 1 1 1 1 1 1 0.010011701955198852 1 1 1 1 1 1 1 1 1 1 1 1 1 0.0082798196379407427 0.00846582233546825 1 0.010562955671350186 0.011581058166169521 1 1 0.012442381371627243 0.01284510291103769 0.013610591435178683 1 1 0.010542204402647396 1 0.015707924720848084 1 1 1 1 0.010030369155728046 1 1 1 0.0096071234599167457 1 0.012796557056231384 1 1 0.014293838100099612 1 1 1 1 0.013925563851141085 0.012858839134523622 1 1 1 1 0.014617137120933859 1 1 0.014509388488310217 1 1 1 1 1 1 1 1 1 0.01411608749267225 1 1 1 0.012568170250962062 1 1 0.015563894349013795 0.010188859035437012 1 1 1 1 1 1 0.015430281705526346 1 1 1 1 1 1 0.01078405911479223 1 1 1 1 1 1 1 1 1 0.0099909227843570977 0.0099601248606185997 1 0.012515746270608315 1 1 1 1 1 1 1 1 1 1 1 1 1 1 1 1 1 1 1 1 1 1 1 1 1 1 1 1 1 1 1 1 1 1 0.01000263406748194 1 1 1 1 1 1 1 1 1 1 1 1 1 0.010042978182340088 1 1 0.010812198374428629 0.014669007863673107 1 1 1 1 1 1 0.01271715475603682 1 1 0.012432270089574975 1 1 1 0.012154795858152725 0.012406936808775354 1 1 1 1 1 1 1 1 0.010892750017215654 1 1 0.010005860605033438 1 1 1 1 1 1 1 1 1 1 1 1 0.0095467595887070711 0.011397383227989902 1 0.010034699611797157 1 1 0.010038325420452323 1 1 0.012776434804053702 1 1 1 1 0.010025357186486349 1 1 0.015322750844738125 1 1 0.010002668748731533 1 1 0.010590356251478486 1 1 0.010679830684865615 0.014246960920565833 1 0.010881414228102836 1 1 1 0.010914740999721834 1 1 1 1 1 1 1 1 1 0.010151150767717915 1 1 1 1 1 0.011355672626509442 1 1 0.010355720061208506 1 1 1 1 1 1 0.010950323932645702 1 1 1 0.010233304992551675 0.010970921482963553 1 1 1 1 1 0.0097909656582189676 1 0.010641652800120043 1 1 1 0.010422537047483672 1 1 1 1 1 1 1 1 1 1 1 1 1 1 1 0.0098294447101836789 1 1 1 1 1 1 1 1 1 1 1 1 1 1 1 0.010965379329883139 1 1 1 1 1 1 1 1 0.010113422517202323 1 1 1 1 1 1 1 1 1 1 1 1 1 1 1 1 1 1 1 1 1 1 1 1 1 1 1 1 1 1 1 1 1 1 1 1 1 1 1 1 0.0099056421636934868 1 0.0097157729447720203 1 1 1 1 1 1 1 1 1 1 1 1 1 1 1 1 1 1 1 1 1 1 1 1 1 1 1 1 1 1 1 1 0.010326622034188666 1 1 1 1 1 1 0.010817128331504246 1 1 1 1 1 1 1 1 1 1 1 1 1 0.012734705840707209 0.0099949437710443352 1 1 0.0099961649095183028 1 1 1 1 1 1 1 1 0.01352469352594933 1 1 1 1 1 1 1 1 1 1 1 1 1 1 1 1 1 1 1 1 1 1 1 1 1 0.0093918180769150296 0.01015914671819422 1 1 0.0076476214277241411 1 0.014341603825436904 1 1 1 1 1 1 1 1 1 1 1 1 1 1 1 1 1 1 0.0079970058756611354 1 0.015781436689819593 1 0.010049006169443965 1 1 1 1 1 1 1 1 0.016696641572753683 1 1 1 1 1 1 1 1 0.010053796494817952 1 1 1 1 1 1 1 1 1 1 1 1 1 1 1 1 1 1 1 1 1 1 0.01681608738580084 1 1 1 0.01021855924899261 0.010158889682849019 1 1 1 1 1 1 1 1 1 1 1 1 1 1 1 0.010123278686091393 1 1 1 1 1 1 1 1 0.0098292452103090986 1 1 1 1 1 1 1 1 1 1 1 1 1 1 1 1 1 1 1 1 0.010328446291132741 1 1 1 1 1 1 1 1 1 1 1 0.010510029522004982 1 1 0.011069086680752091 1 1 1 1 1 1 1 0.012684214148488807 1 1 0.011834880405605458 1 1 1 1 0.010331414737490087 1 1 0.014589179532551063 0.010290864373759836 1 1 1 0.0097236839073171835 1 1 1 1 1 1 0.010152775834405197 1 1 1 1 1 1 1 1 0.012090613481852901 1 1 1 1 1 0.011761714244670859 1 1 1 1 1 1 0.010641915880132526 1 1 0.010025050576949898 1 1 1 1 1 1 1 1 1 1 0.012379990987828604 0.011377378026089621 1 1 0.012070506176708578 0.011766604684103534 1 1 1 1 1 0.010022512177504852 1 1 0.0099973112572323015 1 0.012714734077557376 1 1 0.010113708618752729 1 0.011442460756727859 1 0.010028247020944781 1 0.0097473016240734837 1 0.010645071850795005 1 0.010083354112750289 1 1 1 1 1 0.01023356322039186 1 1 1 1 0.010505454283945444 1 0.01054917758999804 1 1 1 0.015005758698107018 0.010192347885266143 1 1 1 1 1 1 1 1 1 1 1 0.010035002894883309 1 1 1 1 1 1 1 1 1 1 1 1 1 1 1 1 1 1 1 1 1 1 1 0.015647111684077907 1 1 1 1 1 1 1 1 1 1 1 0.013057852304336795 1 1 0.011393361889230982 0.009710668923490904 0.010006865263176776 1 1 1 1 1 1 1 1 1 1 0.016121266985336301 0.01161746274705272 1 1 1 1 0.015465767800315514 1 1 1 1 1 1 0.0099815483237611861 1 1 1 1 1 1 1 1 1 0.01548463009868176 1 0.010511401316774738 1 1 1 1 1 1 0.010043103267954023 1 1 1 1 1 1 1 1 1 1 1 1 1 1 1 1 1 1 1 1 1 1 1 1 1 1 1 1 1 0.010243922879281268 1 1 0.009997772295024774 1 1 1 1 1 1 1 0.01003746684862483 1 1 1 1 1 1 0.010056661241578122 1 1 1 1 0.0092688096156010071 1 0.010091223516763262 1 1 0.0099905743933983941 1 1 1 1 1 1 1 0.01043948360434966 1 1 1 1 0.0089410716705487728 1 1 1 1 1 0.010063871955493192 1 1 1 1 1 0.010019581483525618 1 1 0.0086408099859825796 1 1 1 1 1 1 1 1 1 0.010428794876267461 1 1 1 1 1 1 1 1 0.010131775474254538 1 0.010335551762231164 1 0.012398522610953032 1 1 1 1 1 1 1 1 1 1 1 1 1 1 0.012407795586527862 1 1 1 1 0.012374232306131557 1 0.0091567819649101493 1 0.011899912483908558 1 1 1 0.010310639145660725 1 1 1 0.010706496803911496 1 0.011687804013968954 1 1 1 1 1 1 1 1 0.0097647488845109334 1 1 1 1 1 1 1 1 0.01177852863740509 1 1 1 1 1 1 1 1 1 1 1 1 1 1 1 1 1 1 1 1 1 1 0.009994956946218719 0.012040786549404015 1 1 1 0.010006723456296295 1 0.014095005131529349 1 0.013410528656901347 1 1 0.010473414919575638 1 1 0.0098862922359613369 1 1 1 0.01381650061588934 1 1 1 1 1 1 1 1 0.013640467135305442 1 1 0.014122228890409094 1 1 1 1 1 1 1 1 1 0.010077923948931422 0.018712591854109825 1 1 1 1 0.018604751140602588 1 1 1 1 1 1 1 1 1 1 1 1 1 0.018194378440745423 1 1 1 0.010539998142551132 1 0.017240075690073662 1 0.011680741468990447 1 1 1 0.010033951363613465 1 1 1 1 1 1 1 1 1 1 1 1 1 1 1 1 1 1 1 1 1 1 0.018513332727896382 1 1 1 1 1 0.010241742782627223 1 0.018524287175398592 1 1 1 0.010584874723139537 1 1 1 1 1 1 1 1 1 1 1 1 1 1 1 1 1 1 1 1 1 1 1 1 1 1 1 1 1 1 1 1 1 1 1 1 1 1 1 1 1 0.011570713012655873 1 1 1 1 1 1 1 1 1 1 1 1 1 1 1 0.012171262442219782 1 1 1 1 1 1 1 1 1 1 1 1 1 1 0.010016695508732762 1 1 0.0099957993462667198 1 1 1 1 1 1 1 1 1 1 1 0.009998270639257208 1 1 1 1 0.010284467474055373 0.010260324446663284 1 0.010330597091235436 0.010307055752597548 0.010385902445140167 1 1 1 1 1 0.0099937433560101478 1 1 0.010181036945857922 0.010064725497967745 1 1 1 1 1 1 1 1 1 0.010212444286578774 1 1 1 1 0.010490601063986173 0.010075259504227866 0.010077926368962768 1 1 0.01003960286257596 1 1 0.010161615220032463 1 0.010034397367511334 0.010086405602028272 1 1 1 1 1 1 1 1 1 1 1 1 1 1 0.0100328126310858 1 1 1 1 0.010003910921344518 1 1 0.01004678344733281 1 0.009983378972660285 0.010000325404920829 1 0.010003016106964916 0.01000001553082765 1 1 1 0.010046084671344262 1 1 1 0.010094740212750685 1 1 1 1 1 1 1 1 0.010001810122455847 1 1 0.010266103806857023 0.010000020947098171 0.010109341179562092 1 1 1 1 0.010015032659078762 1 1 1 1 0.010040332945852977 1 1 1 1 1 1 1 1 1 0.010020896162466049 1 1 1 1 1 0.010088062916859942 0.010045018187563207 1 1 1 1 1 1 1 1 1 1 1 1 1 1 1 1 1 1 1 1 1 1 1 0.01007950297257992 1 0.010003691075615514 1 1 0.010003684927859437 1 1 1 1 1 1 1 1 1 1 0.010236400592705051 1 0.010195567377767502 1 1 1 1 0.010235629024248865 1 1 1 1 1 1 1 1 1 1 1 1 0.010522569192841166 1 1 0.010374156947048753 1 0.010347897741248602 1 0.010006946312090436 0.010212913431854837 1 1 1 1 0.01061216209842906 1 0.010609586985422711 1 0.010222763616422983 0.010640232946258585 1 1 0.010013811797300218 1 1 1 1 0.0099011985537823602 1 0.011273073521062509 1 1 1 1 0.0099839546747507116 1 1 1 1 1 1 1 1 1 1 1 1 1 1 1 0.011200069654506484 0.0099608101221620449 1 1 1 0.011391515118521491 1 0.0096748922299951193 1 1 0.0097265170559313156 1 0.011070308436805398 0.010972172327899236 1 1 1 1 1 1 0.010776810634371525 1 1 1 0.0093479999824936273 1 1 1 0.011943815463274211 1 1 1 1 1 1 1 1 1 1 1 1 1 1 0.0099561236694220324 1 1 1 0.0099690274799780886 1 1 0.011305395071534127 1 1 0.011464658539596811 1 1 1 1 1 1 1 1 0.011025309605436335 0.010734488896065006 1 0.0099139458996092104 1 0.01079495203376403 1 0.010997224599034888 0.0096841489801341701 0.010143393608739015 0.010058667130109665 0.01023184050916183 1 1 1 1 1 0.011857806289053958 1 1 1 1 0.01000436957697296 0.010661484447092973 1 1 0.010561174113265055 1 0.010467811185469028 1 1 0.010434308972995698 0.010815251340626549 1 0.010614340377996861 1 1 1 1 1 1 0.010501194951526745 0.010320344227305782 1 1 1 1 1 1 0.010165680039978572 1 1 1 1 0.01008652394875119 1 0.010967304414640826 1 1 1 1 1 1 1 1 1 1 1 1 0.0097613546910787965 1 0.0098584201657849844 1 0.013800619393336488 1 0.010208830562621982 1 1 0.011700228564108614 1 0.01590422115791288 1 1 1 1 1 1 1 1 1 1 0.017628653332253771 1 1 1 1 1 1 1 1 0.01384850591294132 1 1 1 1 1 0.011951396384933519 1 1 1 1 1 0.012006562268635224 0.010873584713375217 1 1 1 1 0.012355224389007925 0.012467434080882642 1 1 1 1 1 1 1 1 1 1 1 1 0.012292340525157286 1 1 0.01019607295966758 1 1 1 1 0.013196919904632424 0.010129805205208077 0.010395923375140746 1 1 1 0.01347373614663183 0.012913338025959601 1 1 0.010083153999178191 1 1 1 1 1 1 0.010065432356815436 1 0.0098783307995994121 0.012539693200215706 1 1 1 1 0.0099770678840057844 0.012859188971832391 0.0099768614135377423 1 1 0.017690996293164139 1 1 1 0.010010391550868738 1 1 0.010047131558010637 1 1 1 1 1 0.0093064963808922718 0.011044441223783041 1 1 0.014881145462827627 1 1 1 0.012785095550419387 1 1 1 1 1 1 1 1 1 1 1 1 1 1 0.018084725250622338 0.0098927827096896431 1 1 0.008753220896440362 1 0.0097149158618357392 1 1 1 1 0.01753500387261769 1 1 1 1 1 1 0.010211346690582875 1 0.01063088312031917 1 1 1 1 0.010265010330695629 0.010380798495957482 1 0.01174430552329252 1 1 1 0.010750777656695621 0.011154677191947911 1 1 0.012455821773914529 1 1 1 1 1 1 1 0.011057201100335687 1 1 1 0.011268609222507497 1 1 0.012884741851999233 1 1 0.012246878248235194 1 1 1 0.011473715090324797 0.010615355394892959 1 1 0.013476542750142503 1 1 1 1 1 1 1 1 1 1 0.010956867955149894 1 1 1 1 1 1 1 1 1 1 1 1 1 1 0.009590695648855849 1 1 1 1 1 1 1 1 1 1 1 1 1 1 1 1 1 1 1 1 1 0.010602111625744867 1 1 1 1 1 0.010663488028339003 1 1 1 1 1 1 1 1 1 1 1 1 1 1 1 1 1 1 1 1 1 1 1 1 1 1 0.0097080712479200183 1 1 1 1 1 1 1 0.010298238547253024 1 0.010079173194124496 1 1 1 1 1 1 0.0099700093432801354 1 1 0.01164598775203933 1 1 1 1 1 1 1 1 1 1 1 1 1 1 1 1 1 1 1 1 1 1 1 1 1 1 1 1 0.011938370630893527 1 1 0.011479850754336092 1 1 1 1 1 1 1 1 1 1 1 1 1 0.010393748046267319 1 1 1 1 0.0085212072912795398 1 1 1 1 0.011247350161338833 1 1 1 1 1 0.0085395729806490087 1 1 1 1 0.0098650448305498926 1 1 0.0096696311452693119 1 1 1 0.0083874338130849359 1 1 1 1 0.01088553982715309 1 1 1 1 0.012252133340808108 1 1 1 0.010053666512627402 0.01327985695843412 0.0099760503316379673 1 1 0.0079370252812366766 1 1 1 1 0.0095521037634092032 0.015715511735256676 1 0.0099886730331437568 1 1 0.0099872545003354476 1 1 1 0.0099241125370170703 1 1 0.010593439689762235 1 1 0.015424265207822354 0.012046022062981367 1 1 0.012172151659099711 1 1 1 1 1 1 1 1 1 1 1 1 1 1 1 0.011913262564357447 1 1 1 1 1 1 1 1 1 1 1 1 1 1 1 1 1 1 1 0.010388991812739216 1 1 1 0.010580822575267379 1 0.011208591288812887 1 0.010216568800317282 1 1 1 1 0.01166306446576397 1 1 1 1 1 1 1 1 1 1 1 1 0.012413865426527278 1 1 1 1 1 1 1 1 0.010245182241100294 1 1 1 1 1 1 1 1 1 1 1 1 1 1 1 1 1 1 1 1 0.0099892416543851427 1 1 1 1 1 1 1 1 0.012228620633046357 1 1 1 1 1 1 1 1 1 1 1 1 1 0.01099744260683639 1 0.010470135230854331 1 0.011284637770334749 1 1 1 1 1 1 1 1 1 1 0.012755950917697564 1 0.0096897869207842914 1 1 1 1 1 1 1 1 1 0.011008400421756447 1 0.010400783387194641 1 1 0.011056665946257222 1 1 1 1 1 1 0.011018773725792822 1 1 1 0.012837433085577504 0.0091541101122875994 1 1 1 1 1 1 1 1 1 1 1 1 0.0096436014300962485 1 0.0099449076985201751 1 1 1 1 1 1 1 1 1 1 1 1 1 1 0.011029021907750977 1 1 1 1 1 0.010849486678095552 1 1 1 1 1 1 1 1 1 1 1 1 1 1 1 1 1 1 1 1 1 1 1 1 1 1 1 1 1 1 1 1 1 1 1 0.010521040386962815 1 1 0.010947032565934182 1 1 0.01086908444906657 1 1 1 1 1 1 1 1 1 1 1 1 1 1 1 1 1 1 1 1 1 1 1 1 1 1 1 1 1 1 1 1 0.010350092063320573 1 1 1 1 1 1 1 1 1 1 1 1 1 1 0.010039005339351596 1 1 0.012070477759144629 1 1 0.0093585806839333995 1 1 1 1 1 1 0.015944170055254524 0.0090839105054687092 1 1 1 1 1 1 1 1 1 1 1 1 1 1 1 1 1 1 1 1 1 1 1 1 1 1 1 1 1 1 1 1 1 1 1 1 1 1 1 1 1 1 1 1 0.010721707352750708 1 1 1 1 1 0.012673307432016475 0.011002579361057988 1 1 1 1 1 1 1 1 1 1 1 1 1 1 1 1 1 1 1 1 1 1 1 1 0.011731328372300381 1 1 1 1 1 0.010619522773054734 1 1 1 1 1 1 1 0.010279365293588718 1 1 1 1 1 1 1 0.014194241751765785 1 1 1 1 1 1 1 1 1 0.0096243137771518366 1 1 1 1 1 1 1 0.013494438029980037 1 1 0.0086692272870517693 1 1 1 1 1 1 1 1 1 1 1 1 1 1 1 1 0.012570812110382339 1 1 0.013641174638549879 1 1 1 1 1 1 1 1 1 1 1 1 1 1 1 1 1 1 1 1 1 0.010061015735854849 1 1 1 1 1 1 1 0.010038605928239578 1 1 1 1 0.013360894363309455 1 1 1 1 1 1 1 1 1 0.013318572784106046 1 1 1 1 1 0.012979083780180634 1 1 1 0.014337795231955941 1 1 1 0.010155214888354989 1 1 0.014927778974599175 0.014507775200690456 1 1 1 0.012816479359436344 1 0.010469780082384365 1 1 1 1 1 0.011454444296946481 1 1 1 1 1 1 1 1 1 1 1 1 0.01091181546554882 1 0.011485331093618987 1 1 1 1 1 1 0.010033144041682637 1 1 1 1 1 0.0092689012436521293 1 1 1 0.010131495234409451 1 1 1 1 1 1 1 1 0.009830658321732447 1 1 1 1 1 1 0.011854553301505985 1 1 1 1 1 0.010587311791016255 1 1 0.014697886635811239 1 0.011647532628653996 1 1 1 1 1 1 0.010043437472547427 1 1 1 1 0.010043438678206146 1 1 1 1 1 0.010781081448683892 1 1 1 1 1 1 1 1 1 1 1 1 1 1 1 0.014597767020849578 1 1 1 1 0.014405987172082706 0.0099247406965685559 1 1 1 1 1 1 1 1 0.010743035404144598 1 1 1 1 1 1 1 1 1 1 1 1 0.010059817661156233 1 1 0.0099336463951564431 1 1 0.010050498432337778 1 1 1 1 1 1 1 0.010690685685352844 1 0.013903748012830062 0.0093981030290690108 1 1 0.011803615772884243 1 1 1 1 1 1 0.010226408085931326 1 1 0.01052288283181849 1 0.009775457657986578 1 1 1 1 1 1 1 1 1 1 1 1 1 0.010443331437358157 1 1 1 1 1 1 0.011173132881199562 1 1 1 1 1 1 1 1 1 1 1 0.010539912775228331 1 1 0.010364253774950096 1 1 1 0.010542696409760483 1 1 1 1 1 1 1 1 1 0.010575299249692617 1 1 1 1 1 1 1 0.011345188472901098 1 1 1 1 1 1 1 0.011499690667049887 1 1 1 0.011688034531882309 1 1 1 1 0.0097504321957226324 1 1 1 1 1 1 0.010000956586547625 1 1 1 1 1 1 1 1 1 1 1 1 1 1 1 0.0092554704469312125 1 0.012533935394669543 1 1 0.009247409344897671 1 1 1 1 1 1 1 0.011145453043357297 1 1 1 1 1 1 1 1 1 1 1 1 1 1 1 1 1 1 1 1 1 1 1 1 1 1 1 1 1 1 1 1 1 0.010121970124502775 1 1 1 1 1 1 1 1 1 1 1 1 0.010263989753621182 1 1 0.010107225602700606 1 1 1 0.010534789901875419 1 1 1 1 0.010472399399811316 1 1 1 1 1 0.010232823385741495 1 1 1 1 1 1 1 1 1 1 1 1 1 1 1 1 1 1 1 1 0.0093037697103587752 0.010554656758456604 1 1 1 0.01440566750073323 1 1 1 1 0.01309216437071231 1 1 1 0.011452643895183292 1 1 0.013332725534356417 1 1 1 1 1 1 1 0.013174464625123845 1 1 1 1 1 1 1 1 1 1 0.011026897261013016 1 1 1 1 1 1 1 1 1 1 1 1 1 1 1 1 1 1 1 1 1 1 1 1 1 1 1 1 1 1 1 1 0.010152621905049697 1 1 0.010153578491597322 1 1 1 1 1 1 0.012408211204077219 1 1 0.011809737642453747 1 1 1 1 1 1 1 1 1 1 1 1 0.010075254447258352 1 0.01006342668984265 1 1 1 1 1 1 1 1 0.0098683214790771922 1 1 1 0.0098801492364928925 1 1 1 1 1 1 0.010642115815108519 1 1 1 1 1 1 1 1 1 1 1 1 1 1 1 0.010211311039866387 1 1 1 1 1 1 1 1 1 1 1 1 1 1 1 1 1 1 1 1 1 1 1 1 1 1 1 1 1 1 1 1 1 1 1 1 1 0.010017277832569092 1 1 1 0.010203665205823081 1 1 1 1 1 1 0.010692240174368168 1 1 1 0.010120458028064185 1 1 1 0.011150387303842354 1 0.010242506823451125 0.011021858927256387 1 1 1 1 1 1 1 1 1 1 1 1 1 0.013900210290625614 1 1 1 1 0.010032226030605456 1 1 1 1 0.010487297987446674 0.010083306451964041 1 0.008695486293256123 1 0.010715973495820746 1 1 1 1 1 1 0.0099846642184616037 1 1 1 0.0080233215414010212 1 1 0.0097377751529764793 1 1 0.010128903982228646 1 1 0.012694459738685741 1 1 0.010971459614345751 1 1 0.010268306755436416 1 1 0.013140423143111368 1 1 0.010464430934901682 1 1 0.010004025354783432 0.01126572662280222 1 1 1 1 1 1 1 1 1 1 1 1 1 1 1 1 1 1 1 1 1 1 1 1 1 0.0085787969455369904 1 1 1 1 1 1 0.0096577323408347585 1 1 1 1 0.010552292549892973 1 1 0.013266011081604294 1 0.012507550809920004 1 1 0.011767515096706213 1 1 1 0.012227441744353338 1 1 1 1 1 1 1 1 1 1 1 0.0095512268015371243 1 1 1 1 1 1 1 0.011416778688862449 1 1 1 1 1 1 0.012515754038837321 1 1 1 1 1 1 1 1 0.0099157573113024984 1 1 1 0.0099335805493004602 1 1 1 1 1 1 1 1 1 1 1 1 1 1 1 0.010680278310825736 0.010835493984513963 1 1 1 1 1 1 1 1 1 1 1 1 1 1 1 1 1 1 1 1 1 1 1 1 1 1 1 1 1 1 0.010377138607635492 1 1 1 1 1 1 1 1 0.010331521533418065 1 1 1 1 1 1 0.012463670549706523 1 1 1 1 1 0.010969531810718618 1 0.012395561788033603 1 1 1 1 1 0.012081764280354164 1 1 1 1 1 1 1 1 1 1 0.011294382985950719 1 1 1 1 1 1 1 1 1 0.013172037532970887 1 1 1 1 1 1 1 1 1 1 1 0.011215034245725643 1 1 1 1 1 1 1 1 1 1 1 1 1 0.011390283233121161 1 1 1 0.011693333251031043 1 1 1 0.011638153739075559 1 1 1 0.010394708463371134 1 1 0.01008549871405799 1 1 1 1 1 1 1 1 1 1 1 1 1 1 1 1 1 1 1 1 1 0.0094992814262949039 1 1 1 1 1 0.0099727847726736978 1 1 1 1 1 0.010583851813877517 1 1 1 1 1 1 1 1 1 1 1 1 1 1 1 1 1 0.011243168104161469 1 1 1 1 1 1 1 1 1 1 1 1 1 1 1 1 1 1 1 1 1 1 0.010439706790460213 1 1 1 1 1 1 1 1 1 1 1 1 1 1 1 1 1 1 1 1 1 1 1 1 1 1 1 1 1 1 1 1 0.0112014990952781 1 1 1 1 1 0.0099959188073023217 0.010209660300906 1 1 0.010444543993851967 1 1 1 1 1 1 1 1 1 1 1 1 1 1 1 1 1 1 1 1 1 1 1 1 1 1 1 1 1 1 0.010848998823330036 1 1 1 0.010153696799282888 0.0096969806476821033 1 0.010584941925758496 1 1 0.011754513230396281 1 1 0.011874711586816643 1 1 0.010067377147840983 1 1 1 0.010691930292924345 1 0.010535638535333888 0.011000986852983717 1 0.011671401037761424 1 0.009313516658746147 1 1 1 1 0.014553515927906036 1 1 1 1 1 0.010720040313184786 1 1 1 1 1 1 1 0.0099861457035015401 1 1 1 0.010098272587780724 1 1 1 1 1 0.0095943550140265097 1 0.014280899501705611 1 1 1 1 1 1 1 0.010521826195982052 0.010340430981208321 1 1 1 1 1 1 0.010015867807869316 1 1 1 1 1 0.010177412326587445 1 1 0.010170663976944808 1 1 0.012854546233555333 1 1 1 1 1 1 1 1 1 1 1 1 0.010812219088607126 1 1 1 1 1 1 1 1 1 1 1 1 0.010283013317804186 1 1 0.013431333662335962 1 1 1 0.010931024733701463 1 1 1 1 1 1 1 1 1 1 1 1 1 0.011347208219333053 1 0.011411348413052786 1 1 1 1 1 0.0099326122177194973 1 1 1 1 1 1 1 1 1 1 1 1 1 1 1 1 1 1 0.010985528131060098 1 0.009922014984384938 1 1 0.0099503796227938951 0.010158305957809765 1 1 1 1 1 1 1 0.010824625023184081 1 1 1 1 1 0.0099999953149338041 1 0.010665974077873447 1 1 1 0.010197112260848575 1 0.0104146843981622 1 1 1 1 1 0.010122001508256907 1 1 1 1 1 1 1 1 1 1 1 1 1 1 1 0.010291545933522673 1 1 1 1 1 1 1 1 1 1 1 1 0.022690527109164423 1 1 1 1 1 1 1 1 0.022623544649606309 1 1 1 1 1 0.0076206475293537669 0.011895717731398433 1 1 0.0093591420425769376 1 0.009981766698359075 1 0.010058500979016878 1 1 1 1 1 1 1 1 1 1 1 1 1 1 1 1 1 1 1 1 0.010050688092535379 1 0.0099356117064746258 1 1 1 1 0.010016365001099087 1 1 1 1 1 1 1 1 1 0.011370066933374296 1 1 0.011597409520084992 1 0.014400936779230251 1 1 1 0.0093456794059506368 0.0098116038856547114 1 0.010032144346351406 1 1 1 1 1 1 1 1 0.011313435469376819 0.013230934549480058 0.0097424285314606941 1 1 1 1 1 1 0.0099699502916288235 1 1 1 1 1 1 1 1 1 1 0.010228805165598534 1 1 1 0.0099918325188351892 1 1 1 1 1 1 1 1 1 1 0.010382229037446358 1 1 1 0.010001007613968119 0.010182708937638715 1 1 1 0.010961044864650478 1 0.010007036049185651 0.010838058841708562 1 1 0.010269699291108138 1 1 1 0.010685695314756679 1 0.01004286362814401 1 1 1 1 1 1 1 1 1 0.010394034419605784 0.010010934882639435 1 1 1 0.010349346705196241 1 1 1 1 1 1 1 0.010304668908157648 1 1 1 1 1 1 1 0.010115878723876022 1 1 1 1 1 1 1 1 0.010772072212496743 1 1 1 1 1 1 1 1 0.010631206954895627 1 1 1 0.010228359401367407 1 1 1 1 1 0.011532462224273799 1 1 1 1 1 1 1 1 1 1 1 0.0099630784134481665 1 1 0.012581275596694712 1 1 1 0.012309221452004524 1 1 1 1 1 1 1 1 1 0.010133368752680087 1 1 1 1 0.010065763027334952 1 1 1 1 1 1 1 1 0.010312155702943936 1 1 1 1 1 1 1 1 1 1 0.010129274299437694 1 1 1 1 1 1 1 0.010068025268779139 1 1 1 1 1 0.011050225817200533 1 1 1 1 1 0.012861372820081887 1 1 1 1 1 1 1 1 1 1 1 1 1 1 0.011307241612160802 1 1 1 1 1 1 1 1 1 1 1 0.01036859813568955 1 0.010595943332628876 1 1 1 1 1 1 1 1 1 1 1 1 1 1 0.011176857700624159 0.0099821669714837951 1 1 0.0099844147211479196 1 1 1 0.011887894003441075 1 1 1 1 1 0.010065546293062128 0.0099916248446019606 1 1 0.010086417755414212 1 1 1 1 1 1 0.010199726308741615 1 0.010552108893760324 1 1 1 1 1 1 1 1 1 1 1 1 1 0.010018580260385299 1 1 1 0.010583378233000304 0.010359348317495775 1 1 1 1 1 1 1 1 1 1 0.016298409132715186 1 0.010113925117770409 1 1 1 1 1 0.010042491417761737 1 1 0.010011653789013815 1 1 1 1 0.0097535227486539779 1 1 0.012496787209328964 1 0.015673863853937011 1 0.01250982266197298 1 1 0.009761225881778253 1 0.013235128635320344 0.01047182518282128 1 0.010998934831246265 1 1 1 0.010001601465685 0.0099987174225552068 1 1 0.011451322165125705 1 1 1 0.0110877346378596 0.010072922208676787 0.011896027806458888 1 1 1 1 1 1 0.013339024252697791 1 1 1 0.010463877810905955 0.018862340287163416 1 1 1 0.020938417290309895 1 1 0.013616601038390928 1 1 1 1 0.022111562527797314 1 0.012129517371505607 1 1 1 1 1 0.010573773147645743 1 1 1 1 1 1 1 1 1 1 1 1 1 1 1 1 1 1 1 1 1 1 0.011711154913463116 1 1 1 1 1 0.012433555127811646 0.012839441228839042 1 0.011457892860538126 1 1 1 1 1 0.010407799727587251 1 1 1 1 1 0.013717382364256707 1 1 1 0.014266692637523032 1 0.010481857608321557 1 1 1 1 1 0.0095147971360928906 1 0.010116025521827591 1 1 1 1 1 1 1 1 1 0.012741752199481614 1 1 1 0.0091024769087872815 1 1 1 0.013035159958698252 1 1 1 1 1 1 0.010307247635373135 1 1 0.01210704094688279 1 1 1 1 1 1 1 0.01144748880725654 1 1 1 1 1 1 1 1 1 1 1 1 1 1 1 1 1 0.016398017515935781 1 1 1 1 1 1 0.0099384875300021751 1 1 1 0.010582022986252578 0.010254808191044568 1 1 1 1 1 1 1 1 1 1 1 1 0.010713761502021744 0.01074494646847334 1 1 1 1 0.010940897769448503 1 0.010572508351606809 1 1 1 1 1 1 1 1 1 1 1 1 1 1 1 1 1 1 1 1 1 1 1 1 1 1 1 1 1 1 1 1 1 1 1 1 1 1 1 1 1 1 1 1 0.011094209510172532 1 1 1 1 1 0.011252527003067064 1 1 1 1 1 1 1 0.012738185378083506 1 0.010134627555786885 1 1 1 1 1 1 1 0.011122726132212392 1 1 1 1 1 1 0.010060597910195122 1 1 1 1 1 1 1 1 1 1 1 1 1 1 0.010469917661120865 1 1 1 1 1 1 1 1 1 1 0.010407908780569476 1 1 1 1 1 1 1 1 1 1 1 1 1 1 1 1 1 1 1 1 1 1 1 1 1 1 1 1 1 1 1 1 0.010740491250444488 1 1 0.010080564030727416 1 0.010332582469875021 1 1 0.01083958591796118 1 1 0.0097692653976435215 1 1 0.012392599664657226 1 1 1 1 1 1 1 0.010740242346419775 0.0099108709059741451 1 1 1 0.010619988050672964 1 1 1 1 1 1 1 1 1 1 1 1 1 1 1 1 1 1 1 1 1 1 1 1 1 1 1 1 1 0.0099774619396972714 1 1 1 1 1 1 1 1 1 1 1 1 1 1 1 1 1 0.010361818407160925 1 1 1 1 1 1 0.010140498277046734 1 1 1 1 1 1 0.010079146291267009 1 1 1 1 1 1 1 1 1 0.017413747149652655 0.016920079430874119 1 1 1 1 1 1 1 1 1 0.017817360982798951 1 1 1 1 1 1 1 1 1 1 1 1 1 1 0.010284567753246848 1 1 1 1 1 1 1 1 0.0097922180375421674 1 1 1 1 1 0.010504803273453668 1 1 1 0.0088777197656307594 1 1 1 1 0.010813538142741963 0.011054913621135854 1 1 1 1 1 1 1 0.013404166657095651 1 1 1 1 0.012435510810677553 1 0.014615437935807194 1 1 1 0.0074661746982835559 1 1 0.0181802313444452 1 1 1 1 1 1 1 1 1 1 1 1 1 1 0.010016668628767822 1 0.0099724785199315318 1 1 0.011932424411451524 1 1 1 0.012564387566597028 1 1 1 1 1 1 1 1 1 1 1 1 1 1 1 1 1 1 1 1 1 1 1 1 1 1 1 1 1 1 0.010061439452728131 1 1 1 1 1 1 1 1 1 1 1 1 1 1 1 1 0.010023166838162519 1 1 1 1 1 0.010001521407110857 1 1 1 1 1 1 0.014455577913164461 1 1 1 1 1 1 1 0.01229557545080988 1 0.01390768063371027 0.011235919223897078 1 1 1 1 0.010084837093142854 1 0.014049883980573923 1 0.01396031919147999 0.010041980280404809 1 0.0095483913505376508 1 0.01272186565133022 0.0094652246903979918 1 0.011284388452527704 0.010414782802852055 0.010027743165844019 1 1 1 1 0.011694301358238528 1 0.011645801697480888 0.011179100433614014 1 1 0.011294059328975642 1 1 1 0.010173431764118838 1 1 0.010033302495209274 1 1 0.010055836998219794 1 1 0.012955656883813504 1 0.011009435791074777 1 1 0.01495765157528515 1 1 1 1 1 1 1 1 1 1 0.016102788532327977 1 0.0087479122659879765 0.010065128148711714 1 1 1 1 0.010043140457500275 0.0092159090887125889 1 1 1 1 0.010015415519305737 1 1 0.0099445369035001153 0.011259629204159205 1 1 1 1 1 1 1 1 1 1 1 1 1 0.013878172419135922 1 1 1 1 1 1 0.013164287066556637 0.011651163350471476 0.010083596588610395 0.0099777004246735593 1 1 1 1 1 1 1 1 1 0.0099673076598663663 1 1 1 1 1 1 1 1 1 1 1 1 1 1 1 1 1 1 1 1 0.010018879431817864 1 1 1 0.0104633177609428 1 1 1 1 1 0.0099523026964831608 1 0.01020029525276062 1 1 1 1 0.010032866066951387 0.011380321799902587 1 1 1 1 1 1 1 1 1 1 1 1 1 1 1 1 1 0.010499007764368802 1 1 1 1 1 1 1 1 1 1 1 1 1 0.011140074118809417 1 1 0.012507846234863796 0.0098764488183577855 1 1 1 1 1 0.010241564111414117 1 1 1 1 1 1 1 1 0.011362790152869735 1 1 0.011373798506389678 1 1 1 1 1 1 1 1 1 1 1 1 1 1 1 1 1 1 1 1 1 1 1 1 1 1 0.010706582026767277 1 1 1 1 1 1 0.0095676467219864021 1 1 1 1 1 1 1 1 1 1 1 1 1 1 1 1 1 1 1 1 1 1 1 0.0099969476581839925 1 1 1 1 1 1 1 1 1 1 1 1 1 1 1 1 1 1 1 1 1 1 1 1 1 1 1 1 1 1 1 1 1 1 1 1 1 1 1 1 1 1 1 1 1 1 1 1 1 1 1 1 1 1 1 1 1 1 1 1 1 1 1 1 1 0.00997806822636612 1 1 1 1 1 1 1 1 1 1 1 1 1 1 1 0.0093246177861720965 1 1 0.014411884067293119 0.010008436964300742 1 1 1 1 1 1 1 1 0.016759992887085989 1 1 0.0096135826085351483 1 1 1 0.0094923919826057877 1 1 1 1 1 1 1 1 1 0.014892845693062751 1 1 1 0.01206245847529421 1 1 1 0.0099889961465618928 1 1 1 1 1 1 1 1 1 0.009582550294681802 1 1 0.010141714069591107 0.0095711003767696475 0.010888724623837638 1 1 1 1 0.010017121813977792 1 1 1 1 0.0099980775496549528 1 1 1 1 0.009734617280126711 1 1 1 1 1 1 1 1 1 1 1 1 1 1 1 1 1 1 1 1 1 1 1 1 1 1 1 1 1 1 1 1 1 1 1 1 1 1 1 1 1 1 1 1 1 1 1 1 1 1 1 1 1 1 1 1 1 1 1 0.009967403902315132 0.010045526477783518 1 1 1 1 1 1 1 1 1 1 1 1 1 1 1 1 1 1 1 1 0.0098727873341785399 1 1 1 1 1 0.010133328397254589 1 1 1 1 1 1 1 1 1 1 1 1 1 1 1 1 1 1 1 1 1 0.010751604231943643 1 1 1 1 1 0.010290062591840772 1 1 1 1 0.010025504948804756 1 1 1 1 1 1 1 1 1 1 1 1 1 1 1 1 1 1 1 1 1 1 1 1 1 0.010026514547064361 1 1 1 1 0.011056637539240051 1 1 1 1 1 1 1 1 1 1 1 1 1 1 1 1 1 1 1 1 1 1 1 1 1 1 1 1 1 1 1 1 1 1 1 1 1 1 1 1 1 1 1 1 1 1 1 1 1 1 1 1 1 1 1 1 1 1 1 1 1 1 1 1 1 1 1 1 1 1 1 1 1 1 1 0.010694710318631435 1 1 1 1 1 1 1 1 1 1 1 1 1 1 1 1 1 1 1 1 1 1 1 1 1 1 0.011305852756029914 1 1 1 1 1 1 1 1 1 1 1 1 1 1 1 1 1 1 1 1 1 1 1 1 1 1 1 1 0.010000551040198351 1 1 1 1 1 1 1 1 1 1 1 1 1 1 1 1 1 1 1 1 1 1 1 1 0.011080849056807014 1 1 1 1 1 1 1 1 1 1 0.010621273511492123 0.010230169252102836 1 1 1 1 1 1 1 0.011380066676791476 1 1 1 1 1 1 1 1 1 1 1 1 1 1 1 1 0.010591162102445165 1 1 1 1 1 1 1 1 1 1 0.011181474076426966 1 1 1 1 0.0099791624751255446 1 1 1 1 1 1 1 1 1 0.0097607322530129104 1 1 1 1 1 1 0.010750854457745648 0.010243715239979419 1 1 1 1 1 1 1 1 1 1 0.011503513991464157 1 1 1 1 0.010158502345166043 1 1 1 0.010532236846714308 1 1 1 1 1 1 1 1 0.010964896603993433 1 1 1 0.013306795516683758 1 1 1 1 1 1 1 1 1 1 1 1 0.0099884348691865136 1 1 1 1 1 0.0099135633579146443 1 1 1 0.014985010117202092 1 1 1 1 1 0.013685771580912586 1 1 0.010005240861241545 0.016349841627181349 1 0.0097880105025755799 1 1 1 1 1 1 1 1 1 1 1 1 1 1 1 1 0.010292409583719304 1 1 1 1 1 1 1 1 1 1 1 1 1 1 1 1 1 1 1 1 1 1 1 1 1 1 1 1 1 1 1 1 1 1 1 1 1 1 0.014661903873185967 1 1 1 1 1 1 0.015568295114598472 1 0.010007923717085329 1 1 1 1 0.015383621432226867 1 1 1 1 1 1 1 1 1 1 1 1 1 1 1 0.013223887665725048 1 1 1 1 1 1 1 0.013095730928491981 1 1 1 1 1 1 1 1 1 1 1 1 1 1 1 1 1 1 1 1 1 1 1 1 1 1 1 1 1 1 1 1 1 1 1 1 1 1 1 1 1 1 1 1 1 1 1 1 1 1 1 1 1 1 1 1 1 1 1 1 1 1 1 1 1 1 1 1 1 1 1 1 1 1 1 1 1 1 1 1 1 1 1 1 1 1 1 1 1 1 1 1 0.016134572288918084 1 1 1 1 1 1 1 1 1 1 1 1 1 1 1 1 1 1 1 1 1 1 1 1 1 1 1 1 1 1 1 0.0097652289332345495 1 1 0.0099217486173795895 1 0.016875365936805116 1 1 1 0.010299349261219634 1 1 1 1 1 0.010081924723668239 1 1 1 0.010775306860368787 1 0.0094437125586446444 0.0087386278426002627 0.010048226248195163 1 1 1 1 0.0099969816672226368 1 1 1 1 1 1 1 1 1 1 1 1 0.011625143810357808 1 0.010763647310970225 1 1 1 1 1 1 0.012680007269456737 1 1 0.011031753225946352 1 1 0.0099779681575389457 1 1 1 0.011211703652093629 1 1 1 1 1 1 1 0.010525696624726697 1 1 1 1 0.010644519324253018 1 0.010630257425113875 1 0.0098608841424095844 1 1 1 1 0.0095020207381410534 1 1 1 1 1 0.010085237777961638 1 0.010060546366377857 1 0.013621129376835461 1 1 0.011088774348246264 0.0099932513577069074 1 1 1 1 1 1 0.011675134220870728 1 1 1 1 1 1 1 1 1 0.012156528361739373 1 1 0.010058523480500783 1 1 1 1 1 1 1 1 0.010660366821481701 1 1 1 0.01040703498844461 1 1 0.010904011019653225 1 1 0.011013646949119882 1 1 0.011153563898600862 0.010034225606839947 0.0099984749821259346 1 1 1 1 0.0100862567222351 1 1 1 1 1 1 1 0.010301251496586191 0.010531569898697123 0.010785046893203353 0.010134783982499366 0.010938434055177108 1 1 1 1 1 1 1 1 1 1 1 1 1 1 0.010108500259568866 1 1 0.010539921927033133 1 1 1 1 1 1 1 1 1 1 1 0.010340880877061283 1 1 1 1 1 1 1 1 1 1 0.010011815173089349 1 1 1 1 1 1 1 1 1 1 0.010034353233392079 1 1 1 1 1 1 1 1 1 1 1 1 1 1 1 1 1 1 1 1 1 1 1 1 1 1 1 1 1 1 1 1 1 1 1 1 1 1 1 1 1 1 1 1 1 0.010494590345068191 1 1 0.010069007780104187 1 1 1 1 1 1 0.010551592570833712 1 0.010021747784322205 1 1 1 1 1 0.011129985694781243 0.010037204121216062 1 1 1 1 0.010632871330682239 1 1 1 1 1 1 1 1 1 
</DataArray>
</CellData>
</Piece>
</UnstructuredGrid>
</VTKFile>
